# vtk DataFile Version 2.0
               (MEGA VTK FILE)
ASCII
DATASET UNSTRUCTURED_GRID
POINTS       1950    double
  0.10378E-02  0.67292E-03 -0.20190E-01
  0.17452E-02  0.12308E-02 -0.20175E-01
  0.23177E-02  0.59151E-03 -0.20172E-01
  0.16698E-02 -0.33775E-03 -0.20200E-01
  0.10379E-02  0.67237E-03 -0.11750E-01
  0.17453E-02  0.12301E-02 -0.11750E-01
  0.23178E-02  0.59098E-03 -0.11750E-01
  0.16700E-02 -0.33851E-03 -0.11750E-01
  0.30377E-02  0.14882E-03 -0.20144E-01
  0.27791E-02 -0.67643E-03 -0.20178E-01
  0.30377E-02  0.14846E-03 -0.11750E-01
  0.27788E-02 -0.67692E-03 -0.11750E-01
  0.12850E-02  0.18412E-02 -0.20158E-01
  0.65139E-03  0.14576E-02 -0.20180E-01
  0.12851E-02  0.18410E-02 -0.11750E-01
  0.65164E-03  0.14566E-02 -0.11750E-01
  0.12757E-03  0.29933E-03 -0.20191E-01
 -0.12822E-03  0.11672E-02 -0.20195E-01
  0.12783E-03  0.29819E-03 -0.11750E-01
 -0.12804E-03  0.11655E-02 -0.11750E-01
  0.94500E-03  0.22748E-02 -0.20147E-01
  0.11327E-02  0.28286E-02 -0.20134E-01
  0.17490E-02  0.24238E-02 -0.20140E-01
  0.94533E-03  0.22746E-02 -0.11750E-01
  0.11330E-02  0.28291E-02 -0.11750E-01
  0.17494E-02  0.24236E-02 -0.11750E-01
  0.40588E-03  0.21685E-02 -0.20173E-01
  0.39779E-03  0.29366E-02 -0.20165E-01
  0.40594E-03  0.21684E-02 -0.11750E-01
  0.39781E-03  0.29369E-02 -0.11750E-01
 -0.76303E-03 -0.10033E-02 -0.20203E-01
 -0.86604E-03  0.78969E-04 -0.20210E-01
  0.46119E-03 -0.70318E-03 -0.20198E-01
 -0.76268E-03 -0.10032E-02 -0.11750E-01
 -0.86593E-03  0.78160E-04 -0.11750E-01
  0.46164E-03 -0.70391E-03 -0.11750E-01
 -0.18300E-02 -0.71196E-03 -0.20173E-01
 -0.18440E-02  0.82749E-04 -0.20203E-01
 -0.18297E-02 -0.71210E-03 -0.11750E-01
 -0.18441E-02  0.82626E-04 -0.11750E-01
 -0.27238E-02 -0.77865E-03 -0.20164E-01
 -0.28028E-02  0.40713E-04 -0.20190E-01
 -0.27238E-02 -0.77882E-03 -0.11750E-01
 -0.28031E-02  0.40439E-04 -0.11750E-01
 -0.25365E-02 -0.15195E-02 -0.20140E-01
 -0.19287E-02 -0.13230E-02 -0.20152E-01
 -0.25363E-02 -0.15195E-02 -0.11750E-01
 -0.19283E-02 -0.13231E-02 -0.11750E-01
 -0.99363E-03  0.98847E-03 -0.20212E-01
 -0.99377E-03  0.98712E-03 -0.11750E-01
 -0.14380E-02 -0.17325E-02 -0.20169E-01
 -0.14377E-02 -0.17325E-02 -0.11750E-01
 -0.31574E-03  0.20220E-02 -0.20201E-01
 -0.31594E-03  0.20217E-02 -0.11750E-01
 -0.11068E-02  0.18615E-02 -0.20210E-01
 -0.11071E-02  0.18616E-02 -0.11750E-01
 -0.18845E-02  0.17175E-02 -0.20185E-01
 -0.18713E-02  0.90940E-03 -0.20205E-01
 -0.18846E-02  0.17175E-02 -0.11750E-01
 -0.18714E-02  0.90916E-03 -0.11750E-01
 -0.15871E-03 -0.19800E-02 -0.20196E-01
 -0.94089E-03 -0.23489E-02 -0.20169E-01
 -0.15844E-03 -0.19800E-02 -0.11750E-01
 -0.94029E-03 -0.23489E-02 -0.11750E-01
  0.78856E-03 -0.17074E-02 -0.20194E-01
  0.78922E-03 -0.17074E-02 -0.11750E-01
  0.17211E-02 -0.14894E-02 -0.20183E-01
  0.17211E-02 -0.14892E-02 -0.11750E-01
  0.32050E-02  0.76036E-03 -0.20102E-01
  0.28046E-02  0.12477E-02 -0.20135E-01
  0.32047E-02  0.75936E-03 -0.11750E-01
  0.28047E-02  0.12473E-02 -0.11750E-01
  0.23059E-02  0.18665E-02 -0.20147E-01
  0.23060E-02  0.18664E-02 -0.11750E-01
 -0.40614E-03  0.29038E-02 -0.20182E-01
 -0.40627E-03  0.29049E-02 -0.11750E-01
 -0.12092E-02  0.27207E-02 -0.20179E-01
 -0.12092E-02  0.27212E-02 -0.11750E-01
 -0.19448E-02  0.24642E-02 -0.20148E-01
 -0.19448E-02  0.24645E-02 -0.11750E-01
 -0.25029E-02  0.22359E-02 -0.20113E-01
 -0.26371E-02  0.16503E-02 -0.20157E-01
 -0.25029E-02  0.22359E-02 -0.11750E-01
 -0.26372E-02  0.16503E-02 -0.11750E-01
 -0.27671E-02  0.87493E-03 -0.20193E-01
 -0.27674E-02  0.87466E-03 -0.11750E-01
 -0.21123E-02 -0.21373E-02 -0.20143E-01
 -0.21122E-02 -0.21373E-02 -0.11750E-01
 -0.16087E-02 -0.26931E-02 -0.20131E-01
 -0.16087E-02 -0.26931E-02 -0.11750E-01
 -0.11939E-02 -0.31291E-02 -0.20099E-01
 -0.58641E-03 -0.30382E-02 -0.20142E-01
 -0.11937E-02 -0.31291E-02 -0.11750E-01
 -0.58606E-03 -0.30382E-02 -0.11750E-01
  0.20912E-03 -0.28748E-02 -0.20172E-01
  0.20952E-03 -0.28748E-02 -0.11750E-01
  0.10586E-02 -0.26423E-02 -0.20167E-01
  0.10589E-02 -0.26420E-02 -0.11750E-01
  0.18413E-02 -0.23707E-02 -0.20144E-01
  0.18413E-02 -0.23705E-02 -0.11750E-01
  0.24544E-02 -0.21445E-02 -0.20110E-01
  0.26022E-02 -0.15105E-02 -0.20150E-01
  0.24543E-02 -0.21439E-02 -0.11750E-01
  0.26021E-02 -0.15106E-02 -0.11750E-01
  0.37964E-02  0.93572E-03 -0.20013E-01
  0.39100E-02  0.00000E+00 -0.20028E-01
  0.37964E-02  0.93572E-03 -0.11750E-01
  0.39100E-02  0.00000E+00 -0.11750E-01
  0.34621E-02  0.18171E-02 -0.20026E-01
  0.34621E-02  0.18171E-02 -0.11750E-01
  0.29267E-02  0.25928E-02 -0.20015E-01
  0.29267E-02  0.25928E-02 -0.11750E-01
  0.22211E-02  0.32179E-02 -0.20016E-01
  0.22211E-02  0.32179E-02 -0.11750E-01
  0.13865E-02  0.36559E-02 -0.20015E-01
  0.13865E-02  0.36559E-02 -0.11750E-01
  0.47130E-03  0.38815E-02 -0.20024E-01
  0.47130E-03  0.38815E-02 -0.11750E-01
 -0.47130E-03  0.38815E-02 -0.20027E-01
 -0.47130E-03  0.38815E-02 -0.11750E-01
 -0.13865E-02  0.36559E-02 -0.20025E-01
 -0.13865E-02  0.36559E-02 -0.11750E-01
 -0.22211E-02  0.32179E-02 -0.20023E-01
 -0.22211E-02  0.32179E-02 -0.11750E-01
 -0.29267E-02  0.25928E-02 -0.20010E-01
 -0.29267E-02  0.25928E-02 -0.11750E-01
 -0.34621E-02  0.18171E-02 -0.20027E-01
 -0.34621E-02  0.18171E-02 -0.11750E-01
 -0.37964E-02  0.93572E-03 -0.20033E-01
 -0.37964E-02  0.93572E-03 -0.11750E-01
 -0.39100E-02  0.22152E-17 -0.20032E-01
 -0.39100E-02 -0.47884E-18 -0.11750E-01
 -0.37964E-02 -0.93572E-03 -0.20025E-01
 -0.37964E-02 -0.93572E-03 -0.11750E-01
 -0.34621E-02 -0.18171E-02 -0.20018E-01
 -0.34621E-02 -0.18171E-02 -0.11750E-01
 -0.29267E-02 -0.25928E-02 -0.20014E-01
 -0.29267E-02 -0.25928E-02 -0.11750E-01
 -0.22211E-02 -0.32179E-02 -0.20025E-01
 -0.22211E-02 -0.32179E-02 -0.11750E-01
 -0.13865E-02 -0.36559E-02 -0.20015E-01
 -0.13865E-02 -0.36559E-02 -0.11750E-01
 -0.47130E-03 -0.38815E-02 -0.20030E-01
 -0.47130E-03 -0.38815E-02 -0.11750E-01
  0.47130E-03 -0.38815E-02 -0.20025E-01
  0.47130E-03 -0.38815E-02 -0.11750E-01
  0.13865E-02 -0.36559E-02 -0.20020E-01
  0.13865E-02 -0.36559E-02 -0.11750E-01
  0.22211E-02 -0.32179E-02 -0.20029E-01
  0.22211E-02 -0.32179E-02 -0.11750E-01
  0.29267E-02 -0.25928E-02 -0.20016E-01
  0.29267E-02 -0.25928E-02 -0.11750E-01
  0.34621E-02 -0.18171E-02 -0.20029E-01
  0.34621E-02 -0.18171E-02 -0.11750E-01
  0.37964E-02 -0.93572E-03 -0.20029E-01
  0.37964E-02 -0.93572E-03 -0.11750E-01
  0.10376E-02  0.67348E-03 -0.23067E-01
  0.17450E-02  0.12314E-02 -0.23065E-01
  0.23175E-02  0.59203E-03 -0.23064E-01
  0.16696E-02 -0.33700E-03 -0.23068E-01
  0.30377E-02  0.14918E-03 -0.23060E-01
  0.27795E-02 -0.67594E-03 -0.23065E-01
  0.12849E-02  0.18414E-02 -0.23062E-01
  0.65115E-03  0.14586E-02 -0.23065E-01
  0.12731E-03  0.30048E-03 -0.23068E-01
 -0.12841E-03  0.11690E-02 -0.23068E-01
  0.94467E-03  0.22749E-02 -0.23061E-01
  0.11323E-02  0.28282E-02 -0.23059E-01
  0.17487E-02  0.24239E-02 -0.23059E-01
  0.40583E-03  0.21685E-02 -0.23064E-01
  0.39777E-03  0.29364E-02 -0.23063E-01
 -0.76338E-03 -0.10035E-02 -0.23069E-01
 -0.86615E-03  0.79778E-04 -0.23071E-01
  0.46074E-03 -0.70245E-03 -0.23069E-01
 -0.18303E-02 -0.71182E-03 -0.23065E-01
 -0.18439E-02  0.82873E-04 -0.23069E-01
 -0.27238E-02 -0.77848E-03 -0.23063E-01
 -0.28025E-02  0.40986E-04 -0.23068E-01
 -0.25366E-02 -0.15194E-02 -0.23060E-01
 -0.19292E-02 -0.13228E-02 -0.23062E-01
 -0.99349E-03  0.98983E-03 -0.23071E-01
 -0.14384E-02 -0.17324E-02 -0.23064E-01
 -0.31554E-03  0.20223E-02 -0.23069E-01
 -0.11064E-02  0.18614E-02 -0.23070E-01
 -0.18845E-02  0.17175E-02 -0.23066E-01
 -0.18712E-02  0.90964E-03 -0.23069E-01
 -0.15899E-03 -0.19800E-02 -0.23068E-01
 -0.94149E-03 -0.23489E-02 -0.23064E-01
  0.78790E-03 -0.17074E-02 -0.23068E-01
  0.17210E-02 -0.14896E-02 -0.23066E-01
  0.32053E-02  0.76137E-03 -0.23054E-01
  0.28046E-02  0.12481E-02 -0.23059E-01
  0.23058E-02  0.18665E-02 -0.23060E-01
 -0.40600E-03  0.29027E-02 -0.23066E-01
 -0.12092E-02  0.27202E-02 -0.23066E-01
 -0.19447E-02  0.24640E-02 -0.23061E-01
 -0.25028E-02  0.22359E-02 -0.23056E-01
 -0.26370E-02  0.16503E-02 -0.23062E-01
 -0.27668E-02  0.87519E-03 -0.23068E-01
 -0.21125E-02 -0.21373E-02 -0.23060E-01
 -0.16088E-02 -0.26932E-02 -0.23058E-01
 -0.11940E-02 -0.31291E-02 -0.23054E-01
 -0.58676E-03 -0.30382E-02 -0.23060E-01
  0.20871E-03 -0.28748E-02 -0.23064E-01
  0.10583E-02 -0.26426E-02 -0.23064E-01
  0.18413E-02 -0.23709E-02 -0.23060E-01
  0.24545E-02 -0.21450E-02 -0.23056E-01
  0.26022E-02 -0.15104E-02 -0.23061E-01
  0.37964E-02  0.93572E-03 -0.23045E-01
  0.39100E-02  0.00000E+00 -0.23047E-01
  0.34621E-02  0.18171E-02 -0.23047E-01
  0.29267E-02  0.25928E-02 -0.23046E-01
  0.22211E-02  0.32179E-02 -0.23046E-01
  0.13865E-02  0.36559E-02 -0.23046E-01
  0.47130E-03  0.38815E-02 -0.23047E-01
 -0.47130E-03  0.38815E-02 -0.23048E-01
 -0.13865E-02  0.36559E-02 -0.23047E-01
 -0.22211E-02  0.32179E-02 -0.23046E-01
 -0.29267E-02  0.25928E-02 -0.23044E-01
 -0.34621E-02  0.18171E-02 -0.23047E-01
 -0.37964E-02  0.93572E-03 -0.23048E-01
 -0.39100E-02 -0.47884E-18 -0.23048E-01
 -0.37964E-02 -0.93572E-03 -0.23047E-01
 -0.34621E-02 -0.18171E-02 -0.23046E-01
 -0.29267E-02 -0.25928E-02 -0.23046E-01
 -0.22211E-02 -0.32179E-02 -0.23047E-01
 -0.13865E-02 -0.36559E-02 -0.23045E-01
 -0.47130E-03 -0.38815E-02 -0.23048E-01
  0.47130E-03 -0.38815E-02 -0.23048E-01
  0.13865E-02 -0.36559E-02 -0.23047E-01
  0.22211E-02 -0.32179E-02 -0.23047E-01
  0.29267E-02 -0.25928E-02 -0.23045E-01
  0.34621E-02 -0.18171E-02 -0.23048E-01
  0.37964E-02 -0.93572E-03 -0.23048E-01
  0.10375E-02  0.67403E-03 -0.22404E-01
  0.17448E-02  0.12321E-02 -0.22404E-01
  0.23174E-02  0.59255E-03 -0.22404E-01
  0.16694E-02 -0.33624E-03 -0.22404E-01
  0.30377E-02  0.14955E-03 -0.22404E-01
  0.27798E-02 -0.67544E-03 -0.22404E-01
  0.12848E-02  0.18415E-02 -0.22404E-01
  0.65090E-03  0.14596E-02 -0.22404E-01
  0.12705E-03  0.30163E-03 -0.22404E-01
 -0.12859E-03  0.11707E-02 -0.22404E-01
  0.94434E-03  0.22750E-02 -0.22404E-01
  0.11320E-02  0.28277E-02 -0.22404E-01
  0.17483E-02  0.24241E-02 -0.22404E-01
  0.40577E-03  0.21685E-02 -0.22404E-01
  0.39776E-03  0.29361E-02 -0.22404E-01
 -0.76374E-03 -0.10036E-02 -0.22404E-01
 -0.86626E-03  0.80588E-04 -0.22404E-01
  0.46029E-03 -0.70173E-03 -0.22404E-01
 -0.18306E-02 -0.71168E-03 -0.22404E-01
 -0.18438E-02  0.82996E-04 -0.22404E-01
 -0.27238E-02 -0.77831E-03 -0.22404E-01
 -0.28022E-02  0.41259E-04 -0.22404E-01
 -0.25368E-02 -0.15194E-02 -0.22404E-01
 -0.19296E-02 -0.13227E-02 -0.22404E-01
 -0.99334E-03  0.99119E-03 -0.22404E-01
 -0.14387E-02 -0.17324E-02 -0.22404E-01
 -0.31534E-03  0.20226E-02 -0.22404E-01
 -0.11061E-02  0.18613E-02 -0.22404E-01
 -0.18844E-02  0.17175E-02 -0.22404E-01
 -0.18710E-02  0.90988E-03 -0.22404E-01
 -0.15926E-03 -0.19801E-02 -0.22404E-01
 -0.94209E-03 -0.23490E-02 -0.22404E-01
  0.78724E-03 -0.17074E-02 -0.22404E-01
  0.17210E-02 -0.14899E-02 -0.22404E-01
  0.32056E-02  0.76237E-03 -0.22404E-01
  0.28046E-02  0.12485E-02 -0.22404E-01
  0.23057E-02  0.18666E-02 -0.22404E-01
 -0.40586E-03  0.29017E-02 -0.22404E-01
 -0.12092E-02  0.27198E-02 -0.22404E-01
 -0.19447E-02  0.24638E-02 -0.22404E-01
 -0.25028E-02  0.22359E-02 -0.22404E-01
 -0.26369E-02  0.16503E-02 -0.22404E-01
 -0.27665E-02  0.87545E-03 -0.22404E-01
 -0.21126E-02 -0.21374E-02 -0.22404E-01
 -0.16088E-02 -0.26932E-02 -0.22404E-01
 -0.11941E-02 -0.31291E-02 -0.22404E-01
 -0.58711E-03 -0.30382E-02 -0.22404E-01
  0.20830E-03 -0.28748E-02 -0.22404E-01
  0.10580E-02 -0.26428E-02 -0.22404E-01
  0.18414E-02 -0.23711E-02 -0.22404E-01
  0.24546E-02 -0.21456E-02 -0.22404E-01
  0.26023E-02 -0.15103E-02 -0.22404E-01
  0.37964E-02  0.93572E-03 -0.22404E-01
  0.39100E-02  0.00000E+00 -0.22404E-01
  0.34621E-02  0.18171E-02 -0.22404E-01
  0.29267E-02  0.25928E-02 -0.22404E-01
  0.22211E-02  0.32179E-02 -0.22404E-01
  0.13865E-02  0.36559E-02 -0.22404E-01
  0.47130E-03  0.38815E-02 -0.22404E-01
 -0.47130E-03  0.38815E-02 -0.22404E-01
 -0.13865E-02  0.36559E-02 -0.22404E-01
 -0.22211E-02  0.32179E-02 -0.22404E-01
 -0.29267E-02  0.25928E-02 -0.22404E-01
 -0.34621E-02  0.18171E-02 -0.22404E-01
 -0.37964E-02  0.93572E-03 -0.22404E-01
 -0.39100E-02  0.39516E-17 -0.22404E-01
 -0.37964E-02 -0.93572E-03 -0.22404E-01
 -0.34621E-02 -0.18171E-02 -0.22404E-01
 -0.29267E-02 -0.25928E-02 -0.22404E-01
 -0.22211E-02 -0.32179E-02 -0.22404E-01
 -0.13865E-02 -0.36559E-02 -0.22404E-01
 -0.47130E-03 -0.38815E-02 -0.22404E-01
  0.47130E-03 -0.38815E-02 -0.22404E-01
  0.13865E-02 -0.36559E-02 -0.22404E-01
  0.22211E-02 -0.32179E-02 -0.22404E-01
  0.29267E-02 -0.25928E-02 -0.22404E-01
  0.34621E-02 -0.18171E-02 -0.22404E-01
  0.37964E-02 -0.93572E-03 -0.22404E-01
  0.10374E-02  0.67459E-03 -0.21425E-01
  0.17446E-02  0.12328E-02 -0.21425E-01
  0.23173E-02  0.59308E-03 -0.21425E-01
  0.16692E-02 -0.33549E-03 -0.21425E-01
  0.30376E-02  0.14991E-03 -0.21425E-01
  0.27801E-02 -0.67495E-03 -0.21425E-01
  0.12847E-02  0.18417E-02 -0.21425E-01
  0.65065E-03  0.14606E-02 -0.21425E-01
  0.12678E-03  0.30278E-03 -0.21425E-01
 -0.12878E-03  0.11725E-02 -0.21425E-01
  0.94401E-03  0.22752E-02 -0.21425E-01
  0.11316E-02  0.28273E-02 -0.21425E-01
  0.17479E-02  0.24242E-02 -0.21425E-01
  0.40572E-03  0.21686E-02 -0.21425E-01
  0.39774E-03  0.29359E-02 -0.21425E-01
 -0.76409E-03 -0.10038E-02 -0.21425E-01
 -0.86637E-03  0.81397E-04 -0.21425E-01
  0.45985E-03 -0.70100E-03 -0.21425E-01
 -0.18309E-02 -0.71154E-03 -0.21425E-01
 -0.18437E-02  0.83120E-04 -0.21425E-01
 -0.27237E-02 -0.77814E-03 -0.21425E-01
 -0.28020E-02  0.41533E-04 -0.21425E-01
 -0.25369E-02 -0.15193E-02 -0.21425E-01
 -0.19300E-02 -0.13227E-02 -0.21425E-01
 -0.99320E-03  0.99254E-03 -0.21425E-01
 -0.14391E-02 -0.17324E-02 -0.21425E-01
 -0.31514E-03  0.20228E-02 -0.21425E-01
 -0.11057E-02  0.18611E-02 -0.21425E-01
 -0.18844E-02  0.17175E-02 -0.21425E-01
 -0.18709E-02  0.91012E-03 -0.21425E-01
 -0.15954E-03 -0.19801E-02 -0.21425E-01
 -0.94269E-03 -0.23490E-02 -0.21425E-01
  0.78658E-03 -0.17074E-02 -0.21425E-01
  0.17209E-02 -0.14901E-02 -0.21425E-01
  0.32060E-02  0.76338E-03 -0.21425E-01
  0.28046E-02  0.12490E-02 -0.21425E-01
  0.23056E-02  0.18666E-02 -0.21425E-01
 -0.40572E-03  0.29006E-02 -0.21425E-01
 -0.12092E-02  0.27193E-02 -0.21425E-01
 -0.19446E-02  0.24636E-02 -0.21425E-01
 -0.25028E-02  0.22359E-02 -0.21425E-01
 -0.26368E-02  0.16503E-02 -0.21425E-01
 -0.27662E-02  0.87571E-03 -0.21425E-01
 -0.21128E-02 -0.21374E-02 -0.21425E-01
 -0.16088E-02 -0.26932E-02 -0.21425E-01
 -0.11942E-02 -0.31291E-02 -0.21425E-01
 -0.58746E-03 -0.30382E-02 -0.21425E-01
  0.20790E-03 -0.28748E-02 -0.21425E-01
  0.10577E-02 -0.26431E-02 -0.21425E-01
  0.18414E-02 -0.23713E-02 -0.21425E-01
  0.24548E-02 -0.21461E-02 -0.21425E-01
  0.26024E-02 -0.15102E-02 -0.21425E-01
  0.37964E-02  0.93572E-03 -0.21425E-01
  0.39100E-02  0.00000E+00 -0.21425E-01
  0.34621E-02  0.18171E-02 -0.21425E-01
  0.29267E-02  0.25928E-02 -0.21425E-01
  0.22211E-02  0.32179E-02 -0.21425E-01
  0.13865E-02  0.36559E-02 -0.21425E-01
  0.47130E-03  0.38815E-02 -0.21425E-01
 -0.47130E-03  0.38815E-02 -0.21425E-01
 -0.13865E-02  0.36559E-02 -0.21425E-01
 -0.22211E-02  0.32179E-02 -0.21425E-01
 -0.29267E-02  0.25928E-02 -0.21425E-01
 -0.34621E-02  0.18171E-02 -0.21425E-01
 -0.37964E-02  0.93572E-03 -0.21425E-01
 -0.39100E-02 -0.47884E-18 -0.21425E-01
 -0.37964E-02 -0.93572E-03 -0.21425E-01
 -0.34621E-02 -0.18171E-02 -0.21425E-01
 -0.29267E-02 -0.25928E-02 -0.21425E-01
 -0.22211E-02 -0.32179E-02 -0.21425E-01
 -0.13865E-02 -0.36559E-02 -0.21425E-01
 -0.47130E-03 -0.38815E-02 -0.21425E-01
  0.47130E-03 -0.38815E-02 -0.21425E-01
  0.13865E-02 -0.36559E-02 -0.21425E-01
  0.22211E-02 -0.32179E-02 -0.21425E-01
  0.29267E-02 -0.25928E-02 -0.21425E-01
  0.34621E-02 -0.18171E-02 -0.21425E-01
  0.37964E-02 -0.93572E-03 -0.21425E-01
  0.10373E-02  0.67514E-03 -0.20446E-01
  0.17445E-02  0.12334E-02 -0.20446E-01
  0.23172E-02  0.59360E-03 -0.20446E-01
  0.16689E-02 -0.33474E-03 -0.20446E-01
  0.30376E-02  0.15027E-03 -0.20446E-01
  0.27805E-02 -0.67446E-03 -0.20446E-01
  0.12846E-02  0.18419E-02 -0.20446E-01
  0.65041E-03  0.14616E-02 -0.20446E-01
  0.12652E-03  0.30393E-03 -0.20446E-01
 -0.12896E-03  0.11742E-02 -0.20446E-01
  0.94367E-03  0.22753E-02 -0.20446E-01
  0.11313E-02  0.28269E-02 -0.20446E-01
  0.17475E-02  0.24244E-02 -0.20446E-01
  0.40566E-03  0.21686E-02 -0.20446E-01
  0.39772E-03  0.29356E-02 -0.20446E-01
 -0.76444E-03 -0.10039E-02 -0.20446E-01
 -0.86648E-03  0.82206E-04 -0.20446E-01
  0.45940E-03 -0.70028E-03 -0.20446E-01
 -0.18312E-02 -0.71140E-03 -0.20446E-01
 -0.18436E-02  0.83243E-04 -0.20446E-01
 -0.27237E-02 -0.77797E-03 -0.20446E-01
 -0.28017E-02  0.41806E-04 -0.20446E-01
 -0.25371E-02 -0.15193E-02 -0.20446E-01
 -0.19305E-02 -0.13226E-02 -0.20446E-01
 -0.99305E-03  0.99390E-03 -0.20446E-01
 -0.14394E-02 -0.17323E-02 -0.20446E-01
 -0.31494E-03  0.20231E-02 -0.20446E-01
 -0.11054E-02  0.18610E-02 -0.20446E-01
 -0.18843E-02  0.17175E-02 -0.20446E-01
 -0.18708E-02  0.91036E-03 -0.20446E-01
 -0.15981E-03 -0.19801E-02 -0.20446E-01
 -0.94328E-03 -0.23490E-02 -0.20446E-01
  0.78592E-03 -0.17074E-02 -0.20446E-01
  0.17209E-02 -0.14904E-02 -0.20446E-01
  0.32063E-02  0.76439E-03 -0.20446E-01
  0.28045E-02  0.12494E-02 -0.20446E-01
  0.23055E-02  0.18666E-02 -0.20446E-01
 -0.40558E-03  0.28995E-02 -0.20446E-01
 -0.12092E-02  0.27188E-02 -0.20446E-01
 -0.19446E-02  0.24633E-02 -0.20446E-01
 -0.25027E-02  0.22359E-02 -0.20446E-01
 -0.26367E-02  0.16503E-02 -0.20446E-01
 -0.27658E-02  0.87597E-03 -0.20446E-01
 -0.21129E-02 -0.21374E-02 -0.20446E-01
 -0.16089E-02 -0.26932E-02 -0.20446E-01
 -0.11943E-02 -0.31291E-02 -0.20446E-01
 -0.58781E-03 -0.30382E-02 -0.20446E-01
  0.20749E-03 -0.28748E-02 -0.20446E-01
  0.10574E-02 -0.26434E-02 -0.20446E-01
  0.18415E-02 -0.23715E-02 -0.20446E-01
  0.24549E-02 -0.21467E-02 -0.20446E-01
  0.26025E-02 -0.15101E-02 -0.20446E-01
  0.37964E-02  0.93572E-03 -0.20446E-01
  0.39100E-02  0.00000E+00 -0.20446E-01
  0.34621E-02  0.18171E-02 -0.20446E-01
  0.29267E-02  0.25928E-02 -0.20446E-01
  0.22211E-02  0.32179E-02 -0.20446E-01
  0.13865E-02  0.36559E-02 -0.20446E-01
  0.47130E-03  0.38815E-02 -0.20446E-01
 -0.47130E-03  0.38815E-02 -0.20446E-01
 -0.13865E-02  0.36559E-02 -0.20446E-01
 -0.22211E-02  0.32179E-02 -0.20446E-01
 -0.29267E-02  0.25928E-02 -0.20446E-01
 -0.34621E-02  0.18171E-02 -0.20446E-01
 -0.37964E-02  0.93572E-03 -0.20446E-01
 -0.39100E-02 -0.47884E-18 -0.20446E-01
 -0.37964E-02 -0.93572E-03 -0.20446E-01
 -0.34621E-02 -0.18171E-02 -0.20446E-01
 -0.29267E-02 -0.25928E-02 -0.20446E-01
 -0.22211E-02 -0.32179E-02 -0.20446E-01
 -0.13865E-02 -0.36559E-02 -0.20446E-01
 -0.47130E-03 -0.38815E-02 -0.20446E-01
  0.47130E-03 -0.38815E-02 -0.20446E-01
  0.13865E-02 -0.36559E-02 -0.20446E-01
  0.22211E-02 -0.32179E-02 -0.20446E-01
  0.29267E-02 -0.25928E-02 -0.20446E-01
  0.34621E-02 -0.18171E-02 -0.20446E-01
  0.37964E-02 -0.93572E-03 -0.20446E-01
  0.10372E-02  0.67570E-03 -0.19467E-01
  0.17443E-02  0.12341E-02 -0.19467E-01
  0.23171E-02  0.59412E-03 -0.19467E-01
  0.16687E-02 -0.33398E-03 -0.19467E-01
  0.30376E-02  0.15064E-03 -0.19467E-01
  0.27808E-02 -0.67396E-03 -0.19467E-01
  0.12845E-02  0.18421E-02 -0.19467E-01
  0.65016E-03  0.14626E-02 -0.19467E-01
  0.12626E-03  0.30507E-03 -0.19467E-01
 -0.12915E-03  0.11760E-02 -0.19467E-01
  0.94334E-03  0.22754E-02 -0.19467E-01
  0.11310E-02  0.28264E-02 -0.19467E-01
  0.17471E-02  0.24245E-02 -0.19467E-01
  0.40561E-03  0.21686E-02 -0.19467E-01
  0.39770E-03  0.29353E-02 -0.19467E-01
 -0.76480E-03 -0.10040E-02 -0.19467E-01
 -0.86659E-03  0.83015E-04 -0.19467E-01
  0.45895E-03 -0.69955E-03 -0.19467E-01
 -0.18315E-02 -0.71126E-03 -0.19467E-01
 -0.18435E-02  0.83367E-04 -0.19467E-01
 -0.27237E-02 -0.77780E-03 -0.19467E-01
 -0.28014E-02  0.42080E-04 -0.19467E-01
 -0.25372E-02 -0.15192E-02 -0.19467E-01
 -0.19309E-02 -0.13224E-02 -0.19467E-01
 -0.99291E-03  0.99526E-03 -0.19467E-01
 -0.14398E-02 -0.17323E-02 -0.19467E-01
 -0.31474E-03  0.20234E-02 -0.19467E-01
 -0.11051E-02  0.18609E-02 -0.19467E-01
 -0.18843E-02  0.17175E-02 -0.19467E-01
 -0.18706E-02  0.91060E-03 -0.19467E-01
 -0.16009E-03 -0.19801E-02 -0.19467E-01
 -0.94388E-03 -0.23490E-02 -0.19467E-01
  0.78526E-03 -0.17074E-02 -0.19467E-01
  0.17208E-02 -0.14906E-02 -0.19467E-01
  0.32066E-02  0.76539E-03 -0.19467E-01
  0.28045E-02  0.12498E-02 -0.19467E-01
  0.23053E-02  0.18667E-02 -0.19467E-01
 -0.40545E-03  0.28984E-02 -0.19467E-01
 -0.12092E-02  0.27184E-02 -0.19467E-01
 -0.19446E-02  0.24631E-02 -0.19467E-01
 -0.25027E-02  0.22359E-02 -0.19467E-01
 -0.26366E-02  0.16503E-02 -0.19467E-01
 -0.27655E-02  0.87623E-03 -0.19467E-01
 -0.21130E-02 -0.21374E-02 -0.19467E-01
 -0.16089E-02 -0.26932E-02 -0.19467E-01
 -0.11944E-02 -0.31291E-02 -0.19467E-01
 -0.58816E-03 -0.30382E-02 -0.19467E-01
  0.20709E-03 -0.28748E-02 -0.19467E-01
  0.10571E-02 -0.26436E-02 -0.19467E-01
  0.18415E-02 -0.23717E-02 -0.19467E-01
  0.24550E-02 -0.21472E-02 -0.19467E-01
  0.26025E-02 -0.15100E-02 -0.19467E-01
  0.37964E-02  0.93572E-03 -0.19467E-01
  0.39100E-02  0.00000E+00 -0.19467E-01
  0.34621E-02  0.18171E-02 -0.19467E-01
  0.29267E-02  0.25928E-02 -0.19467E-01
  0.22211E-02  0.32179E-02 -0.19467E-01
  0.13865E-02  0.36559E-02 -0.19467E-01
  0.47130E-03  0.38815E-02 -0.19467E-01
 -0.47130E-03  0.38815E-02 -0.19467E-01
 -0.13865E-02  0.36559E-02 -0.19467E-01
 -0.22211E-02  0.32179E-02 -0.19467E-01
 -0.29267E-02  0.25928E-02 -0.19467E-01
 -0.34621E-02  0.18171E-02 -0.19467E-01
 -0.37964E-02  0.93572E-03 -0.19467E-01
 -0.39100E-02 -0.47884E-18 -0.19467E-01
 -0.37964E-02 -0.93572E-03 -0.19467E-01
 -0.34621E-02 -0.18171E-02 -0.19467E-01
 -0.29267E-02 -0.25928E-02 -0.19467E-01
 -0.22211E-02 -0.32179E-02 -0.19467E-01
 -0.13865E-02 -0.36559E-02 -0.19467E-01
 -0.47130E-03 -0.38815E-02 -0.19467E-01
  0.47130E-03 -0.38815E-02 -0.19467E-01
  0.13865E-02 -0.36559E-02 -0.19467E-01
  0.22211E-02 -0.32179E-02 -0.19467E-01
  0.29267E-02 -0.25928E-02 -0.19467E-01
  0.34621E-02 -0.18171E-02 -0.19467E-01
  0.37964E-02 -0.93572E-03 -0.19467E-01
  0.10371E-02  0.67625E-03 -0.18488E-01
  0.17441E-02  0.12348E-02 -0.18488E-01
  0.23169E-02  0.59465E-03 -0.18488E-01
  0.16685E-02 -0.33323E-03 -0.18488E-01
  0.30376E-02  0.15100E-03 -0.18488E-01
  0.27812E-02 -0.67347E-03 -0.18488E-01
  0.12844E-02  0.18423E-02 -0.18488E-01
  0.64992E-03  0.14636E-02 -0.18488E-01
  0.12600E-03  0.30622E-03 -0.18488E-01
 -0.12933E-03  0.11777E-02 -0.18488E-01
  0.94301E-03  0.22755E-02 -0.18488E-01
  0.11306E-02  0.28260E-02 -0.18488E-01
  0.17467E-02  0.24247E-02 -0.18488E-01
  0.40556E-03  0.21687E-02 -0.18488E-01
  0.39769E-03  0.29351E-02 -0.18488E-01
 -0.76515E-03 -0.10042E-02 -0.18488E-01
 -0.86670E-03  0.83825E-04 -0.18488E-01
  0.45850E-03 -0.69882E-03 -0.18488E-01
 -0.18318E-02 -0.71112E-03 -0.18488E-01
 -0.18434E-02  0.83490E-04 -0.18488E-01
 -0.27236E-02 -0.77763E-03 -0.18488E-01
 -0.28011E-02  0.42353E-04 -0.18488E-01
 -0.25374E-02 -0.15192E-02 -0.18488E-01
 -0.19313E-02 -0.13223E-02 -0.18488E-01
 -0.99277E-03  0.99661E-03 -0.18488E-01
 -0.14401E-02 -0.17322E-02 -0.18488E-01
 -0.31454E-03  0.20237E-02 -0.18488E-01
 -0.11047E-02  0.18607E-02 -0.18488E-01
 -0.18842E-02  0.17175E-02 -0.18488E-01
 -0.18705E-02  0.91084E-03 -0.18488E-01
 -0.16036E-03 -0.19801E-02 -0.18488E-01
 -0.94448E-03 -0.23491E-02 -0.18488E-01
  0.78460E-03 -0.17074E-02 -0.18488E-01
  0.17208E-02 -0.14909E-02 -0.18488E-01
  0.32070E-02  0.76640E-03 -0.18488E-01
  0.28045E-02  0.12503E-02 -0.18488E-01
  0.23052E-02  0.18667E-02 -0.18488E-01
 -0.40531E-03  0.28974E-02 -0.18488E-01
 -0.12092E-02  0.27179E-02 -0.18488E-01
 -0.19445E-02  0.24629E-02 -0.18488E-01
 -0.25027E-02  0.22359E-02 -0.18488E-01
 -0.26366E-02  0.16503E-02 -0.18488E-01
 -0.27652E-02  0.87650E-03 -0.18488E-01
 -0.21132E-02 -0.21374E-02 -0.18488E-01
 -0.16090E-02 -0.26933E-02 -0.18488E-01
 -0.11946E-02 -0.31291E-02 -0.18488E-01
 -0.58851E-03 -0.30382E-02 -0.18488E-01
  0.20668E-03 -0.28749E-02 -0.18488E-01
  0.10567E-02 -0.26439E-02 -0.18488E-01
  0.18416E-02 -0.23719E-02 -0.18488E-01
  0.24551E-02 -0.21478E-02 -0.18488E-01
  0.26026E-02 -0.15099E-02 -0.18488E-01
  0.37964E-02  0.93572E-03 -0.18488E-01
  0.39100E-02  0.00000E+00 -0.18488E-01
  0.34621E-02  0.18171E-02 -0.18488E-01
  0.29267E-02  0.25928E-02 -0.18488E-01
  0.22211E-02  0.32179E-02 -0.18488E-01
  0.13865E-02  0.36559E-02 -0.18488E-01
  0.47130E-03  0.38815E-02 -0.18488E-01
 -0.47130E-03  0.38815E-02 -0.18488E-01
 -0.13865E-02  0.36559E-02 -0.18488E-01
 -0.22211E-02  0.32179E-02 -0.18488E-01
 -0.29267E-02  0.25928E-02 -0.18488E-01
 -0.34621E-02  0.18171E-02 -0.18488E-01
 -0.37964E-02  0.93572E-03 -0.18488E-01
 -0.39100E-02 -0.47884E-18 -0.18488E-01
 -0.37964E-02 -0.93572E-03 -0.18488E-01
 -0.34621E-02 -0.18171E-02 -0.18488E-01
 -0.29267E-02 -0.25928E-02 -0.18488E-01
 -0.22211E-02 -0.32179E-02 -0.18488E-01
 -0.13865E-02 -0.36559E-02 -0.18488E-01
 -0.47130E-03 -0.38815E-02 -0.18488E-01
  0.47130E-03 -0.38815E-02 -0.18488E-01
  0.13865E-02 -0.36559E-02 -0.18488E-01
  0.22211E-02 -0.32179E-02 -0.18488E-01
  0.29267E-02 -0.25928E-02 -0.18488E-01
  0.34621E-02 -0.18171E-02 -0.18488E-01
  0.37964E-02 -0.93572E-03 -0.18488E-01
  0.10370E-02  0.67680E-03 -0.17508E-01
  0.17439E-02  0.12354E-02 -0.17508E-01
  0.23168E-02  0.59517E-03 -0.17508E-01
  0.16683E-02 -0.33247E-03 -0.17508E-01
  0.30375E-02  0.15136E-03 -0.17508E-01
  0.27815E-02 -0.67298E-03 -0.17508E-01
  0.12843E-02  0.18425E-02 -0.17508E-01
  0.64967E-03  0.14646E-02 -0.17508E-01
  0.12573E-03  0.30737E-03 -0.17508E-01
 -0.12952E-03  0.11795E-02 -0.17508E-01
  0.94268E-03  0.22757E-02 -0.17508E-01
  0.11303E-02  0.28255E-02 -0.17508E-01
  0.17463E-02  0.24248E-02 -0.17508E-01
  0.40550E-03  0.21687E-02 -0.17508E-01
  0.39767E-03  0.29348E-02 -0.17508E-01
 -0.76551E-03 -0.10043E-02 -0.17508E-01
 -0.86680E-03  0.84634E-04 -0.17508E-01
  0.45806E-03 -0.69810E-03 -0.17508E-01
 -0.18321E-02 -0.71098E-03 -0.17508E-01
 -0.18433E-02  0.83614E-04 -0.17508E-01
 -0.27236E-02 -0.77746E-03 -0.17508E-01
 -0.28009E-02  0.42626E-04 -0.17508E-01
 -0.25375E-02 -0.15191E-02 -0.17508E-01
 -0.19317E-02 -0.13223E-02 -0.17508E-01
 -0.99262E-03  0.99797E-03 -0.17508E-01
 -0.14405E-02 -0.17322E-02 -0.17508E-01
 -0.31434E-03  0.20240E-02 -0.17508E-01
 -0.11044E-02  0.18606E-02 -0.17508E-01
 -0.18842E-02  0.17175E-02 -0.17508E-01
 -0.18704E-02  0.91108E-03 -0.17508E-01
 -0.16064E-03 -0.19802E-02 -0.17508E-01
 -0.94508E-03 -0.23491E-02 -0.17508E-01
  0.78394E-03 -0.17074E-02 -0.17508E-01
  0.17208E-02 -0.14911E-02 -0.17508E-01
  0.32073E-02  0.76740E-03 -0.17508E-01
  0.28045E-02  0.12507E-02 -0.17508E-01
  0.23051E-02  0.18668E-02 -0.17508E-01
 -0.40517E-03  0.28963E-02 -0.17508E-01
 -0.12092E-02  0.27174E-02 -0.17508E-01
 -0.19445E-02  0.24627E-02 -0.17508E-01
 -0.25026E-02  0.22358E-02 -0.17508E-01
 -0.26365E-02  0.16503E-02 -0.17508E-01
 -0.27649E-02  0.87676E-03 -0.17508E-01
 -0.21133E-02 -0.21374E-02 -0.17508E-01
 -0.16090E-02 -0.26933E-02 -0.17508E-01
 -0.11947E-02 -0.31291E-02 -0.17508E-01
 -0.58886E-03 -0.30382E-02 -0.17508E-01
  0.20627E-03 -0.28749E-02 -0.17508E-01
  0.10564E-02 -0.26442E-02 -0.17508E-01
  0.18416E-02 -0.23721E-02 -0.17508E-01
  0.24553E-02 -0.21483E-02 -0.17508E-01
  0.26027E-02 -0.15097E-02 -0.17508E-01
  0.37964E-02  0.93572E-03 -0.17508E-01
  0.39100E-02  0.00000E+00 -0.17508E-01
  0.34621E-02  0.18171E-02 -0.17508E-01
  0.29267E-02  0.25928E-02 -0.17508E-01
  0.22211E-02  0.32179E-02 -0.17508E-01
  0.13865E-02  0.36559E-02 -0.17508E-01
  0.47130E-03  0.38815E-02 -0.17508E-01
 -0.47130E-03  0.38815E-02 -0.17508E-01
 -0.13865E-02  0.36559E-02 -0.17508E-01
 -0.22211E-02  0.32179E-02 -0.17508E-01
 -0.29267E-02  0.25928E-02 -0.17508E-01
 -0.34621E-02  0.18171E-02 -0.17508E-01
 -0.37964E-02  0.93572E-03 -0.17508E-01
 -0.39100E-02 -0.47884E-18 -0.17508E-01
 -0.37964E-02 -0.93572E-03 -0.17508E-01
 -0.34621E-02 -0.18171E-02 -0.17508E-01
 -0.29267E-02 -0.25928E-02 -0.17508E-01
 -0.22211E-02 -0.32179E-02 -0.17508E-01
 -0.13865E-02 -0.36559E-02 -0.17508E-01
 -0.47130E-03 -0.38815E-02 -0.17508E-01
  0.47130E-03 -0.38815E-02 -0.17508E-01
  0.13865E-02 -0.36559E-02 -0.17508E-01
  0.22211E-02 -0.32179E-02 -0.17508E-01
  0.29267E-02 -0.25928E-02 -0.17508E-01
  0.34621E-02 -0.18171E-02 -0.17508E-01
  0.37964E-02 -0.93572E-03 -0.17508E-01
  0.10368E-02  0.67736E-03 -0.16529E-01
  0.17438E-02  0.12361E-02 -0.16529E-01
  0.23167E-02  0.59570E-03 -0.16529E-01
  0.16681E-02 -0.33172E-03 -0.16529E-01
  0.30375E-02  0.15173E-03 -0.16529E-01
  0.27819E-02 -0.67248E-03 -0.16529E-01
  0.12842E-02  0.18427E-02 -0.16529E-01
  0.64943E-03  0.14656E-02 -0.16529E-01
  0.12547E-03  0.30852E-03 -0.16529E-01
 -0.12970E-03  0.11812E-02 -0.16529E-01
  0.94235E-03  0.22758E-02 -0.16529E-01
  0.11300E-02  0.28251E-02 -0.16529E-01
  0.17459E-02  0.24249E-02 -0.16529E-01
  0.40545E-03  0.21688E-02 -0.16529E-01
  0.39766E-03  0.29345E-02 -0.16529E-01
 -0.76586E-03 -0.10044E-02 -0.16529E-01
 -0.86691E-03  0.85443E-04 -0.16529E-01
  0.45761E-03 -0.69737E-03 -0.16529E-01
 -0.18324E-02 -0.71084E-03 -0.16529E-01
 -0.18432E-02  0.83737E-04 -0.16529E-01
 -0.27236E-02 -0.77729E-03 -0.16529E-01
 -0.28006E-02  0.42899E-04 -0.16529E-01
 -0.25377E-02 -0.15191E-02 -0.16529E-01
 -0.19322E-02 -0.13222E-02 -0.16529E-01
 -0.99248E-03  0.99932E-03 -0.16529E-01
 -0.14408E-02 -0.17322E-02 -0.16529E-01
 -0.31414E-03  0.20243E-02 -0.16529E-01
 -0.11040E-02  0.18605E-02 -0.16529E-01
 -0.18841E-02  0.17175E-02 -0.16529E-01
 -0.18703E-02  0.91132E-03 -0.16529E-01
 -0.16091E-03 -0.19802E-02 -0.16529E-01
 -0.94568E-03 -0.23491E-02 -0.16529E-01
  0.78328E-03 -0.17074E-02 -0.16529E-01
  0.17207E-02 -0.14914E-02 -0.16529E-01
  0.32076E-02  0.76841E-03 -0.16529E-01
  0.28044E-02  0.12511E-02 -0.16529E-01
  0.23050E-02  0.18668E-02 -0.16529E-01
 -0.40503E-03  0.28952E-02 -0.16529E-01
 -0.12092E-02  0.27170E-02 -0.16529E-01
 -0.19445E-02  0.24624E-02 -0.16529E-01
 -0.25026E-02  0.22358E-02 -0.16529E-01
 -0.26364E-02  0.16503E-02 -0.16529E-01
 -0.27646E-02  0.87702E-03 -0.16529E-01
 -0.21134E-02 -0.21374E-02 -0.16529E-01
 -0.16091E-02 -0.26933E-02 -0.16529E-01
 -0.11948E-02 -0.31291E-02 -0.16529E-01
 -0.58921E-03 -0.30382E-02 -0.16529E-01
  0.20587E-03 -0.28749E-02 -0.16529E-01
  0.10561E-02 -0.26444E-02 -0.16529E-01
  0.18416E-02 -0.23723E-02 -0.16529E-01
  0.24554E-02 -0.21489E-02 -0.16529E-01
  0.26027E-02 -0.15096E-02 -0.16529E-01
  0.37964E-02  0.93572E-03 -0.16529E-01
  0.39100E-02  0.00000E+00 -0.16529E-01
  0.34621E-02  0.18171E-02 -0.16529E-01
  0.29267E-02  0.25928E-02 -0.16529E-01
  0.22211E-02  0.32179E-02 -0.16529E-01
  0.13865E-02  0.36559E-02 -0.16529E-01
  0.47130E-03  0.38815E-02 -0.16529E-01
 -0.47130E-03  0.38815E-02 -0.16529E-01
 -0.13865E-02  0.36559E-02 -0.16529E-01
 -0.22211E-02  0.32179E-02 -0.16529E-01
 -0.29267E-02  0.25928E-02 -0.16529E-01
 -0.34621E-02  0.18171E-02 -0.16529E-01
 -0.37964E-02  0.93572E-03 -0.16529E-01
 -0.39100E-02 -0.47884E-18 -0.16529E-01
 -0.37964E-02 -0.93572E-03 -0.16529E-01
 -0.34621E-02 -0.18171E-02 -0.16529E-01
 -0.29267E-02 -0.25928E-02 -0.16529E-01
 -0.22211E-02 -0.32179E-02 -0.16529E-01
 -0.13865E-02 -0.36559E-02 -0.16529E-01
 -0.47130E-03 -0.38815E-02 -0.16529E-01
  0.47130E-03 -0.38815E-02 -0.16529E-01
  0.13865E-02 -0.36559E-02 -0.16529E-01
  0.22211E-02 -0.32179E-02 -0.16529E-01
  0.29267E-02 -0.25928E-02 -0.16529E-01
  0.34621E-02 -0.18171E-02 -0.16529E-01
  0.37964E-02 -0.93572E-03 -0.16529E-01
  0.10367E-02  0.67791E-03 -0.15550E-01
  0.17436E-02  0.12368E-02 -0.15550E-01
  0.23166E-02  0.59622E-03 -0.15550E-01
  0.16679E-02 -0.33096E-03 -0.15550E-01
  0.30375E-02  0.15209E-03 -0.15550E-01
  0.27822E-02 -0.67199E-03 -0.15550E-01
  0.12841E-02  0.18429E-02 -0.15550E-01
  0.64918E-03  0.14666E-02 -0.15550E-01
  0.12521E-03  0.30967E-03 -0.15550E-01
 -0.12989E-03  0.11830E-02 -0.15550E-01
  0.94202E-03  0.22759E-02 -0.15550E-01
  0.11296E-02  0.28247E-02 -0.15550E-01
  0.17455E-02  0.24251E-02 -0.15550E-01
  0.40539E-03  0.21688E-02 -0.15550E-01
  0.39764E-03  0.29343E-02 -0.15550E-01
 -0.76621E-03 -0.10046E-02 -0.15550E-01
 -0.86702E-03  0.86253E-04 -0.15550E-01
  0.45716E-03 -0.69665E-03 -0.15550E-01
 -0.18326E-02 -0.71070E-03 -0.15550E-01
 -0.18431E-02  0.83861E-04 -0.15550E-01
 -0.27235E-02 -0.77712E-03 -0.15550E-01
 -0.28003E-02  0.43173E-04 -0.15550E-01
 -0.25379E-02 -0.15190E-02 -0.15550E-01
 -0.19326E-02 -0.13220E-02 -0.15550E-01
 -0.99233E-03  0.10007E-02 -0.15550E-01
 -0.14412E-02 -0.17321E-02 -0.15550E-01
 -0.31394E-03  0.20245E-02 -0.15550E-01
 -0.11037E-02  0.18603E-02 -0.15550E-01
 -0.18841E-02  0.17175E-02 -0.15550E-01
 -0.18701E-02  0.91156E-03 -0.15550E-01
 -0.16119E-03 -0.19802E-02 -0.15550E-01
 -0.94628E-03 -0.23491E-02 -0.15550E-01
  0.78262E-03 -0.17074E-02 -0.15550E-01
  0.17207E-02 -0.14916E-02 -0.15550E-01
  0.32079E-02  0.76941E-03 -0.15550E-01
  0.28044E-02  0.12515E-02 -0.15550E-01
  0.23049E-02  0.18668E-02 -0.15550E-01
 -0.40490E-03  0.28942E-02 -0.15550E-01
 -0.12093E-02  0.27165E-02 -0.15550E-01
 -0.19444E-02  0.24622E-02 -0.15550E-01
 -0.25026E-02  0.22358E-02 -0.15550E-01
 -0.26363E-02  0.16503E-02 -0.15550E-01
 -0.27643E-02  0.87728E-03 -0.15550E-01
 -0.21136E-02 -0.21374E-02 -0.15550E-01
 -0.16091E-02 -0.26933E-02 -0.15550E-01
 -0.11949E-02 -0.31291E-02 -0.15550E-01
 -0.58956E-03 -0.30382E-02 -0.15550E-01
  0.20546E-03 -0.28749E-02 -0.15550E-01
  0.10558E-02 -0.26447E-02 -0.15550E-01
  0.18417E-02 -0.23725E-02 -0.15550E-01
  0.24555E-02 -0.21494E-02 -0.15550E-01
  0.26028E-02 -0.15095E-02 -0.15550E-01
  0.37964E-02  0.93572E-03 -0.15550E-01
  0.39100E-02  0.00000E+00 -0.15550E-01
  0.34621E-02  0.18171E-02 -0.15550E-01
  0.29267E-02  0.25928E-02 -0.15550E-01
  0.22211E-02  0.32179E-02 -0.15550E-01
  0.13865E-02  0.36559E-02 -0.15550E-01
  0.47130E-03  0.38815E-02 -0.15550E-01
 -0.47130E-03  0.38815E-02 -0.15550E-01
 -0.13865E-02  0.36559E-02 -0.15550E-01
 -0.22211E-02  0.32179E-02 -0.15550E-01
 -0.29267E-02  0.25928E-02 -0.15550E-01
 -0.34621E-02  0.18171E-02 -0.15550E-01
 -0.37964E-02  0.93572E-03 -0.15550E-01
 -0.39100E-02 -0.47884E-18 -0.15550E-01
 -0.37964E-02 -0.93572E-03 -0.15550E-01
 -0.34621E-02 -0.18171E-02 -0.15550E-01
 -0.29267E-02 -0.25928E-02 -0.15550E-01
 -0.22211E-02 -0.32179E-02 -0.15550E-01
 -0.13865E-02 -0.36559E-02 -0.15550E-01
 -0.47130E-03 -0.38815E-02 -0.15550E-01
  0.47130E-03 -0.38815E-02 -0.15550E-01
  0.13865E-02 -0.36559E-02 -0.15550E-01
  0.22211E-02 -0.32179E-02 -0.15550E-01
  0.29267E-02 -0.25928E-02 -0.15550E-01
  0.34621E-02 -0.18171E-02 -0.15550E-01
  0.37964E-02 -0.93572E-03 -0.15550E-01
  0.10366E-02  0.67847E-03 -0.14571E-01
  0.17434E-02  0.12374E-02 -0.14571E-01
  0.23164E-02  0.59674E-03 -0.14571E-01
  0.16677E-02 -0.33021E-03 -0.14571E-01
  0.30375E-02  0.15245E-03 -0.14571E-01
  0.27825E-02 -0.67150E-03 -0.14571E-01
  0.12840E-02  0.18430E-02 -0.14571E-01
  0.64894E-03  0.14676E-02 -0.14571E-01
  0.12495E-03  0.31081E-03 -0.14571E-01
 -0.13007E-03  0.11847E-02 -0.14571E-01
  0.94169E-03  0.22761E-02 -0.14571E-01
  0.11293E-02  0.28242E-02 -0.14571E-01
  0.17451E-02  0.24252E-02 -0.14571E-01
  0.40534E-03  0.21688E-02 -0.14571E-01
  0.39762E-03  0.29340E-02 -0.14571E-01
 -0.76657E-03 -0.10047E-02 -0.14571E-01
 -0.86713E-03  0.87062E-04 -0.14571E-01
  0.45671E-03 -0.69592E-03 -0.14571E-01
 -0.18329E-02 -0.71056E-03 -0.14571E-01
 -0.18430E-02  0.83985E-04 -0.14571E-01
 -0.27235E-02 -0.77695E-03 -0.14571E-01
 -0.28001E-02  0.43446E-04 -0.14571E-01
 -0.25380E-02 -0.15190E-02 -0.14571E-01
 -0.19330E-02 -0.13219E-02 -0.14571E-01
 -0.99219E-03  0.10020E-02 -0.14571E-01
 -0.14415E-02 -0.17321E-02 -0.14571E-01
 -0.31374E-03  0.20248E-02 -0.14571E-01
 -0.11033E-02  0.18602E-02 -0.14571E-01
 -0.18840E-02  0.17175E-02 -0.14571E-01
 -0.18700E-02  0.91180E-03 -0.14571E-01
 -0.16146E-03 -0.19803E-02 -0.14571E-01
 -0.94687E-03 -0.23491E-02 -0.14571E-01
  0.78195E-03 -0.17073E-02 -0.14571E-01
  0.17207E-02 -0.14919E-02 -0.14571E-01
  0.32083E-02  0.77042E-03 -0.14571E-01
  0.28044E-02  0.12520E-02 -0.14571E-01
  0.23048E-02  0.18669E-02 -0.14571E-01
 -0.40476E-03  0.28931E-02 -0.14571E-01
 -0.12093E-02  0.27160E-02 -0.14571E-01
 -0.19444E-02  0.24620E-02 -0.14571E-01
 -0.25026E-02  0.22358E-02 -0.14571E-01
 -0.26362E-02  0.16503E-02 -0.14571E-01
 -0.27640E-02  0.87754E-03 -0.14571E-01
 -0.21137E-02 -0.21374E-02 -0.14571E-01
 -0.16091E-02 -0.26933E-02 -0.14571E-01
 -0.11950E-02 -0.31291E-02 -0.14571E-01
 -0.58991E-03 -0.30382E-02 -0.14571E-01
  0.20505E-03 -0.28749E-02 -0.14571E-01
  0.10555E-02 -0.26450E-02 -0.14571E-01
  0.18417E-02 -0.23727E-02 -0.14571E-01
  0.24556E-02 -0.21500E-02 -0.14571E-01
  0.26029E-02 -0.15094E-02 -0.14571E-01
  0.37964E-02  0.93572E-03 -0.14571E-01
  0.39100E-02  0.00000E+00 -0.14571E-01
  0.34621E-02  0.18171E-02 -0.14571E-01
  0.29267E-02  0.25928E-02 -0.14571E-01
  0.22211E-02  0.32179E-02 -0.14571E-01
  0.13865E-02  0.36559E-02 -0.14571E-01
  0.47130E-03  0.38815E-02 -0.14571E-01
 -0.47130E-03  0.38815E-02 -0.14571E-01
 -0.13865E-02  0.36559E-02 -0.14571E-01
 -0.22211E-02  0.32179E-02 -0.14571E-01
 -0.29267E-02  0.25928E-02 -0.14571E-01
 -0.34621E-02  0.18171E-02 -0.14571E-01
 -0.37964E-02  0.93572E-03 -0.14571E-01
 -0.39100E-02  0.39516E-17 -0.14571E-01
 -0.37964E-02 -0.93572E-03 -0.14571E-01
 -0.34621E-02 -0.18171E-02 -0.14571E-01
 -0.29267E-02 -0.25928E-02 -0.14571E-01
 -0.22211E-02 -0.32179E-02 -0.14571E-01
 -0.13865E-02 -0.36559E-02 -0.14571E-01
 -0.47130E-03 -0.38815E-02 -0.14571E-01
  0.47130E-03 -0.38815E-02 -0.14571E-01
  0.13865E-02 -0.36559E-02 -0.14571E-01
  0.22211E-02 -0.32179E-02 -0.14571E-01
  0.29267E-02 -0.25928E-02 -0.14571E-01
  0.34621E-02 -0.18171E-02 -0.14571E-01
  0.37964E-02 -0.93572E-03 -0.14571E-01
  0.10365E-02  0.67902E-03 -0.13592E-01
  0.17432E-02  0.12381E-02 -0.13592E-01
  0.23163E-02  0.59727E-03 -0.13592E-01
  0.16675E-02 -0.32945E-03 -0.13592E-01
  0.30374E-02  0.15282E-03 -0.13592E-01
  0.27829E-02 -0.67100E-03 -0.13592E-01
  0.12839E-02  0.18432E-02 -0.13592E-01
  0.64869E-03  0.14686E-02 -0.13592E-01
  0.12468E-03  0.31196E-03 -0.13592E-01
 -0.13026E-03  0.11865E-02 -0.13592E-01
  0.94135E-03  0.22762E-02 -0.13592E-01
  0.11289E-02  0.28238E-02 -0.13592E-01
  0.17447E-02  0.24254E-02 -0.13592E-01
  0.40528E-03  0.21688E-02 -0.13592E-01
  0.39760E-03  0.29337E-02 -0.13592E-01
 -0.76692E-03 -0.10049E-02 -0.13592E-01
 -0.86724E-03  0.87871E-04 -0.13592E-01
  0.45626E-03 -0.69519E-03 -0.13592E-01
 -0.18332E-02 -0.71042E-03 -0.13592E-01
 -0.18430E-02  0.84108E-04 -0.13592E-01
 -0.27235E-02 -0.77678E-03 -0.13592E-01
 -0.27998E-02  0.43720E-04 -0.13592E-01
 -0.25382E-02 -0.15189E-02 -0.13592E-01
 -0.19334E-02 -0.13219E-02 -0.13592E-01
 -0.99205E-03  0.10034E-02 -0.13592E-01
 -0.14419E-02 -0.17320E-02 -0.13592E-01
 -0.31354E-03  0.20251E-02 -0.13592E-01
 -0.11030E-02  0.18601E-02 -0.13592E-01
 -0.18840E-02  0.17175E-02 -0.13592E-01
 -0.18699E-02  0.91204E-03 -0.13592E-01
 -0.16174E-03 -0.19803E-02 -0.13592E-01
 -0.94747E-03 -0.23492E-02 -0.13592E-01
  0.78129E-03 -0.17073E-02 -0.13592E-01
  0.17206E-02 -0.14921E-02 -0.13592E-01
  0.32086E-02  0.77142E-03 -0.13592E-01
  0.28044E-02  0.12524E-02 -0.13592E-01
  0.23047E-02  0.18669E-02 -0.13592E-01
 -0.40462E-03  0.28920E-02 -0.13592E-01
 -0.12093E-02  0.27155E-02 -0.13592E-01
 -0.19444E-02  0.24618E-02 -0.13592E-01
 -0.25025E-02  0.22358E-02 -0.13592E-01
 -0.26361E-02  0.16503E-02 -0.13592E-01
 -0.27637E-02  0.87781E-03 -0.13592E-01
 -0.21139E-02 -0.21374E-02 -0.13592E-01
 -0.16092E-02 -0.26934E-02 -0.13592E-01
 -0.11951E-02 -0.31291E-02 -0.13592E-01
 -0.59025E-03 -0.30382E-02 -0.13592E-01
  0.20465E-03 -0.28749E-02 -0.13592E-01
  0.10552E-02 -0.26452E-02 -0.13592E-01
  0.18418E-02 -0.23729E-02 -0.13592E-01
  0.24558E-02 -0.21505E-02 -0.13592E-01
  0.26030E-02 -0.15093E-02 -0.13592E-01
  0.37964E-02  0.93572E-03 -0.13592E-01
  0.39100E-02  0.00000E+00 -0.13592E-01
  0.34621E-02  0.18171E-02 -0.13592E-01
  0.29267E-02  0.25928E-02 -0.13592E-01
  0.22211E-02  0.32179E-02 -0.13592E-01
  0.13865E-02  0.36559E-02 -0.13592E-01
  0.47130E-03  0.38815E-02 -0.13592E-01
 -0.47130E-03  0.38815E-02 -0.13592E-01
 -0.13865E-02  0.36559E-02 -0.13592E-01
 -0.22211E-02  0.32179E-02 -0.13592E-01
 -0.29267E-02  0.25928E-02 -0.13592E-01
 -0.34621E-02  0.18171E-02 -0.13592E-01
 -0.37964E-02  0.93572E-03 -0.13592E-01
 -0.39100E-02 -0.47884E-18 -0.13592E-01
 -0.37964E-02 -0.93572E-03 -0.13592E-01
 -0.34621E-02 -0.18171E-02 -0.13592E-01
 -0.29267E-02 -0.25928E-02 -0.13592E-01
 -0.22211E-02 -0.32179E-02 -0.13592E-01
 -0.13865E-02 -0.36559E-02 -0.13592E-01
 -0.47130E-03 -0.38815E-02 -0.13592E-01
  0.47130E-03 -0.38815E-02 -0.13592E-01
  0.13865E-02 -0.36559E-02 -0.13592E-01
  0.22211E-02 -0.32179E-02 -0.13592E-01
  0.29267E-02 -0.25928E-02 -0.13592E-01
  0.34621E-02 -0.18171E-02 -0.13592E-01
  0.37964E-02 -0.93572E-03 -0.13592E-01
  0.10364E-02  0.67958E-03 -0.12613E-01
  0.17430E-02  0.12387E-02 -0.12613E-01
  0.23162E-02  0.59779E-03 -0.12613E-01
  0.16672E-02 -0.32870E-03 -0.12613E-01
  0.30374E-02  0.15318E-03 -0.12613E-01
  0.27832E-02 -0.67051E-03 -0.12613E-01
  0.12838E-02  0.18434E-02 -0.12613E-01
  0.64845E-03  0.14696E-02 -0.12613E-01
  0.12442E-03  0.31311E-03 -0.12613E-01
 -0.13044E-03  0.11882E-02 -0.12613E-01
  0.94102E-03  0.22763E-02 -0.12613E-01
  0.11286E-02  0.28233E-02 -0.12613E-01
  0.17443E-02  0.24255E-02 -0.12613E-01
  0.40523E-03  0.21689E-02 -0.12613E-01
  0.39759E-03  0.29335E-02 -0.12613E-01
 -0.76727E-03 -0.10050E-02 -0.12613E-01
 -0.86735E-03  0.88681E-04 -0.12613E-01
  0.45582E-03 -0.69447E-03 -0.12613E-01
 -0.18335E-02 -0.71028E-03 -0.12613E-01
 -0.18429E-02  0.84232E-04 -0.12613E-01
 -0.27235E-02 -0.77661E-03 -0.12613E-01
 -0.27995E-02  0.43993E-04 -0.12613E-01
 -0.25383E-02 -0.15189E-02 -0.12613E-01
 -0.19339E-02 -0.13218E-02 -0.12613E-01
 -0.99190E-03  0.10048E-02 -0.12613E-01
 -0.14422E-02 -0.17320E-02 -0.12613E-01
 -0.31334E-03  0.20254E-02 -0.12613E-01
 -0.11026E-02  0.18599E-02 -0.12613E-01
 -0.18839E-02  0.17175E-02 -0.12613E-01
 -0.18697E-02  0.91228E-03 -0.12613E-01
 -0.16201E-03 -0.19803E-02 -0.12613E-01
 -0.94807E-03 -0.23492E-02 -0.12613E-01
  0.78063E-03 -0.17073E-02 -0.12613E-01
  0.17206E-02 -0.14923E-02 -0.12613E-01
  0.32089E-02  0.77243E-03 -0.12613E-01
  0.28043E-02  0.12528E-02 -0.12613E-01
  0.23046E-02  0.18670E-02 -0.12613E-01
 -0.40448E-03  0.28910E-02 -0.12613E-01
 -0.12093E-02  0.27151E-02 -0.12613E-01
 -0.19443E-02  0.24615E-02 -0.12613E-01
 -0.25025E-02  0.22358E-02 -0.12613E-01
 -0.26360E-02  0.16503E-02 -0.12613E-01
 -0.27633E-02  0.87807E-03 -0.12613E-01
 -0.21140E-02 -0.21374E-02 -0.12613E-01
 -0.16092E-02 -0.26934E-02 -0.12613E-01
 -0.11953E-02 -0.31291E-02 -0.12613E-01
 -0.59060E-03 -0.30382E-02 -0.12613E-01
  0.20424E-03 -0.28749E-02 -0.12613E-01
  0.10549E-02 -0.26455E-02 -0.12613E-01
  0.18418E-02 -0.23732E-02 -0.12613E-01
  0.24559E-02 -0.21511E-02 -0.12613E-01
  0.26030E-02 -0.15092E-02 -0.12613E-01
  0.37964E-02  0.93572E-03 -0.12613E-01
  0.39100E-02  0.00000E+00 -0.12613E-01
  0.34621E-02  0.18171E-02 -0.12613E-01
  0.29267E-02  0.25928E-02 -0.12613E-01
  0.22211E-02  0.32179E-02 -0.12613E-01
  0.13865E-02  0.36559E-02 -0.12613E-01
  0.47130E-03  0.38815E-02 -0.12613E-01
 -0.47130E-03  0.38815E-02 -0.12613E-01
 -0.13865E-02  0.36559E-02 -0.12613E-01
 -0.22211E-02  0.32179E-02 -0.12613E-01
 -0.29267E-02  0.25928E-02 -0.12613E-01
 -0.34621E-02  0.18171E-02 -0.12613E-01
 -0.37964E-02  0.93572E-03 -0.12613E-01
 -0.39100E-02  0.22152E-17 -0.12613E-01
 -0.37964E-02 -0.93572E-03 -0.12613E-01
 -0.34621E-02 -0.18171E-02 -0.12613E-01
 -0.29267E-02 -0.25928E-02 -0.12613E-01
 -0.22211E-02 -0.32179E-02 -0.12613E-01
 -0.13865E-02 -0.36559E-02 -0.12613E-01
 -0.47130E-03 -0.38815E-02 -0.12613E-01
  0.47130E-03 -0.38815E-02 -0.12613E-01
  0.13865E-02 -0.36559E-02 -0.12613E-01
  0.22211E-02 -0.32179E-02 -0.12613E-01
  0.29267E-02 -0.25928E-02 -0.12613E-01
  0.34621E-02 -0.18171E-02 -0.12613E-01
  0.37964E-02 -0.93572E-03 -0.12613E-01
  0.10363E-02  0.68013E-03 -0.11633E-01
  0.17429E-02  0.12394E-02 -0.11633E-01
  0.23161E-02  0.59831E-03 -0.11633E-01
  0.16670E-02 -0.32794E-03 -0.11633E-01
  0.30374E-02  0.15354E-03 -0.11633E-01
  0.27836E-02 -0.67002E-03 -0.11633E-01
  0.12837E-02  0.18436E-02 -0.11633E-01
  0.64820E-03  0.14706E-02 -0.11633E-01
  0.12416E-03  0.31426E-03 -0.11633E-01
 -0.13063E-03  0.11900E-02 -0.11633E-01
  0.94069E-03  0.22765E-02 -0.11633E-01
  0.11282E-02  0.28229E-02 -0.11633E-01
  0.17439E-02  0.24257E-02 -0.11633E-01
  0.40518E-03  0.21689E-02 -0.11633E-01
  0.39757E-03  0.29332E-02 -0.11633E-01
 -0.76763E-03 -0.10051E-02 -0.11633E-01
 -0.86746E-03  0.89490E-04 -0.11633E-01
  0.45537E-03 -0.69374E-03 -0.11633E-01
 -0.18338E-02 -0.71013E-03 -0.11633E-01
 -0.18428E-02  0.84355E-04 -0.11633E-01
 -0.27234E-02 -0.77644E-03 -0.11633E-01
 -0.27992E-02  0.44266E-04 -0.11633E-01
 -0.25385E-02 -0.15188E-02 -0.11633E-01
 -0.19343E-02 -0.13216E-02 -0.11633E-01
 -0.99176E-03  0.10061E-02 -0.11633E-01
 -0.14425E-02 -0.17320E-02 -0.11633E-01
 -0.31314E-03  0.20257E-02 -0.11633E-01
 -0.11023E-02  0.18598E-02 -0.11633E-01
 -0.18839E-02  0.17175E-02 -0.11633E-01
 -0.18696E-02  0.91252E-03 -0.11633E-01
 -0.16229E-03 -0.19803E-02 -0.11633E-01
 -0.94867E-03 -0.23492E-02 -0.11633E-01
  0.77997E-03 -0.17073E-02 -0.11633E-01
  0.17205E-02 -0.14926E-02 -0.11633E-01
  0.32092E-02  0.77343E-03 -0.11633E-01
  0.28043E-02  0.12533E-02 -0.11633E-01
  0.23044E-02  0.18670E-02 -0.11633E-01
 -0.40434E-03  0.28899E-02 -0.11633E-01
 -0.12093E-02  0.27146E-02 -0.11633E-01
 -0.19443E-02  0.24613E-02 -0.11633E-01
 -0.25025E-02  0.22358E-02 -0.11633E-01
 -0.26359E-02  0.16503E-02 -0.11633E-01
 -0.27630E-02  0.87833E-03 -0.11633E-01
 -0.21141E-02 -0.21374E-02 -0.11633E-01
 -0.16093E-02 -0.26934E-02 -0.11633E-01
 -0.11954E-02 -0.31291E-02 -0.11633E-01
 -0.59095E-03 -0.30382E-02 -0.11633E-01
  0.20384E-03 -0.28750E-02 -0.11633E-01
  0.10546E-02 -0.26458E-02 -0.11633E-01
  0.18419E-02 -0.23734E-02 -0.11633E-01
  0.24560E-02 -0.21516E-02 -0.11633E-01
  0.26031E-02 -0.15091E-02 -0.11633E-01
  0.37964E-02  0.93572E-03 -0.11633E-01
  0.39100E-02  0.00000E+00 -0.11633E-01
  0.34621E-02  0.18171E-02 -0.11633E-01
  0.29267E-02  0.25928E-02 -0.11633E-01
  0.22211E-02  0.32179E-02 -0.11633E-01
  0.13865E-02  0.36559E-02 -0.11633E-01
  0.47130E-03  0.38815E-02 -0.11633E-01
 -0.47130E-03  0.38815E-02 -0.11633E-01
 -0.13865E-02  0.36559E-02 -0.11633E-01
 -0.22211E-02  0.32179E-02 -0.11633E-01
 -0.29267E-02  0.25928E-02 -0.11633E-01
 -0.34621E-02  0.18171E-02 -0.11633E-01
 -0.37964E-02  0.93572E-03 -0.11633E-01
 -0.39100E-02 -0.47884E-18 -0.11633E-01
 -0.37964E-02 -0.93572E-03 -0.11633E-01
 -0.34621E-02 -0.18171E-02 -0.11633E-01
 -0.29267E-02 -0.25928E-02 -0.11633E-01
 -0.22211E-02 -0.32179E-02 -0.11633E-01
 -0.13865E-02 -0.36559E-02 -0.11633E-01
 -0.47130E-03 -0.38815E-02 -0.11633E-01
  0.47130E-03 -0.38815E-02 -0.11633E-01
  0.13865E-02 -0.36559E-02 -0.11633E-01
  0.22211E-02 -0.32179E-02 -0.11633E-01
  0.29267E-02 -0.25928E-02 -0.11633E-01
  0.34621E-02 -0.18171E-02 -0.11633E-01
  0.37964E-02 -0.93572E-03 -0.11633E-01
  0.10362E-02  0.68068E-03 -0.10654E-01
  0.17427E-02  0.12401E-02 -0.10654E-01
  0.23160E-02  0.59884E-03 -0.10654E-01
  0.16668E-02 -0.32719E-03 -0.10654E-01
  0.30373E-02  0.15391E-03 -0.10654E-01
  0.27839E-02 -0.66953E-03 -0.10654E-01
  0.12836E-02  0.18438E-02 -0.10654E-01
  0.64796E-03  0.14716E-02 -0.10654E-01
  0.12390E-03  0.31541E-03 -0.10654E-01
 -0.13082E-03  0.11917E-02 -0.10654E-01
  0.94036E-03  0.22766E-02 -0.10654E-01
  0.11279E-02  0.28225E-02 -0.10654E-01
  0.17435E-02  0.24258E-02 -0.10654E-01
  0.40512E-03  0.21690E-02 -0.10654E-01
  0.39755E-03  0.29330E-02 -0.10654E-01
 -0.76798E-03 -0.10053E-02 -0.10654E-01
 -0.86756E-03  0.90299E-04 -0.10654E-01
  0.45492E-03 -0.69302E-03 -0.10654E-01
 -0.18341E-02 -0.70999E-03 -0.10654E-01
 -0.18427E-02  0.84479E-04 -0.10654E-01
 -0.27234E-02 -0.77627E-03 -0.10654E-01
 -0.27990E-02  0.44540E-04 -0.10654E-01
 -0.25386E-02 -0.15188E-02 -0.10654E-01
 -0.19347E-02 -0.13215E-02 -0.10654E-01
 -0.99161E-03  0.10075E-02 -0.10654E-01
 -0.14429E-02 -0.17319E-02 -0.10654E-01
 -0.31294E-03  0.20260E-02 -0.10654E-01
 -0.11019E-02  0.18597E-02 -0.10654E-01
 -0.18838E-02  0.17175E-02 -0.10654E-01
 -0.18695E-02  0.91276E-03 -0.10654E-01
 -0.16256E-03 -0.19804E-02 -0.10654E-01
 -0.94927E-03 -0.23493E-02 -0.10654E-01
  0.77931E-03 -0.17073E-02 -0.10654E-01
  0.17205E-02 -0.14928E-02 -0.10654E-01
  0.32096E-02  0.77444E-03 -0.10654E-01
  0.28043E-02  0.12537E-02 -0.10654E-01
  0.23043E-02  0.18670E-02 -0.10654E-01
 -0.40420E-03  0.28888E-02 -0.10654E-01
 -0.12093E-02  0.27141E-02 -0.10654E-01
 -0.19443E-02  0.24611E-02 -0.10654E-01
 -0.25024E-02  0.22358E-02 -0.10654E-01
 -0.26358E-02  0.16503E-02 -0.10654E-01
 -0.27627E-02  0.87859E-03 -0.10654E-01
 -0.21143E-02 -0.21374E-02 -0.10654E-01
 -0.16093E-02 -0.26934E-02 -0.10654E-01
 -0.11955E-02 -0.31291E-02 -0.10654E-01
 -0.59130E-03 -0.30382E-02 -0.10654E-01
  0.20343E-03 -0.28750E-02 -0.10654E-01
  0.10543E-02 -0.26460E-02 -0.10654E-01
  0.18419E-02 -0.23736E-02 -0.10654E-01
  0.24561E-02 -0.21521E-02 -0.10654E-01
  0.26032E-02 -0.15090E-02 -0.10654E-01
  0.37964E-02  0.93572E-03 -0.10654E-01
  0.39100E-02  0.00000E+00 -0.10654E-01
  0.34621E-02  0.18171E-02 -0.10654E-01
  0.29267E-02  0.25928E-02 -0.10654E-01
  0.22211E-02  0.32179E-02 -0.10654E-01
  0.13865E-02  0.36559E-02 -0.10654E-01
  0.47130E-03  0.38815E-02 -0.10654E-01
 -0.47130E-03  0.38815E-02 -0.10654E-01
 -0.13865E-02  0.36559E-02 -0.10654E-01
 -0.22211E-02  0.32179E-02 -0.10654E-01
 -0.29267E-02  0.25928E-02 -0.10654E-01
 -0.34621E-02  0.18171E-02 -0.10654E-01
 -0.37964E-02  0.93572E-03 -0.10654E-01
 -0.39100E-02  0.22152E-17 -0.10654E-01
 -0.37964E-02 -0.93572E-03 -0.10654E-01
 -0.34621E-02 -0.18171E-02 -0.10654E-01
 -0.29267E-02 -0.25928E-02 -0.10654E-01
 -0.22211E-02 -0.32179E-02 -0.10654E-01
 -0.13865E-02 -0.36559E-02 -0.10654E-01
 -0.47130E-03 -0.38815E-02 -0.10654E-01
  0.47130E-03 -0.38815E-02 -0.10654E-01
  0.13865E-02 -0.36559E-02 -0.10654E-01
  0.22211E-02 -0.32179E-02 -0.10654E-01
  0.29267E-02 -0.25928E-02 -0.10654E-01
  0.34621E-02 -0.18171E-02 -0.10654E-01
  0.37964E-02 -0.93572E-03 -0.10654E-01
  0.10360E-02  0.68124E-03 -0.96750E-02
  0.17425E-02  0.12407E-02 -0.96750E-02
  0.23158E-02  0.59936E-03 -0.96750E-02
  0.16666E-02 -0.32643E-03 -0.96750E-02
  0.30373E-02  0.15427E-03 -0.96750E-02
  0.27842E-02 -0.66903E-03 -0.96750E-02
  0.12835E-02  0.18440E-02 -0.96750E-02
  0.64771E-03  0.14727E-02 -0.96750E-02
  0.12363E-03  0.31656E-03 -0.96750E-02
 -0.13100E-03  0.11935E-02 -0.96750E-02
  0.94003E-03  0.22767E-02 -0.96750E-02
  0.11276E-02  0.28220E-02 -0.96750E-02
  0.17432E-02  0.24260E-02 -0.96750E-02
  0.40507E-03  0.21690E-02 -0.96750E-02
  0.39754E-03  0.29327E-02 -0.96750E-02
 -0.76834E-03 -0.10054E-02 -0.96750E-02
 -0.86767E-03  0.91108E-04 -0.96750E-02
  0.45447E-03 -0.69229E-03 -0.96750E-02
 -0.18344E-02 -0.70985E-03 -0.96750E-02
 -0.18426E-02  0.84602E-04 -0.96750E-02
 -0.27234E-02 -0.77610E-03 -0.96750E-02
 -0.27987E-02  0.44813E-04 -0.96750E-02
 -0.25388E-02 -0.15187E-02 -0.96750E-02
 -0.19352E-02 -0.13215E-02 -0.96750E-02
 -0.99147E-03  0.10088E-02 -0.96750E-02
 -0.14433E-02 -0.17319E-02 -0.96750E-02
 -0.31274E-03  0.20262E-02 -0.96750E-02
 -0.11016E-02  0.18595E-02 -0.96750E-02
 -0.18838E-02  0.17175E-02 -0.96750E-02
 -0.18694E-02  0.91300E-03 -0.96750E-02
 -0.16284E-03 -0.19804E-02 -0.96750E-02
 -0.94986E-03 -0.23493E-02 -0.96750E-02
  0.77865E-03 -0.17073E-02 -0.96750E-02
  0.17205E-02 -0.14931E-02 -0.96750E-02
  0.32099E-02  0.77544E-03 -0.96750E-02
  0.28042E-02  0.12541E-02 -0.96750E-02
  0.23042E-02  0.18671E-02 -0.96750E-02
 -0.40407E-03  0.28877E-02 -0.96750E-02
 -0.12093E-02  0.27137E-02 -0.96750E-02
 -0.19442E-02  0.24609E-02 -0.96750E-02
 -0.25024E-02  0.22358E-02 -0.96750E-02
 -0.26358E-02  0.16503E-02 -0.96750E-02
 -0.27624E-02  0.87885E-03 -0.96750E-02
 -0.21144E-02 -0.21374E-02 -0.96750E-02
 -0.16094E-02 -0.26934E-02 -0.96750E-02
 -0.11956E-02 -0.31291E-02 -0.96750E-02
 -0.59165E-03 -0.30382E-02 -0.96750E-02
  0.20302E-03 -0.28750E-02 -0.96750E-02
  0.10540E-02 -0.26463E-02 -0.96750E-02
  0.18419E-02 -0.23738E-02 -0.96750E-02
  0.24563E-02 -0.21527E-02 -0.96750E-02
  0.26033E-02 -0.15088E-02 -0.96750E-02
  0.37964E-02  0.93572E-03 -0.96750E-02
  0.39100E-02  0.00000E+00 -0.96750E-02
  0.34621E-02  0.18171E-02 -0.96750E-02
  0.29267E-02  0.25928E-02 -0.96750E-02
  0.22211E-02  0.32179E-02 -0.96750E-02
  0.13865E-02  0.36559E-02 -0.96750E-02
  0.47130E-03  0.38815E-02 -0.96750E-02
 -0.47130E-03  0.38815E-02 -0.96750E-02
 -0.13865E-02  0.36559E-02 -0.96750E-02
 -0.22211E-02  0.32179E-02 -0.96750E-02
 -0.29267E-02  0.25928E-02 -0.96750E-02
 -0.34621E-02  0.18171E-02 -0.96750E-02
 -0.37964E-02  0.93572E-03 -0.96750E-02
 -0.39100E-02 -0.47884E-18 -0.96750E-02
 -0.37964E-02 -0.93572E-03 -0.96750E-02
 -0.34621E-02 -0.18171E-02 -0.96750E-02
 -0.29267E-02 -0.25928E-02 -0.96750E-02
 -0.22211E-02 -0.32179E-02 -0.96750E-02
 -0.13865E-02 -0.36559E-02 -0.96750E-02
 -0.47130E-03 -0.38815E-02 -0.96750E-02
  0.47130E-03 -0.38815E-02 -0.96750E-02
  0.13865E-02 -0.36559E-02 -0.96750E-02
  0.22211E-02 -0.32179E-02 -0.96750E-02
  0.29267E-02 -0.25928E-02 -0.96750E-02
  0.34621E-02 -0.18171E-02 -0.96750E-02
  0.37964E-02 -0.93572E-03 -0.96750E-02
  0.10359E-02  0.68179E-03 -0.86958E-02
  0.17423E-02  0.12414E-02 -0.86958E-02
  0.23157E-02  0.59988E-03 -0.86958E-02
  0.16664E-02 -0.32568E-03 -0.86958E-02
  0.30373E-02  0.15463E-03 -0.86958E-02
  0.27846E-02 -0.66854E-03 -0.86958E-02
  0.12834E-02  0.18442E-02 -0.86958E-02
  0.64747E-03  0.14736E-02 -0.86958E-02
  0.12337E-03  0.31770E-03 -0.86958E-02
 -0.13118E-03  0.11952E-02 -0.86958E-02
  0.93970E-03  0.22768E-02 -0.86958E-02
  0.11272E-02  0.28216E-02 -0.86958E-02
  0.17428E-02  0.24261E-02 -0.86958E-02
  0.40501E-03  0.21690E-02 -0.86958E-02
  0.39752E-03  0.29324E-02 -0.86958E-02
 -0.76869E-03 -0.10056E-02 -0.86958E-02
 -0.86778E-03  0.91918E-04 -0.86958E-02
  0.45402E-03 -0.69156E-03 -0.86958E-02
 -0.18347E-02 -0.70971E-03 -0.86958E-02
 -0.18425E-02  0.84726E-04 -0.86958E-02
 -0.27234E-02 -0.77593E-03 -0.86958E-02
 -0.27984E-02  0.45086E-04 -0.86958E-02
 -0.25389E-02 -0.15187E-02 -0.86958E-02
 -0.19356E-02 -0.13213E-02 -0.86958E-02
 -0.99133E-03  0.10102E-02 -0.86958E-02
 -0.14436E-02 -0.17318E-02 -0.86958E-02
 -0.31254E-03  0.20265E-02 -0.86958E-02
 -0.11013E-02  0.18594E-02 -0.86958E-02
 -0.18837E-02  0.17175E-02 -0.86958E-02
 -0.18692E-02  0.91324E-03 -0.86958E-02
 -0.16311E-03 -0.19804E-02 -0.86958E-02
 -0.95046E-03 -0.23493E-02 -0.86958E-02
  0.77799E-03 -0.17073E-02 -0.86958E-02
  0.17204E-02 -0.14933E-02 -0.86958E-02
  0.32102E-02  0.77645E-03 -0.86958E-02
  0.28042E-02  0.12545E-02 -0.86958E-02
  0.23041E-02  0.18671E-02 -0.86958E-02
 -0.40393E-03  0.28867E-02 -0.86958E-02
 -0.12093E-02  0.27132E-02 -0.86958E-02
 -0.19442E-02  0.24606E-02 -0.86958E-02
 -0.25024E-02  0.22358E-02 -0.86958E-02
 -0.26357E-02  0.16503E-02 -0.86958E-02
 -0.27621E-02  0.87912E-03 -0.86958E-02
 -0.21146E-02 -0.21374E-02 -0.86958E-02
 -0.16094E-02 -0.26935E-02 -0.86958E-02
 -0.11957E-02 -0.31291E-02 -0.86958E-02
 -0.59200E-03 -0.30381E-02 -0.86958E-02
  0.20262E-03 -0.28750E-02 -0.86958E-02
  0.10536E-02 -0.26466E-02 -0.86958E-02
  0.18420E-02 -0.23740E-02 -0.86958E-02
  0.24564E-02 -0.21533E-02 -0.86958E-02
  0.26033E-02 -0.15087E-02 -0.86958E-02
  0.37964E-02  0.93572E-03 -0.86958E-02
  0.39100E-02  0.00000E+00 -0.86958E-02
  0.34621E-02  0.18171E-02 -0.86958E-02
  0.29267E-02  0.25928E-02 -0.86958E-02
  0.22211E-02  0.32179E-02 -0.86958E-02
  0.13865E-02  0.36559E-02 -0.86958E-02
  0.47130E-03  0.38815E-02 -0.86958E-02
 -0.47130E-03  0.38815E-02 -0.86958E-02
 -0.13865E-02  0.36559E-02 -0.86958E-02
 -0.22211E-02  0.32179E-02 -0.86958E-02
 -0.29267E-02  0.25928E-02 -0.86958E-02
 -0.34621E-02  0.18171E-02 -0.86958E-02
 -0.37964E-02  0.93572E-03 -0.86958E-02
 -0.39100E-02 -0.47884E-18 -0.86958E-02
 -0.37964E-02 -0.93572E-03 -0.86958E-02
 -0.34621E-02 -0.18171E-02 -0.86958E-02
 -0.29267E-02 -0.25928E-02 -0.86958E-02
 -0.22211E-02 -0.32179E-02 -0.86958E-02
 -0.13865E-02 -0.36559E-02 -0.86958E-02
 -0.47130E-03 -0.38815E-02 -0.86958E-02
  0.47130E-03 -0.38815E-02 -0.86958E-02
  0.13865E-02 -0.36559E-02 -0.86958E-02
  0.22211E-02 -0.32179E-02 -0.86958E-02
  0.29267E-02 -0.25928E-02 -0.86958E-02
  0.34621E-02 -0.18171E-02 -0.86958E-02
  0.37964E-02 -0.93572E-03 -0.86958E-02
  0.10358E-02  0.68235E-03 -0.77167E-02
  0.17422E-02  0.12421E-02 -0.77167E-02
  0.23156E-02  0.60041E-03 -0.77167E-02
  0.16662E-02 -0.32493E-03 -0.77167E-02
  0.30373E-02  0.15500E-03 -0.77167E-02
  0.27849E-02 -0.66805E-03 -0.77167E-02
  0.12833E-02  0.18444E-02 -0.77167E-02
  0.64722E-03  0.14747E-02 -0.77167E-02
  0.12311E-03  0.31885E-03 -0.77167E-02
 -0.13137E-03  0.11970E-02 -0.77167E-02
  0.93937E-03  0.22770E-02 -0.77167E-02
  0.11269E-02  0.28211E-02 -0.77167E-02
  0.17424E-02  0.24262E-02 -0.77167E-02
  0.40496E-03  0.21691E-02 -0.77167E-02
  0.39750E-03  0.29322E-02 -0.77167E-02
 -0.76904E-03 -0.10057E-02 -0.77167E-02
 -0.86789E-03  0.92727E-04 -0.77167E-02
  0.45358E-03 -0.69084E-03 -0.77167E-02
 -0.18350E-02 -0.70957E-03 -0.77167E-02
 -0.18424E-02  0.84849E-04 -0.77167E-02
 -0.27233E-02 -0.77576E-03 -0.77167E-02
 -0.27981E-02  0.45359E-04 -0.77167E-02
 -0.25391E-02 -0.15186E-02 -0.77167E-02
 -0.19360E-02 -0.13212E-02 -0.77167E-02
 -0.99118E-03  0.10115E-02 -0.77167E-02
 -0.14440E-02 -0.17318E-02 -0.77167E-02
 -0.31234E-03  0.20268E-02 -0.77167E-02
 -0.11009E-02  0.18593E-02 -0.77167E-02
 -0.18836E-02  0.17175E-02 -0.77167E-02
 -0.18691E-02  0.91347E-03 -0.77167E-02
 -0.16339E-03 -0.19804E-02 -0.77167E-02
 -0.95106E-03 -0.23493E-02 -0.77167E-02
  0.77733E-03 -0.17073E-02 -0.77167E-02
  0.17204E-02 -0.14936E-02 -0.77167E-02
  0.32105E-02  0.77745E-03 -0.77167E-02
  0.28042E-02  0.12550E-02 -0.77167E-02
  0.23040E-02  0.18671E-02 -0.77167E-02
 -0.40379E-03  0.28856E-02 -0.77167E-02
 -0.12093E-02  0.27127E-02 -0.77167E-02
 -0.19441E-02  0.24604E-02 -0.77167E-02
 -0.25023E-02  0.22358E-02 -0.77167E-02
 -0.26356E-02  0.16503E-02 -0.77167E-02
 -0.27618E-02  0.87938E-03 -0.77167E-02
 -0.21147E-02 -0.21374E-02 -0.77167E-02
 -0.16094E-02 -0.26935E-02 -0.77167E-02
 -0.11958E-02 -0.31291E-02 -0.77167E-02
 -0.59235E-03 -0.30381E-02 -0.77167E-02
  0.20221E-03 -0.28750E-02 -0.77167E-02
  0.10533E-02 -0.26468E-02 -0.77167E-02
  0.18420E-02 -0.23742E-02 -0.77167E-02
  0.24565E-02 -0.21538E-02 -0.77167E-02
  0.26034E-02 -0.15086E-02 -0.77167E-02
  0.37964E-02  0.93572E-03 -0.77167E-02
  0.39100E-02  0.00000E+00 -0.77167E-02
  0.34621E-02  0.18171E-02 -0.77167E-02
  0.29267E-02  0.25928E-02 -0.77167E-02
  0.22211E-02  0.32179E-02 -0.77167E-02
  0.13865E-02  0.36559E-02 -0.77167E-02
  0.47130E-03  0.38815E-02 -0.77167E-02
 -0.47130E-03  0.38815E-02 -0.77167E-02
 -0.13865E-02  0.36559E-02 -0.77167E-02
 -0.22211E-02  0.32179E-02 -0.77167E-02
 -0.29267E-02  0.25928E-02 -0.77167E-02
 -0.34621E-02  0.18171E-02 -0.77167E-02
 -0.37964E-02  0.93572E-03 -0.77167E-02
 -0.39100E-02 -0.47884E-18 -0.77167E-02
 -0.37964E-02 -0.93572E-03 -0.77167E-02
 -0.34621E-02 -0.18171E-02 -0.77167E-02
 -0.29267E-02 -0.25928E-02 -0.77167E-02
 -0.22211E-02 -0.32179E-02 -0.77167E-02
 -0.13865E-02 -0.36559E-02 -0.77167E-02
 -0.47130E-03 -0.38815E-02 -0.77167E-02
  0.47130E-03 -0.38815E-02 -0.77167E-02
  0.13865E-02 -0.36559E-02 -0.77167E-02
  0.22211E-02 -0.32179E-02 -0.77167E-02
  0.29267E-02 -0.25928E-02 -0.77167E-02
  0.34621E-02 -0.18171E-02 -0.77167E-02
  0.37964E-02 -0.93572E-03 -0.77167E-02
  0.10357E-02  0.68290E-03 -0.67375E-02
  0.17420E-02  0.12427E-02 -0.67375E-02
  0.23155E-02  0.60093E-03 -0.67375E-02
  0.16660E-02 -0.32417E-03 -0.67375E-02
  0.30372E-02  0.15536E-03 -0.67375E-02
  0.27853E-02 -0.66755E-03 -0.67375E-02
  0.12832E-02  0.18445E-02 -0.67375E-02
  0.64698E-03  0.14757E-02 -0.67375E-02
  0.12285E-03  0.32000E-03 -0.67375E-02
 -0.13155E-03  0.11987E-02 -0.67375E-02
  0.93903E-03  0.22771E-02 -0.67375E-02
  0.11266E-02  0.28207E-02 -0.67375E-02
  0.17420E-02  0.24264E-02 -0.67375E-02
  0.40490E-03  0.21691E-02 -0.67375E-02
  0.39749E-03  0.29319E-02 -0.67375E-02
 -0.76940E-03 -0.10058E-02 -0.67375E-02
 -0.86800E-03  0.93536E-04 -0.67375E-02
  0.45313E-03 -0.69011E-03 -0.67375E-02
 -0.18353E-02 -0.70943E-03 -0.67375E-02
 -0.18423E-02  0.84973E-04 -0.67375E-02
 -0.27233E-02 -0.77559E-03 -0.67375E-02
 -0.27979E-02  0.45633E-04 -0.67375E-02
 -0.25393E-02 -0.15186E-02 -0.67375E-02
 -0.19365E-02 -0.13212E-02 -0.67375E-02
 -0.99104E-03  0.10129E-02 -0.67375E-02
 -0.14443E-02 -0.17318E-02 -0.67375E-02
 -0.31214E-03  0.20271E-02 -0.67375E-02
 -0.11006E-02  0.18592E-02 -0.67375E-02
 -0.18836E-02  0.17175E-02 -0.67375E-02
 -0.18690E-02  0.91371E-03 -0.67375E-02
 -0.16366E-03 -0.19805E-02 -0.67375E-02
 -0.95166E-03 -0.23493E-02 -0.67375E-02
  0.77667E-03 -0.17073E-02 -0.67375E-02
  0.17203E-02 -0.14938E-02 -0.67375E-02
  0.32109E-02  0.77846E-03 -0.67375E-02
  0.28042E-02  0.12554E-02 -0.67375E-02
  0.23039E-02  0.18672E-02 -0.67375E-02
 -0.40365E-03  0.28845E-02 -0.67375E-02
 -0.12093E-02  0.27122E-02 -0.67375E-02
 -0.19441E-02  0.24602E-02 -0.67375E-02
 -0.25023E-02  0.22358E-02 -0.67375E-02
 -0.26355E-02  0.16502E-02 -0.67375E-02
 -0.27615E-02  0.87964E-03 -0.67375E-02
 -0.21148E-02 -0.21374E-02 -0.67375E-02
 -0.16095E-02 -0.26935E-02 -0.67375E-02
 -0.11960E-02 -0.31291E-02 -0.67375E-02
 -0.59270E-03 -0.30381E-02 -0.67375E-02
  0.20180E-03 -0.28750E-02 -0.67375E-02
  0.10530E-02 -0.26471E-02 -0.67375E-02
  0.18421E-02 -0.23744E-02 -0.67375E-02
  0.24566E-02 -0.21543E-02 -0.67375E-02
  0.26035E-02 -0.15085E-02 -0.67375E-02
  0.37964E-02  0.93572E-03 -0.67375E-02
  0.39100E-02  0.00000E+00 -0.67375E-02
  0.34621E-02  0.18171E-02 -0.67375E-02
  0.29267E-02  0.25928E-02 -0.67375E-02
  0.22211E-02  0.32179E-02 -0.67375E-02
  0.13865E-02  0.36559E-02 -0.67375E-02
  0.47130E-03  0.38815E-02 -0.67375E-02
 -0.47130E-03  0.38815E-02 -0.67375E-02
 -0.13865E-02  0.36559E-02 -0.67375E-02
 -0.22211E-02  0.32179E-02 -0.67375E-02
 -0.29267E-02  0.25928E-02 -0.67375E-02
 -0.34621E-02  0.18171E-02 -0.67375E-02
 -0.37964E-02  0.93572E-03 -0.67375E-02
 -0.39100E-02 -0.47884E-18 -0.67375E-02
 -0.37964E-02 -0.93572E-03 -0.67375E-02
 -0.34621E-02 -0.18171E-02 -0.67375E-02
 -0.29267E-02 -0.25928E-02 -0.67375E-02
 -0.22211E-02 -0.32179E-02 -0.67375E-02
 -0.13865E-02 -0.36559E-02 -0.67375E-02
 -0.47130E-03 -0.38815E-02 -0.67375E-02
  0.47130E-03 -0.38815E-02 -0.67375E-02
  0.13865E-02 -0.36559E-02 -0.67375E-02
  0.22211E-02 -0.32179E-02 -0.67375E-02
  0.29267E-02 -0.25928E-02 -0.67375E-02
  0.34621E-02 -0.18171E-02 -0.67375E-02
  0.37964E-02 -0.93572E-03 -0.67375E-02
  0.10356E-02  0.68346E-03 -0.57583E-02
  0.17418E-02  0.12434E-02 -0.57583E-02
  0.23153E-02  0.60145E-03 -0.57583E-02
  0.16657E-02 -0.32342E-03 -0.57583E-02
  0.30372E-02  0.15572E-03 -0.57583E-02
  0.27856E-02 -0.66706E-03 -0.57583E-02
  0.12830E-02  0.18447E-02 -0.57583E-02
  0.64673E-03  0.14767E-02 -0.57583E-02
  0.12259E-03  0.32115E-03 -0.57583E-02
 -0.13174E-03  0.12005E-02 -0.57583E-02
  0.93870E-03  0.22772E-02 -0.57583E-02
  0.11262E-02  0.28203E-02 -0.57583E-02
  0.17416E-02  0.24265E-02 -0.57583E-02
  0.40485E-03  0.21691E-02 -0.57583E-02
  0.39747E-03  0.29316E-02 -0.57583E-02
 -0.76975E-03 -0.10060E-02 -0.57583E-02
 -0.86811E-03  0.94345E-04 -0.57583E-02
  0.45268E-03 -0.68939E-03 -0.57583E-02
 -0.18356E-02 -0.70929E-03 -0.57583E-02
 -0.18422E-02  0.85096E-04 -0.57583E-02
 -0.27233E-02 -0.77542E-03 -0.57583E-02
 -0.27976E-02  0.45906E-04 -0.57583E-02
 -0.25394E-02 -0.15185E-02 -0.57583E-02
 -0.19369E-02 -0.13211E-02 -0.57583E-02
 -0.99090E-03  0.10142E-02 -0.57583E-02
 -0.14446E-02 -0.17317E-02 -0.57583E-02
 -0.31194E-03  0.20274E-02 -0.57583E-02
 -0.11002E-02  0.18590E-02 -0.57583E-02
 -0.18835E-02  0.17175E-02 -0.57583E-02
 -0.18689E-02  0.91395E-03 -0.57583E-02
 -0.16394E-03 -0.19805E-02 -0.57583E-02
 -0.95226E-03 -0.23494E-02 -0.57583E-02
  0.77601E-03 -0.17073E-02 -0.57583E-02
  0.17203E-02 -0.14941E-02 -0.57583E-02
  0.32112E-02  0.77946E-03 -0.57583E-02
  0.28042E-02  0.12558E-02 -0.57583E-02
  0.23038E-02  0.18672E-02 -0.57583E-02
 -0.40352E-03  0.28835E-02 -0.57583E-02
 -0.12093E-02  0.27118E-02 -0.57583E-02
 -0.19441E-02  0.24600E-02 -0.57583E-02
 -0.25023E-02  0.22358E-02 -0.57583E-02
 -0.26354E-02  0.16502E-02 -0.57583E-02
 -0.27612E-02  0.87990E-03 -0.57583E-02
 -0.21150E-02 -0.21374E-02 -0.57583E-02
 -0.16095E-02 -0.26935E-02 -0.57583E-02
 -0.11961E-02 -0.31291E-02 -0.57583E-02
 -0.59305E-03 -0.30381E-02 -0.57583E-02
  0.20140E-03 -0.28750E-02 -0.57583E-02
  0.10527E-02 -0.26474E-02 -0.57583E-02
  0.18421E-02 -0.23746E-02 -0.57583E-02
  0.24568E-02 -0.21549E-02 -0.57583E-02
  0.26036E-02 -0.15084E-02 -0.57583E-02
  0.37964E-02  0.93572E-03 -0.57583E-02
  0.39100E-02  0.00000E+00 -0.57583E-02
  0.34621E-02  0.18171E-02 -0.57583E-02
  0.29267E-02  0.25928E-02 -0.57583E-02
  0.22211E-02  0.32179E-02 -0.57583E-02
  0.13865E-02  0.36559E-02 -0.57583E-02
  0.47130E-03  0.38815E-02 -0.57583E-02
 -0.47130E-03  0.38815E-02 -0.57583E-02
 -0.13865E-02  0.36559E-02 -0.57583E-02
 -0.22211E-02  0.32179E-02 -0.57583E-02
 -0.29267E-02  0.25928E-02 -0.57583E-02
 -0.34621E-02  0.18171E-02 -0.57583E-02
 -0.37964E-02  0.93572E-03 -0.57583E-02
 -0.39100E-02  0.22152E-17 -0.57583E-02
 -0.37964E-02 -0.93572E-03 -0.57583E-02
 -0.34621E-02 -0.18171E-02 -0.57583E-02
 -0.29267E-02 -0.25928E-02 -0.57583E-02
 -0.22211E-02 -0.32179E-02 -0.57583E-02
 -0.13865E-02 -0.36559E-02 -0.57583E-02
 -0.47130E-03 -0.38815E-02 -0.57583E-02
  0.47130E-03 -0.38815E-02 -0.57583E-02
  0.13865E-02 -0.36559E-02 -0.57583E-02
  0.22211E-02 -0.32179E-02 -0.57583E-02
  0.29267E-02 -0.25928E-02 -0.57583E-02
  0.34621E-02 -0.18171E-02 -0.57583E-02
  0.37964E-02 -0.93572E-03 -0.57583E-02
  0.10355E-02  0.68401E-03 -0.47792E-02
  0.17416E-02  0.12440E-02 -0.47792E-02
  0.23152E-02  0.60198E-03 -0.47792E-02
  0.16655E-02 -0.32266E-03 -0.47792E-02
  0.30372E-02  0.15609E-03 -0.47792E-02
  0.27860E-02 -0.66657E-03 -0.47792E-02
  0.12829E-02  0.18449E-02 -0.47792E-02
  0.64649E-03  0.14777E-02 -0.47792E-02
  0.12232E-03  0.32230E-03 -0.47792E-02
 -0.13193E-03  0.12022E-02 -0.47792E-02
  0.93837E-03  0.22774E-02 -0.47792E-02
  0.11259E-02  0.28198E-02 -0.47792E-02
  0.17412E-02  0.24267E-02 -0.47792E-02
  0.40480E-03  0.21692E-02 -0.47792E-02
  0.39745E-03  0.29314E-02 -0.47792E-02
 -0.77011E-03 -0.10061E-02 -0.47792E-02
 -0.86822E-03  0.95155E-04 -0.47792E-02
  0.45223E-03 -0.68866E-03 -0.47792E-02
 -0.18359E-02 -0.70915E-03 -0.47792E-02
 -0.18421E-02  0.85220E-04 -0.47792E-02
 -0.27232E-02 -0.77525E-03 -0.47792E-02
 -0.27973E-02  0.46180E-04 -0.47792E-02
 -0.25396E-02 -0.15185E-02 -0.47792E-02
 -0.19373E-02 -0.13210E-02 -0.47792E-02
 -0.99075E-03  0.10156E-02 -0.47792E-02
 -0.14450E-02 -0.17317E-02 -0.47792E-02
 -0.31173E-03  0.20277E-02 -0.47792E-02
 -0.10999E-02  0.18589E-02 -0.47792E-02
 -0.18835E-02  0.17175E-02 -0.47792E-02
 -0.18687E-02  0.91419E-03 -0.47792E-02
 -0.16421E-03 -0.19805E-02 -0.47792E-02
 -0.95285E-03 -0.23494E-02 -0.47792E-02
  0.77535E-03 -0.17073E-02 -0.47792E-02
  0.17202E-02 -0.14943E-02 -0.47792E-02
  0.32115E-02  0.78047E-03 -0.47792E-02
  0.28041E-02  0.12563E-02 -0.47792E-02
  0.23037E-02  0.18672E-02 -0.47792E-02
 -0.40338E-03  0.28824E-02 -0.47792E-02
 -0.12093E-02  0.27113E-02 -0.47792E-02
 -0.19440E-02  0.24597E-02 -0.47792E-02
 -0.25023E-02  0.22358E-02 -0.47792E-02
 -0.26353E-02  0.16502E-02 -0.47792E-02
 -0.27609E-02  0.88016E-03 -0.47792E-02
 -0.21151E-02 -0.21374E-02 -0.47792E-02
 -0.16096E-02 -0.26935E-02 -0.47792E-02
 -0.11962E-02 -0.31291E-02 -0.47792E-02
 -0.59340E-03 -0.30381E-02 -0.47792E-02
  0.20099E-03 -0.28751E-02 -0.47792E-02
  0.10524E-02 -0.26476E-02 -0.47792E-02
  0.18422E-02 -0.23748E-02 -0.47792E-02
  0.24569E-02 -0.21554E-02 -0.47792E-02
  0.26036E-02 -0.15083E-02 -0.47792E-02
  0.37964E-02  0.93572E-03 -0.47792E-02
  0.39100E-02  0.00000E+00 -0.47792E-02
  0.34621E-02  0.18171E-02 -0.47792E-02
  0.29267E-02  0.25928E-02 -0.47792E-02
  0.22211E-02  0.32179E-02 -0.47792E-02
  0.13865E-02  0.36559E-02 -0.47792E-02
  0.47130E-03  0.38815E-02 -0.47792E-02
 -0.47130E-03  0.38815E-02 -0.47792E-02
 -0.13865E-02  0.36559E-02 -0.47792E-02
 -0.22211E-02  0.32179E-02 -0.47792E-02
 -0.29267E-02  0.25928E-02 -0.47792E-02
 -0.34621E-02  0.18171E-02 -0.47792E-02
 -0.37964E-02  0.93572E-03 -0.47792E-02
 -0.39100E-02 -0.47884E-18 -0.47792E-02
 -0.37964E-02 -0.93572E-03 -0.47792E-02
 -0.34621E-02 -0.18171E-02 -0.47792E-02
 -0.29267E-02 -0.25928E-02 -0.47792E-02
 -0.22211E-02 -0.32179E-02 -0.47792E-02
 -0.13865E-02 -0.36559E-02 -0.47792E-02
 -0.47130E-03 -0.38815E-02 -0.47792E-02
  0.47130E-03 -0.38815E-02 -0.47792E-02
  0.13865E-02 -0.36559E-02 -0.47792E-02
  0.22211E-02 -0.32179E-02 -0.47792E-02
  0.29267E-02 -0.25928E-02 -0.47792E-02
  0.34621E-02 -0.18171E-02 -0.47792E-02
  0.37964E-02 -0.93572E-03 -0.47792E-02
  0.10354E-02  0.68457E-03 -0.38000E-02
  0.17414E-02  0.12447E-02 -0.38000E-02
  0.23151E-02  0.60250E-03 -0.38000E-02
  0.16653E-02 -0.32191E-03 -0.38000E-02
  0.30372E-02  0.15645E-03 -0.38000E-02
  0.27863E-02 -0.66607E-03 -0.38000E-02
  0.12829E-02  0.18451E-02 -0.38000E-02
  0.64624E-03  0.14787E-02 -0.38000E-02
  0.12206E-03  0.32345E-03 -0.38000E-02
 -0.13211E-03  0.12040E-02 -0.38000E-02
  0.93804E-03  0.22775E-02 -0.38000E-02
  0.11255E-02  0.28194E-02 -0.38000E-02
  0.17408E-02  0.24268E-02 -0.38000E-02
  0.40474E-03  0.21692E-02 -0.38000E-02
  0.39744E-03  0.29311E-02 -0.38000E-02
 -0.77046E-03 -0.10062E-02 -0.38000E-02
 -0.86832E-03  0.95964E-04 -0.38000E-02
  0.45179E-03 -0.68793E-03 -0.38000E-02
 -0.18362E-02 -0.70901E-03 -0.38000E-02
 -0.18420E-02  0.85343E-04 -0.38000E-02
 -0.27232E-02 -0.77507E-03 -0.38000E-02
 -0.27970E-02  0.46453E-04 -0.38000E-02
 -0.25397E-02 -0.15184E-02 -0.38000E-02
 -0.19377E-02 -0.13209E-02 -0.38000E-02
 -0.99061E-03  0.10169E-02 -0.38000E-02
 -0.14453E-02 -0.17316E-02 -0.38000E-02
 -0.31153E-03  0.20280E-02 -0.38000E-02
 -0.10995E-02  0.18588E-02 -0.38000E-02
 -0.18834E-02  0.17175E-02 -0.38000E-02
 -0.18686E-02  0.91443E-03 -0.38000E-02
 -0.16449E-03 -0.19806E-02 -0.38000E-02
 -0.95345E-03 -0.23494E-02 -0.38000E-02
  0.77469E-03 -0.17073E-02 -0.38000E-02
  0.17202E-02 -0.14945E-02 -0.38000E-02
  0.32119E-02  0.78148E-03 -0.38000E-02
  0.28041E-02  0.12567E-02 -0.38000E-02
  0.23036E-02  0.18673E-02 -0.38000E-02
 -0.40324E-03  0.28813E-02 -0.38000E-02
 -0.12093E-02  0.27108E-02 -0.38000E-02
 -0.19440E-02  0.24595E-02 -0.38000E-02
 -0.25022E-02  0.22358E-02 -0.38000E-02
 -0.26352E-02  0.16502E-02 -0.38000E-02
 -0.27606E-02  0.88043E-03 -0.38000E-02
 -0.21152E-02 -0.21374E-02 -0.38000E-02
 -0.16096E-02 -0.26936E-02 -0.38000E-02
 -0.11963E-02 -0.31291E-02 -0.38000E-02
 -0.59375E-03 -0.30381E-02 -0.38000E-02
  0.20059E-03 -0.28751E-02 -0.38000E-02
  0.10521E-02 -0.26479E-02 -0.38000E-02
  0.18422E-02 -0.23750E-02 -0.38000E-02
  0.24570E-02 -0.21560E-02 -0.38000E-02
  0.26037E-02 -0.15082E-02 -0.38000E-02
  0.37964E-02  0.93572E-03 -0.38000E-02
  0.39100E-02  0.00000E+00 -0.38000E-02
  0.34621E-02  0.18171E-02 -0.38000E-02
  0.29267E-02  0.25928E-02 -0.38000E-02
  0.22211E-02  0.32179E-02 -0.38000E-02
  0.13865E-02  0.36559E-02 -0.38000E-02
  0.47130E-03  0.38815E-02 -0.38000E-02
 -0.47130E-03  0.38815E-02 -0.38000E-02
 -0.13865E-02  0.36559E-02 -0.38000E-02
 -0.22211E-02  0.32179E-02 -0.38000E-02
 -0.29267E-02  0.25928E-02 -0.38000E-02
 -0.34621E-02  0.18171E-02 -0.38000E-02
 -0.37964E-02  0.93572E-03 -0.38000E-02
 -0.39100E-02 -0.47884E-18 -0.38000E-02
 -0.37964E-02 -0.93572E-03 -0.38000E-02
 -0.34621E-02 -0.18171E-02 -0.38000E-02
 -0.29267E-02 -0.25928E-02 -0.38000E-02
 -0.22211E-02 -0.32179E-02 -0.38000E-02
 -0.13865E-02 -0.36559E-02 -0.38000E-02
 -0.47130E-03 -0.38815E-02 -0.38000E-02
  0.47130E-03 -0.38815E-02 -0.38000E-02
  0.13865E-02 -0.36559E-02 -0.38000E-02
  0.22211E-02 -0.32179E-02 -0.38000E-02
  0.29267E-02 -0.25928E-02 -0.38000E-02
  0.34621E-02 -0.18171E-02 -0.38000E-02
  0.37964E-02 -0.93572E-03 -0.38000E-02
  0.10352E-02  0.68512E-03 -0.28209E-02
  0.17413E-02  0.12454E-02 -0.28209E-02
  0.23150E-02  0.60302E-03 -0.28209E-02
  0.16651E-02 -0.32115E-03 -0.28209E-02
  0.30371E-02  0.15681E-03 -0.28209E-02
  0.27866E-02 -0.66558E-03 -0.28209E-02
  0.12827E-02  0.18453E-02 -0.28209E-02
  0.64600E-03  0.14797E-02 -0.28209E-02
  0.12180E-03  0.32459E-03 -0.28209E-02
 -0.13230E-03  0.12058E-02 -0.28209E-02
  0.93771E-03  0.22776E-02 -0.28209E-02
  0.11252E-02  0.28189E-02 -0.28209E-02
  0.17404E-02  0.24270E-02 -0.28209E-02
  0.40469E-03  0.21693E-02 -0.28209E-02
  0.39742E-03  0.29308E-02 -0.28209E-02
 -0.77081E-03 -0.10064E-02 -0.28209E-02
 -0.86843E-03  0.96773E-04 -0.28209E-02
  0.45134E-03 -0.68721E-03 -0.28209E-02
 -0.18365E-02 -0.70887E-03 -0.28209E-02
 -0.18419E-02  0.85467E-04 -0.28209E-02
 -0.27232E-02 -0.77490E-03 -0.28209E-02
 -0.27968E-02  0.46726E-04 -0.28209E-02
 -0.25399E-02 -0.15184E-02 -0.28209E-02
 -0.19382E-02 -0.13208E-02 -0.28209E-02
 -0.99046E-03  0.10183E-02 -0.28209E-02
 -0.14457E-02 -0.17316E-02 -0.28209E-02
 -0.31133E-03  0.20283E-02 -0.28209E-02
 -0.10992E-02  0.18586E-02 -0.28209E-02
 -0.18834E-02  0.17175E-02 -0.28209E-02
 -0.18685E-02  0.91467E-03 -0.28209E-02
 -0.16476E-03 -0.19806E-02 -0.28209E-02
 -0.95405E-03 -0.23494E-02 -0.28209E-02
  0.77402E-03 -0.17073E-02 -0.28209E-02
  0.17202E-02 -0.14948E-02 -0.28209E-02
  0.32122E-02  0.78248E-03 -0.28209E-02
  0.28041E-02  0.12571E-02 -0.28209E-02
  0.23034E-02  0.18673E-02 -0.28209E-02
 -0.40310E-03  0.28802E-02 -0.28209E-02
 -0.12093E-02  0.27103E-02 -0.28209E-02
 -0.19440E-02  0.24593E-02 -0.28209E-02
 -0.25022E-02  0.22358E-02 -0.28209E-02
 -0.26351E-02  0.16502E-02 -0.28209E-02
 -0.27602E-02  0.88069E-03 -0.28209E-02
 -0.21154E-02 -0.21374E-02 -0.28209E-02
 -0.16097E-02 -0.26936E-02 -0.28209E-02
 -0.11964E-02 -0.31291E-02 -0.28209E-02
 -0.59409E-03 -0.30381E-02 -0.28209E-02
  0.20018E-03 -0.28751E-02 -0.28209E-02
  0.10518E-02 -0.26482E-02 -0.28209E-02
  0.18422E-02 -0.23752E-02 -0.28209E-02
  0.24571E-02 -0.21565E-02 -0.28209E-02
  0.26038E-02 -0.15081E-02 -0.28209E-02
  0.37964E-02  0.93572E-03 -0.28209E-02
  0.39100E-02  0.00000E+00 -0.28209E-02
  0.34621E-02  0.18171E-02 -0.28209E-02
  0.29267E-02  0.25928E-02 -0.28209E-02
  0.22211E-02  0.32179E-02 -0.28209E-02
  0.13865E-02  0.36559E-02 -0.28209E-02
  0.47130E-03  0.38815E-02 -0.28209E-02
 -0.47130E-03  0.38815E-02 -0.28209E-02
 -0.13865E-02  0.36559E-02 -0.28209E-02
 -0.22211E-02  0.32179E-02 -0.28209E-02
 -0.29267E-02  0.25928E-02 -0.28209E-02
 -0.34621E-02  0.18171E-02 -0.28209E-02
 -0.37964E-02  0.93572E-03 -0.28209E-02
 -0.39100E-02 -0.47884E-18 -0.28209E-02
 -0.37964E-02 -0.93572E-03 -0.28209E-02
 -0.34621E-02 -0.18171E-02 -0.28209E-02
 -0.29267E-02 -0.25928E-02 -0.28209E-02
 -0.22211E-02 -0.32179E-02 -0.28209E-02
 -0.13865E-02 -0.36559E-02 -0.28209E-02
 -0.47130E-03 -0.38815E-02 -0.28209E-02
  0.47130E-03 -0.38815E-02 -0.28209E-02
  0.13865E-02 -0.36559E-02 -0.28209E-02
  0.22211E-02 -0.32179E-02 -0.28209E-02
  0.29267E-02 -0.25928E-02 -0.28209E-02
  0.34621E-02 -0.18171E-02 -0.28209E-02
  0.37964E-02 -0.93572E-03 -0.28209E-02
  0.10351E-02  0.68567E-03 -0.18417E-02
  0.17411E-02  0.12460E-02 -0.18417E-02
  0.23149E-02  0.60355E-03 -0.18417E-02
  0.16649E-02 -0.32040E-03 -0.18417E-02
  0.30371E-02  0.15718E-03 -0.18417E-02
  0.27870E-02 -0.66509E-03 -0.18417E-02
  0.12826E-02  0.18455E-02 -0.18417E-02
  0.64575E-03  0.14807E-02 -0.18417E-02
  0.12154E-03  0.32574E-03 -0.18417E-02
 -0.13248E-03  0.12075E-02 -0.18417E-02
  0.93738E-03  0.22777E-02 -0.18417E-02
  0.11249E-02  0.28185E-02 -0.18417E-02
  0.17400E-02  0.24271E-02 -0.18417E-02
  0.40463E-03  0.21693E-02 -0.18417E-02
  0.39740E-03  0.29306E-02 -0.18417E-02
 -0.77117E-03 -0.10065E-02 -0.18417E-02
 -0.86854E-03  0.97583E-04 -0.18417E-02
  0.45089E-03 -0.68648E-03 -0.18417E-02
 -0.18368E-02 -0.70873E-03 -0.18417E-02
 -0.18418E-02  0.85591E-04 -0.18417E-02
 -0.27232E-02 -0.77474E-03 -0.18417E-02
 -0.27965E-02  0.47000E-04 -0.18417E-02
 -0.25400E-02 -0.15183E-02 -0.18417E-02
 -0.19386E-02 -0.13207E-02 -0.18417E-02
 -0.99032E-03  0.10197E-02 -0.18417E-02
 -0.14460E-02 -0.17316E-02 -0.18417E-02
 -0.31113E-03  0.20285E-02 -0.18417E-02
 -0.10988E-02  0.18585E-02 -0.18417E-02
 -0.18833E-02  0.17175E-02 -0.18417E-02
 -0.18683E-02  0.91491E-03 -0.18417E-02
 -0.16504E-03 -0.19806E-02 -0.18417E-02
 -0.95465E-03 -0.23495E-02 -0.18417E-02
  0.77336E-03 -0.17073E-02 -0.18417E-02
  0.17201E-02 -0.14950E-02 -0.18417E-02
  0.32125E-02  0.78348E-03 -0.18417E-02
  0.28041E-02  0.12576E-02 -0.18417E-02
  0.23033E-02  0.18674E-02 -0.18417E-02
 -0.40296E-03  0.28792E-02 -0.18417E-02
 -0.12093E-02  0.27099E-02 -0.18417E-02
 -0.19439E-02  0.24591E-02 -0.18417E-02
 -0.25022E-02  0.22358E-02 -0.18417E-02
 -0.26350E-02  0.16502E-02 -0.18417E-02
 -0.27599E-02  0.88095E-03 -0.18417E-02
 -0.21155E-02 -0.21374E-02 -0.18417E-02
 -0.16097E-02 -0.26936E-02 -0.18417E-02
 -0.11965E-02 -0.31290E-02 -0.18417E-02
 -0.59444E-03 -0.30381E-02 -0.18417E-02
  0.19977E-03 -0.28751E-02 -0.18417E-02
  0.10515E-02 -0.26484E-02 -0.18417E-02
  0.18423E-02 -0.23754E-02 -0.18417E-02
  0.24573E-02 -0.21571E-02 -0.18417E-02
  0.26039E-02 -0.15080E-02 -0.18417E-02
  0.37964E-02  0.93572E-03 -0.18417E-02
  0.39100E-02  0.00000E+00 -0.18417E-02
  0.34621E-02  0.18171E-02 -0.18417E-02
  0.29267E-02  0.25928E-02 -0.18417E-02
  0.22211E-02  0.32179E-02 -0.18417E-02
  0.13865E-02  0.36559E-02 -0.18417E-02
  0.47130E-03  0.38815E-02 -0.18417E-02
 -0.47130E-03  0.38815E-02 -0.18417E-02
 -0.13865E-02  0.36559E-02 -0.18417E-02
 -0.22211E-02  0.32179E-02 -0.18417E-02
 -0.29267E-02  0.25928E-02 -0.18417E-02
 -0.34621E-02  0.18171E-02 -0.18417E-02
 -0.37964E-02  0.93572E-03 -0.18417E-02
 -0.39100E-02  0.47884E-18 -0.18417E-02
 -0.37964E-02 -0.93572E-03 -0.18417E-02
 -0.34621E-02 -0.18171E-02 -0.18417E-02
 -0.29267E-02 -0.25928E-02 -0.18417E-02
 -0.22211E-02 -0.32179E-02 -0.18417E-02
 -0.13865E-02 -0.36559E-02 -0.18417E-02
 -0.47130E-03 -0.38815E-02 -0.18417E-02
  0.47130E-03 -0.38815E-02 -0.18417E-02
  0.13865E-02 -0.36559E-02 -0.18417E-02
  0.22211E-02 -0.32179E-02 -0.18417E-02
  0.29267E-02 -0.25928E-02 -0.18417E-02
  0.34621E-02 -0.18171E-02 -0.18417E-02
  0.37964E-02 -0.93572E-03 -0.18417E-02
  
CELLS       3486               17724
       1       0
       1       1
       1       2
       1       3
       1       4
       1       5
       1       6
       1       7
       1       8
       1       9
       1      10
       1      11
       1      12
       1      13
       1      14
       1      15
       1      16
       1      17
       1      18
       1      19
       1      20
       1      21
       1      22
       1      23
       1      24
       1      25
       1      26
       1      27
       1      28
       1      29
       1      30
       1      31
       1      32
       1      33
       1      34
       1      35
       1      36
       1      37
       1      38
       1      39
       1      40
       1      41
       1      42
       1      43
       1      44
       1      45
       1      46
       1      47
       1      48
       1      49
       1      50
       1      51
       1      52
       1      53
       1      54
       1      55
       1      56
       1      57
       1      58
       1      59
       1      60
       1      61
       1      62
       1      63
       1      64
       1      65
       1      66
       1      67
       1      68
       1      69
       1      70
       1      71
       1      72
       1      73
       1      74
       1      75
       1      76
       1      77
       1      78
       1      79
       1      80
       1      81
       1      82
       1      83
       1      84
       1      85
       1      86
       1      87
       1      88
       1      89
       1      90
       1      91
       1      92
       1      93
       1      94
       1      95
       1      96
       1      97
       1      98
       1      99
       1     100
       1     101
       1     102
       1     103
       1     104
       1     105
       1     106
       1     107
       1     108
       1     109
       1     110
       1     111
       1     112
       1     113
       1     114
       1     115
       1     116
       1     117
       1     118
       1     119
       1     120
       1     121
       1     122
       1     123
       1     124
       1     125
       1     126
       1     127
       1     128
       1     129
       1     130
       1     131
       1     132
       1     133
       1     134
       1     135
       1     136
       1     137
       1     138
       1     139
       1     140
       1     141
       1     142
       1     143
       1     144
       1     145
       1     146
       1     147
       1     148
       1     149
       1     150
       1     151
       1     152
       1     153
       1     154
       1     155
       1     156
       1     157
       1     158
       1     159
       1     160
       1     161
       1     162
       1     163
       1     164
       1     165
       1     166
       1     167
       1     168
       1     169
       1     170
       1     171
       1     172
       1     173
       1     174
       1     175
       1     176
       1     177
       1     178
       1     179
       1     180
       1     181
       1     182
       1     183
       1     184
       1     185
       1     186
       1     187
       1     188
       1     189
       1     190
       1     191
       1     192
       1     193
       1     194
       1     195
       1     196
       1     197
       1     198
       1     199
       1     200
       1     201
       1     202
       1     203
       1     204
       1     205
       1     206
       1     207
       1     208
       1     209
       1     210
       1     211
       1     212
       1     213
       1     214
       1     215
       1     216
       1     217
       1     218
       1     219
       1     220
       1     221
       1     222
       1     223
       1     224
       1     225
       1     226
       1     227
       1     228
       1     229
       1     230
       1     231
       1     232
       1     233
       1     234
       1     235
       1     236
       1     237
       1     238
       1     239
       1     240
       1     241
       1     242
       1     243
       1     244
       1     245
       1     246
       1     247
       1     248
       1     249
       1     250
       1     251
       1     252
       1     253
       1     254
       1     255
       1     256
       1     257
       1     258
       1     259
       1     260
       1     261
       1     262
       1     263
       1     264
       1     265
       1     266
       1     267
       1     268
       1     269
       1     270
       1     271
       1     272
       1     273
       1     274
       1     275
       1     276
       1     277
       1     278
       1     279
       1     280
       1     281
       1     282
       1     283
       1     284
       1     285
       1     286
       1     287
       1     288
       1     289
       1     290
       1     291
       1     292
       1     293
       1     294
       1     295
       1     296
       1     297
       1     298
       1     299
       1     300
       1     301
       1     302
       1     303
       1     304
       1     305
       1     306
       1     307
       1     308
       1     309
       1     310
       1     311
       1     312
       1     313
       1     314
       1     315
       1     316
       1     317
       1     318
       1     319
       1     320
       1     321
       1     322
       1     323
       1     324
       1     325
       1     326
       1     327
       1     328
       1     329
       1     330
       1     331
       1     332
       1     333
       1     334
       1     335
       1     336
       1     337
       1     338
       1     339
       1     340
       1     341
       1     342
       1     343
       1     344
       1     345
       1     346
       1     347
       1     348
       1     349
       1     350
       1     351
       1     352
       1     353
       1     354
       1     355
       1     356
       1     357
       1     358
       1     359
       1     360
       1     361
       1     362
       1     363
       1     364
       1     365
       1     366
       1     367
       1     368
       1     369
       1     370
       1     371
       1     372
       1     373
       1     374
       1     375
       1     376
       1     377
       1     378
       1     379
       1     380
       1     381
       1     382
       1     383
       1     384
       1     385
       1     386
       1     387
       1     388
       1     389
       1     390
       1     391
       1     392
       1     393
       1     394
       1     395
       1     396
       1     397
       1     398
       1     399
       1     400
       1     401
       1     402
       1     403
       1     404
       1     405
       1     406
       1     407
       1     408
       1     409
       1     410
       1     411
       1     412
       1     413
       1     414
       1     415
       1     416
       1     417
       1     418
       1     419
       1     420
       1     421
       1     422
       1     423
       1     424
       1     425
       1     426
       1     427
       1     428
       1     429
       1     430
       1     431
       1     432
       1     433
       1     434
       1     435
       1     436
       1     437
       1     438
       1     439
       1     440
       1     441
       1     442
       1     443
       1     444
       1     445
       1     446
       1     447
       1     448
       1     449
       1     450
       1     451
       1     452
       1     453
       1     454
       1     455
       1     456
       1     457
       1     458
       1     459
       1     460
       1     461
       1     462
       1     463
       1     464
       1     465
       1     466
       1     467
       1     468
       1     469
       1     470
       1     471
       1     472
       1     473
       1     474
       1     475
       1     476
       1     477
       1     478
       1     479
       1     480
       1     481
       1     482
       1     483
       1     484
       1     485
       1     486
       1     487
       1     488
       1     489
       1     490
       1     491
       1     492
       1     493
       1     494
       1     495
       1     496
       1     497
       1     498
       1     499
       1     500
       1     501
       1     502
       1     503
       1     504
       1     505
       1     506
       1     507
       1     508
       1     509
       1     510
       1     511
       1     512
       1     513
       1     514
       1     515
       1     516
       1     517
       1     518
       1     519
       1     520
       1     521
       1     522
       1     523
       1     524
       1     525
       1     526
       1     527
       1     528
       1     529
       1     530
       1     531
       1     532
       1     533
       1     534
       1     535
       1     536
       1     537
       1     538
       1     539
       1     540
       1     541
       1     542
       1     543
       1     544
       1     545
       1     546
       1     547
       1     548
       1     549
       1     550
       1     551
       1     552
       1     553
       1     554
       1     555
       1     556
       1     557
       1     558
       1     559
       1     560
       1     561
       1     562
       1     563
       1     564
       1     565
       1     566
       1     567
       1     568
       1     569
       1     570
       1     571
       1     572
       1     573
       1     574
       1     575
       1     576
       1     577
       1     578
       1     579
       1     580
       1     581
       1     582
       1     583
       1     584
       1     585
       1     586
       1     587
       1     588
       1     589
       1     590
       1     591
       1     592
       1     593
       1     594
       1     595
       1     596
       1     597
       1     598
       1     599
       1     600
       1     601
       1     602
       1     603
       1     604
       1     605
       1     606
       1     607
       1     608
       1     609
       1     610
       1     611
       1     612
       1     613
       1     614
       1     615
       1     616
       1     617
       1     618
       1     619
       1     620
       1     621
       1     622
       1     623
       1     624
       1     625
       1     626
       1     627
       1     628
       1     629
       1     630
       1     631
       1     632
       1     633
       1     634
       1     635
       1     636
       1     637
       1     638
       1     639
       1     640
       1     641
       1     642
       1     643
       1     644
       1     645
       1     646
       1     647
       1     648
       1     649
       1     650
       1     651
       1     652
       1     653
       1     654
       1     655
       1     656
       1     657
       1     658
       1     659
       1     660
       1     661
       1     662
       1     663
       1     664
       1     665
       1     666
       1     667
       1     668
       1     669
       1     670
       1     671
       1     672
       1     673
       1     674
       1     675
       1     676
       1     677
       1     678
       1     679
       1     680
       1     681
       1     682
       1     683
       1     684
       1     685
       1     686
       1     687
       1     688
       1     689
       1     690
       1     691
       1     692
       1     693
       1     694
       1     695
       1     696
       1     697
       1     698
       1     699
       1     700
       1     701
       1     702
       1     703
       1     704
       1     705
       1     706
       1     707
       1     708
       1     709
       1     710
       1     711
       1     712
       1     713
       1     714
       1     715
       1     716
       1     717
       1     718
       1     719
       1     720
       1     721
       1     722
       1     723
       1     724
       1     725
       1     726
       1     727
       1     728
       1     729
       1     730
       1     731
       1     732
       1     733
       1     734
       1     735
       1     736
       1     737
       1     738
       1     739
       1     740
       1     741
       1     742
       1     743
       1     744
       1     745
       1     746
       1     747
       1     748
       1     749
       1     750
       1     751
       1     752
       1     753
       1     754
       1     755
       1     756
       1     757
       1     758
       1     759
       1     760
       1     761
       1     762
       1     763
       1     764
       1     765
       1     766
       1     767
       1     768
       1     769
       1     770
       1     771
       1     772
       1     773
       1     774
       1     775
       1     776
       1     777
       1     778
       1     779
       1     780
       1     781
       1     782
       1     783
       1     784
       1     785
       1     786
       1     787
       1     788
       1     789
       1     790
       1     791
       1     792
       1     793
       1     794
       1     795
       1     796
       1     797
       1     798
       1     799
       1     800
       1     801
       1     802
       1     803
       1     804
       1     805
       1     806
       1     807
       1     808
       1     809
       1     810
       1     811
       1     812
       1     813
       1     814
       1     815
       1     816
       1     817
       1     818
       1     819
       1     820
       1     821
       1     822
       1     823
       1     824
       1     825
       1     826
       1     827
       1     828
       1     829
       1     830
       1     831
       1     832
       1     833
       1     834
       1     835
       1     836
       1     837
       1     838
       1     839
       1     840
       1     841
       1     842
       1     843
       1     844
       1     845
       1     846
       1     847
       1     848
       1     849
       1     850
       1     851
       1     852
       1     853
       1     854
       1     855
       1     856
       1     857
       1     858
       1     859
       1     860
       1     861
       1     862
       1     863
       1     864
       1     865
       1     866
       1     867
       1     868
       1     869
       1     870
       1     871
       1     872
       1     873
       1     874
       1     875
       1     876
       1     877
       1     878
       1     879
       1     880
       1     881
       1     882
       1     883
       1     884
       1     885
       1     886
       1     887
       1     888
       1     889
       1     890
       1     891
       1     892
       1     893
       1     894
       1     895
       1     896
       1     897
       1     898
       1     899
       1     900
       1     901
       1     902
       1     903
       1     904
       1     905
       1     906
       1     907
       1     908
       1     909
       1     910
       1     911
       1     912
       1     913
       1     914
       1     915
       1     916
       1     917
       1     918
       1     919
       1     920
       1     921
       1     922
       1     923
       1     924
       1     925
       1     926
       1     927
       1     928
       1     929
       1     930
       1     931
       1     932
       1     933
       1     934
       1     935
       1     936
       1     937
       1     938
       1     939
       1     940
       1     941
       1     942
       1     943
       1     944
       1     945
       1     946
       1     947
       1     948
       1     949
       1     950
       1     951
       1     952
       1     953
       1     954
       1     955
       1     956
       1     957
       1     958
       1     959
       1     960
       1     961
       1     962
       1     963
       1     964
       1     965
       1     966
       1     967
       1     968
       1     969
       1     970
       1     971
       1     972
       1     973
       1     974
       1     975
       1     976
       1     977
       1     978
       1     979
       1     980
       1     981
       1     982
       1     983
       1     984
       1     985
       1     986
       1     987
       1     988
       1     989
       1     990
       1     991
       1     992
       1     993
       1     994
       1     995
       1     996
       1     997
       1     998
       1     999
       1    1000
       1    1001
       1    1002
       1    1003
       1    1004
       1    1005
       1    1006
       1    1007
       1    1008
       1    1009
       1    1010
       1    1011
       1    1012
       1    1013
       1    1014
       1    1015
       1    1016
       1    1017
       1    1018
       1    1019
       1    1020
       1    1021
       1    1022
       1    1023
       1    1024
       1    1025
       1    1026
       1    1027
       1    1028
       1    1029
       1    1030
       1    1031
       1    1032
       1    1033
       1    1034
       1    1035
       1    1036
       1    1037
       1    1038
       1    1039
       1    1040
       1    1041
       1    1042
       1    1043
       1    1044
       1    1045
       1    1046
       1    1047
       1    1048
       1    1049
       1    1050
       1    1051
       1    1052
       1    1053
       1    1054
       1    1055
       1    1056
       1    1057
       1    1058
       1    1059
       1    1060
       1    1061
       1    1062
       1    1063
       1    1064
       1    1065
       1    1066
       1    1067
       1    1068
       1    1069
       1    1070
       1    1071
       1    1072
       1    1073
       1    1074
       1    1075
       1    1076
       1    1077
       1    1078
       1    1079
       1    1080
       1    1081
       1    1082
       1    1083
       1    1084
       1    1085
       1    1086
       1    1087
       1    1088
       1    1089
       1    1090
       1    1091
       1    1092
       1    1093
       1    1094
       1    1095
       1    1096
       1    1097
       1    1098
       1    1099
       1    1100
       1    1101
       1    1102
       1    1103
       1    1104
       1    1105
       1    1106
       1    1107
       1    1108
       1    1109
       1    1110
       1    1111
       1    1112
       1    1113
       1    1114
       1    1115
       1    1116
       1    1117
       1    1118
       1    1119
       1    1120
       1    1121
       1    1122
       1    1123
       1    1124
       1    1125
       1    1126
       1    1127
       1    1128
       1    1129
       1    1130
       1    1131
       1    1132
       1    1133
       1    1134
       1    1135
       1    1136
       1    1137
       1    1138
       1    1139
       1    1140
       1    1141
       1    1142
       1    1143
       1    1144
       1    1145
       1    1146
       1    1147
       1    1148
       1    1149
       1    1150
       1    1151
       1    1152
       1    1153
       1    1154
       1    1155
       1    1156
       1    1157
       1    1158
       1    1159
       1    1160
       1    1161
       1    1162
       1    1163
       1    1164
       1    1165
       1    1166
       1    1167
       1    1168
       1    1169
       1    1170
       1    1171
       1    1172
       1    1173
       1    1174
       1    1175
       1    1176
       1    1177
       1    1178
       1    1179
       1    1180
       1    1181
       1    1182
       1    1183
       1    1184
       1    1185
       1    1186
       1    1187
       1    1188
       1    1189
       1    1190
       1    1191
       1    1192
       1    1193
       1    1194
       1    1195
       1    1196
       1    1197
       1    1198
       1    1199
       1    1200
       1    1201
       1    1202
       1    1203
       1    1204
       1    1205
       1    1206
       1    1207
       1    1208
       1    1209
       1    1210
       1    1211
       1    1212
       1    1213
       1    1214
       1    1215
       1    1216
       1    1217
       1    1218
       1    1219
       1    1220
       1    1221
       1    1222
       1    1223
       1    1224
       1    1225
       1    1226
       1    1227
       1    1228
       1    1229
       1    1230
       1    1231
       1    1232
       1    1233
       1    1234
       1    1235
       1    1236
       1    1237
       1    1238
       1    1239
       1    1240
       1    1241
       1    1242
       1    1243
       1    1244
       1    1245
       1    1246
       1    1247
       1    1248
       1    1249
       1    1250
       1    1251
       1    1252
       1    1253
       1    1254
       1    1255
       1    1256
       1    1257
       1    1258
       1    1259
       1    1260
       1    1261
       1    1262
       1    1263
       1    1264
       1    1265
       1    1266
       1    1267
       1    1268
       1    1269
       1    1270
       1    1271
       1    1272
       1    1273
       1    1274
       1    1275
       1    1276
       1    1277
       1    1278
       1    1279
       1    1280
       1    1281
       1    1282
       1    1283
       1    1284
       1    1285
       1    1286
       1    1287
       1    1288
       1    1289
       1    1290
       1    1291
       1    1292
       1    1293
       1    1294
       1    1295
       1    1296
       1    1297
       1    1298
       1    1299
       1    1300
       1    1301
       1    1302
       1    1303
       1    1304
       1    1305
       1    1306
       1    1307
       1    1308
       1    1309
       1    1310
       1    1311
       1    1312
       1    1313
       1    1314
       1    1315
       1    1316
       1    1317
       1    1318
       1    1319
       1    1320
       1    1321
       1    1322
       1    1323
       1    1324
       1    1325
       1    1326
       1    1327
       1    1328
       1    1329
       1    1330
       1    1331
       1    1332
       1    1333
       1    1334
       1    1335
       1    1336
       1    1337
       1    1338
       1    1339
       1    1340
       1    1341
       1    1342
       1    1343
       1    1344
       1    1345
       1    1346
       1    1347
       1    1348
       1    1349
       1    1350
       1    1351
       1    1352
       1    1353
       1    1354
       1    1355
       1    1356
       1    1357
       1    1358
       1    1359
       1    1360
       1    1361
       1    1362
       1    1363
       1    1364
       1    1365
       1    1366
       1    1367
       1    1368
       1    1369
       1    1370
       1    1371
       1    1372
       1    1373
       1    1374
       1    1375
       1    1376
       1    1377
       1    1378
       1    1379
       1    1380
       1    1381
       1    1382
       1    1383
       1    1384
       1    1385
       1    1386
       1    1387
       1    1388
       1    1389
       1    1390
       1    1391
       1    1392
       1    1393
       1    1394
       1    1395
       1    1396
       1    1397
       1    1398
       1    1399
       1    1400
       1    1401
       1    1402
       1    1403
       1    1404
       1    1405
       1    1406
       1    1407
       1    1408
       1    1409
       1    1410
       1    1411
       1    1412
       1    1413
       1    1414
       1    1415
       1    1416
       1    1417
       1    1418
       1    1419
       1    1420
       1    1421
       1    1422
       1    1423
       1    1424
       1    1425
       1    1426
       1    1427
       1    1428
       1    1429
       1    1430
       1    1431
       1    1432
       1    1433
       1    1434
       1    1435
       1    1436
       1    1437
       1    1438
       1    1439
       1    1440
       1    1441
       1    1442
       1    1443
       1    1444
       1    1445
       1    1446
       1    1447
       1    1448
       1    1449
       1    1450
       1    1451
       1    1452
       1    1453
       1    1454
       1    1455
       1    1456
       1    1457
       1    1458
       1    1459
       1    1460
       1    1461
       1    1462
       1    1463
       1    1464
       1    1465
       1    1466
       1    1467
       1    1468
       1    1469
       1    1470
       1    1471
       1    1472
       1    1473
       1    1474
       1    1475
       1    1476
       1    1477
       1    1478
       1    1479
       1    1480
       1    1481
       1    1482
       1    1483
       1    1484
       1    1485
       1    1486
       1    1487
       1    1488
       1    1489
       1    1490
       1    1491
       1    1492
       1    1493
       1    1494
       1    1495
       1    1496
       1    1497
       1    1498
       1    1499
       1    1500
       1    1501
       1    1502
       1    1503
       1    1504
       1    1505
       1    1506
       1    1507
       1    1508
       1    1509
       1    1510
       1    1511
       1    1512
       1    1513
       1    1514
       1    1515
       1    1516
       1    1517
       1    1518
       1    1519
       1    1520
       1    1521
       1    1522
       1    1523
       1    1524
       1    1525
       1    1526
       1    1527
       1    1528
       1    1529
       1    1530
       1    1531
       1    1532
       1    1533
       1    1534
       1    1535
       1    1536
       1    1537
       1    1538
       1    1539
       1    1540
       1    1541
       1    1542
       1    1543
       1    1544
       1    1545
       1    1546
       1    1547
       1    1548
       1    1549
       1    1550
       1    1551
       1    1552
       1    1553
       1    1554
       1    1555
       1    1556
       1    1557
       1    1558
       1    1559
       1    1560
       1    1561
       1    1562
       1    1563
       1    1564
       1    1565
       1    1566
       1    1567
       1    1568
       1    1569
       1    1570
       1    1571
       1    1572
       1    1573
       1    1574
       1    1575
       1    1576
       1    1577
       1    1578
       1    1579
       1    1580
       1    1581
       1    1582
       1    1583
       1    1584
       1    1585
       1    1586
       1    1587
       1    1588
       1    1589
       1    1590
       1    1591
       1    1592
       1    1593
       1    1594
       1    1595
       1    1596
       1    1597
       1    1598
       1    1599
       1    1600
       1    1601
       1    1602
       1    1603
       1    1604
       1    1605
       1    1606
       1    1607
       1    1608
       1    1609
       1    1610
       1    1611
       1    1612
       1    1613
       1    1614
       1    1615
       1    1616
       1    1617
       1    1618
       1    1619
       1    1620
       1    1621
       1    1622
       1    1623
       1    1624
       1    1625
       1    1626
       1    1627
       1    1628
       1    1629
       1    1630
       1    1631
       1    1632
       1    1633
       1    1634
       1    1635
       1    1636
       1    1637
       1    1638
       1    1639
       1    1640
       1    1641
       1    1642
       1    1643
       1    1644
       1    1645
       1    1646
       1    1647
       1    1648
       1    1649
       1    1650
       1    1651
       1    1652
       1    1653
       1    1654
       1    1655
       1    1656
       1    1657
       1    1658
       1    1659
       1    1660
       1    1661
       1    1662
       1    1663
       1    1664
       1    1665
       1    1666
       1    1667
       1    1668
       1    1669
       1    1670
       1    1671
       1    1672
       1    1673
       1    1674
       1    1675
       1    1676
       1    1677
       1    1678
       1    1679
       1    1680
       1    1681
       1    1682
       1    1683
       1    1684
       1    1685
       1    1686
       1    1687
       1    1688
       1    1689
       1    1690
       1    1691
       1    1692
       1    1693
       1    1694
       1    1695
       1    1696
       1    1697
       1    1698
       1    1699
       1    1700
       1    1701
       1    1702
       1    1703
       1    1704
       1    1705
       1    1706
       1    1707
       1    1708
       1    1709
       1    1710
       1    1711
       1    1712
       1    1713
       1    1714
       1    1715
       1    1716
       1    1717
       1    1718
       1    1719
       1    1720
       1    1721
       1    1722
       1    1723
       1    1724
       1    1725
       1    1726
       1    1727
       1    1728
       1    1729
       1    1730
       1    1731
       1    1732
       1    1733
       1    1734
       1    1735
       1    1736
       1    1737
       1    1738
       1    1739
       1    1740
       1    1741
       1    1742
       1    1743
       1    1744
       1    1745
       1    1746
       1    1747
       1    1748
       1    1749
       1    1750
       1    1751
       1    1752
       1    1753
       1    1754
       1    1755
       1    1756
       1    1757
       1    1758
       1    1759
       1    1760
       1    1761
       1    1762
       1    1763
       1    1764
       1    1765
       1    1766
       1    1767
       1    1768
       1    1769
       1    1770
       1    1771
       1    1772
       1    1773
       1    1774
       1    1775
       1    1776
       1    1777
       1    1778
       1    1779
       1    1780
       1    1781
       1    1782
       1    1783
       1    1784
       1    1785
       1    1786
       1    1787
       1    1788
       1    1789
       1    1790
       1    1791
       1    1792
       1    1793
       1    1794
       1    1795
       1    1796
       1    1797
       1    1798
       1    1799
       1    1800
       1    1801
       1    1802
       1    1803
       1    1804
       1    1805
       1    1806
       1    1807
       1    1808
       1    1809
       1    1810
       1    1811
       1    1812
       1    1813
       1    1814
       1    1815
       1    1816
       1    1817
       1    1818
       1    1819
       1    1820
       1    1821
       1    1822
       1    1823
       1    1824
       1    1825
       1    1826
       1    1827
       1    1828
       1    1829
       1    1830
       1    1831
       1    1832
       1    1833
       1    1834
       1    1835
       1    1836
       1    1837
       1    1838
       1    1839
       1    1840
       1    1841
       1    1842
       1    1843
       1    1844
       1    1845
       1    1846
       1    1847
       1    1848
       1    1849
       1    1850
       1    1851
       1    1852
       1    1853
       1    1854
       1    1855
       1    1856
       1    1857
       1    1858
       1    1859
       1    1860
       1    1861
       1    1862
       1    1863
       1    1864
       1    1865
       1    1866
       1    1867
       1    1868
       1    1869
       1    1870
       1    1871
       1    1872
       1    1873
       1    1874
       1    1875
       1    1876
       1    1877
       1    1878
       1    1879
       1    1880
       1    1881
       1    1882
       1    1883
       1    1884
       1    1885
       1    1886
       1    1887
       1    1888
       1    1889
       1    1890
       1    1891
       1    1892
       1    1893
       1    1894
       1    1895
       1    1896
       1    1897
       1    1898
       1    1899
       1    1900
       1    1901
       1    1902
       1    1903
       1    1904
       1    1905
       1    1906
       1    1907
       1    1908
       1    1909
       1    1910
       1    1911
       1    1912
       1    1913
       1    1914
       1    1915
       1    1916
       1    1917
       1    1918
       1    1919
       1    1920
       1    1921
       1    1922
       1    1923
       1    1924
       1    1925
       1    1926
       1    1927
       1    1928
       1    1929
       1    1930
       1    1931
       1    1932
       1    1933
       1    1934
       1    1935
       1    1936
       1    1937
       1    1938
       1    1939
       1    1940
       1    1941
       1    1942
       1    1943
       1    1944
       1    1945
       1    1946
       1    1947
       1    1948
       1    1949
       8       0       1       2       3       4       5       6       7
       8       2       8       9       3       6      10      11       7
       8      12       1       0      13      14       5       4      15
       8       0      16      17      13       4      18      19      15
       8      20      21      22      12      23      24      25      14
       8      26      27      21      20      28      29      24      23
       8      13      26      20      12      15      28      23      14
       8      30      31      16      32      33      34      18      35
       8      36      37      31      30      38      39      34      33
       8      40      41      37      36      42      43      39      38
       8      44      40      36      45      46      42      38      47
       8      48      17      16      31      49      19      18      34
       8      30      50      45      36      33      51      47      38
       8       0       3      32      16       4       7      35      18
       8      52      26      13      17      53      28      15      19
       8      54      52      17      48      55      53      19      49
       8      56      54      48      57      58      55      49      59
       8      37      57      48      31      39      59      49      34
       8      60      61      50      30      62      63      51      33
       8      64      60      30      32      65      62      33      35
       8      66      64      32       3      67      65      35       7
       8      68       8       2      69      70      10       6      71
       8      72      69       2       1      73      71       6       5
       8      22      72       1      12      25      73       5      14
       8      74      27      26      52      75      29      28      53
       8      76      74      52      54      77      75      53      55
       8      78      76      54      56      79      77      55      58
       8      80      78      56      81      82      79      58      83
       8      84      81      56      57      85      83      58      59
       8      41      84      57      37      43      85      59      39
       8      86      44      45      50      87      46      47      51
       8      88      86      50      61      89      87      51      63
       8      90      88      61      91      92      89      63      93
       8      94      91      61      60      95      93      63      62
       8      96      94      60      64      97      95      62      65
       8      98      96      64      66      99      97      65      67
       8     100      98      66     101     102      99      67     103
       8       9     101      66       3      11     103      67       7
       8     104     105       8      68     106     107      10      70
       8     108     104      68      69     109     106      70      71
       8     110     108      69      72     111     109      71      73
       8     112     110      72      22     113     111      73      25
       8     114     112      22      21     115     113      25      24
       8     116     114      21      27     117     115      24      29
       8     118     116      27      74     119     117      29      75
       8     120     118      74      76     121     119      75      77
       8     122     120      76      78     123     121      77      79
       8     124     122      78      80     125     123      79      82
       8     126     124      80      81     127     125      82      83
       8     128     126      81      84     129     127      83      85
       8     130     128      84      41     131     129      85      43
       8     132     130      41      40     133     131      43      42
       8     134     132      40      44     135     133      42      46
       8     136     134      44      86     137     135      46      87
       8     138     136      86      88     139     137      87      89
       8     140     138      88      90     141     139      89      92
       8     142     140      90      91     143     141      92      93
       8     144     142      91      94     145     143      93      95
       8     146     144      94      96     147     145      95      97
       8     148     146      96      98     149     147      97      99
       8     150     148      98     100     151     149      99     102
       8     152     150     100     101     153     151     102     103
       8     154     152     101       9     155     153     103      11
       8     105     154       9       8     107     155      11      10
       8     156     157     158     159       0       1       2       3
       8     158     160     161     159       2       8       9       3
       8     162     157     156     163      12       1       0      13
       8     156     164     165     163       0      16      17      13
       8     166     167     168     162      20      21      22      12
       8     169     170     167     166      26      27      21      20
       8     163     169     166     162      13      26      20      12
       8     171     172     164     173      30      31      16      32
       8     174     175     172     171      36      37      31      30
       8     176     177     175     174      40      41      37      36
       8     178     176     174     179      44      40      36      45
       8     180     165     164     172      48      17      16      31
       8     171     181     179     174      30      50      45      36
       8     156     159     173     164       0       3      32      16
       8     182     169     163     165      52      26      13      17
       8     183     182     165     180      54      52      17      48
       8     184     183     180     185      56      54      48      57
       8     175     185     180     172      37      57      48      31
       8     186     187     181     171      60      61      50      30
       8     188     186     171     173      64      60      30      32
       8     189     188     173     159      66      64      32       3
       8     190     160     158     191      68       8       2      69
       8     192     191     158     157      72      69       2       1
       8     168     192     157     162      22      72       1      12
       8     193     170     169     182      74      27      26      52
       8     194     193     182     183      76      74      52      54
       8     195     194     183     184      78      76      54      56
       8     196     195     184     197      80      78      56      81
       8     198     197     184     185      84      81      56      57
       8     177     198     185     175      41      84      57      37
       8     199     178     179     181      86      44      45      50
       8     200     199     181     187      88      86      50      61
       8     201     200     187     202      90      88      61      91
       8     203     202     187     186      94      91      61      60
       8     204     203     186     188      96      94      60      64
       8     205     204     188     189      98      96      64      66
       8     206     205     189     207     100      98      66     101
       8     161     207     189     159       9     101      66       3
       8     208     209     160     190     104     105       8      68
       8     210     208     190     191     108     104      68      69
       8     211     210     191     192     110     108      69      72
       8     212     211     192     168     112     110      72      22
       8     213     212     168     167     114     112      22      21
       8     214     213     167     170     116     114      21      27
       8     215     214     170     193     118     116      27      74
       8     216     215     193     194     120     118      74      76
       8     217     216     194     195     122     120      76      78
       8     218     217     195     196     124     122      78      80
       8     219     218     196     197     126     124      80      81
       8     220     219     197     198     128     126      81      84
       8     221     220     198     177     130     128      84      41
       8     222     221     177     176     132     130      41      40
       8     223     222     176     178     134     132      40      44
       8     224     223     178     199     136     134      44      86
       8     225     224     199     200     138     136      86      88
       8     226     225     200     201     140     138      88      90
       8     227     226     201     202     142     140      90      91
       8     228     227     202     203     144     142      91      94
       8     229     228     203     204     146     144      94      96
       8     230     229     204     205     148     146      96      98
       8     231     230     205     206     150     148      98     100
       8     232     231     206     207     152     150     100     101
       8     233     232     207     161     154     152     101       9
       8     209     233     161     160     105     154       9       8
       8     234     235     236     237     156     157     158     159
       8     236     238     239     237     158     160     161     159
       8     240     235     234     241     162     157     156     163
       8     234     242     243     241     156     164     165     163
       8     244     245     246     240     166     167     168     162
       8     247     248     245     244     169     170     167     166
       8     241     247     244     240     163     169     166     162
       8     249     250     242     251     171     172     164     173
       8     252     253     250     249     174     175     172     171
       8     254     255     253     252     176     177     175     174
       8     256     254     252     257     178     176     174     179
       8     258     243     242     250     180     165     164     172
       8     249     259     257     252     171     181     179     174
       8     234     237     251     242     156     159     173     164
       8     260     247     241     243     182     169     163     165
       8     261     260     243     258     183     182     165     180
       8     262     261     258     263     184     183     180     185
       8     253     263     258     250     175     185     180     172
       8     264     265     259     249     186     187     181     171
       8     266     264     249     251     188     186     171     173
       8     267     266     251     237     189     188     173     159
       8     268     238     236     269     190     160     158     191
       8     270     269     236     235     192     191     158     157
       8     246     270     235     240     168     192     157     162
       8     271     248     247     260     193     170     169     182
       8     272     271     260     261     194     193     182     183
       8     273     272     261     262     195     194     183     184
       8     274     273     262     275     196     195     184     197
       8     276     275     262     263     198     197     184     185
       8     255     276     263     253     177     198     185     175
       8     277     256     257     259     199     178     179     181
       8     278     277     259     265     200     199     181     187
       8     279     278     265     280     201     200     187     202
       8     281     280     265     264     203     202     187     186
       8     282     281     264     266     204     203     186     188
       8     283     282     266     267     205     204     188     189
       8     284     283     267     285     206     205     189     207
       8     239     285     267     237     161     207     189     159
       8     286     287     238     268     208     209     160     190
       8     288     286     268     269     210     208     190     191
       8     289     288     269     270     211     210     191     192
       8     290     289     270     246     212     211     192     168
       8     291     290     246     245     213     212     168     167
       8     292     291     245     248     214     213     167     170
       8     293     292     248     271     215     214     170     193
       8     294     293     271     272     216     215     193     194
       8     295     294     272     273     217     216     194     195
       8     296     295     273     274     218     217     195     196
       8     297     296     274     275     219     218     196     197
       8     298     297     275     276     220     219     197     198
       8     299     298     276     255     221     220     198     177
       8     300     299     255     254     222     221     177     176
       8     301     300     254     256     223     222     176     178
       8     302     301     256     277     224     223     178     199
       8     303     302     277     278     225     224     199     200
       8     304     303     278     279     226     225     200     201
       8     305     304     279     280     227     226     201     202
       8     306     305     280     281     228     227     202     203
       8     307     306     281     282     229     228     203     204
       8     308     307     282     283     230     229     204     205
       8     309     308     283     284     231     230     205     206
       8     310     309     284     285     232     231     206     207
       8     311     310     285     239     233     232     207     161
       8     287     311     239     238     209     233     161     160
       8     312     313     314     315     234     235     236     237
       8     314     316     317     315     236     238     239     237
       8     318     313     312     319     240     235     234     241
       8     312     320     321     319     234     242     243     241
       8     322     323     324     318     244     245     246     240
       8     325     326     323     322     247     248     245     244
       8     319     325     322     318     241     247     244     240
       8     327     328     320     329     249     250     242     251
       8     330     331     328     327     252     253     250     249
       8     332     333     331     330     254     255     253     252
       8     334     332     330     335     256     254     252     257
       8     336     321     320     328     258     243     242     250
       8     327     337     335     330     249     259     257     252
       8     312     315     329     320     234     237     251     242
       8     338     325     319     321     260     247     241     243
       8     339     338     321     336     261     260     243     258
       8     340     339     336     341     262     261     258     263
       8     331     341     336     328     253     263     258     250
       8     342     343     337     327     264     265     259     249
       8     344     342     327     329     266     264     249     251
       8     345     344     329     315     267     266     251     237
       8     346     316     314     347     268     238     236     269
       8     348     347     314     313     270     269     236     235
       8     324     348     313     318     246     270     235     240
       8     349     326     325     338     271     248     247     260
       8     350     349     338     339     272     271     260     261
       8     351     350     339     340     273     272     261     262
       8     352     351     340     353     274     273     262     275
       8     354     353     340     341     276     275     262     263
       8     333     354     341     331     255     276     263     253
       8     355     334     335     337     277     256     257     259
       8     356     355     337     343     278     277     259     265
       8     357     356     343     358     279     278     265     280
       8     359     358     343     342     281     280     265     264
       8     360     359     342     344     282     281     264     266
       8     361     360     344     345     283     282     266     267
       8     362     361     345     363     284     283     267     285
       8     317     363     345     315     239     285     267     237
       8     364     365     316     346     286     287     238     268
       8     366     364     346     347     288     286     268     269
       8     367     366     347     348     289     288     269     270
       8     368     367     348     324     290     289     270     246
       8     369     368     324     323     291     290     246     245
       8     370     369     323     326     292     291     245     248
       8     371     370     326     349     293     292     248     271
       8     372     371     349     350     294     293     271     272
       8     373     372     350     351     295     294     272     273
       8     374     373     351     352     296     295     273     274
       8     375     374     352     353     297     296     274     275
       8     376     375     353     354     298     297     275     276
       8     377     376     354     333     299     298     276     255
       8     378     377     333     332     300     299     255     254
       8     379     378     332     334     301     300     254     256
       8     380     379     334     355     302     301     256     277
       8     381     380     355     356     303     302     277     278
       8     382     381     356     357     304     303     278     279
       8     383     382     357     358     305     304     279     280
       8     384     383     358     359     306     305     280     281
       8     385     384     359     360     307     306     281     282
       8     386     385     360     361     308     307     282     283
       8     387     386     361     362     309     308     283     284
       8     388     387     362     363     310     309     284     285
       8     389     388     363     317     311     310     285     239
       8     365     389     317     316     287     311     239     238
       8     390     391     392     393     312     313     314     315
       8     392     394     395     393     314     316     317     315
       8     396     391     390     397     318     313     312     319
       8     390     398     399     397     312     320     321     319
       8     400     401     402     396     322     323     324     318
       8     403     404     401     400     325     326     323     322
       8     397     403     400     396     319     325     322     318
       8     405     406     398     407     327     328     320     329
       8     408     409     406     405     330     331     328     327
       8     410     411     409     408     332     333     331     330
       8     412     410     408     413     334     332     330     335
       8     414     399     398     406     336     321     320     328
       8     405     415     413     408     327     337     335     330
       8     390     393     407     398     312     315     329     320
       8     416     403     397     399     338     325     319     321
       8     417     416     399     414     339     338     321     336
       8     418     417     414     419     340     339     336     341
       8     409     419     414     406     331     341     336     328
       8     420     421     415     405     342     343     337     327
       8     422     420     405     407     344     342     327     329
       8     423     422     407     393     345     344     329     315
       8     424     394     392     425     346     316     314     347
       8     426     425     392     391     348     347     314     313
       8     402     426     391     396     324     348     313     318
       8     427     404     403     416     349     326     325     338
       8     428     427     416     417     350     349     338     339
       8     429     428     417     418     351     350     339     340
       8     430     429     418     431     352     351     340     353
       8     432     431     418     419     354     353     340     341
       8     411     432     419     409     333     354     341     331
       8     433     412     413     415     355     334     335     337
       8     434     433     415     421     356     355     337     343
       8     435     434     421     436     357     356     343     358
       8     437     436     421     420     359     358     343     342
       8     438     437     420     422     360     359     342     344
       8     439     438     422     423     361     360     344     345
       8     440     439     423     441     362     361     345     363
       8     395     441     423     393     317     363     345     315
       8     442     443     394     424     364     365     316     346
       8     444     442     424     425     366     364     346     347
       8     445     444     425     426     367     366     347     348
       8     446     445     426     402     368     367     348     324
       8     447     446     402     401     369     368     324     323
       8     448     447     401     404     370     369     323     326
       8     449     448     404     427     371     370     326     349
       8     450     449     427     428     372     371     349     350
       8     451     450     428     429     373     372     350     351
       8     452     451     429     430     374     373     351     352
       8     453     452     430     431     375     374     352     353
       8     454     453     431     432     376     375     353     354
       8     455     454     432     411     377     376     354     333
       8     456     455     411     410     378     377     333     332
       8     457     456     410     412     379     378     332     334
       8     458     457     412     433     380     379     334     355
       8     459     458     433     434     381     380     355     356
       8     460     459     434     435     382     381     356     357
       8     461     460     435     436     383     382     357     358
       8     462     461     436     437     384     383     358     359
       8     463     462     437     438     385     384     359     360
       8     464     463     438     439     386     385     360     361
       8     465     464     439     440     387     386     361     362
       8     466     465     440     441     388     387     362     363
       8     467     466     441     395     389     388     363     317
       8     443     467     395     394     365     389     317     316
       8     468     469     470     471     390     391     392     393
       8     470     472     473     471     392     394     395     393
       8     474     469     468     475     396     391     390     397
       8     468     476     477     475     390     398     399     397
       8     478     479     480     474     400     401     402     396
       8     481     482     479     478     403     404     401     400
       8     475     481     478     474     397     403     400     396
       8     483     484     476     485     405     406     398     407
       8     486     487     484     483     408     409     406     405
       8     488     489     487     486     410     411     409     408
       8     490     488     486     491     412     410     408     413
       8     492     477     476     484     414     399     398     406
       8     483     493     491     486     405     415     413     408
       8     468     471     485     476     390     393     407     398
       8     494     481     475     477     416     403     397     399
       8     495     494     477     492     417     416     399     414
       8     496     495     492     497     418     417     414     419
       8     487     497     492     484     409     419     414     406
       8     498     499     493     483     420     421     415     405
       8     500     498     483     485     422     420     405     407
       8     501     500     485     471     423     422     407     393
       8     502     472     470     503     424     394     392     425
       8     504     503     470     469     426     425     392     391
       8     480     504     469     474     402     426     391     396
       8     505     482     481     494     427     404     403     416
       8     506     505     494     495     428     427     416     417
       8     507     506     495     496     429     428     417     418
       8     508     507     496     509     430     429     418     431
       8     510     509     496     497     432     431     418     419
       8     489     510     497     487     411     432     419     409
       8     511     490     491     493     433     412     413     415
       8     512     511     493     499     434     433     415     421
       8     513     512     499     514     435     434     421     436
       8     515     514     499     498     437     436     421     420
       8     516     515     498     500     438     437     420     422
       8     517     516     500     501     439     438     422     423
       8     518     517     501     519     440     439     423     441
       8     473     519     501     471     395     441     423     393
       8     520     521     472     502     442     443     394     424
       8     522     520     502     503     444     442     424     425
       8     523     522     503     504     445     444     425     426
       8     524     523     504     480     446     445     426     402
       8     525     524     480     479     447     446     402     401
       8     526     525     479     482     448     447     401     404
       8     527     526     482     505     449     448     404     427
       8     528     527     505     506     450     449     427     428
       8     529     528     506     507     451     450     428     429
       8     530     529     507     508     452     451     429     430
       8     531     530     508     509     453     452     430     431
       8     532     531     509     510     454     453     431     432
       8     533     532     510     489     455     454     432     411
       8     534     533     489     488     456     455     411     410
       8     535     534     488     490     457     456     410     412
       8     536     535     490     511     458     457     412     433
       8     537     536     511     512     459     458     433     434
       8     538     537     512     513     460     459     434     435
       8     539     538     513     514     461     460     435     436
       8     540     539     514     515     462     461     436     437
       8     541     540     515     516     463     462     437     438
       8     542     541     516     517     464     463     438     439
       8     543     542     517     518     465     464     439     440
       8     544     543     518     519     466     465     440     441
       8     545     544     519     473     467     466     441     395
       8     521     545     473     472     443     467     395     394
       8     546     547     548     549     468     469     470     471
       8     548     550     551     549     470     472     473     471
       8     552     547     546     553     474     469     468     475
       8     546     554     555     553     468     476     477     475
       8     556     557     558     552     478     479     480     474
       8     559     560     557     556     481     482     479     478
       8     553     559     556     552     475     481     478     474
       8     561     562     554     563     483     484     476     485
       8     564     565     562     561     486     487     484     483
       8     566     567     565     564     488     489     487     486
       8     568     566     564     569     490     488     486     491
       8     570     555     554     562     492     477     476     484
       8     561     571     569     564     483     493     491     486
       8     546     549     563     554     468     471     485     476
       8     572     559     553     555     494     481     475     477
       8     573     572     555     570     495     494     477     492
       8     574     573     570     575     496     495     492     497
       8     565     575     570     562     487     497     492     484
       8     576     577     571     561     498     499     493     483
       8     578     576     561     563     500     498     483     485
       8     579     578     563     549     501     500     485     471
       8     580     550     548     581     502     472     470     503
       8     582     581     548     547     504     503     470     469
       8     558     582     547     552     480     504     469     474
       8     583     560     559     572     505     482     481     494
       8     584     583     572     573     506     505     494     495
       8     585     584     573     574     507     506     495     496
       8     586     585     574     587     508     507     496     509
       8     588     587     574     575     510     509     496     497
       8     567     588     575     565     489     510     497     487
       8     589     568     569     571     511     490     491     493
       8     590     589     571     577     512     511     493     499
       8     591     590     577     592     513     512     499     514
       8     593     592     577     576     515     514     499     498
       8     594     593     576     578     516     515     498     500
       8     595     594     578     579     517     516     500     501
       8     596     595     579     597     518     517     501     519
       8     551     597     579     549     473     519     501     471
       8     598     599     550     580     520     521     472     502
       8     600     598     580     581     522     520     502     503
       8     601     600     581     582     523     522     503     504
       8     602     601     582     558     524     523     504     480
       8     603     602     558     557     525     524     480     479
       8     604     603     557     560     526     525     479     482
       8     605     604     560     583     527     526     482     505
       8     606     605     583     584     528     527     505     506
       8     607     606     584     585     529     528     506     507
       8     608     607     585     586     530     529     507     508
       8     609     608     586     587     531     530     508     509
       8     610     609     587     588     532     531     509     510
       8     611     610     588     567     533     532     510     489
       8     612     611     567     566     534     533     489     488
       8     613     612     566     568     535     534     488     490
       8     614     613     568     589     536     535     490     511
       8     615     614     589     590     537     536     511     512
       8     616     615     590     591     538     537     512     513
       8     617     616     591     592     539     538     513     514
       8     618     617     592     593     540     539     514     515
       8     619     618     593     594     541     540     515     516
       8     620     619     594     595     542     541     516     517
       8     621     620     595     596     543     542     517     518
       8     622     621     596     597     544     543     518     519
       8     623     622     597     551     545     544     519     473
       8     599     623     551     550     521     545     473     472
       8     624     625     626     627     546     547     548     549
       8     626     628     629     627     548     550     551     549
       8     630     625     624     631     552     547     546     553
       8     624     632     633     631     546     554     555     553
       8     634     635     636     630     556     557     558     552
       8     637     638     635     634     559     560     557     556
       8     631     637     634     630     553     559     556     552
       8     639     640     632     641     561     562     554     563
       8     642     643     640     639     564     565     562     561
       8     644     645     643     642     566     567     565     564
       8     646     644     642     647     568     566     564     569
       8     648     633     632     640     570     555     554     562
       8     639     649     647     642     561     571     569     564
       8     624     627     641     632     546     549     563     554
       8     650     637     631     633     572     559     553     555
       8     651     650     633     648     573     572     555     570
       8     652     651     648     653     574     573     570     575
       8     643     653     648     640     565     575     570     562
       8     654     655     649     639     576     577     571     561
       8     656     654     639     641     578     576     561     563
       8     657     656     641     627     579     578     563     549
       8     658     628     626     659     580     550     548     581
       8     660     659     626     625     582     581     548     547
       8     636     660     625     630     558     582     547     552
       8     661     638     637     650     583     560     559     572
       8     662     661     650     651     584     583     572     573
       8     663     662     651     652     585     584     573     574
       8     664     663     652     665     586     585     574     587
       8     666     665     652     653     588     587     574     575
       8     645     666     653     643     567     588     575     565
       8     667     646     647     649     589     568     569     571
       8     668     667     649     655     590     589     571     577
       8     669     668     655     670     591     590     577     592
       8     671     670     655     654     593     592     577     576
       8     672     671     654     656     594     593     576     578
       8     673     672     656     657     595     594     578     579
       8     674     673     657     675     596     595     579     597
       8     629     675     657     627     551     597     579     549
       8     676     677     628     658     598     599     550     580
       8     678     676     658     659     600     598     580     581
       8     679     678     659     660     601     600     581     582
       8     680     679     660     636     602     601     582     558
       8     681     680     636     635     603     602     558     557
       8     682     681     635     638     604     603     557     560
       8     683     682     638     661     605     604     560     583
       8     684     683     661     662     606     605     583     584
       8     685     684     662     663     607     606     584     585
       8     686     685     663     664     608     607     585     586
       8     687     686     664     665     609     608     586     587
       8     688     687     665     666     610     609     587     588
       8     689     688     666     645     611     610     588     567
       8     690     689     645     644     612     611     567     566
       8     691     690     644     646     613     612     566     568
       8     692     691     646     667     614     613     568     589
       8     693     692     667     668     615     614     589     590
       8     694     693     668     669     616     615     590     591
       8     695     694     669     670     617     616     591     592
       8     696     695     670     671     618     617     592     593
       8     697     696     671     672     619     618     593     594
       8     698     697     672     673     620     619     594     595
       8     699     698     673     674     621     620     595     596
       8     700     699     674     675     622     621     596     597
       8     701     700     675     629     623     622     597     551
       8     677     701     629     628     599     623     551     550
       8     702     703     704     705     624     625     626     627
       8     704     706     707     705     626     628     629     627
       8     708     703     702     709     630     625     624     631
       8     702     710     711     709     624     632     633     631
       8     712     713     714     708     634     635     636     630
       8     715     716     713     712     637     638     635     634
       8     709     715     712     708     631     637     634     630
       8     717     718     710     719     639     640     632     641
       8     720     721     718     717     642     643     640     639
       8     722     723     721     720     644     645     643     642
       8     724     722     720     725     646     644     642     647
       8     726     711     710     718     648     633     632     640
       8     717     727     725     720     639     649     647     642
       8     702     705     719     710     624     627     641     632
       8     728     715     709     711     650     637     631     633
       8     729     728     711     726     651     650     633     648
       8     730     729     726     731     652     651     648     653
       8     721     731     726     718     643     653     648     640
       8     732     733     727     717     654     655     649     639
       8     734     732     717     719     656     654     639     641
       8     735     734     719     705     657     656     641     627
       8     736     706     704     737     658     628     626     659
       8     738     737     704     703     660     659     626     625
       8     714     738     703     708     636     660     625     630
       8     739     716     715     728     661     638     637     650
       8     740     739     728     729     662     661     650     651
       8     741     740     729     730     663     662     651     652
       8     742     741     730     743     664     663     652     665
       8     744     743     730     731     666     665     652     653
       8     723     744     731     721     645     666     653     643
       8     745     724     725     727     667     646     647     649
       8     746     745     727     733     668     667     649     655
       8     747     746     733     748     669     668     655     670
       8     749     748     733     732     671     670     655     654
       8     750     749     732     734     672     671     654     656
       8     751     750     734     735     673     672     656     657
       8     752     751     735     753     674     673     657     675
       8     707     753     735     705     629     675     657     627
       8     754     755     706     736     676     677     628     658
       8     756     754     736     737     678     676     658     659
       8     757     756     737     738     679     678     659     660
       8     758     757     738     714     680     679     660     636
       8     759     758     714     713     681     680     636     635
       8     760     759     713     716     682     681     635     638
       8     761     760     716     739     683     682     638     661
       8     762     761     739     740     684     683     661     662
       8     763     762     740     741     685     684     662     663
       8     764     763     741     742     686     685     663     664
       8     765     764     742     743     687     686     664     665
       8     766     765     743     744     688     687     665     666
       8     767     766     744     723     689     688     666     645
       8     768     767     723     722     690     689     645     644
       8     769     768     722     724     691     690     644     646
       8     770     769     724     745     692     691     646     667
       8     771     770     745     746     693     692     667     668
       8     772     771     746     747     694     693     668     669
       8     773     772     747     748     695     694     669     670
       8     774     773     748     749     696     695     670     671
       8     775     774     749     750     697     696     671     672
       8     776     775     750     751     698     697     672     673
       8     777     776     751     752     699     698     673     674
       8     778     777     752     753     700     699     674     675
       8     779     778     753     707     701     700     675     629
       8     755     779     707     706     677     701     629     628
       8     780     781     782     783     702     703     704     705
       8     782     784     785     783     704     706     707     705
       8     786     781     780     787     708     703     702     709
       8     780     788     789     787     702     710     711     709
       8     790     791     792     786     712     713     714     708
       8     793     794     791     790     715     716     713     712
       8     787     793     790     786     709     715     712     708
       8     795     796     788     797     717     718     710     719
       8     798     799     796     795     720     721     718     717
       8     800     801     799     798     722     723     721     720
       8     802     800     798     803     724     722     720     725
       8     804     789     788     796     726     711     710     718
       8     795     805     803     798     717     727     725     720
       8     780     783     797     788     702     705     719     710
       8     806     793     787     789     728     715     709     711
       8     807     806     789     804     729     728     711     726
       8     808     807     804     809     730     729     726     731
       8     799     809     804     796     721     731     726     718
       8     810     811     805     795     732     733     727     717
       8     812     810     795     797     734     732     717     719
       8     813     812     797     783     735     734     719     705
       8     814     784     782     815     736     706     704     737
       8     816     815     782     781     738     737     704     703
       8     792     816     781     786     714     738     703     708
       8     817     794     793     806     739     716     715     728
       8     818     817     806     807     740     739     728     729
       8     819     818     807     808     741     740     729     730
       8     820     819     808     821     742     741     730     743
       8     822     821     808     809     744     743     730     731
       8     801     822     809     799     723     744     731     721
       8     823     802     803     805     745     724     725     727
       8     824     823     805     811     746     745     727     733
       8     825     824     811     826     747     746     733     748
       8     827     826     811     810     749     748     733     732
       8     828     827     810     812     750     749     732     734
       8     829     828     812     813     751     750     734     735
       8     830     829     813     831     752     751     735     753
       8     785     831     813     783     707     753     735     705
       8     832     833     784     814     754     755     706     736
       8     834     832     814     815     756     754     736     737
       8     835     834     815     816     757     756     737     738
       8     836     835     816     792     758     757     738     714
       8     837     836     792     791     759     758     714     713
       8     838     837     791     794     760     759     713     716
       8     839     838     794     817     761     760     716     739
       8     840     839     817     818     762     761     739     740
       8     841     840     818     819     763     762     740     741
       8     842     841     819     820     764     763     741     742
       8     843     842     820     821     765     764     742     743
       8     844     843     821     822     766     765     743     744
       8     845     844     822     801     767     766     744     723
       8     846     845     801     800     768     767     723     722
       8     847     846     800     802     769     768     722     724
       8     848     847     802     823     770     769     724     745
       8     849     848     823     824     771     770     745     746
       8     850     849     824     825     772     771     746     747
       8     851     850     825     826     773     772     747     748
       8     852     851     826     827     774     773     748     749
       8     853     852     827     828     775     774     749     750
       8     854     853     828     829     776     775     750     751
       8     855     854     829     830     777     776     751     752
       8     856     855     830     831     778     777     752     753
       8     857     856     831     785     779     778     753     707
       8     833     857     785     784     755     779     707     706
       8     858     859     860     861     780     781     782     783
       8     860     862     863     861     782     784     785     783
       8     864     859     858     865     786     781     780     787
       8     858     866     867     865     780     788     789     787
       8     868     869     870     864     790     791     792     786
       8     871     872     869     868     793     794     791     790
       8     865     871     868     864     787     793     790     786
       8     873     874     866     875     795     796     788     797
       8     876     877     874     873     798     799     796     795
       8     878     879     877     876     800     801     799     798
       8     880     878     876     881     802     800     798     803
       8     882     867     866     874     804     789     788     796
       8     873     883     881     876     795     805     803     798
       8     858     861     875     866     780     783     797     788
       8     884     871     865     867     806     793     787     789
       8     885     884     867     882     807     806     789     804
       8     886     885     882     887     808     807     804     809
       8     877     887     882     874     799     809     804     796
       8     888     889     883     873     810     811     805     795
       8     890     888     873     875     812     810     795     797
       8     891     890     875     861     813     812     797     783
       8     892     862     860     893     814     784     782     815
       8     894     893     860     859     816     815     782     781
       8     870     894     859     864     792     816     781     786
       8     895     872     871     884     817     794     793     806
       8     896     895     884     885     818     817     806     807
       8     897     896     885     886     819     818     807     808
       8     898     897     886     899     820     819     808     821
       8     900     899     886     887     822     821     808     809
       8     879     900     887     877     801     822     809     799
       8     901     880     881     883     823     802     803     805
       8     902     901     883     889     824     823     805     811
       8     903     902     889     904     825     824     811     826
       8     905     904     889     888     827     826     811     810
       8     906     905     888     890     828     827     810     812
       8     907     906     890     891     829     828     812     813
       8     908     907     891     909     830     829     813     831
       8     863     909     891     861     785     831     813     783
       8     910     911     862     892     832     833     784     814
       8     912     910     892     893     834     832     814     815
       8     913     912     893     894     835     834     815     816
       8     914     913     894     870     836     835     816     792
       8     915     914     870     869     837     836     792     791
       8     916     915     869     872     838     837     791     794
       8     917     916     872     895     839     838     794     817
       8     918     917     895     896     840     839     817     818
       8     919     918     896     897     841     840     818     819
       8     920     919     897     898     842     841     819     820
       8     921     920     898     899     843     842     820     821
       8     922     921     899     900     844     843     821     822
       8     923     922     900     879     845     844     822     801
       8     924     923     879     878     846     845     801     800
       8     925     924     878     880     847     846     800     802
       8     926     925     880     901     848     847     802     823
       8     927     926     901     902     849     848     823     824
       8     928     927     902     903     850     849     824     825
       8     929     928     903     904     851     850     825     826
       8     930     929     904     905     852     851     826     827
       8     931     930     905     906     853     852     827     828
       8     932     931     906     907     854     853     828     829
       8     933     932     907     908     855     854     829     830
       8     934     933     908     909     856     855     830     831
       8     935     934     909     863     857     856     831     785
       8     911     935     863     862     833     857     785     784
       8     936     937     938     939     858     859     860     861
       8     938     940     941     939     860     862     863     861
       8     942     937     936     943     864     859     858     865
       8     936     944     945     943     858     866     867     865
       8     946     947     948     942     868     869     870     864
       8     949     950     947     946     871     872     869     868
       8     943     949     946     942     865     871     868     864
       8     951     952     944     953     873     874     866     875
       8     954     955     952     951     876     877     874     873
       8     956     957     955     954     878     879     877     876
       8     958     956     954     959     880     878     876     881
       8     960     945     944     952     882     867     866     874
       8     951     961     959     954     873     883     881     876
       8     936     939     953     944     858     861     875     866
       8     962     949     943     945     884     871     865     867
       8     963     962     945     960     885     884     867     882
       8     964     963     960     965     886     885     882     887
       8     955     965     960     952     877     887     882     874
       8     966     967     961     951     888     889     883     873
       8     968     966     951     953     890     888     873     875
       8     969     968     953     939     891     890     875     861
       8     970     940     938     971     892     862     860     893
       8     972     971     938     937     894     893     860     859
       8     948     972     937     942     870     894     859     864
       8     973     950     949     962     895     872     871     884
       8     974     973     962     963     896     895     884     885
       8     975     974     963     964     897     896     885     886
       8     976     975     964     977     898     897     886     899
       8     978     977     964     965     900     899     886     887
       8     957     978     965     955     879     900     887     877
       8     979     958     959     961     901     880     881     883
       8     980     979     961     967     902     901     883     889
       8     981     980     967     982     903     902     889     904
       8     983     982     967     966     905     904     889     888
       8     984     983     966     968     906     905     888     890
       8     985     984     968     969     907     906     890     891
       8     986     985     969     987     908     907     891     909
       8     941     987     969     939     863     909     891     861
       8     988     989     940     970     910     911     862     892
       8     990     988     970     971     912     910     892     893
       8     991     990     971     972     913     912     893     894
       8     992     991     972     948     914     913     894     870
       8     993     992     948     947     915     914     870     869
       8     994     993     947     950     916     915     869     872
       8     995     994     950     973     917     916     872     895
       8     996     995     973     974     918     917     895     896
       8     997     996     974     975     919     918     896     897
       8     998     997     975     976     920     919     897     898
       8     999     998     976     977     921     920     898     899
       8    1000     999     977     978     922     921     899     900
       8    1001    1000     978     957     923     922     900     879
       8    1002    1001     957     956     924     923     879     878
       8    1003    1002     956     958     925     924     878     880
       8    1004    1003     958     979     926     925     880     901
       8    1005    1004     979     980     927     926     901     902
       8    1006    1005     980     981     928     927     902     903
       8    1007    1006     981     982     929     928     903     904
       8    1008    1007     982     983     930     929     904     905
       8    1009    1008     983     984     931     930     905     906
       8    1010    1009     984     985     932     931     906     907
       8    1011    1010     985     986     933     932     907     908
       8    1012    1011     986     987     934     933     908     909
       8    1013    1012     987     941     935     934     909     863
       8     989    1013     941     940     911     935     863     862
       8    1014    1015    1016    1017     936     937     938     939
       8    1016    1018    1019    1017     938     940     941     939
       8    1020    1015    1014    1021     942     937     936     943
       8    1014    1022    1023    1021     936     944     945     943
       8    1024    1025    1026    1020     946     947     948     942
       8    1027    1028    1025    1024     949     950     947     946
       8    1021    1027    1024    1020     943     949     946     942
       8    1029    1030    1022    1031     951     952     944     953
       8    1032    1033    1030    1029     954     955     952     951
       8    1034    1035    1033    1032     956     957     955     954
       8    1036    1034    1032    1037     958     956     954     959
       8    1038    1023    1022    1030     960     945     944     952
       8    1029    1039    1037    1032     951     961     959     954
       8    1014    1017    1031    1022     936     939     953     944
       8    1040    1027    1021    1023     962     949     943     945
       8    1041    1040    1023    1038     963     962     945     960
       8    1042    1041    1038    1043     964     963     960     965
       8    1033    1043    1038    1030     955     965     960     952
       8    1044    1045    1039    1029     966     967     961     951
       8    1046    1044    1029    1031     968     966     951     953
       8    1047    1046    1031    1017     969     968     953     939
       8    1048    1018    1016    1049     970     940     938     971
       8    1050    1049    1016    1015     972     971     938     937
       8    1026    1050    1015    1020     948     972     937     942
       8    1051    1028    1027    1040     973     950     949     962
       8    1052    1051    1040    1041     974     973     962     963
       8    1053    1052    1041    1042     975     974     963     964
       8    1054    1053    1042    1055     976     975     964     977
       8    1056    1055    1042    1043     978     977     964     965
       8    1035    1056    1043    1033     957     978     965     955
       8    1057    1036    1037    1039     979     958     959     961
       8    1058    1057    1039    1045     980     979     961     967
       8    1059    1058    1045    1060     981     980     967     982
       8    1061    1060    1045    1044     983     982     967     966
       8    1062    1061    1044    1046     984     983     966     968
       8    1063    1062    1046    1047     985     984     968     969
       8    1064    1063    1047    1065     986     985     969     987
       8    1019    1065    1047    1017     941     987     969     939
       8    1066    1067    1018    1048     988     989     940     970
       8    1068    1066    1048    1049     990     988     970     971
       8    1069    1068    1049    1050     991     990     971     972
       8    1070    1069    1050    1026     992     991     972     948
       8    1071    1070    1026    1025     993     992     948     947
       8    1072    1071    1025    1028     994     993     947     950
       8    1073    1072    1028    1051     995     994     950     973
       8    1074    1073    1051    1052     996     995     973     974
       8    1075    1074    1052    1053     997     996     974     975
       8    1076    1075    1053    1054     998     997     975     976
       8    1077    1076    1054    1055     999     998     976     977
       8    1078    1077    1055    1056    1000     999     977     978
       8    1079    1078    1056    1035    1001    1000     978     957
       8    1080    1079    1035    1034    1002    1001     957     956
       8    1081    1080    1034    1036    1003    1002     956     958
       8    1082    1081    1036    1057    1004    1003     958     979
       8    1083    1082    1057    1058    1005    1004     979     980
       8    1084    1083    1058    1059    1006    1005     980     981
       8    1085    1084    1059    1060    1007    1006     981     982
       8    1086    1085    1060    1061    1008    1007     982     983
       8    1087    1086    1061    1062    1009    1008     983     984
       8    1088    1087    1062    1063    1010    1009     984     985
       8    1089    1088    1063    1064    1011    1010     985     986
       8    1090    1089    1064    1065    1012    1011     986     987
       8    1091    1090    1065    1019    1013    1012     987     941
       8    1067    1091    1019    1018     989    1013     941     940
       8    1092    1093    1094    1095    1014    1015    1016    1017
       8    1094    1096    1097    1095    1016    1018    1019    1017
       8    1098    1093    1092    1099    1020    1015    1014    1021
       8    1092    1100    1101    1099    1014    1022    1023    1021
       8    1102    1103    1104    1098    1024    1025    1026    1020
       8    1105    1106    1103    1102    1027    1028    1025    1024
       8    1099    1105    1102    1098    1021    1027    1024    1020
       8    1107    1108    1100    1109    1029    1030    1022    1031
       8    1110    1111    1108    1107    1032    1033    1030    1029
       8    1112    1113    1111    1110    1034    1035    1033    1032
       8    1114    1112    1110    1115    1036    1034    1032    1037
       8    1116    1101    1100    1108    1038    1023    1022    1030
       8    1107    1117    1115    1110    1029    1039    1037    1032
       8    1092    1095    1109    1100    1014    1017    1031    1022
       8    1118    1105    1099    1101    1040    1027    1021    1023
       8    1119    1118    1101    1116    1041    1040    1023    1038
       8    1120    1119    1116    1121    1042    1041    1038    1043
       8    1111    1121    1116    1108    1033    1043    1038    1030
       8    1122    1123    1117    1107    1044    1045    1039    1029
       8    1124    1122    1107    1109    1046    1044    1029    1031
       8    1125    1124    1109    1095    1047    1046    1031    1017
       8    1126    1096    1094    1127    1048    1018    1016    1049
       8    1128    1127    1094    1093    1050    1049    1016    1015
       8    1104    1128    1093    1098    1026    1050    1015    1020
       8    1129    1106    1105    1118    1051    1028    1027    1040
       8    1130    1129    1118    1119    1052    1051    1040    1041
       8    1131    1130    1119    1120    1053    1052    1041    1042
       8    1132    1131    1120    1133    1054    1053    1042    1055
       8    1134    1133    1120    1121    1056    1055    1042    1043
       8    1113    1134    1121    1111    1035    1056    1043    1033
       8    1135    1114    1115    1117    1057    1036    1037    1039
       8    1136    1135    1117    1123    1058    1057    1039    1045
       8    1137    1136    1123    1138    1059    1058    1045    1060
       8    1139    1138    1123    1122    1061    1060    1045    1044
       8    1140    1139    1122    1124    1062    1061    1044    1046
       8    1141    1140    1124    1125    1063    1062    1046    1047
       8    1142    1141    1125    1143    1064    1063    1047    1065
       8    1097    1143    1125    1095    1019    1065    1047    1017
       8    1144    1145    1096    1126    1066    1067    1018    1048
       8    1146    1144    1126    1127    1068    1066    1048    1049
       8    1147    1146    1127    1128    1069    1068    1049    1050
       8    1148    1147    1128    1104    1070    1069    1050    1026
       8    1149    1148    1104    1103    1071    1070    1026    1025
       8    1150    1149    1103    1106    1072    1071    1025    1028
       8    1151    1150    1106    1129    1073    1072    1028    1051
       8    1152    1151    1129    1130    1074    1073    1051    1052
       8    1153    1152    1130    1131    1075    1074    1052    1053
       8    1154    1153    1131    1132    1076    1075    1053    1054
       8    1155    1154    1132    1133    1077    1076    1054    1055
       8    1156    1155    1133    1134    1078    1077    1055    1056
       8    1157    1156    1134    1113    1079    1078    1056    1035
       8    1158    1157    1113    1112    1080    1079    1035    1034
       8    1159    1158    1112    1114    1081    1080    1034    1036
       8    1160    1159    1114    1135    1082    1081    1036    1057
       8    1161    1160    1135    1136    1083    1082    1057    1058
       8    1162    1161    1136    1137    1084    1083    1058    1059
       8    1163    1162    1137    1138    1085    1084    1059    1060
       8    1164    1163    1138    1139    1086    1085    1060    1061
       8    1165    1164    1139    1140    1087    1086    1061    1062
       8    1166    1165    1140    1141    1088    1087    1062    1063
       8    1167    1166    1141    1142    1089    1088    1063    1064
       8    1168    1167    1142    1143    1090    1089    1064    1065
       8    1169    1168    1143    1097    1091    1090    1065    1019
       8    1145    1169    1097    1096    1067    1091    1019    1018
       8    1170    1171    1172    1173    1092    1093    1094    1095
       8    1172    1174    1175    1173    1094    1096    1097    1095
       8    1176    1171    1170    1177    1098    1093    1092    1099
       8    1170    1178    1179    1177    1092    1100    1101    1099
       8    1180    1181    1182    1176    1102    1103    1104    1098
       8    1183    1184    1181    1180    1105    1106    1103    1102
       8    1177    1183    1180    1176    1099    1105    1102    1098
       8    1185    1186    1178    1187    1107    1108    1100    1109
       8    1188    1189    1186    1185    1110    1111    1108    1107
       8    1190    1191    1189    1188    1112    1113    1111    1110
       8    1192    1190    1188    1193    1114    1112    1110    1115
       8    1194    1179    1178    1186    1116    1101    1100    1108
       8    1185    1195    1193    1188    1107    1117    1115    1110
       8    1170    1173    1187    1178    1092    1095    1109    1100
       8    1196    1183    1177    1179    1118    1105    1099    1101
       8    1197    1196    1179    1194    1119    1118    1101    1116
       8    1198    1197    1194    1199    1120    1119    1116    1121
       8    1189    1199    1194    1186    1111    1121    1116    1108
       8    1200    1201    1195    1185    1122    1123    1117    1107
       8    1202    1200    1185    1187    1124    1122    1107    1109
       8    1203    1202    1187    1173    1125    1124    1109    1095
       8    1204    1174    1172    1205    1126    1096    1094    1127
       8    1206    1205    1172    1171    1128    1127    1094    1093
       8    1182    1206    1171    1176    1104    1128    1093    1098
       8    1207    1184    1183    1196    1129    1106    1105    1118
       8    1208    1207    1196    1197    1130    1129    1118    1119
       8    1209    1208    1197    1198    1131    1130    1119    1120
       8    1210    1209    1198    1211    1132    1131    1120    1133
       8    1212    1211    1198    1199    1134    1133    1120    1121
       8    1191    1212    1199    1189    1113    1134    1121    1111
       8    1213    1192    1193    1195    1135    1114    1115    1117
       8    1214    1213    1195    1201    1136    1135    1117    1123
       8    1215    1214    1201    1216    1137    1136    1123    1138
       8    1217    1216    1201    1200    1139    1138    1123    1122
       8    1218    1217    1200    1202    1140    1139    1122    1124
       8    1219    1218    1202    1203    1141    1140    1124    1125
       8    1220    1219    1203    1221    1142    1141    1125    1143
       8    1175    1221    1203    1173    1097    1143    1125    1095
       8    1222    1223    1174    1204    1144    1145    1096    1126
       8    1224    1222    1204    1205    1146    1144    1126    1127
       8    1225    1224    1205    1206    1147    1146    1127    1128
       8    1226    1225    1206    1182    1148    1147    1128    1104
       8    1227    1226    1182    1181    1149    1148    1104    1103
       8    1228    1227    1181    1184    1150    1149    1103    1106
       8    1229    1228    1184    1207    1151    1150    1106    1129
       8    1230    1229    1207    1208    1152    1151    1129    1130
       8    1231    1230    1208    1209    1153    1152    1130    1131
       8    1232    1231    1209    1210    1154    1153    1131    1132
       8    1233    1232    1210    1211    1155    1154    1132    1133
       8    1234    1233    1211    1212    1156    1155    1133    1134
       8    1235    1234    1212    1191    1157    1156    1134    1113
       8    1236    1235    1191    1190    1158    1157    1113    1112
       8    1237    1236    1190    1192    1159    1158    1112    1114
       8    1238    1237    1192    1213    1160    1159    1114    1135
       8    1239    1238    1213    1214    1161    1160    1135    1136
       8    1240    1239    1214    1215    1162    1161    1136    1137
       8    1241    1240    1215    1216    1163    1162    1137    1138
       8    1242    1241    1216    1217    1164    1163    1138    1139
       8    1243    1242    1217    1218    1165    1164    1139    1140
       8    1244    1243    1218    1219    1166    1165    1140    1141
       8    1245    1244    1219    1220    1167    1166    1141    1142
       8    1246    1245    1220    1221    1168    1167    1142    1143
       8    1247    1246    1221    1175    1169    1168    1143    1097
       8    1223    1247    1175    1174    1145    1169    1097    1096
       8    1248    1249    1250    1251    1170    1171    1172    1173
       8    1250    1252    1253    1251    1172    1174    1175    1173
       8    1254    1249    1248    1255    1176    1171    1170    1177
       8    1248    1256    1257    1255    1170    1178    1179    1177
       8    1258    1259    1260    1254    1180    1181    1182    1176
       8    1261    1262    1259    1258    1183    1184    1181    1180
       8    1255    1261    1258    1254    1177    1183    1180    1176
       8    1263    1264    1256    1265    1185    1186    1178    1187
       8    1266    1267    1264    1263    1188    1189    1186    1185
       8    1268    1269    1267    1266    1190    1191    1189    1188
       8    1270    1268    1266    1271    1192    1190    1188    1193
       8    1272    1257    1256    1264    1194    1179    1178    1186
       8    1263    1273    1271    1266    1185    1195    1193    1188
       8    1248    1251    1265    1256    1170    1173    1187    1178
       8    1274    1261    1255    1257    1196    1183    1177    1179
       8    1275    1274    1257    1272    1197    1196    1179    1194
       8    1276    1275    1272    1277    1198    1197    1194    1199
       8    1267    1277    1272    1264    1189    1199    1194    1186
       8    1278    1279    1273    1263    1200    1201    1195    1185
       8    1280    1278    1263    1265    1202    1200    1185    1187
       8    1281    1280    1265    1251    1203    1202    1187    1173
       8    1282    1252    1250    1283    1204    1174    1172    1205
       8    1284    1283    1250    1249    1206    1205    1172    1171
       8    1260    1284    1249    1254    1182    1206    1171    1176
       8    1285    1262    1261    1274    1207    1184    1183    1196
       8    1286    1285    1274    1275    1208    1207    1196    1197
       8    1287    1286    1275    1276    1209    1208    1197    1198
       8    1288    1287    1276    1289    1210    1209    1198    1211
       8    1290    1289    1276    1277    1212    1211    1198    1199
       8    1269    1290    1277    1267    1191    1212    1199    1189
       8    1291    1270    1271    1273    1213    1192    1193    1195
       8    1292    1291    1273    1279    1214    1213    1195    1201
       8    1293    1292    1279    1294    1215    1214    1201    1216
       8    1295    1294    1279    1278    1217    1216    1201    1200
       8    1296    1295    1278    1280    1218    1217    1200    1202
       8    1297    1296    1280    1281    1219    1218    1202    1203
       8    1298    1297    1281    1299    1220    1219    1203    1221
       8    1253    1299    1281    1251    1175    1221    1203    1173
       8    1300    1301    1252    1282    1222    1223    1174    1204
       8    1302    1300    1282    1283    1224    1222    1204    1205
       8    1303    1302    1283    1284    1225    1224    1205    1206
       8    1304    1303    1284    1260    1226    1225    1206    1182
       8    1305    1304    1260    1259    1227    1226    1182    1181
       8    1306    1305    1259    1262    1228    1227    1181    1184
       8    1307    1306    1262    1285    1229    1228    1184    1207
       8    1308    1307    1285    1286    1230    1229    1207    1208
       8    1309    1308    1286    1287    1231    1230    1208    1209
       8    1310    1309    1287    1288    1232    1231    1209    1210
       8    1311    1310    1288    1289    1233    1232    1210    1211
       8    1312    1311    1289    1290    1234    1233    1211    1212
       8    1313    1312    1290    1269    1235    1234    1212    1191
       8    1314    1313    1269    1268    1236    1235    1191    1190
       8    1315    1314    1268    1270    1237    1236    1190    1192
       8    1316    1315    1270    1291    1238    1237    1192    1213
       8    1317    1316    1291    1292    1239    1238    1213    1214
       8    1318    1317    1292    1293    1240    1239    1214    1215
       8    1319    1318    1293    1294    1241    1240    1215    1216
       8    1320    1319    1294    1295    1242    1241    1216    1217
       8    1321    1320    1295    1296    1243    1242    1217    1218
       8    1322    1321    1296    1297    1244    1243    1218    1219
       8    1323    1322    1297    1298    1245    1244    1219    1220
       8    1324    1323    1298    1299    1246    1245    1220    1221
       8    1325    1324    1299    1253    1247    1246    1221    1175
       8    1301    1325    1253    1252    1223    1247    1175    1174
       8    1326    1327    1328    1329    1248    1249    1250    1251
       8    1328    1330    1331    1329    1250    1252    1253    1251
       8    1332    1327    1326    1333    1254    1249    1248    1255
       8    1326    1334    1335    1333    1248    1256    1257    1255
       8    1336    1337    1338    1332    1258    1259    1260    1254
       8    1339    1340    1337    1336    1261    1262    1259    1258
       8    1333    1339    1336    1332    1255    1261    1258    1254
       8    1341    1342    1334    1343    1263    1264    1256    1265
       8    1344    1345    1342    1341    1266    1267    1264    1263
       8    1346    1347    1345    1344    1268    1269    1267    1266
       8    1348    1346    1344    1349    1270    1268    1266    1271
       8    1350    1335    1334    1342    1272    1257    1256    1264
       8    1341    1351    1349    1344    1263    1273    1271    1266
       8    1326    1329    1343    1334    1248    1251    1265    1256
       8    1352    1339    1333    1335    1274    1261    1255    1257
       8    1353    1352    1335    1350    1275    1274    1257    1272
       8    1354    1353    1350    1355    1276    1275    1272    1277
       8    1345    1355    1350    1342    1267    1277    1272    1264
       8    1356    1357    1351    1341    1278    1279    1273    1263
       8    1358    1356    1341    1343    1280    1278    1263    1265
       8    1359    1358    1343    1329    1281    1280    1265    1251
       8    1360    1330    1328    1361    1282    1252    1250    1283
       8    1362    1361    1328    1327    1284    1283    1250    1249
       8    1338    1362    1327    1332    1260    1284    1249    1254
       8    1363    1340    1339    1352    1285    1262    1261    1274
       8    1364    1363    1352    1353    1286    1285    1274    1275
       8    1365    1364    1353    1354    1287    1286    1275    1276
       8    1366    1365    1354    1367    1288    1287    1276    1289
       8    1368    1367    1354    1355    1290    1289    1276    1277
       8    1347    1368    1355    1345    1269    1290    1277    1267
       8    1369    1348    1349    1351    1291    1270    1271    1273
       8    1370    1369    1351    1357    1292    1291    1273    1279
       8    1371    1370    1357    1372    1293    1292    1279    1294
       8    1373    1372    1357    1356    1295    1294    1279    1278
       8    1374    1373    1356    1358    1296    1295    1278    1280
       8    1375    1374    1358    1359    1297    1296    1280    1281
       8    1376    1375    1359    1377    1298    1297    1281    1299
       8    1331    1377    1359    1329    1253    1299    1281    1251
       8    1378    1379    1330    1360    1300    1301    1252    1282
       8    1380    1378    1360    1361    1302    1300    1282    1283
       8    1381    1380    1361    1362    1303    1302    1283    1284
       8    1382    1381    1362    1338    1304    1303    1284    1260
       8    1383    1382    1338    1337    1305    1304    1260    1259
       8    1384    1383    1337    1340    1306    1305    1259    1262
       8    1385    1384    1340    1363    1307    1306    1262    1285
       8    1386    1385    1363    1364    1308    1307    1285    1286
       8    1387    1386    1364    1365    1309    1308    1286    1287
       8    1388    1387    1365    1366    1310    1309    1287    1288
       8    1389    1388    1366    1367    1311    1310    1288    1289
       8    1390    1389    1367    1368    1312    1311    1289    1290
       8    1391    1390    1368    1347    1313    1312    1290    1269
       8    1392    1391    1347    1346    1314    1313    1269    1268
       8    1393    1392    1346    1348    1315    1314    1268    1270
       8    1394    1393    1348    1369    1316    1315    1270    1291
       8    1395    1394    1369    1370    1317    1316    1291    1292
       8    1396    1395    1370    1371    1318    1317    1292    1293
       8    1397    1396    1371    1372    1319    1318    1293    1294
       8    1398    1397    1372    1373    1320    1319    1294    1295
       8    1399    1398    1373    1374    1321    1320    1295    1296
       8    1400    1399    1374    1375    1322    1321    1296    1297
       8    1401    1400    1375    1376    1323    1322    1297    1298
       8    1402    1401    1376    1377    1324    1323    1298    1299
       8    1403    1402    1377    1331    1325    1324    1299    1253
       8    1379    1403    1331    1330    1301    1325    1253    1252
       8    1404    1405    1406    1407    1326    1327    1328    1329
       8    1406    1408    1409    1407    1328    1330    1331    1329
       8    1410    1405    1404    1411    1332    1327    1326    1333
       8    1404    1412    1413    1411    1326    1334    1335    1333
       8    1414    1415    1416    1410    1336    1337    1338    1332
       8    1417    1418    1415    1414    1339    1340    1337    1336
       8    1411    1417    1414    1410    1333    1339    1336    1332
       8    1419    1420    1412    1421    1341    1342    1334    1343
       8    1422    1423    1420    1419    1344    1345    1342    1341
       8    1424    1425    1423    1422    1346    1347    1345    1344
       8    1426    1424    1422    1427    1348    1346    1344    1349
       8    1428    1413    1412    1420    1350    1335    1334    1342
       8    1419    1429    1427    1422    1341    1351    1349    1344
       8    1404    1407    1421    1412    1326    1329    1343    1334
       8    1430    1417    1411    1413    1352    1339    1333    1335
       8    1431    1430    1413    1428    1353    1352    1335    1350
       8    1432    1431    1428    1433    1354    1353    1350    1355
       8    1423    1433    1428    1420    1345    1355    1350    1342
       8    1434    1435    1429    1419    1356    1357    1351    1341
       8    1436    1434    1419    1421    1358    1356    1341    1343
       8    1437    1436    1421    1407    1359    1358    1343    1329
       8    1438    1408    1406    1439    1360    1330    1328    1361
       8    1440    1439    1406    1405    1362    1361    1328    1327
       8    1416    1440    1405    1410    1338    1362    1327    1332
       8    1441    1418    1417    1430    1363    1340    1339    1352
       8    1442    1441    1430    1431    1364    1363    1352    1353
       8    1443    1442    1431    1432    1365    1364    1353    1354
       8    1444    1443    1432    1445    1366    1365    1354    1367
       8    1446    1445    1432    1433    1368    1367    1354    1355
       8    1425    1446    1433    1423    1347    1368    1355    1345
       8    1447    1426    1427    1429    1369    1348    1349    1351
       8    1448    1447    1429    1435    1370    1369    1351    1357
       8    1449    1448    1435    1450    1371    1370    1357    1372
       8    1451    1450    1435    1434    1373    1372    1357    1356
       8    1452    1451    1434    1436    1374    1373    1356    1358
       8    1453    1452    1436    1437    1375    1374    1358    1359
       8    1454    1453    1437    1455    1376    1375    1359    1377
       8    1409    1455    1437    1407    1331    1377    1359    1329
       8    1456    1457    1408    1438    1378    1379    1330    1360
       8    1458    1456    1438    1439    1380    1378    1360    1361
       8    1459    1458    1439    1440    1381    1380    1361    1362
       8    1460    1459    1440    1416    1382    1381    1362    1338
       8    1461    1460    1416    1415    1383    1382    1338    1337
       8    1462    1461    1415    1418    1384    1383    1337    1340
       8    1463    1462    1418    1441    1385    1384    1340    1363
       8    1464    1463    1441    1442    1386    1385    1363    1364
       8    1465    1464    1442    1443    1387    1386    1364    1365
       8    1466    1465    1443    1444    1388    1387    1365    1366
       8    1467    1466    1444    1445    1389    1388    1366    1367
       8    1468    1467    1445    1446    1390    1389    1367    1368
       8    1469    1468    1446    1425    1391    1390    1368    1347
       8    1470    1469    1425    1424    1392    1391    1347    1346
       8    1471    1470    1424    1426    1393    1392    1346    1348
       8    1472    1471    1426    1447    1394    1393    1348    1369
       8    1473    1472    1447    1448    1395    1394    1369    1370
       8    1474    1473    1448    1449    1396    1395    1370    1371
       8    1475    1474    1449    1450    1397    1396    1371    1372
       8    1476    1475    1450    1451    1398    1397    1372    1373
       8    1477    1476    1451    1452    1399    1398    1373    1374
       8    1478    1477    1452    1453    1400    1399    1374    1375
       8    1479    1478    1453    1454    1401    1400    1375    1376
       8    1480    1479    1454    1455    1402    1401    1376    1377
       8    1481    1480    1455    1409    1403    1402    1377    1331
       8    1457    1481    1409    1408    1379    1403    1331    1330
       8    1482    1483    1484    1485    1404    1405    1406    1407
       8    1484    1486    1487    1485    1406    1408    1409    1407
       8    1488    1483    1482    1489    1410    1405    1404    1411
       8    1482    1490    1491    1489    1404    1412    1413    1411
       8    1492    1493    1494    1488    1414    1415    1416    1410
       8    1495    1496    1493    1492    1417    1418    1415    1414
       8    1489    1495    1492    1488    1411    1417    1414    1410
       8    1497    1498    1490    1499    1419    1420    1412    1421
       8    1500    1501    1498    1497    1422    1423    1420    1419
       8    1502    1503    1501    1500    1424    1425    1423    1422
       8    1504    1502    1500    1505    1426    1424    1422    1427
       8    1506    1491    1490    1498    1428    1413    1412    1420
       8    1497    1507    1505    1500    1419    1429    1427    1422
       8    1482    1485    1499    1490    1404    1407    1421    1412
       8    1508    1495    1489    1491    1430    1417    1411    1413
       8    1509    1508    1491    1506    1431    1430    1413    1428
       8    1510    1509    1506    1511    1432    1431    1428    1433
       8    1501    1511    1506    1498    1423    1433    1428    1420
       8    1512    1513    1507    1497    1434    1435    1429    1419
       8    1514    1512    1497    1499    1436    1434    1419    1421
       8    1515    1514    1499    1485    1437    1436    1421    1407
       8    1516    1486    1484    1517    1438    1408    1406    1439
       8    1518    1517    1484    1483    1440    1439    1406    1405
       8    1494    1518    1483    1488    1416    1440    1405    1410
       8    1519    1496    1495    1508    1441    1418    1417    1430
       8    1520    1519    1508    1509    1442    1441    1430    1431
       8    1521    1520    1509    1510    1443    1442    1431    1432
       8    1522    1521    1510    1523    1444    1443    1432    1445
       8    1524    1523    1510    1511    1446    1445    1432    1433
       8    1503    1524    1511    1501    1425    1446    1433    1423
       8    1525    1504    1505    1507    1447    1426    1427    1429
       8    1526    1525    1507    1513    1448    1447    1429    1435
       8    1527    1526    1513    1528    1449    1448    1435    1450
       8    1529    1528    1513    1512    1451    1450    1435    1434
       8    1530    1529    1512    1514    1452    1451    1434    1436
       8    1531    1530    1514    1515    1453    1452    1436    1437
       8    1532    1531    1515    1533    1454    1453    1437    1455
       8    1487    1533    1515    1485    1409    1455    1437    1407
       8    1534    1535    1486    1516    1456    1457    1408    1438
       8    1536    1534    1516    1517    1458    1456    1438    1439
       8    1537    1536    1517    1518    1459    1458    1439    1440
       8    1538    1537    1518    1494    1460    1459    1440    1416
       8    1539    1538    1494    1493    1461    1460    1416    1415
       8    1540    1539    1493    1496    1462    1461    1415    1418
       8    1541    1540    1496    1519    1463    1462    1418    1441
       8    1542    1541    1519    1520    1464    1463    1441    1442
       8    1543    1542    1520    1521    1465    1464    1442    1443
       8    1544    1543    1521    1522    1466    1465    1443    1444
       8    1545    1544    1522    1523    1467    1466    1444    1445
       8    1546    1545    1523    1524    1468    1467    1445    1446
       8    1547    1546    1524    1503    1469    1468    1446    1425
       8    1548    1547    1503    1502    1470    1469    1425    1424
       8    1549    1548    1502    1504    1471    1470    1424    1426
       8    1550    1549    1504    1525    1472    1471    1426    1447
       8    1551    1550    1525    1526    1473    1472    1447    1448
       8    1552    1551    1526    1527    1474    1473    1448    1449
       8    1553    1552    1527    1528    1475    1474    1449    1450
       8    1554    1553    1528    1529    1476    1475    1450    1451
       8    1555    1554    1529    1530    1477    1476    1451    1452
       8    1556    1555    1530    1531    1478    1477    1452    1453
       8    1557    1556    1531    1532    1479    1478    1453    1454
       8    1558    1557    1532    1533    1480    1479    1454    1455
       8    1559    1558    1533    1487    1481    1480    1455    1409
       8    1535    1559    1487    1486    1457    1481    1409    1408
       8    1560    1561    1562    1563    1482    1483    1484    1485
       8    1562    1564    1565    1563    1484    1486    1487    1485
       8    1566    1561    1560    1567    1488    1483    1482    1489
       8    1560    1568    1569    1567    1482    1490    1491    1489
       8    1570    1571    1572    1566    1492    1493    1494    1488
       8    1573    1574    1571    1570    1495    1496    1493    1492
       8    1567    1573    1570    1566    1489    1495    1492    1488
       8    1575    1576    1568    1577    1497    1498    1490    1499
       8    1578    1579    1576    1575    1500    1501    1498    1497
       8    1580    1581    1579    1578    1502    1503    1501    1500
       8    1582    1580    1578    1583    1504    1502    1500    1505
       8    1584    1569    1568    1576    1506    1491    1490    1498
       8    1575    1585    1583    1578    1497    1507    1505    1500
       8    1560    1563    1577    1568    1482    1485    1499    1490
       8    1586    1573    1567    1569    1508    1495    1489    1491
       8    1587    1586    1569    1584    1509    1508    1491    1506
       8    1588    1587    1584    1589    1510    1509    1506    1511
       8    1579    1589    1584    1576    1501    1511    1506    1498
       8    1590    1591    1585    1575    1512    1513    1507    1497
       8    1592    1590    1575    1577    1514    1512    1497    1499
       8    1593    1592    1577    1563    1515    1514    1499    1485
       8    1594    1564    1562    1595    1516    1486    1484    1517
       8    1596    1595    1562    1561    1518    1517    1484    1483
       8    1572    1596    1561    1566    1494    1518    1483    1488
       8    1597    1574    1573    1586    1519    1496    1495    1508
       8    1598    1597    1586    1587    1520    1519    1508    1509
       8    1599    1598    1587    1588    1521    1520    1509    1510
       8    1600    1599    1588    1601    1522    1521    1510    1523
       8    1602    1601    1588    1589    1524    1523    1510    1511
       8    1581    1602    1589    1579    1503    1524    1511    1501
       8    1603    1582    1583    1585    1525    1504    1505    1507
       8    1604    1603    1585    1591    1526    1525    1507    1513
       8    1605    1604    1591    1606    1527    1526    1513    1528
       8    1607    1606    1591    1590    1529    1528    1513    1512
       8    1608    1607    1590    1592    1530    1529    1512    1514
       8    1609    1608    1592    1593    1531    1530    1514    1515
       8    1610    1609    1593    1611    1532    1531    1515    1533
       8    1565    1611    1593    1563    1487    1533    1515    1485
       8    1612    1613    1564    1594    1534    1535    1486    1516
       8    1614    1612    1594    1595    1536    1534    1516    1517
       8    1615    1614    1595    1596    1537    1536    1517    1518
       8    1616    1615    1596    1572    1538    1537    1518    1494
       8    1617    1616    1572    1571    1539    1538    1494    1493
       8    1618    1617    1571    1574    1540    1539    1493    1496
       8    1619    1618    1574    1597    1541    1540    1496    1519
       8    1620    1619    1597    1598    1542    1541    1519    1520
       8    1621    1620    1598    1599    1543    1542    1520    1521
       8    1622    1621    1599    1600    1544    1543    1521    1522
       8    1623    1622    1600    1601    1545    1544    1522    1523
       8    1624    1623    1601    1602    1546    1545    1523    1524
       8    1625    1624    1602    1581    1547    1546    1524    1503
       8    1626    1625    1581    1580    1548    1547    1503    1502
       8    1627    1626    1580    1582    1549    1548    1502    1504
       8    1628    1627    1582    1603    1550    1549    1504    1525
       8    1629    1628    1603    1604    1551    1550    1525    1526
       8    1630    1629    1604    1605    1552    1551    1526    1527
       8    1631    1630    1605    1606    1553    1552    1527    1528
       8    1632    1631    1606    1607    1554    1553    1528    1529
       8    1633    1632    1607    1608    1555    1554    1529    1530
       8    1634    1633    1608    1609    1556    1555    1530    1531
       8    1635    1634    1609    1610    1557    1556    1531    1532
       8    1636    1635    1610    1611    1558    1557    1532    1533
       8    1637    1636    1611    1565    1559    1558    1533    1487
       8    1613    1637    1565    1564    1535    1559    1487    1486
       8    1638    1639    1640    1641    1560    1561    1562    1563
       8    1640    1642    1643    1641    1562    1564    1565    1563
       8    1644    1639    1638    1645    1566    1561    1560    1567
       8    1638    1646    1647    1645    1560    1568    1569    1567
       8    1648    1649    1650    1644    1570    1571    1572    1566
       8    1651    1652    1649    1648    1573    1574    1571    1570
       8    1645    1651    1648    1644    1567    1573    1570    1566
       8    1653    1654    1646    1655    1575    1576    1568    1577
       8    1656    1657    1654    1653    1578    1579    1576    1575
       8    1658    1659    1657    1656    1580    1581    1579    1578
       8    1660    1658    1656    1661    1582    1580    1578    1583
       8    1662    1647    1646    1654    1584    1569    1568    1576
       8    1653    1663    1661    1656    1575    1585    1583    1578
       8    1638    1641    1655    1646    1560    1563    1577    1568
       8    1664    1651    1645    1647    1586    1573    1567    1569
       8    1665    1664    1647    1662    1587    1586    1569    1584
       8    1666    1665    1662    1667    1588    1587    1584    1589
       8    1657    1667    1662    1654    1579    1589    1584    1576
       8    1668    1669    1663    1653    1590    1591    1585    1575
       8    1670    1668    1653    1655    1592    1590    1575    1577
       8    1671    1670    1655    1641    1593    1592    1577    1563
       8    1672    1642    1640    1673    1594    1564    1562    1595
       8    1674    1673    1640    1639    1596    1595    1562    1561
       8    1650    1674    1639    1644    1572    1596    1561    1566
       8    1675    1652    1651    1664    1597    1574    1573    1586
       8    1676    1675    1664    1665    1598    1597    1586    1587
       8    1677    1676    1665    1666    1599    1598    1587    1588
       8    1678    1677    1666    1679    1600    1599    1588    1601
       8    1680    1679    1666    1667    1602    1601    1588    1589
       8    1659    1680    1667    1657    1581    1602    1589    1579
       8    1681    1660    1661    1663    1603    1582    1583    1585
       8    1682    1681    1663    1669    1604    1603    1585    1591
       8    1683    1682    1669    1684    1605    1604    1591    1606
       8    1685    1684    1669    1668    1607    1606    1591    1590
       8    1686    1685    1668    1670    1608    1607    1590    1592
       8    1687    1686    1670    1671    1609    1608    1592    1593
       8    1688    1687    1671    1689    1610    1609    1593    1611
       8    1643    1689    1671    1641    1565    1611    1593    1563
       8    1690    1691    1642    1672    1612    1613    1564    1594
       8    1692    1690    1672    1673    1614    1612    1594    1595
       8    1693    1692    1673    1674    1615    1614    1595    1596
       8    1694    1693    1674    1650    1616    1615    1596    1572
       8    1695    1694    1650    1649    1617    1616    1572    1571
       8    1696    1695    1649    1652    1618    1617    1571    1574
       8    1697    1696    1652    1675    1619    1618    1574    1597
       8    1698    1697    1675    1676    1620    1619    1597    1598
       8    1699    1698    1676    1677    1621    1620    1598    1599
       8    1700    1699    1677    1678    1622    1621    1599    1600
       8    1701    1700    1678    1679    1623    1622    1600    1601
       8    1702    1701    1679    1680    1624    1623    1601    1602
       8    1703    1702    1680    1659    1625    1624    1602    1581
       8    1704    1703    1659    1658    1626    1625    1581    1580
       8    1705    1704    1658    1660    1627    1626    1580    1582
       8    1706    1705    1660    1681    1628    1627    1582    1603
       8    1707    1706    1681    1682    1629    1628    1603    1604
       8    1708    1707    1682    1683    1630    1629    1604    1605
       8    1709    1708    1683    1684    1631    1630    1605    1606
       8    1710    1709    1684    1685    1632    1631    1606    1607
       8    1711    1710    1685    1686    1633    1632    1607    1608
       8    1712    1711    1686    1687    1634    1633    1608    1609
       8    1713    1712    1687    1688    1635    1634    1609    1610
       8    1714    1713    1688    1689    1636    1635    1610    1611
       8    1715    1714    1689    1643    1637    1636    1611    1565
       8    1691    1715    1643    1642    1613    1637    1565    1564
       8    1716    1717    1718    1719    1638    1639    1640    1641
       8    1718    1720    1721    1719    1640    1642    1643    1641
       8    1722    1717    1716    1723    1644    1639    1638    1645
       8    1716    1724    1725    1723    1638    1646    1647    1645
       8    1726    1727    1728    1722    1648    1649    1650    1644
       8    1729    1730    1727    1726    1651    1652    1649    1648
       8    1723    1729    1726    1722    1645    1651    1648    1644
       8    1731    1732    1724    1733    1653    1654    1646    1655
       8    1734    1735    1732    1731    1656    1657    1654    1653
       8    1736    1737    1735    1734    1658    1659    1657    1656
       8    1738    1736    1734    1739    1660    1658    1656    1661
       8    1740    1725    1724    1732    1662    1647    1646    1654
       8    1731    1741    1739    1734    1653    1663    1661    1656
       8    1716    1719    1733    1724    1638    1641    1655    1646
       8    1742    1729    1723    1725    1664    1651    1645    1647
       8    1743    1742    1725    1740    1665    1664    1647    1662
       8    1744    1743    1740    1745    1666    1665    1662    1667
       8    1735    1745    1740    1732    1657    1667    1662    1654
       8    1746    1747    1741    1731    1668    1669    1663    1653
       8    1748    1746    1731    1733    1670    1668    1653    1655
       8    1749    1748    1733    1719    1671    1670    1655    1641
       8    1750    1720    1718    1751    1672    1642    1640    1673
       8    1752    1751    1718    1717    1674    1673    1640    1639
       8    1728    1752    1717    1722    1650    1674    1639    1644
       8    1753    1730    1729    1742    1675    1652    1651    1664
       8    1754    1753    1742    1743    1676    1675    1664    1665
       8    1755    1754    1743    1744    1677    1676    1665    1666
       8    1756    1755    1744    1757    1678    1677    1666    1679
       8    1758    1757    1744    1745    1680    1679    1666    1667
       8    1737    1758    1745    1735    1659    1680    1667    1657
       8    1759    1738    1739    1741    1681    1660    1661    1663
       8    1760    1759    1741    1747    1682    1681    1663    1669
       8    1761    1760    1747    1762    1683    1682    1669    1684
       8    1763    1762    1747    1746    1685    1684    1669    1668
       8    1764    1763    1746    1748    1686    1685    1668    1670
       8    1765    1764    1748    1749    1687    1686    1670    1671
       8    1766    1765    1749    1767    1688    1687    1671    1689
       8    1721    1767    1749    1719    1643    1689    1671    1641
       8    1768    1769    1720    1750    1690    1691    1642    1672
       8    1770    1768    1750    1751    1692    1690    1672    1673
       8    1771    1770    1751    1752    1693    1692    1673    1674
       8    1772    1771    1752    1728    1694    1693    1674    1650
       8    1773    1772    1728    1727    1695    1694    1650    1649
       8    1774    1773    1727    1730    1696    1695    1649    1652
       8    1775    1774    1730    1753    1697    1696    1652    1675
       8    1776    1775    1753    1754    1698    1697    1675    1676
       8    1777    1776    1754    1755    1699    1698    1676    1677
       8    1778    1777    1755    1756    1700    1699    1677    1678
       8    1779    1778    1756    1757    1701    1700    1678    1679
       8    1780    1779    1757    1758    1702    1701    1679    1680
       8    1781    1780    1758    1737    1703    1702    1680    1659
       8    1782    1781    1737    1736    1704    1703    1659    1658
       8    1783    1782    1736    1738    1705    1704    1658    1660
       8    1784    1783    1738    1759    1706    1705    1660    1681
       8    1785    1784    1759    1760    1707    1706    1681    1682
       8    1786    1785    1760    1761    1708    1707    1682    1683
       8    1787    1786    1761    1762    1709    1708    1683    1684
       8    1788    1787    1762    1763    1710    1709    1684    1685
       8    1789    1788    1763    1764    1711    1710    1685    1686
       8    1790    1789    1764    1765    1712    1711    1686    1687
       8    1791    1790    1765    1766    1713    1712    1687    1688
       8    1792    1791    1766    1767    1714    1713    1688    1689
       8    1793    1792    1767    1721    1715    1714    1689    1643
       8    1769    1793    1721    1720    1691    1715    1643    1642
       8    1794    1795    1796    1797    1716    1717    1718    1719
       8    1796    1798    1799    1797    1718    1720    1721    1719
       8    1800    1795    1794    1801    1722    1717    1716    1723
       8    1794    1802    1803    1801    1716    1724    1725    1723
       8    1804    1805    1806    1800    1726    1727    1728    1722
       8    1807    1808    1805    1804    1729    1730    1727    1726
       8    1801    1807    1804    1800    1723    1729    1726    1722
       8    1809    1810    1802    1811    1731    1732    1724    1733
       8    1812    1813    1810    1809    1734    1735    1732    1731
       8    1814    1815    1813    1812    1736    1737    1735    1734
       8    1816    1814    1812    1817    1738    1736    1734    1739
       8    1818    1803    1802    1810    1740    1725    1724    1732
       8    1809    1819    1817    1812    1731    1741    1739    1734
       8    1794    1797    1811    1802    1716    1719    1733    1724
       8    1820    1807    1801    1803    1742    1729    1723    1725
       8    1821    1820    1803    1818    1743    1742    1725    1740
       8    1822    1821    1818    1823    1744    1743    1740    1745
       8    1813    1823    1818    1810    1735    1745    1740    1732
       8    1824    1825    1819    1809    1746    1747    1741    1731
       8    1826    1824    1809    1811    1748    1746    1731    1733
       8    1827    1826    1811    1797    1749    1748    1733    1719
       8    1828    1798    1796    1829    1750    1720    1718    1751
       8    1830    1829    1796    1795    1752    1751    1718    1717
       8    1806    1830    1795    1800    1728    1752    1717    1722
       8    1831    1808    1807    1820    1753    1730    1729    1742
       8    1832    1831    1820    1821    1754    1753    1742    1743
       8    1833    1832    1821    1822    1755    1754    1743    1744
       8    1834    1833    1822    1835    1756    1755    1744    1757
       8    1836    1835    1822    1823    1758    1757    1744    1745
       8    1815    1836    1823    1813    1737    1758    1745    1735
       8    1837    1816    1817    1819    1759    1738    1739    1741
       8    1838    1837    1819    1825    1760    1759    1741    1747
       8    1839    1838    1825    1840    1761    1760    1747    1762
       8    1841    1840    1825    1824    1763    1762    1747    1746
       8    1842    1841    1824    1826    1764    1763    1746    1748
       8    1843    1842    1826    1827    1765    1764    1748    1749
       8    1844    1843    1827    1845    1766    1765    1749    1767
       8    1799    1845    1827    1797    1721    1767    1749    1719
       8    1846    1847    1798    1828    1768    1769    1720    1750
       8    1848    1846    1828    1829    1770    1768    1750    1751
       8    1849    1848    1829    1830    1771    1770    1751    1752
       8    1850    1849    1830    1806    1772    1771    1752    1728
       8    1851    1850    1806    1805    1773    1772    1728    1727
       8    1852    1851    1805    1808    1774    1773    1727    1730
       8    1853    1852    1808    1831    1775    1774    1730    1753
       8    1854    1853    1831    1832    1776    1775    1753    1754
       8    1855    1854    1832    1833    1777    1776    1754    1755
       8    1856    1855    1833    1834    1778    1777    1755    1756
       8    1857    1856    1834    1835    1779    1778    1756    1757
       8    1858    1857    1835    1836    1780    1779    1757    1758
       8    1859    1858    1836    1815    1781    1780    1758    1737
       8    1860    1859    1815    1814    1782    1781    1737    1736
       8    1861    1860    1814    1816    1783    1782    1736    1738
       8    1862    1861    1816    1837    1784    1783    1738    1759
       8    1863    1862    1837    1838    1785    1784    1759    1760
       8    1864    1863    1838    1839    1786    1785    1760    1761
       8    1865    1864    1839    1840    1787    1786    1761    1762
       8    1866    1865    1840    1841    1788    1787    1762    1763
       8    1867    1866    1841    1842    1789    1788    1763    1764
       8    1868    1867    1842    1843    1790    1789    1764    1765
       8    1869    1868    1843    1844    1791    1790    1765    1766
       8    1870    1869    1844    1845    1792    1791    1766    1767
       8    1871    1870    1845    1799    1793    1792    1767    1721
       8    1847    1871    1799    1798    1769    1793    1721    1720
       8    1872    1873    1874    1875    1794    1795    1796    1797
       8    1874    1876    1877    1875    1796    1798    1799    1797
       8    1878    1873    1872    1879    1800    1795    1794    1801
       8    1872    1880    1881    1879    1794    1802    1803    1801
       8    1882    1883    1884    1878    1804    1805    1806    1800
       8    1885    1886    1883    1882    1807    1808    1805    1804
       8    1879    1885    1882    1878    1801    1807    1804    1800
       8    1887    1888    1880    1889    1809    1810    1802    1811
       8    1890    1891    1888    1887    1812    1813    1810    1809
       8    1892    1893    1891    1890    1814    1815    1813    1812
       8    1894    1892    1890    1895    1816    1814    1812    1817
       8    1896    1881    1880    1888    1818    1803    1802    1810
       8    1887    1897    1895    1890    1809    1819    1817    1812
       8    1872    1875    1889    1880    1794    1797    1811    1802
       8    1898    1885    1879    1881    1820    1807    1801    1803
       8    1899    1898    1881    1896    1821    1820    1803    1818
       8    1900    1899    1896    1901    1822    1821    1818    1823
       8    1891    1901    1896    1888    1813    1823    1818    1810
       8    1902    1903    1897    1887    1824    1825    1819    1809
       8    1904    1902    1887    1889    1826    1824    1809    1811
       8    1905    1904    1889    1875    1827    1826    1811    1797
       8    1906    1876    1874    1907    1828    1798    1796    1829
       8    1908    1907    1874    1873    1830    1829    1796    1795
       8    1884    1908    1873    1878    1806    1830    1795    1800
       8    1909    1886    1885    1898    1831    1808    1807    1820
       8    1910    1909    1898    1899    1832    1831    1820    1821
       8    1911    1910    1899    1900    1833    1832    1821    1822
       8    1912    1911    1900    1913    1834    1833    1822    1835
       8    1914    1913    1900    1901    1836    1835    1822    1823
       8    1893    1914    1901    1891    1815    1836    1823    1813
       8    1915    1894    1895    1897    1837    1816    1817    1819
       8    1916    1915    1897    1903    1838    1837    1819    1825
       8    1917    1916    1903    1918    1839    1838    1825    1840
       8    1919    1918    1903    1902    1841    1840    1825    1824
       8    1920    1919    1902    1904    1842    1841    1824    1826
       8    1921    1920    1904    1905    1843    1842    1826    1827
       8    1922    1921    1905    1923    1844    1843    1827    1845
       8    1877    1923    1905    1875    1799    1845    1827    1797
       8    1924    1925    1876    1906    1846    1847    1798    1828
       8    1926    1924    1906    1907    1848    1846    1828    1829
       8    1927    1926    1907    1908    1849    1848    1829    1830
       8    1928    1927    1908    1884    1850    1849    1830    1806
       8    1929    1928    1884    1883    1851    1850    1806    1805
       8    1930    1929    1883    1886    1852    1851    1805    1808
       8    1931    1930    1886    1909    1853    1852    1808    1831
       8    1932    1931    1909    1910    1854    1853    1831    1832
       8    1933    1932    1910    1911    1855    1854    1832    1833
       8    1934    1933    1911    1912    1856    1855    1833    1834
       8    1935    1934    1912    1913    1857    1856    1834    1835
       8    1936    1935    1913    1914    1858    1857    1835    1836
       8    1937    1936    1914    1893    1859    1858    1836    1815
       8    1938    1937    1893    1892    1860    1859    1815    1814
       8    1939    1938    1892    1894    1861    1860    1814    1816
       8    1940    1939    1894    1915    1862    1861    1816    1837
       8    1941    1940    1915    1916    1863    1862    1837    1838
       8    1942    1941    1916    1917    1864    1863    1838    1839
       8    1943    1942    1917    1918    1865    1864    1839    1840
       8    1944    1943    1918    1919    1866    1865    1840    1841
       8    1945    1944    1919    1920    1867    1866    1841    1842
       8    1946    1945    1920    1921    1868    1867    1842    1843
       8    1947    1946    1921    1922    1869    1868    1843    1844
       8    1948    1947    1922    1923    1870    1869    1844    1845
       8    1949    1948    1923    1877    1871    1870    1845    1799
       8    1925    1949    1877    1876    1847    1871    1799    1798
  
CELL_TYPES    3486
       1
       1
       1
       1
       1
       1
       1
       1
       1
       1
       1
       1
       1
       1
       1
       1
       1
       1
       1
       1
       1
       1
       1
       1
       1
       1
       1
       1
       1
       1
       1
       1
       1
       1
       1
       1
       1
       1
       1
       1
       1
       1
       1
       1
       1
       1
       1
       1
       1
       1
       1
       1
       1
       1
       1
       1
       1
       1
       1
       1
       1
       1
       1
       1
       1
       1
       1
       1
       1
       1
       1
       1
       1
       1
       1
       1
       1
       1
       1
       1
       1
       1
       1
       1
       1
       1
       1
       1
       1
       1
       1
       1
       1
       1
       1
       1
       1
       1
       1
       1
       1
       1
       1
       1
       1
       1
       1
       1
       1
       1
       1
       1
       1
       1
       1
       1
       1
       1
       1
       1
       1
       1
       1
       1
       1
       1
       1
       1
       1
       1
       1
       1
       1
       1
       1
       1
       1
       1
       1
       1
       1
       1
       1
       1
       1
       1
       1
       1
       1
       1
       1
       1
       1
       1
       1
       1
       1
       1
       1
       1
       1
       1
       1
       1
       1
       1
       1
       1
       1
       1
       1
       1
       1
       1
       1
       1
       1
       1
       1
       1
       1
       1
       1
       1
       1
       1
       1
       1
       1
       1
       1
       1
       1
       1
       1
       1
       1
       1
       1
       1
       1
       1
       1
       1
       1
       1
       1
       1
       1
       1
       1
       1
       1
       1
       1
       1
       1
       1
       1
       1
       1
       1
       1
       1
       1
       1
       1
       1
       1
       1
       1
       1
       1
       1
       1
       1
       1
       1
       1
       1
       1
       1
       1
       1
       1
       1
       1
       1
       1
       1
       1
       1
       1
       1
       1
       1
       1
       1
       1
       1
       1
       1
       1
       1
       1
       1
       1
       1
       1
       1
       1
       1
       1
       1
       1
       1
       1
       1
       1
       1
       1
       1
       1
       1
       1
       1
       1
       1
       1
       1
       1
       1
       1
       1
       1
       1
       1
       1
       1
       1
       1
       1
       1
       1
       1
       1
       1
       1
       1
       1
       1
       1
       1
       1
       1
       1
       1
       1
       1
       1
       1
       1
       1
       1
       1
       1
       1
       1
       1
       1
       1
       1
       1
       1
       1
       1
       1
       1
       1
       1
       1
       1
       1
       1
       1
       1
       1
       1
       1
       1
       1
       1
       1
       1
       1
       1
       1
       1
       1
       1
       1
       1
       1
       1
       1
       1
       1
       1
       1
       1
       1
       1
       1
       1
       1
       1
       1
       1
       1
       1
       1
       1
       1
       1
       1
       1
       1
       1
       1
       1
       1
       1
       1
       1
       1
       1
       1
       1
       1
       1
       1
       1
       1
       1
       1
       1
       1
       1
       1
       1
       1
       1
       1
       1
       1
       1
       1
       1
       1
       1
       1
       1
       1
       1
       1
       1
       1
       1
       1
       1
       1
       1
       1
       1
       1
       1
       1
       1
       1
       1
       1
       1
       1
       1
       1
       1
       1
       1
       1
       1
       1
       1
       1
       1
       1
       1
       1
       1
       1
       1
       1
       1
       1
       1
       1
       1
       1
       1
       1
       1
       1
       1
       1
       1
       1
       1
       1
       1
       1
       1
       1
       1
       1
       1
       1
       1
       1
       1
       1
       1
       1
       1
       1
       1
       1
       1
       1
       1
       1
       1
       1
       1
       1
       1
       1
       1
       1
       1
       1
       1
       1
       1
       1
       1
       1
       1
       1
       1
       1
       1
       1
       1
       1
       1
       1
       1
       1
       1
       1
       1
       1
       1
       1
       1
       1
       1
       1
       1
       1
       1
       1
       1
       1
       1
       1
       1
       1
       1
       1
       1
       1
       1
       1
       1
       1
       1
       1
       1
       1
       1
       1
       1
       1
       1
       1
       1
       1
       1
       1
       1
       1
       1
       1
       1
       1
       1
       1
       1
       1
       1
       1
       1
       1
       1
       1
       1
       1
       1
       1
       1
       1
       1
       1
       1
       1
       1
       1
       1
       1
       1
       1
       1
       1
       1
       1
       1
       1
       1
       1
       1
       1
       1
       1
       1
       1
       1
       1
       1
       1
       1
       1
       1
       1
       1
       1
       1
       1
       1
       1
       1
       1
       1
       1
       1
       1
       1
       1
       1
       1
       1
       1
       1
       1
       1
       1
       1
       1
       1
       1
       1
       1
       1
       1
       1
       1
       1
       1
       1
       1
       1
       1
       1
       1
       1
       1
       1
       1
       1
       1
       1
       1
       1
       1
       1
       1
       1
       1
       1
       1
       1
       1
       1
       1
       1
       1
       1
       1
       1
       1
       1
       1
       1
       1
       1
       1
       1
       1
       1
       1
       1
       1
       1
       1
       1
       1
       1
       1
       1
       1
       1
       1
       1
       1
       1
       1
       1
       1
       1
       1
       1
       1
       1
       1
       1
       1
       1
       1
       1
       1
       1
       1
       1
       1
       1
       1
       1
       1
       1
       1
       1
       1
       1
       1
       1
       1
       1
       1
       1
       1
       1
       1
       1
       1
       1
       1
       1
       1
       1
       1
       1
       1
       1
       1
       1
       1
       1
       1
       1
       1
       1
       1
       1
       1
       1
       1
       1
       1
       1
       1
       1
       1
       1
       1
       1
       1
       1
       1
       1
       1
       1
       1
       1
       1
       1
       1
       1
       1
       1
       1
       1
       1
       1
       1
       1
       1
       1
       1
       1
       1
       1
       1
       1
       1
       1
       1
       1
       1
       1
       1
       1
       1
       1
       1
       1
       1
       1
       1
       1
       1
       1
       1
       1
       1
       1
       1
       1
       1
       1
       1
       1
       1
       1
       1
       1
       1
       1
       1
       1
       1
       1
       1
       1
       1
       1
       1
       1
       1
       1
       1
       1
       1
       1
       1
       1
       1
       1
       1
       1
       1
       1
       1
       1
       1
       1
       1
       1
       1
       1
       1
       1
       1
       1
       1
       1
       1
       1
       1
       1
       1
       1
       1
       1
       1
       1
       1
       1
       1
       1
       1
       1
       1
       1
       1
       1
       1
       1
       1
       1
       1
       1
       1
       1
       1
       1
       1
       1
       1
       1
       1
       1
       1
       1
       1
       1
       1
       1
       1
       1
       1
       1
       1
       1
       1
       1
       1
       1
       1
       1
       1
       1
       1
       1
       1
       1
       1
       1
       1
       1
       1
       1
       1
       1
       1
       1
       1
       1
       1
       1
       1
       1
       1
       1
       1
       1
       1
       1
       1
       1
       1
       1
       1
       1
       1
       1
       1
       1
       1
       1
       1
       1
       1
       1
       1
       1
       1
       1
       1
       1
       1
       1
       1
       1
       1
       1
       1
       1
       1
       1
       1
       1
       1
       1
       1
       1
       1
       1
       1
       1
       1
       1
       1
       1
       1
       1
       1
       1
       1
       1
       1
       1
       1
       1
       1
       1
       1
       1
       1
       1
       1
       1
       1
       1
       1
       1
       1
       1
       1
       1
       1
       1
       1
       1
       1
       1
       1
       1
       1
       1
       1
       1
       1
       1
       1
       1
       1
       1
       1
       1
       1
       1
       1
       1
       1
       1
       1
       1
       1
       1
       1
       1
       1
       1
       1
       1
       1
       1
       1
       1
       1
       1
       1
       1
       1
       1
       1
       1
       1
       1
       1
       1
       1
       1
       1
       1
       1
       1
       1
       1
       1
       1
       1
       1
       1
       1
       1
       1
       1
       1
       1
       1
       1
       1
       1
       1
       1
       1
       1
       1
       1
       1
       1
       1
       1
       1
       1
       1
       1
       1
       1
       1
       1
       1
       1
       1
       1
       1
       1
       1
       1
       1
       1
       1
       1
       1
       1
       1
       1
       1
       1
       1
       1
       1
       1
       1
       1
       1
       1
       1
       1
       1
       1
       1
       1
       1
       1
       1
       1
       1
       1
       1
       1
       1
       1
       1
       1
       1
       1
       1
       1
       1
       1
       1
       1
       1
       1
       1
       1
       1
       1
       1
       1
       1
       1
       1
       1
       1
       1
       1
       1
       1
       1
       1
       1
       1
       1
       1
       1
       1
       1
       1
       1
       1
       1
       1
       1
       1
       1
       1
       1
       1
       1
       1
       1
       1
       1
       1
       1
       1
       1
       1
       1
       1
       1
       1
       1
       1
       1
       1
       1
       1
       1
       1
       1
       1
       1
       1
       1
       1
       1
       1
       1
       1
       1
       1
       1
       1
       1
       1
       1
       1
       1
       1
       1
       1
       1
       1
       1
       1
       1
       1
       1
       1
       1
       1
       1
       1
       1
       1
       1
       1
       1
       1
       1
       1
       1
       1
       1
       1
       1
       1
       1
       1
       1
       1
       1
       1
       1
       1
       1
       1
       1
       1
       1
       1
       1
       1
       1
       1
       1
       1
       1
       1
       1
       1
       1
       1
       1
       1
       1
       1
       1
       1
       1
       1
       1
       1
       1
       1
       1
       1
       1
       1
       1
       1
       1
       1
       1
       1
       1
       1
       1
       1
       1
       1
       1
       1
       1
       1
       1
       1
       1
       1
       1
       1
       1
       1
       1
       1
       1
       1
       1
       1
       1
       1
       1
       1
       1
       1
       1
       1
       1
       1
       1
       1
       1
       1
       1
       1
       1
       1
       1
       1
       1
       1
       1
       1
       1
       1
       1
       1
       1
       1
       1
       1
       1
       1
       1
       1
       1
       1
       1
       1
       1
       1
       1
       1
       1
       1
       1
       1
       1
       1
       1
       1
       1
       1
       1
       1
       1
       1
       1
       1
       1
       1
       1
       1
       1
       1
       1
       1
       1
       1
       1
       1
       1
       1
       1
       1
       1
       1
       1
       1
       1
       1
       1
       1
       1
       1
       1
       1
       1
       1
       1
       1
       1
       1
       1
       1
       1
       1
       1
       1
       1
       1
       1
       1
       1
       1
       1
       1
       1
       1
       1
       1
       1
       1
       1
       1
       1
       1
       1
       1
       1
       1
       1
       1
       1
       1
       1
       1
       1
       1
       1
       1
       1
       1
       1
       1
       1
       1
       1
       1
       1
       1
       1
       1
       1
       1
       1
       1
       1
       1
       1
       1
       1
       1
       1
       1
       1
       1
       1
       1
       1
       1
       1
       1
       1
       1
       1
       1
       1
       1
       1
       1
       1
       1
       1
       1
       1
       1
       1
       1
       1
       1
       1
       1
       1
       1
       1
       1
       1
       1
       1
       1
       1
       1
       1
       1
       1
       1
       1
       1
       1
       1
       1
       1
       1
       1
       1
       1
       1
       1
       1
       1
       1
       1
       1
       1
       1
       1
       1
       1
       1
       1
       1
       1
       1
       1
       1
       1
       1
       1
       1
       1
       1
       1
       1
       1
       1
       1
       1
       1
       1
       1
       1
       1
       1
       1
       1
       1
       1
       1
       1
       1
       1
       1
       1
       1
       1
       1
       1
       1
       1
       1
       1
       1
       1
       1
       1
       1
       1
       1
       1
       1
       1
       1
       1
       1
       1
       1
       1
       1
       1
       1
       1
       1
       1
       1
       1
       1
       1
       1
       1
       1
       1
       1
       1
       1
       1
       1
       1
       1
       1
       1
       1
       1
       1
       1
       1
       1
       1
       1
       1
       1
       1
       1
       1
       1
       1
       1
       1
       1
       1
       1
       1
       1
       1
       1
       1
       1
       1
       1
       1
       1
       1
       1
       1
       1
       1
       1
       1
       1
       1
       1
       1
       1
       1
       1
       1
       1
       1
       1
       1
       1
       1
       1
       1
       1
       1
       1
       1
       1
       1
       1
       1
       1
       1
       1
       1
       1
       1
       1
       1
       1
       1
       1
       1
       1
       1
       1
       1
       1
       1
       1
       1
       1
       1
       1
       1
       1
       1
       1
       1
       1
       1
       1
       1
       1
       1
       1
       1
       1
       1
       1
       1
       1
       1
       1
       1
       1
       1
       1
       1
       1
       1
       1
       1
       1
       1
       1
       1
       1
       1
       1
       1
       1
       1
       1
       1
       1
       1
       1
       1
       1
       1
       1
       1
       1
       1
       1
       1
       1
       1
       1
       1
       1
       1
       1
       1
       1
       1
       1
       1
       1
       1
       1
       1
       1
       1
       1
       1
       1
       1
       1
       1
       1
       1
       1
       1
       1
       1
       1
       1
       1
       1
       1
       1
       1
       1
       1
       1
       1
       1
       1
       1
       1
       1
       1
       1
       1
       1
       1
       1
       1
       1
       1
       1
       1
       1
       1
       1
       1
       1
       1
       1
       1
       1
       1
       1
       1
       1
       1
       1
       1
       1
       1
       1
       1
       1
       1
       1
       1
       1
       1
       1
       1
       1
       1
       1
       1
       1
       1
       1
       1
       1
       1
       1
       1
       1
       1
       1
       1
       1
       1
       1
       1
       1
       1
       1
       1
       1
       1
       1
       1
       1
       1
       1
       1
       1
       1
       1
       1
       1
       1
       1
       1
       1
       1
       1
       1
       1
       1
       1
       1
       1
       1
       1
       1
       1
       1
       1
       1
       1
       1
       1
       1
       1
       1
       1
       1
      12
      12
      12
      12
      12
      12
      12
      12
      12
      12
      12
      12
      12
      12
      12
      12
      12
      12
      12
      12
      12
      12
      12
      12
      12
      12
      12
      12
      12
      12
      12
      12
      12
      12
      12
      12
      12
      12
      12
      12
      12
      12
      12
      12
      12
      12
      12
      12
      12
      12
      12
      12
      12
      12
      12
      12
      12
      12
      12
      12
      12
      12
      12
      12
      12
      12
      12
      12
      12
      12
      12
      12
      12
      12
      12
      12
      12
      12
      12
      12
      12
      12
      12
      12
      12
      12
      12
      12
      12
      12
      12
      12
      12
      12
      12
      12
      12
      12
      12
      12
      12
      12
      12
      12
      12
      12
      12
      12
      12
      12
      12
      12
      12
      12
      12
      12
      12
      12
      12
      12
      12
      12
      12
      12
      12
      12
      12
      12
      12
      12
      12
      12
      12
      12
      12
      12
      12
      12
      12
      12
      12
      12
      12
      12
      12
      12
      12
      12
      12
      12
      12
      12
      12
      12
      12
      12
      12
      12
      12
      12
      12
      12
      12
      12
      12
      12
      12
      12
      12
      12
      12
      12
      12
      12
      12
      12
      12
      12
      12
      12
      12
      12
      12
      12
      12
      12
      12
      12
      12
      12
      12
      12
      12
      12
      12
      12
      12
      12
      12
      12
      12
      12
      12
      12
      12
      12
      12
      12
      12
      12
      12
      12
      12
      12
      12
      12
      12
      12
      12
      12
      12
      12
      12
      12
      12
      12
      12
      12
      12
      12
      12
      12
      12
      12
      12
      12
      12
      12
      12
      12
      12
      12
      12
      12
      12
      12
      12
      12
      12
      12
      12
      12
      12
      12
      12
      12
      12
      12
      12
      12
      12
      12
      12
      12
      12
      12
      12
      12
      12
      12
      12
      12
      12
      12
      12
      12
      12
      12
      12
      12
      12
      12
      12
      12
      12
      12
      12
      12
      12
      12
      12
      12
      12
      12
      12
      12
      12
      12
      12
      12
      12
      12
      12
      12
      12
      12
      12
      12
      12
      12
      12
      12
      12
      12
      12
      12
      12
      12
      12
      12
      12
      12
      12
      12
      12
      12
      12
      12
      12
      12
      12
      12
      12
      12
      12
      12
      12
      12
      12
      12
      12
      12
      12
      12
      12
      12
      12
      12
      12
      12
      12
      12
      12
      12
      12
      12
      12
      12
      12
      12
      12
      12
      12
      12
      12
      12
      12
      12
      12
      12
      12
      12
      12
      12
      12
      12
      12
      12
      12
      12
      12
      12
      12
      12
      12
      12
      12
      12
      12
      12
      12
      12
      12
      12
      12
      12
      12
      12
      12
      12
      12
      12
      12
      12
      12
      12
      12
      12
      12
      12
      12
      12
      12
      12
      12
      12
      12
      12
      12
      12
      12
      12
      12
      12
      12
      12
      12
      12
      12
      12
      12
      12
      12
      12
      12
      12
      12
      12
      12
      12
      12
      12
      12
      12
      12
      12
      12
      12
      12
      12
      12
      12
      12
      12
      12
      12
      12
      12
      12
      12
      12
      12
      12
      12
      12
      12
      12
      12
      12
      12
      12
      12
      12
      12
      12
      12
      12
      12
      12
      12
      12
      12
      12
      12
      12
      12
      12
      12
      12
      12
      12
      12
      12
      12
      12
      12
      12
      12
      12
      12
      12
      12
      12
      12
      12
      12
      12
      12
      12
      12
      12
      12
      12
      12
      12
      12
      12
      12
      12
      12
      12
      12
      12
      12
      12
      12
      12
      12
      12
      12
      12
      12
      12
      12
      12
      12
      12
      12
      12
      12
      12
      12
      12
      12
      12
      12
      12
      12
      12
      12
      12
      12
      12
      12
      12
      12
      12
      12
      12
      12
      12
      12
      12
      12
      12
      12
      12
      12
      12
      12
      12
      12
      12
      12
      12
      12
      12
      12
      12
      12
      12
      12
      12
      12
      12
      12
      12
      12
      12
      12
      12
      12
      12
      12
      12
      12
      12
      12
      12
      12
      12
      12
      12
      12
      12
      12
      12
      12
      12
      12
      12
      12
      12
      12
      12
      12
      12
      12
      12
      12
      12
      12
      12
      12
      12
      12
      12
      12
      12
      12
      12
      12
      12
      12
      12
      12
      12
      12
      12
      12
      12
      12
      12
      12
      12
      12
      12
      12
      12
      12
      12
      12
      12
      12
      12
      12
      12
      12
      12
      12
      12
      12
      12
      12
      12
      12
      12
      12
      12
      12
      12
      12
      12
      12
      12
      12
      12
      12
      12
      12
      12
      12
      12
      12
      12
      12
      12
      12
      12
      12
      12
      12
      12
      12
      12
      12
      12
      12
      12
      12
      12
      12
      12
      12
      12
      12
      12
      12
      12
      12
      12
      12
      12
      12
      12
      12
      12
      12
      12
      12
      12
      12
      12
      12
      12
      12
      12
      12
      12
      12
      12
      12
      12
      12
      12
      12
      12
      12
      12
      12
      12
      12
      12
      12
      12
      12
      12
      12
      12
      12
      12
      12
      12
      12
      12
      12
      12
      12
      12
      12
      12
      12
      12
      12
      12
      12
      12
      12
      12
      12
      12
      12
      12
      12
      12
      12
      12
      12
      12
      12
      12
      12
      12
      12
      12
      12
      12
      12
      12
      12
      12
      12
      12
      12
      12
      12
      12
      12
      12
      12
      12
      12
      12
      12
      12
      12
      12
      12
      12
      12
      12
      12
      12
      12
      12
      12
      12
      12
      12
      12
      12
      12
      12
      12
      12
      12
      12
      12
      12
      12
      12
      12
      12
      12
      12
      12
      12
      12
      12
      12
      12
      12
      12
      12
      12
      12
      12
      12
      12
      12
      12
      12
      12
      12
      12
      12
      12
      12
      12
      12
      12
      12
      12
      12
      12
      12
      12
      12
      12
      12
      12
      12
      12
      12
      12
      12
      12
      12
      12
      12
      12
      12
      12
      12
      12
      12
      12
      12
      12
      12
      12
      12
      12
      12
      12
      12
      12
      12
      12
      12
      12
      12
      12
      12
      12
      12
      12
      12
      12
      12
      12
      12
      12
      12
      12
      12
      12
      12
      12
      12
      12
      12
      12
      12
      12
      12
      12
      12
      12
      12
      12
      12
      12
      12
      12
      12
      12
      12
      12
      12
      12
      12
      12
      12
      12
      12
      12
      12
      12
      12
      12
      12
      12
      12
      12
      12
      12
      12
      12
      12
      12
      12
      12
      12
      12
      12
      12
      12
      12
      12
      12
      12
      12
      12
      12
      12
      12
      12
      12
      12
      12
      12
      12
      12
      12
      12
      12
      12
      12
      12
      12
      12
      12
      12
      12
      12
      12
      12
      12
      12
      12
      12
      12
      12
      12
      12
      12
      12
      12
      12
      12
      12
      12
      12
      12
      12
      12
      12
      12
      12
      12
      12
      12
      12
      12
      12
      12
      12
      12
      12
      12
      12
      12
      12
      12
      12
      12
      12
      12
      12
      12
      12
      12
      12
      12
      12
      12
      12
      12
      12
      12
      12
      12
      12
      12
      12
      12
      12
      12
      12
      12
      12
      12
      12
      12
      12
      12
      12
      12
      12
      12
      12
      12
      12
      12
      12
      12
      12
      12
      12
      12
      12
      12
      12
      12
      12
      12
      12
      12
      12
      12
      12
      12
      12
      12
      12
      12
      12
      12
      12
      12
      12
      12
      12
      12
      12
      12
      12
      12
      12
      12
      12
      12
      12
      12
      12
      12
      12
      12
      12
      12
      12
      12
      12
      12
      12
      12
      12
      12
      12
      12
      12
      12
      12
      12
      12
      12
      12
      12
      12
      12
      12
      12
      12
      12
      12
      12
      12
      12
      12
      12
      12
      12
      12
      12
      12
      12
      12
      12
      12
      12
      12
      12
      12
      12
      12
      12
      12
      12
      12
      12
      12
      12
      12
      12
      12
      12
      12
      12
      12
      12
      12
      12
      12
      12
      12
      12
      12
      12
      12
      12
      12
      12
      12
      12
      12
      12
      12
      12
      12
      12
      12
      12
      12
      12
      12
      12
      12
      12
      12
      12
      12
      12
      12
      12
      12
      12
      12
      12
      12
      12
      12
      12
      12
      12
      12
      12
      12
      12
      12
      12
      12
      12
      12
      12
      12
      12
      12
      12
      12
      12
      12
      12
      12
      12
      12
      12
      12
      12
      12
      12
      12
      12
      12
      12
      12
      12
      12
      12
      12
      12
      12
      12
      12
      12
      12
      12
      12
      12
      12
      12
      12
      12
      12
      12
      12
      12
      12
      12
      12
      12
      12
      12
      12
      12
      12
      12
      12
      12
      12
      12
      12
      12
      12
      12
      12
      12
      12
      12
      12
      12
      12
      12
      12
      12
      12
      12
      12
      12
      12
      12
      12
      12
      12
      12
      12
      12
      12
      12
      12
      12
      12
      12
      12
      12
      12
      12
      12
      12
      12
      12
      12
      12
      12
      12
      12
      12
      12
      12
      12
      12
      12
      12
      12
      12
      12
      12
      12
      12
      12
      12
      12
      12
      12
      12
      12
      12
      12
      12
      12
      12
      12
      12
      12
      12
      12
      12
      12
      12
      12
      12
      12
      12
      12
      12
      12
      12
      12
      12
      12
      12
      12
      12
      12
      12
      12
      12
      12
      12
      12
      12
      12
      12
      12
      12
      12
      12
      12
      12
      12
      12
      12
      12
      12
      12
      12
      12
      12
      12
      12
      12
      12
      12
      12
      12
      12
      12
      12
      12
      12
      12
      12
      12
      12
      12
      12
      12
      12
      12
      12
      12
      12
      12
      12
      12
      12
      12
      12
      12
      12
      12
      12
      12
      12
      12
      12
      12
      12
      12
      12
      12
      12
      12
      12
      12
      12
      12
      12
      12
      12
      12
      12
      12
      12
      12
      12
      12
      12
      12
      12
      12
      12
      12
      12
      12
      12
      12
      12
      12
      12
      12
      12
      12
      12
      12
      12
      12
      12
      12
      12
      12
      12
      12
      12
      12
      12
      12
      12
      12
      12
      12
      12
      12
      12
      12
      12
      12
      12
      12
      12
      12
      12
      12
      12
      12
      12
      12
      12
      12
      12
      12
      12
      12
      12
      12
      12
      12
      12
      12
      12
      12
      12
      12
      12
      12
      12
  
  
POINT_DATA       1950
  
SCALARS                  material_type  double 1
LOOKUP_TABLE default
                   2
                   2
                   2
                   2
                   2
                   2
                   2
                   2
                   2
                   2
                   2
                   2
                   2
                   2
                   2
                   2
                   2
                   2
                   2
                   2
                   2
                   2
                   2
                   2
                   2
                   2
                   2
                   2
                   2
                   2
                   2
                   2
                   2
                   2
                   2
                   2
                   2
                   2
                   2
                   2
                   2
                   2
                   2
                   2
                   2
                   2
                   2
                   2
                   2
                   2
                   2
                   2
                   2
                   2
                   2
                   2
                   2
                   2
                   2
                   2
                   2
                   2
                   2
                   2
                   2
                   2
                   2
                   2
                   2
                   2
                   2
                   2
                   2
                   2
                   2
                   2
                   2
                   2
                   2
                   2
                   2
                   2
                   2
                   2
                   2
                   2
                   2
                   2
                   2
                   2
                   2
                   2
                   2
                   2
                   2
                   2
                   2
                   2
                   2
                   2
                   2
                   2
                   2
                   2
                   2
                   2
                   2
                   2
                   2
                   2
                   2
                   2
                   2
                   2
                   2
                   2
                   2
                   2
                   2
                   2
                   2
                   2
                   2
                   2
                   2
                   2
                   2
                   2
                   2
                   2
                   2
                   2
                   2
                   2
                   2
                   2
                   2
                   2
                   2
                   2
                   2
                   2
                   2
                   2
                   2
                   2
                   2
                   2
                   2
                   2
                   2
                   2
                   2
                   2
                   2
                   2
                   2
                   2
                   2
                   2
                   2
                   2
                   2
                   2
                   2
                   2
                   2
                   2
                   2
                   2
                   2
                   2
                   2
                   2
                   2
                   2
                   2
                   2
                   2
                   2
                   2
                   2
                   2
                   2
                   2
                   2
                   2
                   2
                   2
                   2
                   2
                   2
                   2
                   2
                   2
                   2
                   2
                   2
                   2
                   2
                   2
                   2
                   2
                   2
                   2
                   2
                   2
                   2
                   2
                   2
                   2
                   2
                   2
                   2
                   2
                   2
                   2
                   2
                   2
                   2
                   2
                   2
                   2
                   2
                   2
                   2
                   2
                   2
                   2
                   2
                   2
                   2
                   2
                   2
                   2
                   2
                   2
                   2
                   2
                   2
                   2
                   2
                   2
                   2
                   2
                   2
                   2
                   2
                   2
                   2
                   2
                   2
                   2
                   2
                   2
                   2
                   2
                   2
                   2
                   2
                   2
                   2
                   2
                   2
                   2
                   2
                   2
                   2
                   2
                   2
                   2
                   2
                   2
                   2
                   2
                   2
                   2
                   2
                   2
                   2
                   2
                   2
                   2
                   2
                   2
                   2
                   2
                   2
                   2
                   2
                   2
                   2
                   2
                   2
                   2
                   2
                   2
                   2
                   2
                   2
                   2
                   2
                   2
                   2
                   2
                   2
                   2
                   2
                   2
                   2
                   2
                   2
                   2
                   2
                   2
                   2
                   2
                   2
                   2
                   2
                   2
                   2
                   2
                   2
                   2
                   2
                   2
                   2
                   2
                   2
                   2
                   2
                   2
                   2
                   2
                   2
                   2
                   2
                   2
                   2
                   2
                   2
                   2
                   2
                   2
                   2
                   2
                   2
                   2
                   2
                   2
                   2
                   2
                   2
                   2
                   2
                   2
                   2
                   2
                   2
                   2
                   2
                   2
                   2
                   2
                   2
                   2
                   2
                   2
                   2
                   2
                   2
                   2
                   2
                   2
                   2
                   2
                   2
                   2
                   2
                   2
                   2
                   2
                   2
                   2
                   2
                   2
                   2
                   2
                   2
                   2
                   2
                   2
                   2
                   2
                   2
                   2
                   2
                   2
                   2
                   2
                   2
                   2
                   2
                   2
                   2
                   2
                   2
                   2
                   2
                   2
                   2
                   2
                   2
                   2
                   2
                   2
                   2
                   2
                   2
                   2
                   2
                   2
                   2
                   2
                   2
                   2
                   2
                   2
                   2
                   2
                   2
                   2
                   2
                   2
                   2
                   2
                   2
                   2
                   2
                   2
                   2
                   2
                   2
                   2
                   2
                   2
                   2
                   2
                   2
                   2
                   2
                   2
                   2
                   2
                   2
                   2
                   2
                   2
                   2
                   2
                   2
                   2
                   2
                   2
                   2
                   2
                   2
                   2
                   2
                   2
                   2
                   2
                   2
                   2
                   2
                   2
                   2
                   2
                   2
                   2
                   2
                   2
                   2
                   2
                   2
                   2
                   2
                   2
                   2
                   2
                   2
                   2
                   2
                   2
                   2
                   2
                   2
                   2
                   2
                   2
                   2
                   2
                   2
                   2
                   2
                   2
                   2
                   2
                   2
                   2
                   2
                   2
                   2
                   2
                   2
                   2
                   2
                   2
                   2
                   2
                   2
                   2
                   2
                   2
                   2
                   2
                   2
                   2
                   2
                   2
                   2
                   2
                   2
                   2
                   2
                   2
                   2
                   2
                   2
                   2
                   2
                   2
                   2
                   2
                   2
                   2
                   2
                   2
                   2
                   2
                   2
                   2
                   2
                   2
                   2
                   2
                   2
                   2
                   2
                   2
                   2
                   2
                   2
                   2
                   2
                   2
                   2
                   2
                   2
                   2
                   2
                   2
                   2
                   2
                   2
                   2
                   2
                   2
                   2
                   2
                   2
                   2
                   2
                   2
                   2
                   2
                   2
                   2
                   2
                   2
                   2
                   2
                   2
                   2
                   2
                   2
                   2
                   2
                   2
                   2
                   2
                   2
                   2
                   2
                   2
                   2
                   2
                   2
                   2
                   2
                   2
                   2
                   2
                   2
                   2
                   2
                   2
                   2
                   2
                   2
                   2
                   2
                   2
                   2
                   2
                   2
                   2
                   2
                   2
                   2
                   2
                   2
                   2
                   2
                   2
                   2
                   2
                   2
                   2
                   2
                   2
                   2
                   2
                   2
                   2
                   2
                   2
                   2
                   2
                   2
                   2
                   2
                   2
                   2
                   2
                   2
                   2
                   2
                   2
                   2
                   2
                   2
                   2
                   2
                   2
                   2
                   2
                   2
                   2
                   2
                   2
                   2
                   2
                   2
                   2
                   2
                   2
                   2
                   2
                   2
                   2
                   2
                   2
                   2
                   2
                   2
                   2
                   2
                   2
                   2
                   2
                   2
                   2
                   2
                   2
                   2
                   2
                   2
                   2
                   2
                   2
                   2
                   2
                   2
                   2
                   2
                   2
                   2
                   2
                   2
                   2
                   2
                   2
                   2
                   2
                   2
                   2
                   2
                   2
                   2
                   2
                   2
                   2
                   2
                   2
                   2
                   2
                   2
                   2
                   2
                   2
                   2
                   2
                   2
                   2
                   2
                   2
                   2
                   2
                   2
                   2
                   2
                   2
                   2
                   2
                   2
                   2
                   2
                   2
                   2
                   2
                   2
                   2
                   2
                   2
                   2
                   2
                   2
                   2
                   2
                   2
                   2
                   2
                   2
                   2
                   2
                   2
                   2
                   2
                   2
                   2
                   2
                   2
                   2
                   2
                   2
                   2
                   2
                   2
                   2
                   2
                   2
                   2
                   2
                   2
                   2
                   2
                   2
                   2
                   2
                   2
                   2
                   2
                   2
                   2
                   2
                   2
                   2
                   2
                   2
                   2
                   2
                   2
                   2
                   2
                   2
                   2
                   2
                   2
                   2
                   2
                   2
                   2
                   2
                   2
                   2
                   2
                   2
                   2
                   2
                   2
                   2
                   2
                   2
                   2
                   2
                   2
                   2
                   2
                   2
                   2
                   2
                   2
                   2
                   2
                   2
                   2
                   2
                   2
                   2
                   2
                   2
                   2
                   2
                   2
                   2
                   2
                   2
                   2
                   2
                   2
                   2
                   2
                   2
                   2
                   2
                   2
                   2
                   2
                   2
                   2
                   2
                   2
                   2
                   2
                   2
                   2
                   2
                   2
                   2
                   2
                   2
                   2
                   2
                   2
                   2
                   2
                   2
                   2
                   2
                   2
                   2
                   2
                   2
                   2
                   2
                   2
                   2
                   2
                   2
                   2
                   2
                   2
                   2
                   2
                   2
                   2
                   2
                   2
                   2
                   2
                   2
                   2
                   2
                   2
                   2
                   2
                   2
                   2
                   2
                   2
                   2
                   2
                   2
                   2
                   2
                   2
                   2
                   2
                   2
                   2
                   2
                   2
                   2
                   2
                   2
                   2
                   2
                   2
                   2
                   2
                   2
                   2
                   2
                   2
                   2
                   2
                   2
                   2
                   2
                   2
                   2
                   2
                   2
                   2
                   2
                   2
                   2
                   2
                   2
                   2
                   2
                   2
                   2
                   2
                   2
                   2
                   2
                   2
                   2
                   2
                   2
                   2
                   2
                   2
                   2
                   2
                   2
                   2
                   2
                   2
                   2
                   2
                   2
                   2
                   2
                   2
                   2
                   2
                   2
                   2
                   2
                   2
                   2
                   2
                   2
                   2
                   2
                   2
                   2
                   2
                   2
                   2
                   2
                   2
                   2
                   2
                   2
                   2
                   2
                   2
                   2
                   2
                   2
                   2
                   2
                   2
                   2
                   2
                   2
                   2
                   2
                   2
                   2
                   2
                   2
                   2
                   2
                   2
                   2
                   2
                   2
                   2
                   2
                   2
                   2
                   2
                   2
                   2
                   2
                   2
                   2
                   2
                   2
                   2
                   2
                   2
                   2
                   2
                   2
                   2
                   2
                   2
                   2
                   2
                   2
                   2
                   2
                   2
                   2
                   2
                   2
                   2
                   2
                   2
                   2
                   2
                   2
                   2
                   2
                   2
                   2
                   2
                   2
                   2
                   2
                   2
                   2
                   2
                   2
                   2
                   2
                   2
                   2
                   2
                   2
                   2
                   2
                   2
                   2
                   2
                   2
                   2
                   2
                   2
                   2
                   2
                   2
                   2
                   2
                   2
                   2
                   2
                   2
                   2
                   2
                   2
                   2
                   2
                   2
                   2
                   2
                   2
                   2
                   2
                   2
                   2
                   2
                   2
                   2
                   2
                   2
                   2
                   2
                   2
                   2
                   2
                   2
                   2
                   2
                   2
                   2
                   2
                   2
                   2
                   2
                   2
                   2
                   2
                   2
                   2
                   2
                   2
                   2
                   2
                   2
                   2
                   2
                   2
                   2
                   2
                   2
                   2
                   2
                   2
                   2
                   2
                   2
                   2
                   2
                   2
                   2
                   2
                   2
                   2
                   2
                   2
                   2
                   2
                   2
                   2
                   2
                   2
                   2
                   2
                   2
                   2
                   2
                   2
                   2
                   2
                   2
                   2
                   2
                   2
                   2
                   2
                   2
                   2
                   2
                   2
                   2
                   2
                   2
                   2
                   2
                   2
                   2
                   2
                   2
                   2
                   2
                   2
                   2
                   2
                   2
                   2
                   2
                   2
                   2
                   2
                   2
                   2
                   2
                   2
                   2
                   2
                   2
                   2
                   2
                   2
                   2
                   2
                   2
                   2
                   2
                   2
                   2
                   2
                   2
                   2
                   2
                   2
                   2
                   2
                   2
                   2
                   2
                   2
                   2
                   2
                   2
                   2
                   2
                   2
                   2
                   2
                   2
                   2
                   2
                   2
                   2
                   2
                   2
                   2
                   2
                   2
                   2
                   2
                   2
                   2
                   2
                   2
                   2
                   2
                   2
                   2
                   2
                   2
                   2
                   2
                   2
                   2
                   2
                   2
                   2
                   2
                   2
                   2
                   2
                   2
                   2
                   2
                   2
                   2
                   2
                   2
                   2
                   2
                   2
                   2
                   2
                   2
                   2
                   2
                   2
                   2
                   2
                   2
                   2
                   2
                   2
                   2
                   2
                   2
                   2
                   2
                   2
                   2
                   2
                   2
                   2
                   2
                   2
                   2
                   2
                   2
                   2
                   2
                   2
                   2
                   2
                   2
                   2
                   2
                   2
                   2
                   2
                   2
                   2
                   2
                   2
                   2
                   2
                   2
                   2
                   2
                   2
                   2
                   2
                   2
                   2
                   2
                   2
                   2
                   2
                   2
                   2
                   2
                   2
                   2
                   2
                   2
                   2
                   2
                   2
                   2
                   2
                   2
                   2
                   2
                   2
                   2
                   2
                   2
                   2
                   2
                   2
                   2
                   2
                   2
                   2
                   2
                   2
                   2
                   2
                   2
                   2
                   2
                   2
                   2
                   2
                   2
                   2
                   2
                   2
                   2
                   2
                   2
                   2
                   2
                   2
                   2
                   2
                   2
                   2
                   2
                   2
                   2
                   2
                   2
                   2
                   2
                   2
                   2
                   2
                   2
                   2
                   2
                   2
                   2
                   2
                   2
                   2
                   2
                   2
                   2
                   2
                   2
                   2
                   2
                   2
                   2
                   2
                   2
                   2
                   2
                   2
                   2
                   2
                   2
                   2
                   2
                   2
                   2
                   2
                   2
                   2
                   2
                   2
                   2
                   2
                   2
                   2
                   2
                   2
                   2
                   2
                   2
                   2
                   2
                   2
                   2
                   2
                   2
                   2
                   2
                   2
                   2
                   2
                   2
                   2
                   2
                   2
                   2
                   2
                   2
                   2
                   2
                   2
                   2
                   2
                   2
                   2
                   2
                   2
                   2
                   2
                   2
                   2
                   2
                   2
                   2
                   2
                   2
                   2
                   2
                   2
                   2
                   2
                   2
                   2
                   2
                   2
                   2
                   2
                   2
                   2
                   2
                   2
                   2
                   2
                   2
                   2
                   2
                   2
                   2
                   2
                   2
                   2
                   2
                   2
                   2
                   2
                   2
                   2
                   2
                   2
                   2
                   2
                   2
                   2
                   2
                   2
                   2
                   2
                   2
                   2
                   2
                   2
                   2
                   2
                   2
                   2
                   2
                   2
                   2
                   2
                   2
                   2
                   2
                   2
                   2
                   2
                   2
                   2
                   2
                   2
                   2
                   2
                   2
                   2
                   2
                   2
                   2
                   2
                   2
                   2
                   2
                   2
                   2
                   2
                   2
                   2
                   2
                   2
                   2
                   2
                   2
                   2
                   2
                   2
                   2
                   2
                   2
                   2
                   2
                   2
                   2
                   2
                   2
                   2
                   2
                   2
                   2
                   2
                   2
                   2
                   2
                   2
                   2
                   2
                   2
                   2
                   2
                   2
                   2
                   2
                   2
                   2
                   2
                   2
                   2
                   2
                   2
                   2
                   2
                   2
                   2
                   2
                   2
                   2
                   2
                   2
                   2
                   2
                   2
                   2
                   2
                   2
                   2
                   2
                   2
                   2
                   2
                   2
                   2
                   2
                   2
                   2
                   2
                   2
                   2
                   2
                   2
                   2
                   2
                   2
                   2
                   2
                   2
                   2
                   2
                   2
                   2
                   2
                   2
                   2
                   2
                   2
                   2
                   2
                   2
                   2
                   2
                   2
                   2
                   2
                   2
                   2
                   2
                   2
                   2
                   2
                   2
                   2
                   2
                   2
                   2
                   2
                   2
                   2
                   2
                   2
                   2
                   2
                   2
                   2
                   2
                   2
                   2
                   2
                   2
                   2
                   2
                   2
                   2
                   2
                   2
                   2
                   2
                   2
                   2
                   2
                   2
                   2
                   2
                   2
                   2
                   2
                   2
                   2
                   2
                   2
                   2
                   2
                   2
                   2
                   2
                   2
                   2
                   2
                   2
                   2
                   2
                   2
                   2
                   2
                   2
                   2
                   2
                   2
                   2
                   2
                   2
                   2
                   2
                   2
                   2
                   2
                   2
                   2
                   2
                   2
                   2
                   2
                   2
                   2
                   2
                   2
                   2
                   2
                   2
                   2
                   2
                   2
                   2
                   2
                   2
                   2
                   2
                   2
                   2
                   2
                   2
                   2
                   2
                   2
                   2
                   2
                   2
                   2
                   2
                   2
                   2
                   2
                   2
                   2
                   2
                   2
                   2
                   2
                   2
                   2
                   2
                   2
                   2
                   2
                   2
                   2
                   2
                   2
                   2
                   2
                   2
                   2
                   2
                   2
                   2
                   2
                   2
                   2
                   2
                   2
                   2
                   2
                   2
                   2
                   2
                   2
                   2
                   2
                   2
                   2
                   2
                   2
                   2
                   2
                   2
                   2
                   2
                   2
                   2
                   2
                   2
                   2
                   2
                   2
                   2
                   2
                   2
                   2
                   2
                   2
                   2
                   2
                   2
                   2
                   2
                   2
                   2
                   2
                   2
                   2
                   2
                   2
                   2
                   2
                   2
                   2
                   2
                   2
                   2
                   2
                   2
                   2
                   2
                   2
                   2
                   2
                   2
                   2
                   2
                   2
                   2
                   2
                   2
                   2
                   2
                   2
                   2
                   2
                   2
                   2
                   2
                   2
                   2
                   2
                   2
                   2
                   2
                   2
                   2
                   2
                   2
                   2
                   2
                   2
                   2
                   2
                   2
                   2
                   2
                   2
                   2
                   2
                   2
                   2
                   2
                   2
                   2
                   2
                   2
                   2
                   2
                   2
                   2
                   2
                   2
                   2
                   2
                   2
                   2
                   2
                   2
                   2
                   2
                   2
                   2
                   2
                   2
                   2
                   2
                   2
                   2
                   2
                   2
                   2
                   2
                   2
                   2
                   2
                   2
                   2
                   2
                   2
                   2
                   2
                   2
                   2
                   2
                   2
                   2
                   2
                   2
                   2
                   2
                   2
                   2
                   2
                   2
                   2
                   2
                   2
                   2
                   2
                   2
                   2
                   2
                   2
                   2
                   2
                   2
                   2
                   2
                   2
                   2
                   2
                   2
  
SCALARS                        node_id  double 1
LOOKUP_TABLE default
                   1
                   2
                   3
                   4
                   5
                   6
                   7
                   8
                   9
                  10
                  11
                  12
                  13
                  14
                  15
                  16
                  17
                  18
                  19
                  20
                  21
                  22
                  23
                  24
                  25
                  26
                  27
                  28
                  29
                  30
                  31
                  32
                  33
                  34
                  35
                  36
                  37
                  38
                  39
                  40
                  41
                  42
                  43
                  44
                  45
                  46
                  47
                  48
                  49
                  50
                  51
                  52
                  53
                  54
                  55
                  56
                  57
                  58
                  59
                  60
                  61
                  62
                  63
                  64
                  65
                  66
                  67
                  68
                  69
                  70
                  71
                  72
                  73
                  74
                  75
                  76
                  77
                  78
                  79
                  80
                  81
                  82
                  83
                  84
                  85
                  86
                  87
                  88
                  89
                  90
                  91
                  92
                  93
                  94
                  95
                  96
                  97
                  98
                  99
                 100
                 101
                 102
                 103
                 104
                 105
                 106
                 107
                 108
                 109
                 110
                 111
                 112
                 113
                 114
                 115
                 116
                 117
                 118
                 119
                 120
                 121
                 122
                 123
                 124
                 125
                 126
                 127
                 128
                 129
                 130
                 131
                 132
                 133
                 134
                 135
                 136
                 137
                 138
                 139
                 140
                 141
                 142
                 143
                 144
                 145
                 146
                 147
                 148
                 149
                 150
                 151
                 152
                 153
                 154
                 155
                 156
                 157
                 158
                 159
                 160
                 161
                 162
                 163
                 164
                 165
                 166
                 167
                 168
                 169
                 170
                 171
                 172
                 173
                 174
                 175
                 176
                 177
                 178
                 179
                 180
                 181
                 182
                 183
                 184
                 185
                 186
                 187
                 188
                 189
                 190
                 191
                 192
                 193
                 194
                 195
                 196
                 197
                 198
                 199
                 200
                 201
                 202
                 203
                 204
                 205
                 206
                 207
                 208
                 209
                 210
                 211
                 212
                 213
                 214
                 215
                 216
                 217
                 218
                 219
                 220
                 221
                 222
                 223
                 224
                 225
                 226
                 227
                 228
                 229
                 230
                 231
                 232
                 233
                 234
                 235
                 236
                 237
                 238
                 239
                 240
                 241
                 242
                 243
                 244
                 245
                 246
                 247
                 248
                 249
                 250
                 251
                 252
                 253
                 254
                 255
                 256
                 257
                 258
                 259
                 260
                 261
                 262
                 263
                 264
                 265
                 266
                 267
                 268
                 269
                 270
                 271
                 272
                 273
                 274
                 275
                 276
                 277
                 278
                 279
                 280
                 281
                 282
                 283
                 284
                 285
                 286
                 287
                 288
                 289
                 290
                 291
                 292
                 293
                 294
                 295
                 296
                 297
                 298
                 299
                 300
                 301
                 302
                 303
                 304
                 305
                 306
                 307
                 308
                 309
                 310
                 311
                 312
                 313
                 314
                 315
                 316
                 317
                 318
                 319
                 320
                 321
                 322
                 323
                 324
                 325
                 326
                 327
                 328
                 329
                 330
                 331
                 332
                 333
                 334
                 335
                 336
                 337
                 338
                 339
                 340
                 341
                 342
                 343
                 344
                 345
                 346
                 347
                 348
                 349
                 350
                 351
                 352
                 353
                 354
                 355
                 356
                 357
                 358
                 359
                 360
                 361
                 362
                 363
                 364
                 365
                 366
                 367
                 368
                 369
                 370
                 371
                 372
                 373
                 374
                 375
                 376
                 377
                 378
                 379
                 380
                 381
                 382
                 383
                 384
                 385
                 386
                 387
                 388
                 389
                 390
                 391
                 392
                 393
                 394
                 395
                 396
                 397
                 398
                 399
                 400
                 401
                 402
                 403
                 404
                 405
                 406
                 407
                 408
                 409
                 410
                 411
                 412
                 413
                 414
                 415
                 416
                 417
                 418
                 419
                 420
                 421
                 422
                 423
                 424
                 425
                 426
                 427
                 428
                 429
                 430
                 431
                 432
                 433
                 434
                 435
                 436
                 437
                 438
                 439
                 440
                 441
                 442
                 443
                 444
                 445
                 446
                 447
                 448
                 449
                 450
                 451
                 452
                 453
                 454
                 455
                 456
                 457
                 458
                 459
                 460
                 461
                 462
                 463
                 464
                 465
                 466
                 467
                 468
                 469
                 470
                 471
                 472
                 473
                 474
                 475
                 476
                 477
                 478
                 479
                 480
                 481
                 482
                 483
                 484
                 485
                 486
                 487
                 488
                 489
                 490
                 491
                 492
                 493
                 494
                 495
                 496
                 497
                 498
                 499
                 500
                 501
                 502
                 503
                 504
                 505
                 506
                 507
                 508
                 509
                 510
                 511
                 512
                 513
                 514
                 515
                 516
                 517
                 518
                 519
                 520
                 521
                 522
                 523
                 524
                 525
                 526
                 527
                 528
                 529
                 530
                 531
                 532
                 533
                 534
                 535
                 536
                 537
                 538
                 539
                 540
                 541
                 542
                 543
                 544
                 545
                 546
                 547
                 548
                 549
                 550
                 551
                 552
                 553
                 554
                 555
                 556
                 557
                 558
                 559
                 560
                 561
                 562
                 563
                 564
                 565
                 566
                 567
                 568
                 569
                 570
                 571
                 572
                 573
                 574
                 575
                 576
                 577
                 578
                 579
                 580
                 581
                 582
                 583
                 584
                 585
                 586
                 587
                 588
                 589
                 590
                 591
                 592
                 593
                 594
                 595
                 596
                 597
                 598
                 599
                 600
                 601
                 602
                 603
                 604
                 605
                 606
                 607
                 608
                 609
                 610
                 611
                 612
                 613
                 614
                 615
                 616
                 617
                 618
                 619
                 620
                 621
                 622
                 623
                 624
                 625
                 626
                 627
                 628
                 629
                 630
                 631
                 632
                 633
                 634
                 635
                 636
                 637
                 638
                 639
                 640
                 641
                 642
                 643
                 644
                 645
                 646
                 647
                 648
                 649
                 650
                 651
                 652
                 653
                 654
                 655
                 656
                 657
                 658
                 659
                 660
                 661
                 662
                 663
                 664
                 665
                 666
                 667
                 668
                 669
                 670
                 671
                 672
                 673
                 674
                 675
                 676
                 677
                 678
                 679
                 680
                 681
                 682
                 683
                 684
                 685
                 686
                 687
                 688
                 689
                 690
                 691
                 692
                 693
                 694
                 695
                 696
                 697
                 698
                 699
                 700
                 701
                 702
                 703
                 704
                 705
                 706
                 707
                 708
                 709
                 710
                 711
                 712
                 713
                 714
                 715
                 716
                 717
                 718
                 719
                 720
                 721
                 722
                 723
                 724
                 725
                 726
                 727
                 728
                 729
                 730
                 731
                 732
                 733
                 734
                 735
                 736
                 737
                 738
                 739
                 740
                 741
                 742
                 743
                 744
                 745
                 746
                 747
                 748
                 749
                 750
                 751
                 752
                 753
                 754
                 755
                 756
                 757
                 758
                 759
                 760
                 761
                 762
                 763
                 764
                 765
                 766
                 767
                 768
                 769
                 770
                 771
                 772
                 773
                 774
                 775
                 776
                 777
                 778
                 779
                 780
                 781
                 782
                 783
                 784
                 785
                 786
                 787
                 788
                 789
                 790
                 791
                 792
                 793
                 794
                 795
                 796
                 797
                 798
                 799
                 800
                 801
                 802
                 803
                 804
                 805
                 806
                 807
                 808
                 809
                 810
                 811
                 812
                 813
                 814
                 815
                 816
                 817
                 818
                 819
                 820
                 821
                 822
                 823
                 824
                 825
                 826
                 827
                 828
                 829
                 830
                 831
                 832
                 833
                 834
                 835
                 836
                 837
                 838
                 839
                 840
                 841
                 842
                 843
                 844
                 845
                 846
                 847
                 848
                 849
                 850
                 851
                 852
                 853
                 854
                 855
                 856
                 857
                 858
                 859
                 860
                 861
                 862
                 863
                 864
                 865
                 866
                 867
                 868
                 869
                 870
                 871
                 872
                 873
                 874
                 875
                 876
                 877
                 878
                 879
                 880
                 881
                 882
                 883
                 884
                 885
                 886
                 887
                 888
                 889
                 890
                 891
                 892
                 893
                 894
                 895
                 896
                 897
                 898
                 899
                 900
                 901
                 902
                 903
                 904
                 905
                 906
                 907
                 908
                 909
                 910
                 911
                 912
                 913
                 914
                 915
                 916
                 917
                 918
                 919
                 920
                 921
                 922
                 923
                 924
                 925
                 926
                 927
                 928
                 929
                 930
                 931
                 932
                 933
                 934
                 935
                 936
                 937
                 938
                 939
                 940
                 941
                 942
                 943
                 944
                 945
                 946
                 947
                 948
                 949
                 950
                 951
                 952
                 953
                 954
                 955
                 956
                 957
                 958
                 959
                 960
                 961
                 962
                 963
                 964
                 965
                 966
                 967
                 968
                 969
                 970
                 971
                 972
                 973
                 974
                 975
                 976
                 977
                 978
                 979
                 980
                 981
                 982
                 983
                 984
                 985
                 986
                 987
                 988
                 989
                 990
                 991
                 992
                 993
                 994
                 995
                 996
                 997
                 998
                 999
                1000
                1001
                1002
                1003
                1004
                1005
                1006
                1007
                1008
                1009
                1010
                1011
                1012
                1013
                1014
                1015
                1016
                1017
                1018
                1019
                1020
                1021
                1022
                1023
                1024
                1025
                1026
                1027
                1028
                1029
                1030
                1031
                1032
                1033
                1034
                1035
                1036
                1037
                1038
                1039
                1040
                1041
                1042
                1043
                1044
                1045
                1046
                1047
                1048
                1049
                1050
                1051
                1052
                1053
                1054
                1055
                1056
                1057
                1058
                1059
                1060
                1061
                1062
                1063
                1064
                1065
                1066
                1067
                1068
                1069
                1070
                1071
                1072
                1073
                1074
                1075
                1076
                1077
                1078
                1079
                1080
                1081
                1082
                1083
                1084
                1085
                1086
                1087
                1088
                1089
                1090
                1091
                1092
                1093
                1094
                1095
                1096
                1097
                1098
                1099
                1100
                1101
                1102
                1103
                1104
                1105
                1106
                1107
                1108
                1109
                1110
                1111
                1112
                1113
                1114
                1115
                1116
                1117
                1118
                1119
                1120
                1121
                1122
                1123
                1124
                1125
                1126
                1127
                1128
                1129
                1130
                1131
                1132
                1133
                1134
                1135
                1136
                1137
                1138
                1139
                1140
                1141
                1142
                1143
                1144
                1145
                1146
                1147
                1148
                1149
                1150
                1151
                1152
                1153
                1154
                1155
                1156
                1157
                1158
                1159
                1160
                1161
                1162
                1163
                1164
                1165
                1166
                1167
                1168
                1169
                1170
                1171
                1172
                1173
                1174
                1175
                1176
                1177
                1178
                1179
                1180
                1181
                1182
                1183
                1184
                1185
                1186
                1187
                1188
                1189
                1190
                1191
                1192
                1193
                1194
                1195
                1196
                1197
                1198
                1199
                1200
                1201
                1202
                1203
                1204
                1205
                1206
                1207
                1208
                1209
                1210
                1211
                1212
                1213
                1214
                1215
                1216
                1217
                1218
                1219
                1220
                1221
                1222
                1223
                1224
                1225
                1226
                1227
                1228
                1229
                1230
                1231
                1232
                1233
                1234
                1235
                1236
                1237
                1238
                1239
                1240
                1241
                1242
                1243
                1244
                1245
                1246
                1247
                1248
                1249
                1250
                1251
                1252
                1253
                1254
                1255
                1256
                1257
                1258
                1259
                1260
                1261
                1262
                1263
                1264
                1265
                1266
                1267
                1268
                1269
                1270
                1271
                1272
                1273
                1274
                1275
                1276
                1277
                1278
                1279
                1280
                1281
                1282
                1283
                1284
                1285
                1286
                1287
                1288
                1289
                1290
                1291
                1292
                1293
                1294
                1295
                1296
                1297
                1298
                1299
                1300
                1301
                1302
                1303
                1304
                1305
                1306
                1307
                1308
                1309
                1310
                1311
                1312
                1313
                1314
                1315
                1316
                1317
                1318
                1319
                1320
                1321
                1322
                1323
                1324
                1325
                1326
                1327
                1328
                1329
                1330
                1331
                1332
                1333
                1334
                1335
                1336
                1337
                1338
                1339
                1340
                1341
                1342
                1343
                1344
                1345
                1346
                1347
                1348
                1349
                1350
                1351
                1352
                1353
                1354
                1355
                1356
                1357
                1358
                1359
                1360
                1361
                1362
                1363
                1364
                1365
                1366
                1367
                1368
                1369
                1370
                1371
                1372
                1373
                1374
                1375
                1376
                1377
                1378
                1379
                1380
                1381
                1382
                1383
                1384
                1385
                1386
                1387
                1388
                1389
                1390
                1391
                1392
                1393
                1394
                1395
                1396
                1397
                1398
                1399
                1400
                1401
                1402
                1403
                1404
                1405
                1406
                1407
                1408
                1409
                1410
                1411
                1412
                1413
                1414
                1415
                1416
                1417
                1418
                1419
                1420
                1421
                1422
                1423
                1424
                1425
                1426
                1427
                1428
                1429
                1430
                1431
                1432
                1433
                1434
                1435
                1436
                1437
                1438
                1439
                1440
                1441
                1442
                1443
                1444
                1445
                1446
                1447
                1448
                1449
                1450
                1451
                1452
                1453
                1454
                1455
                1456
                1457
                1458
                1459
                1460
                1461
                1462
                1463
                1464
                1465
                1466
                1467
                1468
                1469
                1470
                1471
                1472
                1473
                1474
                1475
                1476
                1477
                1478
                1479
                1480
                1481
                1482
                1483
                1484
                1485
                1486
                1487
                1488
                1489
                1490
                1491
                1492
                1493
                1494
                1495
                1496
                1497
                1498
                1499
                1500
                1501
                1502
                1503
                1504
                1505
                1506
                1507
                1508
                1509
                1510
                1511
                1512
                1513
                1514
                1515
                1516
                1517
                1518
                1519
                1520
                1521
                1522
                1523
                1524
                1525
                1526
                1527
                1528
                1529
                1530
                1531
                1532
                1533
                1534
                1535
                1536
                1537
                1538
                1539
                1540
                1541
                1542
                1543
                1544
                1545
                1546
                1547
                1548
                1549
                1550
                1551
                1552
                1553
                1554
                1555
                1556
                1557
                1558
                1559
                1560
                1561
                1562
                1563
                1564
                1565
                1566
                1567
                1568
                1569
                1570
                1571
                1572
                1573
                1574
                1575
                1576
                1577
                1578
                1579
                1580
                1581
                1582
                1583
                1584
                1585
                1586
                1587
                1588
                1589
                1590
                1591
                1592
                1593
                1594
                1595
                1596
                1597
                1598
                1599
                1600
                1601
                1602
                1603
                1604
                1605
                1606
                1607
                1608
                1609
                1610
                1611
                1612
                1613
                1614
                1615
                1616
                1617
                1618
                1619
                1620
                1621
                1622
                1623
                1624
                1625
                1626
                1627
                1628
                1629
                1630
                1631
                1632
                1633
                1634
                1635
                1636
                1637
                1638
                1639
                1640
                1641
                1642
                1643
                1644
                1645
                1646
                1647
                1648
                1649
                1650
                1651
                1652
                1653
                1654
                1655
                1656
                1657
                1658
                1659
                1660
                1661
                1662
                1663
                1664
                1665
                1666
                1667
                1668
                1669
                1670
                1671
                1672
                1673
                1674
                1675
                1676
                1677
                1678
                1679
                1680
                1681
                1682
                1683
                1684
                1685
                1686
                1687
                1688
                1689
                1690
                1691
                1692
                1693
                1694
                1695
                1696
                1697
                1698
                1699
                1700
                1701
                1702
                1703
                1704
                1705
                1706
                1707
                1708
                1709
                1710
                1711
                1712
                1713
                1714
                1715
                1716
                1717
                1718
                1719
                1720
                1721
                1722
                1723
                1724
                1725
                1726
                1727
                1728
                1729
                1730
                1731
                1732
                1733
                1734
                1735
                1736
                1737
                1738
                1739
                1740
                1741
                1742
                1743
                1744
                1745
                1746
                1747
                1748
                1749
                1750
                1751
                1752
                1753
                1754
                1755
                1756
                1757
                1758
                1759
                1760
                1761
                1762
                1763
                1764
                1765
                1766
                1767
                1768
                1769
                1770
                1771
                1772
                1773
                1774
                1775
                1776
                1777
                1778
                1779
                1780
                1781
                1782
                1783
                1784
                1785
                1786
                1787
                1788
                1789
                1790
                1791
                1792
                1793
                1794
                1795
                1796
                1797
                1798
                1799
                1800
                1801
                1802
                1803
                1804
                1805
                1806
                1807
                1808
                1809
                1810
                1811
                1812
                1813
                1814
                1815
                1816
                1817
                1818
                1819
                1820
                1821
                1822
                1823
                1824
                1825
                1826
                1827
                1828
                1829
                1830
                1831
                1832
                1833
                1834
                1835
                1836
                1837
                1838
                1839
                1840
                1841
                1842
                1843
                1844
                1845
                1846
                1847
                1848
                1849
                1850
                1851
                1852
                1853
                1854
                1855
                1856
                1857
                1858
                1859
                1860
                1861
                1862
                1863
                1864
                1865
                1866
                1867
                1868
                1869
                1870
                1871
                1872
                1873
                1874
                1875
                1876
                1877
                1878
                1879
                1880
                1881
                1882
                1883
                1884
                1885
                1886
                1887
                1888
                1889
                1890
                1891
                1892
                1893
                1894
                1895
                1896
                1897
                1898
                1899
                1900
                1901
                1902
                1903
                1904
                1905
                1906
                1907
                1908
                1909
                1910
                1911
                1912
                1913
                1914
                1915
                1916
                1917
                1918
                1919
                1920
                1921
                1922
                1923
                1924
                1925
                1926
                1927
                1928
                1929
                1930
                1931
                1932
                1933
                1934
                1935
                1936
                1937
                1938
                1939
                1940
                1941
                1942
                1943
                1944
                1945
                1946
                1947
                1948
                1949
                1950
  
SCALARS                         bodyid  double 1
LOOKUP_TABLE default
                   1
                   1
                   1
                   1
                   1
                   1
                   1
                   1
                   1
                   1
                   1
                   1
                   1
                   1
                   1
                   1
                   1
                   1
                   1
                   1
                   1
                   1
                   1
                   1
                   1
                   1
                   1
                   1
                   1
                   1
                   1
                   1
                   1
                   1
                   1
                   1
                   1
                   1
                   1
                   1
                   1
                   1
                   1
                   1
                   1
                   1
                   1
                   1
                   1
                   1
                   1
                   1
                   1
                   1
                   1
                   1
                   1
                   1
                   1
                   1
                   1
                   1
                   1
                   1
                   1
                   1
                   1
                   1
                   1
                   1
                   1
                   1
                   1
                   1
                   1
                   1
                   1
                   1
                   1
                   1
                   1
                   1
                   1
                   1
                   1
                   1
                   1
                   1
                   1
                   1
                   1
                   1
                   1
                   1
                   1
                   1
                   1
                   1
                   1
                   1
                   1
                   1
                   1
                   1
                   1
                   1
                   1
                   1
                   1
                   1
                   1
                   1
                   1
                   1
                   1
                   1
                   1
                   1
                   1
                   1
                   1
                   1
                   1
                   1
                   1
                   1
                   1
                   1
                   1
                   1
                   1
                   1
                   1
                   1
                   1
                   1
                   1
                   1
                   1
                   1
                   1
                   1
                   1
                   1
                   1
                   1
                   1
                   1
                   1
                   1
                   1
                   1
                   1
                   1
                   1
                   1
                   1
                   1
                   1
                   1
                   1
                   1
                   1
                   1
                   1
                   1
                   1
                   1
                   1
                   1
                   1
                   1
                   1
                   1
                   1
                   1
                   1
                   1
                   1
                   1
                   1
                   1
                   1
                   1
                   1
                   1
                   1
                   1
                   1
                   1
                   1
                   1
                   1
                   1
                   1
                   1
                   1
                   1
                   1
                   1
                   1
                   1
                   1
                   1
                   1
                   1
                   1
                   1
                   1
                   1
                   1
                   1
                   1
                   1
                   1
                   1
                   1
                   1
                   1
                   1
                   1
                   1
                   1
                   1
                   1
                   1
                   1
                   1
                   1
                   1
                   1
                   1
                   1
                   1
                   1
                   1
                   1
                   1
                   1
                   1
                   1
                   1
                   1
                   1
                   1
                   1
                   1
                   1
                   1
                   1
                   1
                   1
                   1
                   1
                   1
                   1
                   1
                   1
                   1
                   1
                   1
                   1
                   1
                   1
                   1
                   1
                   1
                   1
                   1
                   1
                   1
                   1
                   1
                   1
                   1
                   1
                   1
                   1
                   1
                   1
                   1
                   1
                   1
                   1
                   1
                   1
                   1
                   1
                   1
                   1
                   1
                   1
                   1
                   1
                   1
                   1
                   1
                   1
                   1
                   1
                   1
                   1
                   1
                   1
                   1
                   1
                   1
                   1
                   1
                   1
                   1
                   1
                   1
                   1
                   1
                   1
                   1
                   1
                   1
                   1
                   1
                   1
                   1
                   1
                   1
                   1
                   1
                   1
                   1
                   1
                   1
                   1
                   1
                   1
                   1
                   1
                   1
                   1
                   1
                   1
                   1
                   1
                   1
                   1
                   1
                   1
                   1
                   1
                   1
                   1
                   1
                   1
                   1
                   1
                   1
                   1
                   1
                   1
                   1
                   1
                   1
                   1
                   1
                   1
                   1
                   1
                   1
                   1
                   1
                   1
                   1
                   1
                   1
                   1
                   1
                   1
                   1
                   1
                   1
                   1
                   1
                   1
                   1
                   1
                   1
                   1
                   1
                   1
                   1
                   1
                   1
                   1
                   1
                   1
                   1
                   1
                   1
                   1
                   1
                   1
                   1
                   1
                   1
                   1
                   1
                   1
                   1
                   1
                   1
                   1
                   1
                   1
                   1
                   1
                   1
                   1
                   1
                   1
                   1
                   1
                   1
                   1
                   1
                   1
                   1
                   1
                   1
                   1
                   1
                   1
                   1
                   1
                   1
                   1
                   1
                   1
                   1
                   1
                   1
                   1
                   1
                   1
                   1
                   1
                   1
                   1
                   1
                   1
                   1
                   1
                   1
                   1
                   1
                   1
                   1
                   1
                   1
                   1
                   1
                   1
                   1
                   1
                   1
                   1
                   1
                   1
                   1
                   1
                   1
                   1
                   1
                   1
                   1
                   1
                   1
                   1
                   1
                   1
                   1
                   1
                   1
                   1
                   1
                   1
                   1
                   1
                   1
                   1
                   1
                   1
                   1
                   1
                   1
                   1
                   1
                   1
                   1
                   1
                   1
                   1
                   1
                   1
                   1
                   1
                   1
                   1
                   1
                   1
                   1
                   1
                   1
                   1
                   1
                   1
                   1
                   1
                   1
                   1
                   1
                   1
                   1
                   1
                   1
                   1
                   1
                   1
                   1
                   1
                   1
                   1
                   1
                   1
                   1
                   1
                   1
                   1
                   1
                   1
                   1
                   1
                   1
                   1
                   1
                   1
                   1
                   1
                   1
                   1
                   1
                   1
                   1
                   1
                   1
                   1
                   1
                   1
                   1
                   1
                   1
                   1
                   1
                   1
                   1
                   1
                   1
                   1
                   1
                   1
                   1
                   1
                   1
                   1
                   1
                   1
                   1
                   1
                   1
                   1
                   1
                   1
                   1
                   1
                   1
                   1
                   1
                   1
                   1
                   1
                   1
                   1
                   1
                   1
                   1
                   1
                   1
                   1
                   1
                   1
                   1
                   1
                   1
                   1
                   1
                   1
                   1
                   1
                   1
                   1
                   1
                   1
                   1
                   1
                   1
                   1
                   1
                   1
                   1
                   1
                   1
                   1
                   1
                   1
                   1
                   1
                   1
                   1
                   1
                   1
                   1
                   1
                   1
                   1
                   1
                   1
                   1
                   1
                   1
                   1
                   1
                   1
                   1
                   1
                   1
                   1
                   1
                   1
                   1
                   1
                   1
                   1
                   1
                   1
                   1
                   1
                   1
                   1
                   1
                   1
                   1
                   1
                   1
                   1
                   1
                   1
                   1
                   1
                   1
                   1
                   1
                   1
                   1
                   1
                   1
                   1
                   1
                   1
                   1
                   1
                   1
                   1
                   1
                   1
                   1
                   1
                   1
                   1
                   1
                   1
                   1
                   1
                   1
                   1
                   1
                   1
                   1
                   1
                   1
                   1
                   1
                   1
                   1
                   1
                   1
                   1
                   1
                   1
                   1
                   1
                   1
                   1
                   1
                   1
                   1
                   1
                   1
                   1
                   1
                   1
                   1
                   1
                   1
                   1
                   1
                   1
                   1
                   1
                   1
                   1
                   1
                   1
                   1
                   1
                   1
                   1
                   1
                   1
                   1
                   1
                   1
                   1
                   1
                   1
                   1
                   1
                   1
                   1
                   1
                   1
                   1
                   1
                   1
                   1
                   1
                   1
                   1
                   1
                   1
                   1
                   1
                   1
                   1
                   1
                   1
                   1
                   1
                   1
                   1
                   1
                   1
                   1
                   1
                   1
                   1
                   1
                   1
                   1
                   1
                   1
                   1
                   1
                   1
                   1
                   1
                   1
                   1
                   1
                   1
                   1
                   1
                   1
                   1
                   1
                   1
                   1
                   1
                   1
                   1
                   1
                   1
                   1
                   1
                   1
                   1
                   1
                   1
                   1
                   1
                   1
                   1
                   1
                   1
                   1
                   1
                   1
                   1
                   1
                   1
                   1
                   1
                   1
                   1
                   1
                   1
                   1
                   1
                   1
                   1
                   1
                   1
                   1
                   1
                   1
                   1
                   1
                   1
                   1
                   1
                   1
                   1
                   1
                   1
                   1
                   1
                   1
                   1
                   1
                   1
                   1
                   1
                   1
                   1
                   1
                   1
                   1
                   1
                   1
                   1
                   1
                   1
                   1
                   1
                   1
                   1
                   1
                   1
                   1
                   1
                   1
                   1
                   1
                   1
                   1
                   1
                   1
                   1
                   1
                   1
                   1
                   1
                   1
                   1
                   1
                   1
                   1
                   1
                   1
                   1
                   1
                   1
                   1
                   1
                   1
                   1
                   1
                   1
                   1
                   1
                   1
                   1
                   1
                   1
                   1
                   1
                   1
                   1
                   1
                   1
                   1
                   1
                   1
                   1
                   1
                   1
                   1
                   1
                   1
                   1
                   1
                   1
                   1
                   1
                   1
                   1
                   1
                   1
                   1
                   1
                   1
                   1
                   1
                   1
                   1
                   1
                   1
                   1
                   1
                   1
                   1
                   1
                   1
                   1
                   1
                   1
                   1
                   1
                   1
                   1
                   1
                   1
                   1
                   1
                   1
                   1
                   1
                   1
                   1
                   1
                   1
                   1
                   1
                   1
                   1
                   1
                   1
                   1
                   1
                   1
                   1
                   1
                   1
                   1
                   1
                   1
                   1
                   1
                   1
                   1
                   1
                   1
                   1
                   1
                   1
                   1
                   1
                   1
                   1
                   1
                   1
                   1
                   1
                   1
                   1
                   1
                   1
                   1
                   1
                   1
                   1
                   1
                   1
                   1
                   1
                   1
                   1
                   1
                   1
                   1
                   1
                   1
                   1
                   1
                   1
                   1
                   1
                   1
                   1
                   1
                   1
                   1
                   1
                   1
                   1
                   1
                   1
                   1
                   1
                   1
                   1
                   1
                   1
                   1
                   1
                   1
                   1
                   1
                   1
                   1
                   1
                   1
                   1
                   1
                   1
                   1
                   1
                   1
                   1
                   1
                   1
                   1
                   1
                   1
                   1
                   1
                   1
                   1
                   1
                   1
                   1
                   1
                   1
                   1
                   1
                   1
                   1
                   1
                   1
                   1
                   1
                   1
                   1
                   1
                   1
                   1
                   1
                   1
                   1
                   1
                   1
                   1
                   1
                   1
                   1
                   1
                   1
                   1
                   1
                   1
                   1
                   1
                   1
                   1
                   1
                   1
                   1
                   1
                   1
                   1
                   1
                   1
                   1
                   1
                   1
                   1
                   1
                   1
                   1
                   1
                   1
                   1
                   1
                   1
                   1
                   1
                   1
                   1
                   1
                   1
                   1
                   1
                   1
                   1
                   1
                   1
                   1
                   1
                   1
                   1
                   1
                   1
                   1
                   1
                   1
                   1
                   1
                   1
                   1
                   1
                   1
                   1
                   1
                   1
                   1
                   1
                   1
                   1
                   1
                   1
                   1
                   1
                   1
                   1
                   1
                   1
                   1
                   1
                   1
                   1
                   1
                   1
                   1
                   1
                   1
                   1
                   1
                   1
                   1
                   1
                   1
                   1
                   1
                   1
                   1
                   1
                   1
                   1
                   1
                   1
                   1
                   1
                   1
                   1
                   1
                   1
                   1
                   1
                   1
                   1
                   1
                   1
                   1
                   1
                   1
                   1
                   1
                   1
                   1
                   1
                   1
                   1
                   1
                   1
                   1
                   1
                   1
                   1
                   1
                   1
                   1
                   1
                   1
                   1
                   1
                   1
                   1
                   1
                   1
                   1
                   1
                   1
                   1
                   1
                   1
                   1
                   1
                   1
                   1
                   1
                   1
                   1
                   1
                   1
                   1
                   1
                   1
                   1
                   1
                   1
                   1
                   1
                   1
                   1
                   1
                   1
                   1
                   1
                   1
                   1
                   1
                   1
                   1
                   1
                   1
                   1
                   1
                   1
                   1
                   1
                   1
                   1
                   1
                   1
                   1
                   1
                   1
                   1
                   1
                   1
                   1
                   1
                   1
                   1
                   1
                   1
                   1
                   1
                   1
                   1
                   1
                   1
                   1
                   1
                   1
                   1
                   1
                   1
                   1
                   1
                   1
                   1
                   1
                   1
                   1
                   1
                   1
                   1
                   1
                   1
                   1
                   1
                   1
                   1
                   1
                   1
                   1
                   1
                   1
                   1
                   1
                   1
                   1
                   1
                   1
                   1
                   1
                   1
                   1
                   1
                   1
                   1
                   1
                   1
                   1
                   1
                   1
                   1
                   1
                   1
                   1
                   1
                   1
                   1
                   1
                   1
                   1
                   1
                   1
                   1
                   1
                   1
                   1
                   1
                   1
                   1
                   1
                   1
                   1
                   1
                   1
                   1
                   1
                   1
                   1
                   1
                   1
                   1
                   1
                   1
                   1
                   1
                   1
                   1
                   1
                   1
                   1
                   1
                   1
                   1
                   1
                   1
                   1
                   1
                   1
                   1
                   1
                   1
                   1
                   1
                   1
                   1
                   1
                   1
                   1
                   1
                   1
                   1
                   1
                   1
                   1
                   1
                   1
                   1
                   1
                   1
                   1
                   1
                   1
                   1
                   1
                   1
                   1
                   1
                   1
                   1
                   1
                   1
                   1
                   1
                   1
                   1
                   1
                   1
                   1
                   1
                   1
                   1
                   1
                   1
                   1
                   1
                   1
                   1
                   1
                   1
                   1
                   1
                   1
                   1
                   1
                   1
                   1
                   1
                   1
                   1
                   1
                   1
                   1
                   1
                   1
                   1
                   1
                   1
                   1
                   1
                   1
                   1
                   1
                   1
                   1
                   1
                   1
                   1
                   1
                   1
                   1
                   1
                   1
                   1
                   1
                   1
                   1
                   1
                   1
                   1
                   1
                   1
                   1
                   1
                   1
                   1
                   1
                   1
                   1
                   1
                   1
                   1
                   1
                   1
                   1
                   1
                   1
                   1
                   1
                   1
                   1
                   1
                   1
                   1
                   1
                   1
                   1
                   1
                   1
                   1
                   1
                   1
                   1
                   1
                   1
                   1
                   1
                   1
                   1
                   1
                   1
                   1
                   1
                   1
                   1
                   1
                   1
                   1
                   1
                   1
                   1
                   1
                   1
                   1
                   1
                   1
                   1
                   1
                   1
                   1
                   1
                   1
                   1
                   1
                   1
                   1
                   1
                   1
                   1
                   1
                   1
                   1
                   1
                   1
                   1
                   1
                   1
                   1
                   1
                   1
                   1
                   1
                   1
                   1
                   1
                   1
                   1
                   1
                   1
                   1
                   1
                   1
                   1
                   1
                   1
                   1
                   1
                   1
                   1
                   1
                   1
                   1
                   1
                   1
                   1
                   1
                   1
                   1
                   1
                   1
                   1
                   1
                   1
                   1
                   1
                   1
                   1
                   1
                   1
                   1
                   1
                   1
                   1
                   1
                   1
                   1
                   1
                   1
                   1
                   1
                   1
                   1
                   1
                   1
                   1
                   1
                   1
                   1
                   1
                   1
                   1
                   1
                   1
                   1
                   1
                   1
                   1
                   1
                   1
                   1
                   1
                   1
                   1
                   1
                   1
                   1
                   1
                   1
                   1
                   1
                   1
                   1
                   1
                   1
                   1
                   1
                   1
                   1
                   1
                   1
                   1
                   1
                   1
                   1
                   1
                   1
                   1
                   1
                   1
                   1
                   1
                   1
                   1
                   1
                   1
                   1
                   1
                   1
                   1
                   1
                   1
                   1
                   1
                   1
                   1
                   1
                   1
                   1
                   1
                   1
                   1
                   1
                   1
                   1
                   1
                   1
                   1
                   1
                   1
                   1
                   1
                   1
                   1
                   1
                   1
                   1
                   1
                   1
                   1
                   1
                   1
                   1
                   1
                   1
                   1
                   1
                   1
                   1
                   1
                   1
                   1
                   1
                   1
                   1
                   1
                   1
                   1
                   1
                   1
                   1
                   1
                   1
                   1
                   1
                   1
                   1
                   1
                   1
                   1
                   1
                   1
                   1
                   1
                   1
                   1
                   1
                   1
                   1
                   1
                   1
                   1
                   1
                   1
                   1
                   1
                   1
                   1
                   1
                   1
                   1
                   1
                   1
                   1
                   1
                   1
                   1
                   1
                   1
                   1
                   1
                   1
                   1
                   1
                   1
                   1
                   1
                   1
                   1
                   1
                   1
                   1
                   1
                   1
                   1
                   1
                   1
                   1
                   1
                   1
                   1
                   1
                   1
                   1
                   1
                   1
                   1
                   1
                   1
                   1
                   1
                   1
                   1
                   1
                   1
                   1
                   1
                   1
                   1
                   1
                   1
                   1
                   1
                   1
                   1
                   1
                   1
                   1
                   1
                   1
                   1
                   1
                   1
                   1
                   1
                   1
                   1
                   1
                   1
                   1
                   1
                   1
                   1
                   1
                   1
                   1
                   1
                   1
                   1
                   1
                   1
                   1
                   1
                   1
                   1
                   1
                   1
                   1
                   1
                   1
                   1
                   1
                   1
                   1
                   1
                   1
                   1
                   1
                   1
                   1
                   1
                   1
                   1
                   1
                   1
                   1
                   1
                   1
                   1
                   1
                   1
                   1
                   1
                   1
                   1
                   1
                   1
                   1
                   1
                   1
                   1
                   1
                   1
                   1
                   1
                   1
                   1
                   1
                   1
                   1
                   1
                   1
                   1
                   1
                   1
                   1
                   1
                   1
                   1
                   1
                   1
                   1
                   1
                   1
                   1
                   1
                   1
                   1
                   1
                   1
                   1
                   1
                   1
                   1
                   1
                   1
                   1
                   1
                   1
                   1
                   1
                   1
                   1
                   1
                   1
                   1
                   1
                   1
                   1
                   1
                   1
                   1
                   1
                   1
                   1
                   1
                   1
                   1
                   1
                   1
                   1
                   1
                   1
                   1
                   1
                   1
                   1
                   1
                   1
                   1
                   1
                   1
                   1
                   1
                   1
                   1
                   1
                   1
                   1
                   1
                   1
                   1
                   1
                   1
                   1
                   1
                   1
                   1
                   1
                   1
                   1
                   1
                   1
                   1
                   1
                   1
                   1
                   1
  
SCALARS                  material_type  double 1
LOOKUP_TABLE default
                   2
                   2
                   2
                   2
                   2
                   2
                   2
                   2
                   2
                   2
                   2
                   2
                   2
                   2
                   2
                   2
                   2
                   2
                   2
                   2
                   2
                   2
                   2
                   2
                   2
                   2
                   2
                   2
                   2
                   2
                   2
                   2
                   2
                   2
                   2
                   2
                   2
                   2
                   2
                   2
                   2
                   2
                   2
                   2
                   2
                   2
                   2
                   2
                   2
                   2
                   2
                   2
                   2
                   2
                   2
                   2
                   2
                   2
                   2
                   2
                   2
                   2
                   2
                   2
                   2
                   2
                   2
                   2
                   2
                   2
                   2
                   2
                   2
                   2
                   2
                   2
                   2
                   2
                   2
                   2
                   2
                   2
                   2
                   2
                   2
                   2
                   2
                   2
                   2
                   2
                   2
                   2
                   2
                   2
                   2
                   2
                   2
                   2
                   2
                   2
                   2
                   2
                   2
                   2
                   2
                   2
                   2
                   2
                   2
                   2
                   2
                   2
                   2
                   2
                   2
                   2
                   2
                   2
                   2
                   2
                   2
                   2
                   2
                   2
                   2
                   2
                   2
                   2
                   2
                   2
                   2
                   2
                   2
                   2
                   2
                   2
                   2
                   2
                   2
                   2
                   2
                   2
                   2
                   2
                   2
                   2
                   2
                   2
                   2
                   2
                   2
                   2
                   2
                   2
                   2
                   2
                   2
                   2
                   2
                   2
                   2
                   2
                   2
                   2
                   2
                   2
                   2
                   2
                   2
                   2
                   2
                   2
                   2
                   2
                   2
                   2
                   2
                   2
                   2
                   2
                   2
                   2
                   2
                   2
                   2
                   2
                   2
                   2
                   2
                   2
                   2
                   2
                   2
                   2
                   2
                   2
                   2
                   2
                   2
                   2
                   2
                   2
                   2
                   2
                   2
                   2
                   2
                   2
                   2
                   2
                   2
                   2
                   2
                   2
                   2
                   2
                   2
                   2
                   2
                   2
                   2
                   2
                   2
                   2
                   2
                   2
                   2
                   2
                   2
                   2
                   2
                   2
                   2
                   2
                   2
                   2
                   2
                   2
                   2
                   2
                   2
                   2
                   2
                   2
                   2
                   2
                   2
                   2
                   2
                   2
                   2
                   2
                   2
                   2
                   2
                   2
                   2
                   2
                   2
                   2
                   2
                   2
                   2
                   2
                   2
                   2
                   2
                   2
                   2
                   2
                   2
                   2
                   2
                   2
                   2
                   2
                   2
                   2
                   2
                   2
                   2
                   2
                   2
                   2
                   2
                   2
                   2
                   2
                   2
                   2
                   2
                   2
                   2
                   2
                   2
                   2
                   2
                   2
                   2
                   2
                   2
                   2
                   2
                   2
                   2
                   2
                   2
                   2
                   2
                   2
                   2
                   2
                   2
                   2
                   2
                   2
                   2
                   2
                   2
                   2
                   2
                   2
                   2
                   2
                   2
                   2
                   2
                   2
                   2
                   2
                   2
                   2
                   2
                   2
                   2
                   2
                   2
                   2
                   2
                   2
                   2
                   2
                   2
                   2
                   2
                   2
                   2
                   2
                   2
                   2
                   2
                   2
                   2
                   2
                   2
                   2
                   2
                   2
                   2
                   2
                   2
                   2
                   2
                   2
                   2
                   2
                   2
                   2
                   2
                   2
                   2
                   2
                   2
                   2
                   2
                   2
                   2
                   2
                   2
                   2
                   2
                   2
                   2
                   2
                   2
                   2
                   2
                   2
                   2
                   2
                   2
                   2
                   2
                   2
                   2
                   2
                   2
                   2
                   2
                   2
                   2
                   2
                   2
                   2
                   2
                   2
                   2
                   2
                   2
                   2
                   2
                   2
                   2
                   2
                   2
                   2
                   2
                   2
                   2
                   2
                   2
                   2
                   2
                   2
                   2
                   2
                   2
                   2
                   2
                   2
                   2
                   2
                   2
                   2
                   2
                   2
                   2
                   2
                   2
                   2
                   2
                   2
                   2
                   2
                   2
                   2
                   2
                   2
                   2
                   2
                   2
                   2
                   2
                   2
                   2
                   2
                   2
                   2
                   2
                   2
                   2
                   2
                   2
                   2
                   2
                   2
                   2
                   2
                   2
                   2
                   2
                   2
                   2
                   2
                   2
                   2
                   2
                   2
                   2
                   2
                   2
                   2
                   2
                   2
                   2
                   2
                   2
                   2
                   2
                   2
                   2
                   2
                   2
                   2
                   2
                   2
                   2
                   2
                   2
                   2
                   2
                   2
                   2
                   2
                   2
                   2
                   2
                   2
                   2
                   2
                   2
                   2
                   2
                   2
                   2
                   2
                   2
                   2
                   2
                   2
                   2
                   2
                   2
                   2
                   2
                   2
                   2
                   2
                   2
                   2
                   2
                   2
                   2
                   2
                   2
                   2
                   2
                   2
                   2
                   2
                   2
                   2
                   2
                   2
                   2
                   2
                   2
                   2
                   2
                   2
                   2
                   2
                   2
                   2
                   2
                   2
                   2
                   2
                   2
                   2
                   2
                   2
                   2
                   2
                   2
                   2
                   2
                   2
                   2
                   2
                   2
                   2
                   2
                   2
                   2
                   2
                   2
                   2
                   2
                   2
                   2
                   2
                   2
                   2
                   2
                   2
                   2
                   2
                   2
                   2
                   2
                   2
                   2
                   2
                   2
                   2
                   2
                   2
                   2
                   2
                   2
                   2
                   2
                   2
                   2
                   2
                   2
                   2
                   2
                   2
                   2
                   2
                   2
                   2
                   2
                   2
                   2
                   2
                   2
                   2
                   2
                   2
                   2
                   2
                   2
                   2
                   2
                   2
                   2
                   2
                   2
                   2
                   2
                   2
                   2
                   2
                   2
                   2
                   2
                   2
                   2
                   2
                   2
                   2
                   2
                   2
                   2
                   2
                   2
                   2
                   2
                   2
                   2
                   2
                   2
                   2
                   2
                   2
                   2
                   2
                   2
                   2
                   2
                   2
                   2
                   2
                   2
                   2
                   2
                   2
                   2
                   2
                   2
                   2
                   2
                   2
                   2
                   2
                   2
                   2
                   2
                   2
                   2
                   2
                   2
                   2
                   2
                   2
                   2
                   2
                   2
                   2
                   2
                   2
                   2
                   2
                   2
                   2
                   2
                   2
                   2
                   2
                   2
                   2
                   2
                   2
                   2
                   2
                   2
                   2
                   2
                   2
                   2
                   2
                   2
                   2
                   2
                   2
                   2
                   2
                   2
                   2
                   2
                   2
                   2
                   2
                   2
                   2
                   2
                   2
                   2
                   2
                   2
                   2
                   2
                   2
                   2
                   2
                   2
                   2
                   2
                   2
                   2
                   2
                   2
                   2
                   2
                   2
                   2
                   2
                   2
                   2
                   2
                   2
                   2
                   2
                   2
                   2
                   2
                   2
                   2
                   2
                   2
                   2
                   2
                   2
                   2
                   2
                   2
                   2
                   2
                   2
                   2
                   2
                   2
                   2
                   2
                   2
                   2
                   2
                   2
                   2
                   2
                   2
                   2
                   2
                   2
                   2
                   2
                   2
                   2
                   2
                   2
                   2
                   2
                   2
                   2
                   2
                   2
                   2
                   2
                   2
                   2
                   2
                   2
                   2
                   2
                   2
                   2
                   2
                   2
                   2
                   2
                   2
                   2
                   2
                   2
                   2
                   2
                   2
                   2
                   2
                   2
                   2
                   2
                   2
                   2
                   2
                   2
                   2
                   2
                   2
                   2
                   2
                   2
                   2
                   2
                   2
                   2
                   2
                   2
                   2
                   2
                   2
                   2
                   2
                   2
                   2
                   2
                   2
                   2
                   2
                   2
                   2
                   2
                   2
                   2
                   2
                   2
                   2
                   2
                   2
                   2
                   2
                   2
                   2
                   2
                   2
                   2
                   2
                   2
                   2
                   2
                   2
                   2
                   2
                   2
                   2
                   2
                   2
                   2
                   2
                   2
                   2
                   2
                   2
                   2
                   2
                   2
                   2
                   2
                   2
                   2
                   2
                   2
                   2
                   2
                   2
                   2
                   2
                   2
                   2
                   2
                   2
                   2
                   2
                   2
                   2
                   2
                   2
                   2
                   2
                   2
                   2
                   2
                   2
                   2
                   2
                   2
                   2
                   2
                   2
                   2
                   2
                   2
                   2
                   2
                   2
                   2
                   2
                   2
                   2
                   2
                   2
                   2
                   2
                   2
                   2
                   2
                   2
                   2
                   2
                   2
                   2
                   2
                   2
                   2
                   2
                   2
                   2
                   2
                   2
                   2
                   2
                   2
                   2
                   2
                   2
                   2
                   2
                   2
                   2
                   2
                   2
                   2
                   2
                   2
                   2
                   2
                   2
                   2
                   2
                   2
                   2
                   2
                   2
                   2
                   2
                   2
                   2
                   2
                   2
                   2
                   2
                   2
                   2
                   2
                   2
                   2
                   2
                   2
                   2
                   2
                   2
                   2
                   2
                   2
                   2
                   2
                   2
                   2
                   2
                   2
                   2
                   2
                   2
                   2
                   2
                   2
                   2
                   2
                   2
                   2
                   2
                   2
                   2
                   2
                   2
                   2
                   2
                   2
                   2
                   2
                   2
                   2
                   2
                   2
                   2
                   2
                   2
                   2
                   2
                   2
                   2
                   2
                   2
                   2
                   2
                   2
                   2
                   2
                   2
                   2
                   2
                   2
                   2
                   2
                   2
                   2
                   2
                   2
                   2
                   2
                   2
                   2
                   2
                   2
                   2
                   2
                   2
                   2
                   2
                   2
                   2
                   2
                   2
                   2
                   2
                   2
                   2
                   2
                   2
                   2
                   2
                   2
                   2
                   2
                   2
                   2
                   2
                   2
                   2
                   2
                   2
                   2
                   2
                   2
                   2
                   2
                   2
                   2
                   2
                   2
                   2
                   2
                   2
                   2
                   2
                   2
                   2
                   2
                   2
                   2
                   2
                   2
                   2
                   2
                   2
                   2
                   2
                   2
                   2
                   2
                   2
                   2
                   2
                   2
                   2
                   2
                   2
                   2
                   2
                   2
                   2
                   2
                   2
                   2
                   2
                   2
                   2
                   2
                   2
                   2
                   2
                   2
                   2
                   2
                   2
                   2
                   2
                   2
                   2
                   2
                   2
                   2
                   2
                   2
                   2
                   2
                   2
                   2
                   2
                   2
                   2
                   2
                   2
                   2
                   2
                   2
                   2
                   2
                   2
                   2
                   2
                   2
                   2
                   2
                   2
                   2
                   2
                   2
                   2
                   2
                   2
                   2
                   2
                   2
                   2
                   2
                   2
                   2
                   2
                   2
                   2
                   2
                   2
                   2
                   2
                   2
                   2
                   2
                   2
                   2
                   2
                   2
                   2
                   2
                   2
                   2
                   2
                   2
                   2
                   2
                   2
                   2
                   2
                   2
                   2
                   2
                   2
                   2
                   2
                   2
                   2
                   2
                   2
                   2
                   2
                   2
                   2
                   2
                   2
                   2
                   2
                   2
                   2
                   2
                   2
                   2
                   2
                   2
                   2
                   2
                   2
                   2
                   2
                   2
                   2
                   2
                   2
                   2
                   2
                   2
                   2
                   2
                   2
                   2
                   2
                   2
                   2
                   2
                   2
                   2
                   2
                   2
                   2
                   2
                   2
                   2
                   2
                   2
                   2
                   2
                   2
                   2
                   2
                   2
                   2
                   2
                   2
                   2
                   2
                   2
                   2
                   2
                   2
                   2
                   2
                   2
                   2
                   2
                   2
                   2
                   2
                   2
                   2
                   2
                   2
                   2
                   2
                   2
                   2
                   2
                   2
                   2
                   2
                   2
                   2
                   2
                   2
                   2
                   2
                   2
                   2
                   2
                   2
                   2
                   2
                   2
                   2
                   2
                   2
                   2
                   2
                   2
                   2
                   2
                   2
                   2
                   2
                   2
                   2
                   2
                   2
                   2
                   2
                   2
                   2
                   2
                   2
                   2
                   2
                   2
                   2
                   2
                   2
                   2
                   2
                   2
                   2
                   2
                   2
                   2
                   2
                   2
                   2
                   2
                   2
                   2
                   2
                   2
                   2
                   2
                   2
                   2
                   2
                   2
                   2
                   2
                   2
                   2
                   2
                   2
                   2
                   2
                   2
                   2
                   2
                   2
                   2
                   2
                   2
                   2
                   2
                   2
                   2
                   2
                   2
                   2
                   2
                   2
                   2
                   2
                   2
                   2
                   2
                   2
                   2
                   2
                   2
                   2
                   2
                   2
                   2
                   2
                   2
                   2
                   2
                   2
                   2
                   2
                   2
                   2
                   2
                   2
                   2
                   2
                   2
                   2
                   2
                   2
                   2
                   2
                   2
                   2
                   2
                   2
                   2
                   2
                   2
                   2
                   2
                   2
                   2
                   2
                   2
                   2
                   2
                   2
                   2
                   2
                   2
                   2
                   2
                   2
                   2
                   2
                   2
                   2
                   2
                   2
                   2
                   2
                   2
                   2
                   2
                   2
                   2
                   2
                   2
                   2
                   2
                   2
                   2
                   2
                   2
                   2
                   2
                   2
                   2
                   2
                   2
                   2
                   2
                   2
                   2
                   2
                   2
                   2
                   2
                   2
                   2
                   2
                   2
                   2
                   2
                   2
                   2
                   2
                   2
                   2
                   2
                   2
                   2
                   2
                   2
                   2
                   2
                   2
                   2
                   2
                   2
                   2
                   2
                   2
                   2
                   2
                   2
                   2
                   2
                   2
                   2
                   2
                   2
                   2
                   2
                   2
                   2
                   2
                   2
                   2
                   2
                   2
                   2
                   2
                   2
                   2
                   2
                   2
                   2
                   2
                   2
                   2
                   2
                   2
                   2
                   2
                   2
                   2
                   2
                   2
                   2
                   2
                   2
                   2
                   2
                   2
                   2
                   2
                   2
                   2
                   2
                   2
                   2
                   2
                   2
                   2
                   2
                   2
                   2
                   2
                   2
                   2
                   2
                   2
                   2
                   2
                   2
                   2
                   2
                   2
                   2
                   2
                   2
                   2
                   2
                   2
                   2
                   2
                   2
                   2
                   2
                   2
                   2
                   2
                   2
                   2
                   2
                   2
                   2
                   2
                   2
                   2
                   2
                   2
                   2
                   2
                   2
                   2
                   2
                   2
                   2
                   2
                   2
                   2
                   2
                   2
                   2
                   2
                   2
                   2
                   2
                   2
                   2
                   2
                   2
                   2
                   2
                   2
                   2
                   2
                   2
                   2
                   2
                   2
                   2
                   2
                   2
                   2
                   2
                   2
                   2
                   2
                   2
                   2
                   2
                   2
                   2
                   2
                   2
                   2
                   2
                   2
                   2
                   2
                   2
                   2
                   2
                   2
                   2
                   2
                   2
                   2
                   2
                   2
                   2
                   2
                   2
                   2
                   2
                   2
                   2
                   2
                   2
                   2
                   2
                   2
                   2
                   2
                   2
                   2
                   2
                   2
                   2
                   2
                   2
                   2
                   2
                   2
                   2
                   2
                   2
                   2
                   2
                   2
                   2
                   2
                   2
                   2
                   2
                   2
                   2
                   2
                   2
                   2
                   2
                   2
                   2
                   2
                   2
                   2
                   2
                   2
                   2
                   2
                   2
                   2
                   2
                   2
                   2
                   2
                   2
                   2
                   2
                   2
                   2
                   2
                   2
                   2
                   2
                   2
                   2
                   2
                   2
                   2
                   2
                   2
                   2
                   2
                   2
                   2
                   2
                   2
                   2
                   2
                   2
                   2
                   2
                   2
                   2
                   2
                   2
                   2
                   2
                   2
                   2
                   2
                   2
                   2
                   2
                   2
                   2
                   2
                   2
                   2
                   2
                   2
                   2
                   2
                   2
                   2
                   2
                   2
                   2
                   2
                   2
                   2
                   2
                   2
                   2
                   2
                   2
                   2
                   2
                   2
                   2
                   2
                   2
                   2
                   2
                   2
                   2
                   2
                   2
                   2
                   2
                   2
                   2
                   2
                   2
                   2
                   2
                   2
                   2
                   2
                   2
                   2
                   2
                   2
                   2
                   2
                   2
                   2
                   2
                   2
                   2
                   2
                   2
                   2
                   2
                   2
                   2
                   2
                   2
                   2
                   2
                   2
                   2
                   2
                   2
                   2
                   2
                   2
                   2
                   2
                   2
                   2
                   2
                   2
                   2
                   2
                   2
                   2
                   2
                   2
                   2
                   2
                   2
                   2
                   2
                   2
                   2
                   2
                   2
                   2
                   2
                   2
                   2
                   2
                   2
                   2
                   2
                   2
                   2
                   2
                   2
                   2
                   2
                   2
                   2
                   2
                   2
                   2
                   2
                   2
                   2
                   2
                   2
                   2
                   2
                   2
                   2
                   2
                   2
                   2
                   2
                   2
                   2
                   2
                   2
                   2
                   2
                   2
                   2
                   2
                   2
                   2
                   2
                   2
                   2
                   2
                   2
                   2
                   2
                   2
                   2
                   2
                   2
                   2
                   2
                   2
                   2
                   2
                   2
                   2
                   2
                   2
                   2
                   2
                   2
                   2
                   2
                   2
                   2
                   2
                   2
                   2
                   2
                   2
                   2
                   2
                   2
                   2
                   2
                   2
                   2
                   2
                   2
                   2
                   2
                   2
                   2
                   2
                   2
                   2
                   2
                   2
                   2
                   2
                   2
                   2
                   2
                   2
                   2
                   2
                   2
                   2
                   2
                   2
                   2
                   2
                   2
                   2
                   2
                   2
                   2
                   2
                   2
                   2
                   2
  
SCALARS                       fixity_x  double 1
LOOKUP_TABLE default
                   0
                   0
                   0
                   0
                   0
                   0
                   0
                   0
                   0
                   0
                   0
                   0
                   0
                   0
                   0
                   0
                   0
                   0
                   0
                   0
                   0
                   0
                   0
                   0
                   0
                   0
                   0
                   0
                   0
                   0
                   0
                   0
                   0
                   0
                   0
                   0
                   0
                   0
                   0
                   0
                   0
                   0
                   0
                   0
                   0
                   0
                   0
                   0
                   0
                   0
                   0
                   0
                   0
                   0
                   0
                   0
                   0
                   0
                   0
                   0
                   0
                   0
                   0
                   0
                   0
                   0
                   0
                   0
                   0
                   0
                   0
                   0
                   0
                   0
                   0
                   0
                   0
                   0
                   0
                   0
                   0
                   0
                   0
                   0
                   0
                   0
                   0
                   0
                   0
                   0
                   0
                   0
                   0
                   0
                   0
                   0
                   0
                   0
                   0
                   0
                   0
                   0
                   0
                   0
                   0
                   0
                   0
                   0
                   0
                   0
                   0
                   0
                   0
                   0
                   0
                   0
                   0
                   0
                   0
                   0
                   0
                   0
                   0
                   0
                   0
                   0
                   0
                   0
                   0
                   0
                   0
                   0
                   0
                   0
                   0
                   0
                   0
                   0
                   0
                   0
                   0
                   0
                   0
                   0
                   0
                   0
                   0
                   0
                   0
                   0
                   0
                   0
                   0
                   0
                   0
                   0
                   0
                   0
                   0
                   0
                   0
                   0
                   0
                   0
                   0
                   0
                   0
                   0
                   0
                   0
                   0
                   0
                   0
                   0
                   0
                   0
                   0
                   0
                   0
                   0
                   0
                   0
                   0
                   0
                   0
                   0
                   0
                   0
                   0
                   0
                   0
                   0
                   0
                   0
                   0
                   0
                   0
                   0
                   0
                   0
                   0
                   0
                   0
                   0
                   0
                   0
                   0
                   0
                   0
                   0
                   0
                   0
                   0
                   0
                   0
                   0
                   0
                   0
                   0
                   0
                   0
                   0
                   0
                   0
                   0
                   0
                   0
                   0
                   0
                   0
                   0
                   0
                   0
                   0
                   0
                   0
                   0
                   0
                   0
                   0
                   0
                   0
                   0
                   0
                   0
                   0
                   0
                   0
                   0
                   0
                   0
                   0
                   0
                   0
                   0
                   0
                   0
                   0
                   0
                   0
                   0
                   0
                   0
                   0
                   0
                   0
                   0
                   0
                   0
                   0
                   0
                   0
                   0
                   0
                   0
                   0
                   0
                   0
                   0
                   0
                   0
                   0
                   0
                   0
                   0
                   0
                   0
                   0
                   0
                   0
                   0
                   0
                   0
                   0
                   0
                   0
                   0
                   0
                   0
                   0
                   0
                   0
                   0
                   0
                   0
                   0
                   0
                   0
                   0
                   0
                   0
                   0
                   0
                   0
                   0
                   0
                   0
                   0
                   0
                   0
                   0
                   0
                   0
                   0
                   0
                   0
                   0
                   0
                   0
                   0
                   0
                   0
                   0
                   0
                   0
                   0
                   0
                   0
                   0
                   0
                   0
                   0
                   0
                   0
                   0
                   0
                   0
                   0
                   0
                   0
                   0
                   0
                   0
                   0
                   0
                   0
                   0
                   0
                   0
                   0
                   0
                   0
                   0
                   0
                   0
                   0
                   0
                   0
                   0
                   0
                   0
                   0
                   0
                   0
                   0
                   0
                   0
                   0
                   0
                   0
                   0
                   0
                   0
                   0
                   0
                   0
                   0
                   0
                   0
                   0
                   0
                   0
                   0
                   0
                   0
                   0
                   0
                   0
                   0
                   0
                   0
                   0
                   0
                   0
                   0
                   0
                   0
                   0
                   0
                   0
                   0
                   0
                   0
                   0
                   0
                   0
                   0
                   0
                   0
                   0
                   0
                   0
                   0
                   0
                   0
                   0
                   0
                   0
                   0
                   0
                   0
                   0
                   0
                   0
                   0
                   0
                   0
                   0
                   0
                   0
                   0
                   0
                   0
                   0
                   0
                   0
                   0
                   0
                   0
                   0
                   0
                   0
                   0
                   0
                   0
                   0
                   0
                   0
                   0
                   0
                   0
                   0
                   0
                   0
                   0
                   0
                   0
                   0
                   0
                   0
                   0
                   0
                   0
                   0
                   0
                   0
                   0
                   0
                   0
                   0
                   0
                   0
                   0
                   0
                   0
                   0
                   0
                   0
                   0
                   0
                   0
                   0
                   0
                   0
                   0
                   0
                   0
                   0
                   0
                   0
                   0
                   0
                   0
                   0
                   0
                   0
                   0
                   0
                   0
                   0
                   0
                   0
                   0
                   0
                   0
                   0
                   0
                   0
                   0
                   0
                   0
                   0
                   0
                   0
                   0
                   0
                   0
                   0
                   0
                   0
                   0
                   0
                   0
                   0
                   0
                   0
                   0
                   0
                   0
                   0
                   0
                   0
                   0
                   0
                   0
                   0
                   0
                   0
                   0
                   0
                   0
                   0
                   0
                   0
                   0
                   0
                   0
                   0
                   0
                   0
                   0
                   0
                   0
                   0
                   0
                   0
                   0
                   0
                   0
                   0
                   0
                   0
                   0
                   0
                   0
                   0
                   0
                   0
                   0
                   0
                   0
                   0
                   0
                   0
                   0
                   0
                   0
                   0
                   0
                   0
                   0
                   0
                   0
                   0
                   0
                   0
                   0
                   0
                   0
                   0
                   0
                   0
                   0
                   0
                   0
                   0
                   0
                   0
                   0
                   0
                   0
                   0
                   0
                   0
                   0
                   0
                   0
                   0
                   0
                   0
                   0
                   0
                   0
                   0
                   0
                   0
                   0
                   0
                   0
                   0
                   0
                   0
                   0
                   0
                   0
                   0
                   0
                   0
                   0
                   0
                   0
                   0
                   0
                   0
                   0
                   0
                   0
                   0
                   0
                   0
                   0
                   0
                   0
                   0
                   0
                   0
                   0
                   0
                   0
                   0
                   0
                   0
                   0
                   0
                   0
                   0
                   0
                   0
                   0
                   0
                   0
                   0
                   0
                   0
                   0
                   0
                   0
                   0
                   0
                   0
                   0
                   0
                   0
                   0
                   0
                   0
                   0
                   0
                   0
                   0
                   0
                   0
                   0
                   0
                   0
                   0
                   0
                   0
                   0
                   0
                   0
                   0
                   0
                   0
                   0
                   0
                   0
                   0
                   0
                   0
                   0
                   0
                   0
                   0
                   0
                   0
                   0
                   0
                   0
                   0
                   0
                   0
                   0
                   0
                   0
                   0
                   0
                   0
                   0
                   0
                   0
                   0
                   0
                   0
                   0
                   0
                   0
                   0
                   0
                   0
                   0
                   0
                   0
                   0
                   0
                   0
                   0
                   0
                   0
                   0
                   0
                   0
                   0
                   0
                   0
                   0
                   0
                   0
                   0
                   0
                   0
                   0
                   0
                   0
                   0
                   0
                   0
                   0
                   0
                   0
                   0
                   0
                   0
                   0
                   0
                   0
                   0
                   0
                   0
                   0
                   0
                   0
                   0
                   0
                   0
                   0
                   0
                   0
                   0
                   0
                   0
                   0
                   0
                   0
                   0
                   0
                   0
                   0
                   0
                   0
                   0
                   0
                   0
                   0
                   0
                   0
                   0
                   0
                   0
                   0
                   0
                   0
                   0
                   0
                   0
                   0
                   0
                   0
                   0
                   0
                   0
                   0
                   0
                   0
                   0
                   0
                   0
                   0
                   0
                   0
                   0
                   0
                   0
                   0
                   0
                   0
                   0
                   0
                   0
                   0
                   0
                   0
                   0
                   0
                   0
                   0
                   0
                   0
                   0
                   0
                   0
                   0
                   0
                   0
                   0
                   0
                   0
                   0
                   0
                   0
                   0
                   0
                   0
                   0
                   0
                   0
                   0
                   0
                   0
                   0
                   0
                   0
                   0
                   0
                   0
                   0
                   0
                   0
                   0
                   0
                   0
                   0
                   0
                   0
                   0
                   0
                   0
                   0
                   0
                   0
                   0
                   0
                   0
                   0
                   0
                   0
                   0
                   0
                   0
                   0
                   0
                   0
                   0
                   0
                   0
                   0
                   0
                   0
                   0
                   0
                   0
                   0
                   0
                   0
                   0
                   0
                   0
                   0
                   0
                   0
                   0
                   0
                   0
                   0
                   0
                   0
                   0
                   0
                   0
                   0
                   0
                   0
                   0
                   0
                   0
                   0
                   0
                   0
                   0
                   0
                   0
                   0
                   0
                   0
                   0
                   0
                   0
                   0
                   0
                   0
                   0
                   0
                   0
                   0
                   0
                   0
                   0
                   0
                   0
                   0
                   0
                   0
                   0
                   0
                   0
                   0
                   0
                   0
                   0
                   0
                   0
                   0
                   0
                   0
                   0
                   0
                   0
                   0
                   0
                   0
                   0
                   0
                   0
                   0
                   0
                   0
                   0
                   0
                   0
                   0
                   0
                   0
                   0
                   0
                   0
                   0
                   0
                   0
                   0
                   0
                   0
                   0
                   0
                   0
                   0
                   0
                   0
                   0
                   0
                   0
                   0
                   0
                   0
                   0
                   0
                   0
                   0
                   0
                   0
                   0
                   0
                   0
                   0
                   0
                   0
                   0
                   0
                   0
                   0
                   0
                   0
                   0
                   0
                   0
                   0
                   0
                   0
                   0
                   0
                   0
                   0
                   0
                   0
                   0
                   0
                   0
                   0
                   0
                   0
                   0
                   0
                   0
                   0
                   0
                   0
                   0
                   0
                   0
                   0
                   0
                   0
                   0
                   0
                   0
                   0
                   0
                   0
                   0
                   0
                   0
                   0
                   0
                   0
                   0
                   0
                   0
                   0
                   0
                   0
                   0
                   0
                   0
                   0
                   0
                   0
                   0
                   0
                   0
                   0
                   0
                   0
                   0
                   0
                   0
                   0
                   0
                   0
                   0
                   0
                   0
                   0
                   0
                   0
                   0
                   0
                   0
                   0
                   0
                   0
                   0
                   0
                   0
                   0
                   0
                   0
                   0
                   0
                   0
                   0
                   0
                   0
                   0
                   0
                   0
                   0
                   0
                   0
                   0
                   0
                   0
                   0
                   0
                   0
                   0
                   0
                   0
                   0
                   0
                   0
                   0
                   0
                   0
                   0
                   0
                   0
                   0
                   0
                   0
                   0
                   0
                   0
                   0
                   0
                   0
                   0
                   0
                   0
                   0
                   0
                   0
                   0
                   0
                   0
                   0
                   0
                   0
                   0
                   0
                   0
                   0
                   0
                   0
                   0
                   0
                   0
                   0
                   0
                   0
                   0
                   0
                   0
                   0
                   0
                   0
                   0
                   0
                   0
                   0
                   0
                   0
                   0
                   0
                   0
                   0
                   0
                   0
                   0
                   0
                   0
                   0
                   0
                   0
                   0
                   0
                   0
                   0
                   0
                   0
                   0
                   0
                   0
                   0
                   0
                   0
                   0
                   0
                   0
                   0
                   0
                   0
                   0
                   0
                   0
                   0
                   0
                   0
                   0
                   0
                   0
                   0
                   0
                   0
                   0
                   0
                   0
                   0
                   0
                   0
                   0
                   0
                   0
                   0
                   0
                   0
                   0
                   0
                   0
                   0
                   0
                   0
                   0
                   0
                   0
                   0
                   0
                   0
                   0
                   0
                   0
                   0
                   0
                   0
                   0
                   0
                   0
                   0
                   0
                   0
                   0
                   0
                   0
                   0
                   0
                   0
                   0
                   0
                   0
                   0
                   0
                   0
                   0
                   0
                   0
                   0
                   0
                   0
                   0
                   0
                   0
                   0
                   0
                   0
                   0
                   0
                   0
                   0
                   0
                   0
                   0
                   0
                   0
                   0
                   0
                   0
                   0
                   0
                   0
                   0
                   0
                   0
                   0
                   0
                   0
                   0
                   0
                   0
                   0
                   0
                   0
                   0
                   0
                   0
                   0
                   0
                   0
                   0
                   0
                   0
                   0
                   0
                   0
                   0
                   0
                   0
                   0
                   0
                   0
                   0
                   0
                   0
                   0
                   0
                   0
                   0
                   0
                   0
                   0
                   0
                   0
                   0
                   0
                   0
                   0
                   0
                   0
                   0
                   0
                   0
                   0
                   0
                   0
                   0
                   0
                   0
                   0
                   0
                   0
                   0
                   0
                   0
                   0
                   0
                   0
                   0
                   0
                   0
                   0
                   0
                   0
                   0
                   0
                   0
                   0
                   0
                   0
                   0
                   0
                   0
                   0
                   0
                   0
                   0
                   0
                   0
                   0
                   0
                   0
                   0
                   0
                   0
                   0
                   0
                   0
                   0
                   0
                   0
                   0
                   0
                   0
                   0
                   0
                   0
                   0
                   0
                   0
                   0
                   0
                   0
                   0
                   0
                   0
                   0
                   0
                   0
                   0
                   0
                   0
                   0
                   0
                   0
                   0
                   0
                   0
                   0
                   0
                   0
                   0
                   0
                   0
                   0
                   0
                   0
                   0
                   0
                   0
                   0
                   0
                   0
                   0
                   0
                   0
                   0
                   0
                   0
                   0
                   0
                   0
                   0
                   0
                   0
                   0
                   0
                   0
                   0
                   0
                   0
                   0
                   0
                   0
                   0
                   0
                   0
                   0
                   0
                   0
                   0
                   0
                   0
                   0
                   0
                   0
                   0
                   0
                   0
                   0
                   0
                   0
                   0
                   0
                   0
                   0
                   0
                   0
                   0
                   0
                   0
                   0
                   0
                   0
                   0
                   0
                   0
                   0
                   0
                   0
                   0
                   0
                   0
                   0
                   0
                   0
                   0
                   0
                   0
                   0
                   0
                   0
                   0
                   0
                   0
                   0
                   0
                   0
                   0
                   0
                   0
                   0
                   0
                   0
                   0
                   0
                   0
                   0
                   0
                   0
                   0
                   0
                   0
                   0
                   0
                   0
                   0
                   0
                   0
                   0
                   0
                   0
                   0
                   0
                   0
                   0
                   0
                   0
                   0
                   0
                   0
                   0
                   0
                   0
                   0
                   0
                   0
                   0
                   0
                   0
                   0
                   0
                   0
                   0
                   0
                   0
                   0
                   0
                   0
                   0
                   0
                   0
                   0
                   0
                   0
                   0
                   0
                   0
                   0
                   0
                   0
                   0
                   0
                   0
                   0
                   0
                   0
                   0
                   0
                   0
                   0
                   0
                   0
                   0
                   0
                   0
                   0
                   0
                   0
                   0
                   0
                   0
                   0
                   0
                   0
                   0
                   0
                   0
                   0
                   0
                   0
                   0
                   0
                   0
                   0
                   0
                   0
                   0
                   0
                   0
                   0
                   0
                   0
                   0
                   0
                   0
                   0
                   0
                   0
                   0
                   0
                   0
                   0
                   0
                   0
                   0
                   0
                   0
                   0
                   0
                   0
                   0
                   0
                   0
                   0
                   0
                   0
                   0
                   0
                   0
                   0
                   0
                   0
                   0
                   0
                   0
                   0
                   0
                   0
                   0
                   0
                   0
                   0
                   0
                   0
                   0
                   0
                   0
                   0
                   0
                   0
                   0
                   0
                   0
                   0
                   0
                   0
                   0
                   0
                   0
                   0
                   0
                   0
                   0
                   0
                   0
                   0
                   0
                   0
                   0
                   0
                   0
                   0
                   0
                   0
                   0
                   0
                   0
                   0
                   0
                   0
                   0
                   0
                   0
                   0
                   0
                   0
                   0
                   0
                   0
                   0
                   0
                   0
                   0
                   0
                   0
                   0
                   0
                   0
                   0
                   0
                   0
                   0
                   0
                   0
                   0
                   0
                   0
                   0
                   0
                   0
                   0
                   0
                   0
                   0
                   0
                   0
                   0
                   0
                   0
                   0
                   0
                   0
                   0
                   0
                   0
                   0
                   0
                   0
                   0
                   0
                   0
                   0
                   0
                   0
                   0
                   0
                   0
                   0
                   0
                   0
                   0
                   0
                   0
                   0
                   0
                   0
                   0
                   0
                   0
                   0
                   0
                   0
                   0
                   0
                   0
                   0
                   0
                   0
                   0
                   0
                   0
                   0
                   0
                   0
                   0
                   0
                   0
                   0
                   0
                   0
                   0
                   0
                   0
                   0
                   0
                   0
                   0
                   0
                   0
                   0
                   0
                   0
                   0
                   0
                   0
                   0
                   0
                   0
                   0
                   0
                   0
                   0
                   0
                   0
                   0
                   0
                   0
                   0
                   0
                   0
                   0
                   0
                   0
                   0
                   0
                   0
                   0
                   0
                   0
                   0
                   0
                   0
                   0
                   0
                   0
                   0
                   0
                   0
                   0
                   0
                   0
                   0
                   0
                   0
                   0
                   0
                   0
                   0
                   0
                   0
                   0
                   0
                   0
                   0
                   0
                   0
                   0
                   0
                   0
                   0
                   0
                   0
                   0
                   0
                   0
                   0
                   0
                   0
                   0
                   0
                   0
                   0
                   0
                   0
                   0
                   0
                   0
                   0
                   0
                   0
                   0
                   0
                   0
                   0
                   0
                   0
                   0
                   0
                   0
                   0
                   0
                   0
                   0
                   0
                   0
                   0
                   0
                   0
                   0
                   0
                   0
                   0
                   0
                   0
                   0
                   0
                   0
                   0
                   0
                   0
                   0
                   0
                   0
                   0
                   0
                   0
                   0
                   0
                   0
                   0
                   0
                   0
                   0
                   0
                   0
                   0
                   0
                   0
                   0
                   0
                   0
                   0
                   0
                   0
                   0
                   0
                   0
                   0
                   0
                   0
                   0
                   0
                   0
                   0
  
SCALARS                       fixity_y  double 1
LOOKUP_TABLE default
                   0
                   0
                   0
                   0
                   0
                   0
                   0
                   0
                   0
                   0
                   0
                   0
                   0
                   0
                   0
                   0
                   0
                   0
                   0
                   0
                   0
                   0
                   0
                   0
                   0
                   0
                   0
                   0
                   0
                   0
                   0
                   0
                   0
                   0
                   0
                   0
                   0
                   0
                   0
                   0
                   0
                   0
                   0
                   0
                   0
                   0
                   0
                   0
                   0
                   0
                   0
                   0
                   0
                   0
                   0
                   0
                   0
                   0
                   0
                   0
                   0
                   0
                   0
                   0
                   0
                   0
                   0
                   0
                   0
                   0
                   0
                   0
                   0
                   0
                   0
                   0
                   0
                   0
                   0
                   0
                   0
                   0
                   0
                   0
                   0
                   0
                   0
                   0
                   0
                   0
                   0
                   0
                   0
                   0
                   0
                   0
                   0
                   0
                   0
                   0
                   0
                   0
                   0
                   0
                   0
                   0
                   0
                   0
                   0
                   0
                   0
                   0
                   0
                   0
                   0
                   0
                   0
                   0
                   0
                   0
                   0
                   0
                   0
                   0
                   0
                   0
                   0
                   0
                   0
                   0
                   0
                   0
                   0
                   0
                   0
                   0
                   0
                   0
                   0
                   0
                   0
                   0
                   0
                   0
                   0
                   0
                   0
                   0
                   0
                   0
                   0
                   0
                   0
                   0
                   0
                   0
                   0
                   0
                   0
                   0
                   0
                   0
                   0
                   0
                   0
                   0
                   0
                   0
                   0
                   0
                   0
                   0
                   0
                   0
                   0
                   0
                   0
                   0
                   0
                   0
                   0
                   0
                   0
                   0
                   0
                   0
                   0
                   0
                   0
                   0
                   0
                   0
                   0
                   0
                   0
                   0
                   0
                   0
                   0
                   0
                   0
                   0
                   0
                   0
                   0
                   0
                   0
                   0
                   0
                   0
                   0
                   0
                   0
                   0
                   0
                   0
                   0
                   0
                   0
                   0
                   0
                   0
                   0
                   0
                   0
                   0
                   0
                   0
                   0
                   0
                   0
                   0
                   0
                   0
                   0
                   0
                   0
                   0
                   0
                   0
                   0
                   0
                   0
                   0
                   0
                   0
                   0
                   0
                   0
                   0
                   0
                   0
                   0
                   0
                   0
                   0
                   0
                   0
                   0
                   0
                   0
                   0
                   0
                   0
                   0
                   0
                   0
                   0
                   0
                   0
                   0
                   0
                   0
                   0
                   0
                   0
                   0
                   0
                   0
                   0
                   0
                   0
                   0
                   0
                   0
                   0
                   0
                   0
                   0
                   0
                   0
                   0
                   0
                   0
                   0
                   0
                   0
                   0
                   0
                   0
                   0
                   0
                   0
                   0
                   0
                   0
                   0
                   0
                   0
                   0
                   0
                   0
                   0
                   0
                   0
                   0
                   0
                   0
                   0
                   0
                   0
                   0
                   0
                   0
                   0
                   0
                   0
                   0
                   0
                   0
                   0
                   0
                   0
                   0
                   0
                   0
                   0
                   0
                   0
                   0
                   0
                   0
                   0
                   0
                   0
                   0
                   0
                   0
                   0
                   0
                   0
                   0
                   0
                   0
                   0
                   0
                   0
                   0
                   0
                   0
                   0
                   0
                   0
                   0
                   0
                   0
                   0
                   0
                   0
                   0
                   0
                   0
                   0
                   0
                   0
                   0
                   0
                   0
                   0
                   0
                   0
                   0
                   0
                   0
                   0
                   0
                   0
                   0
                   0
                   0
                   0
                   0
                   0
                   0
                   0
                   0
                   0
                   0
                   0
                   0
                   0
                   0
                   0
                   0
                   0
                   0
                   0
                   0
                   0
                   0
                   0
                   0
                   0
                   0
                   0
                   0
                   0
                   0
                   0
                   0
                   0
                   0
                   0
                   0
                   0
                   0
                   0
                   0
                   0
                   0
                   0
                   0
                   0
                   0
                   0
                   0
                   0
                   0
                   0
                   0
                   0
                   0
                   0
                   0
                   0
                   0
                   0
                   0
                   0
                   0
                   0
                   0
                   0
                   0
                   0
                   0
                   0
                   0
                   0
                   0
                   0
                   0
                   0
                   0
                   0
                   0
                   0
                   0
                   0
                   0
                   0
                   0
                   0
                   0
                   0
                   0
                   0
                   0
                   0
                   0
                   0
                   0
                   0
                   0
                   0
                   0
                   0
                   0
                   0
                   0
                   0
                   0
                   0
                   0
                   0
                   0
                   0
                   0
                   0
                   0
                   0
                   0
                   0
                   0
                   0
                   0
                   0
                   0
                   0
                   0
                   0
                   0
                   0
                   0
                   0
                   0
                   0
                   0
                   0
                   0
                   0
                   0
                   0
                   0
                   0
                   0
                   0
                   0
                   0
                   0
                   0
                   0
                   0
                   0
                   0
                   0
                   0
                   0
                   0
                   0
                   0
                   0
                   0
                   0
                   0
                   0
                   0
                   0
                   0
                   0
                   0
                   0
                   0
                   0
                   0
                   0
                   0
                   0
                   0
                   0
                   0
                   0
                   0
                   0
                   0
                   0
                   0
                   0
                   0
                   0
                   0
                   0
                   0
                   0
                   0
                   0
                   0
                   0
                   0
                   0
                   0
                   0
                   0
                   0
                   0
                   0
                   0
                   0
                   0
                   0
                   0
                   0
                   0
                   0
                   0
                   0
                   0
                   0
                   0
                   0
                   0
                   0
                   0
                   0
                   0
                   0
                   0
                   0
                   0
                   0
                   0
                   0
                   0
                   0
                   0
                   0
                   0
                   0
                   0
                   0
                   0
                   0
                   0
                   0
                   0
                   0
                   0
                   0
                   0
                   0
                   0
                   0
                   0
                   0
                   0
                   0
                   0
                   0
                   0
                   0
                   0
                   0
                   0
                   0
                   0
                   0
                   0
                   0
                   0
                   0
                   0
                   0
                   0
                   0
                   0
                   0
                   0
                   0
                   0
                   0
                   0
                   0
                   0
                   0
                   0
                   0
                   0
                   0
                   0
                   0
                   0
                   0
                   0
                   0
                   0
                   0
                   0
                   0
                   0
                   0
                   0
                   0
                   0
                   0
                   0
                   0
                   0
                   0
                   0
                   0
                   0
                   0
                   0
                   0
                   0
                   0
                   0
                   0
                   0
                   0
                   0
                   0
                   0
                   0
                   0
                   0
                   0
                   0
                   0
                   0
                   0
                   0
                   0
                   0
                   0
                   0
                   0
                   0
                   0
                   0
                   0
                   0
                   0
                   0
                   0
                   0
                   0
                   0
                   0
                   0
                   0
                   0
                   0
                   0
                   0
                   0
                   0
                   0
                   0
                   0
                   0
                   0
                   0
                   0
                   0
                   0
                   0
                   0
                   0
                   0
                   0
                   0
                   0
                   0
                   0
                   0
                   0
                   0
                   0
                   0
                   0
                   0
                   0
                   0
                   0
                   0
                   0
                   0
                   0
                   0
                   0
                   0
                   0
                   0
                   0
                   0
                   0
                   0
                   0
                   0
                   0
                   0
                   0
                   0
                   0
                   0
                   0
                   0
                   0
                   0
                   0
                   0
                   0
                   0
                   0
                   0
                   0
                   0
                   0
                   0
                   0
                   0
                   0
                   0
                   0
                   0
                   0
                   0
                   0
                   0
                   0
                   0
                   0
                   0
                   0
                   0
                   0
                   0
                   0
                   0
                   0
                   0
                   0
                   0
                   0
                   0
                   0
                   0
                   0
                   0
                   0
                   0
                   0
                   0
                   0
                   0
                   0
                   0
                   0
                   0
                   0
                   0
                   0
                   0
                   0
                   0
                   0
                   0
                   0
                   0
                   0
                   0
                   0
                   0
                   0
                   0
                   0
                   0
                   0
                   0
                   0
                   0
                   0
                   0
                   0
                   0
                   0
                   0
                   0
                   0
                   0
                   0
                   0
                   0
                   0
                   0
                   0
                   0
                   0
                   0
                   0
                   0
                   0
                   0
                   0
                   0
                   0
                   0
                   0
                   0
                   0
                   0
                   0
                   0
                   0
                   0
                   0
                   0
                   0
                   0
                   0
                   0
                   0
                   0
                   0
                   0
                   0
                   0
                   0
                   0
                   0
                   0
                   0
                   0
                   0
                   0
                   0
                   0
                   0
                   0
                   0
                   0
                   0
                   0
                   0
                   0
                   0
                   0
                   0
                   0
                   0
                   0
                   0
                   0
                   0
                   0
                   0
                   0
                   0
                   0
                   0
                   0
                   0
                   0
                   0
                   0
                   0
                   0
                   0
                   0
                   0
                   0
                   0
                   0
                   0
                   0
                   0
                   0
                   0
                   0
                   0
                   0
                   0
                   0
                   0
                   0
                   0
                   0
                   0
                   0
                   0
                   0
                   0
                   0
                   0
                   0
                   0
                   0
                   0
                   0
                   0
                   0
                   0
                   0
                   0
                   0
                   0
                   0
                   0
                   0
                   0
                   0
                   0
                   0
                   0
                   0
                   0
                   0
                   0
                   0
                   0
                   0
                   0
                   0
                   0
                   0
                   0
                   0
                   0
                   0
                   0
                   0
                   0
                   0
                   0
                   0
                   0
                   0
                   0
                   0
                   0
                   0
                   0
                   0
                   0
                   0
                   0
                   0
                   0
                   0
                   0
                   0
                   0
                   0
                   0
                   0
                   0
                   0
                   0
                   0
                   0
                   0
                   0
                   0
                   0
                   0
                   0
                   0
                   0
                   0
                   0
                   0
                   0
                   0
                   0
                   0
                   0
                   0
                   0
                   0
                   0
                   0
                   0
                   0
                   0
                   0
                   0
                   0
                   0
                   0
                   0
                   0
                   0
                   0
                   0
                   0
                   0
                   0
                   0
                   0
                   0
                   0
                   0
                   0
                   0
                   0
                   0
                   0
                   0
                   0
                   0
                   0
                   0
                   0
                   0
                   0
                   0
                   0
                   0
                   0
                   0
                   0
                   0
                   0
                   0
                   0
                   0
                   0
                   0
                   0
                   0
                   0
                   0
                   0
                   0
                   0
                   0
                   0
                   0
                   0
                   0
                   0
                   0
                   0
                   0
                   0
                   0
                   0
                   0
                   0
                   0
                   0
                   0
                   0
                   0
                   0
                   0
                   0
                   0
                   0
                   0
                   0
                   0
                   0
                   0
                   0
                   0
                   0
                   0
                   0
                   0
                   0
                   0
                   0
                   0
                   0
                   0
                   0
                   0
                   0
                   0
                   0
                   0
                   0
                   0
                   0
                   0
                   0
                   0
                   0
                   0
                   0
                   0
                   0
                   0
                   0
                   0
                   0
                   0
                   0
                   0
                   0
                   0
                   0
                   0
                   0
                   0
                   0
                   0
                   0
                   0
                   0
                   0
                   0
                   0
                   0
                   0
                   0
                   0
                   0
                   0
                   0
                   0
                   0
                   0
                   0
                   0
                   0
                   0
                   0
                   0
                   0
                   0
                   0
                   0
                   0
                   0
                   0
                   0
                   0
                   0
                   0
                   0
                   0
                   0
                   0
                   0
                   0
                   0
                   0
                   0
                   0
                   0
                   0
                   0
                   0
                   0
                   0
                   0
                   0
                   0
                   0
                   0
                   0
                   0
                   0
                   0
                   0
                   0
                   0
                   0
                   0
                   0
                   0
                   0
                   0
                   0
                   0
                   0
                   0
                   0
                   0
                   0
                   0
                   0
                   0
                   0
                   0
                   0
                   0
                   0
                   0
                   0
                   0
                   0
                   0
                   0
                   0
                   0
                   0
                   0
                   0
                   0
                   0
                   0
                   0
                   0
                   0
                   0
                   0
                   0
                   0
                   0
                   0
                   0
                   0
                   0
                   0
                   0
                   0
                   0
                   0
                   0
                   0
                   0
                   0
                   0
                   0
                   0
                   0
                   0
                   0
                   0
                   0
                   0
                   0
                   0
                   0
                   0
                   0
                   0
                   0
                   0
                   0
                   0
                   0
                   0
                   0
                   0
                   0
                   0
                   0
                   0
                   0
                   0
                   0
                   0
                   0
                   0
                   0
                   0
                   0
                   0
                   0
                   0
                   0
                   0
                   0
                   0
                   0
                   0
                   0
                   0
                   0
                   0
                   0
                   0
                   0
                   0
                   0
                   0
                   0
                   0
                   0
                   0
                   0
                   0
                   0
                   0
                   0
                   0
                   0
                   0
                   0
                   0
                   0
                   0
                   0
                   0
                   0
                   0
                   0
                   0
                   0
                   0
                   0
                   0
                   0
                   0
                   0
                   0
                   0
                   0
                   0
                   0
                   0
                   0
                   0
                   0
                   0
                   0
                   0
                   0
                   0
                   0
                   0
                   0
                   0
                   0
                   0
                   0
                   0
                   0
                   0
                   0
                   0
                   0
                   0
                   0
                   0
                   0
                   0
                   0
                   0
                   0
                   0
                   0
                   0
                   0
                   0
                   0
                   0
                   0
                   0
                   0
                   0
                   0
                   0
                   0
                   0
                   0
                   0
                   0
                   0
                   0
                   0
                   0
                   0
                   0
                   0
                   0
                   0
                   0
                   0
                   0
                   0
                   0
                   0
                   0
                   0
                   0
                   0
                   0
                   0
                   0
                   0
                   0
                   0
                   0
                   0
                   0
                   0
                   0
                   0
                   0
                   0
                   0
                   0
                   0
                   0
                   0
                   0
                   0
                   0
                   0
                   0
                   0
                   0
                   0
                   0
                   0
                   0
                   0
                   0
                   0
                   0
                   0
                   0
                   0
                   0
                   0
                   0
                   0
                   0
                   0
                   0
                   0
                   0
                   0
                   0
                   0
                   0
                   0
                   0
                   0
                   0
                   0
                   0
                   0
                   0
                   0
                   0
                   0
                   0
                   0
                   0
                   0
                   0
                   0
                   0
                   0
                   0
                   0
                   0
                   0
                   0
                   0
                   0
                   0
                   0
                   0
                   0
                   0
                   0
                   0
                   0
                   0
                   0
                   0
                   0
                   0
                   0
                   0
                   0
                   0
                   0
                   0
                   0
                   0
                   0
                   0
                   0
                   0
                   0
                   0
                   0
                   0
                   0
                   0
                   0
                   0
                   0
                   0
                   0
                   0
                   0
                   0
                   0
                   0
                   0
                   0
                   0
                   0
                   0
                   0
                   0
                   0
                   0
                   0
                   0
                   0
                   0
                   0
                   0
                   0
                   0
                   0
                   0
                   0
                   0
                   0
                   0
                   0
                   0
                   0
                   0
                   0
                   0
                   0
                   0
                   0
                   0
                   0
                   0
                   0
                   0
                   0
                   0
                   0
                   0
                   0
                   0
                   0
                   0
                   0
                   0
                   0
                   0
                   0
                   0
                   0
                   0
                   0
                   0
                   0
                   0
                   0
                   0
                   0
                   0
                   0
                   0
                   0
                   0
                   0
                   0
                   0
                   0
                   0
                   0
                   0
                   0
                   0
                   0
                   0
                   0
                   0
                   0
                   0
                   0
                   0
                   0
                   0
                   0
                   0
                   0
                   0
                   0
                   0
                   0
                   0
                   0
                   0
                   0
                   0
                   0
                   0
                   0
                   0
                   0
                   0
                   0
                   0
                   0
                   0
                   0
                   0
                   0
                   0
                   0
                   0
                   0
                   0
                   0
                   0
                   0
                   0
                   0
                   0
                   0
                   0
                   0
                   0
                   0
                   0
                   0
                   0
                   0
                   0
                   0
                   0
                   0
                   0
                   0
                   0
                   0
                   0
                   0
                   0
                   0
                   0
                   0
                   0
                   0
                   0
                   0
                   0
                   0
                   0
                   0
                   0
                   0
                   0
                   0
                   0
                   0
                   0
                   0
                   0
                   0
                   0
                   0
                   0
                   0
                   0
                   0
                   0
                   0
                   0
                   0
                   0
                   0
                   0
                   0
                   0
                   0
                   0
                   0
                   0
                   0
                   0
                   0
                   0
                   0
                   0
                   0
                   0
                   0
                   0
                   0
                   0
                   0
                   0
                   0
                   0
                   0
                   0
                   0
                   0
                   0
                   0
                   0
                   0
                   0
                   0
                   0
                   0
                   0
                   0
                   0
                   0
                   0
                   0
                   0
                   0
                   0
                   0
                   0
                   0
                   0
                   0
                   0
                   0
                   0
                   0
                   0
                   0
                   0
                   0
                   0
                   0
                   0
                   0
                   0
                   0
                   0
                   0
                   0
                   0
                   0
                   0
                   0
                   0
                   0
                   0
                   0
                   0
                   0
                   0
                   0
                   0
                   0
                   0
                   0
                   0
                   0
                   0
                   0
                   0
                   0
                   0
                   0
                   0
                   0
                   0
                   0
                   0
                   0
                   0
                   0
                   0
                   0
                   0
                   0
                   0
                   0
                   0
                   0
                   0
                   0
                   0
                   0
                   0
                   0
                   0
                   0
                   0
                   0
                   0
                   0
                   0
                   0
                   0
                   0
                   0
                   0
                   0
                   0
                   0
                   0
                   0
                   0
                   0
                   0
                   0
                   0
                   0
                   0
                   0
                   0
                   0
                   0
                   0
                   0
                   0
                   0
                   0
                   0
                   0
                   0
                   0
                   0
                   0
                   0
                   0
                   0
                   0
                   0
                   0
                   0
                   0
                   0
                   0
                   0
                   0
                   0
                   0
                   0
                   0
                   0
                   0
                   0
                   0
                   0
                   0
                   0
                   0
                   0
                   0
                   0
                   0
                   0
                   0
                   0
                   0
                   0
                   0
                   0
                   0
                   0
                   0
                   0
                   0
                   0
                   0
                   0
                   0
                   0
                   0
                   0
  
SCALARS                       fixity_z  double 1
LOOKUP_TABLE default
                   0
                   0
                   0
                   0
                   1
                   1
                   1
                   1
                   0
                   0
                   1
                   1
                   0
                   0
                   1
                   1
                   0
                   0
                   1
                   1
                   0
                   0
                   0
                   1
                   1
                   1
                   0
                   0
                   1
                   1
                   0
                   0
                   0
                   1
                   1
                   1
                   0
                   0
                   1
                   1
                   0
                   0
                   1
                   1
                   0
                   0
                   1
                   1
                   0
                   1
                   0
                   1
                   0
                   1
                   0
                   1
                   0
                   0
                   1
                   1
                   0
                   0
                   1
                   1
                   0
                   1
                   0
                   1
                   0
                   0
                   1
                   1
                   0
                   1
                   0
                   1
                   0
                   1
                   0
                   1
                   0
                   0
                   1
                   1
                   0
                   1
                   0
                   1
                   0
                   1
                   0
                   0
                   1
                   1
                   0
                   1
                   0
                   1
                   0
                   1
                   0
                   0
                   1
                   1
                   0
                   0
                   1
                   1
                   0
                   1
                   0
                   1
                   0
                   1
                   0
                   1
                   0
                   1
                   0
                   1
                   0
                   1
                   0
                   1
                   0
                   1
                   0
                   1
                   0
                   1
                   0
                   1
                   0
                   1
                   0
                   1
                   0
                   1
                   0
                   1
                   0
                   1
                   0
                   1
                   0
                   1
                   0
                   1
                   0
                   1
                   0
                   1
                   0
                   1
                   0
                   1
                   0
                   0
                   0
                   0
                   0
                   0
                   0
                   0
                   0
                   0
                   0
                   0
                   0
                   0
                   0
                   0
                   0
                   0
                   0
                   0
                   0
                   0
                   0
                   0
                   0
                   0
                   0
                   0
                   0
                   0
                   0
                   0
                   0
                   0
                   0
                   0
                   0
                   0
                   0
                   0
                   0
                   0
                   0
                   0
                   0
                   0
                   0
                   0
                   0
                   0
                   0
                   0
                   0
                   0
                   0
                   0
                   0
                   0
                   0
                   0
                   0
                   0
                   0
                   0
                   0
                   0
                   0
                   0
                   0
                   0
                   0
                   0
                   0
                   0
                   0
                   0
                   0
                   0
                   0
                   0
                   0
                   0
                   0
                   0
                   0
                   0
                   0
                   0
                   0
                   0
                   0
                   0
                   0
                   0
                   0
                   0
                   0
                   0
                   0
                   0
                   0
                   0
                   0
                   0
                   0
                   0
                   0
                   0
                   0
                   0
                   0
                   0
                   0
                   0
                   0
                   0
                   0
                   0
                   0
                   0
                   0
                   0
                   0
                   0
                   0
                   0
                   0
                   0
                   0
                   0
                   0
                   0
                   0
                   0
                   0
                   0
                   0
                   0
                   0
                   0
                   0
                   0
                   0
                   0
                   0
                   0
                   0
                   0
                   0
                   0
                   0
                   0
                   0
                   0
                   0
                   0
                   0
                   0
                   0
                   0
                   0
                   0
                   0
                   0
                   0
                   0
                   0
                   0
                   0
                   0
                   0
                   0
                   0
                   0
                   0
                   0
                   0
                   0
                   0
                   0
                   0
                   0
                   0
                   0
                   0
                   0
                   0
                   0
                   0
                   0
                   0
                   0
                   0
                   0
                   0
                   0
                   0
                   0
                   0
                   0
                   0
                   0
                   0
                   0
                   0
                   0
                   0
                   0
                   0
                   0
                   0
                   0
                   0
                   0
                   0
                   0
                   0
                   0
                   0
                   0
                   0
                   0
                   0
                   0
                   0
                   0
                   0
                   0
                   0
                   0
                   0
                   0
                   0
                   0
                   0
                   0
                   0
                   0
                   0
                   0
                   0
                   0
                   0
                   0
                   0
                   0
                   0
                   0
                   0
                   0
                   0
                   0
                   0
                   0
                   0
                   0
                   0
                   0
                   0
                   0
                   0
                   0
                   0
                   0
                   0
                   0
                   0
                   0
                   0
                   0
                   0
                   0
                   0
                   0
                   0
                   0
                   0
                   0
                   0
                   0
                   0
                   0
                   0
                   0
                   0
                   0
                   0
                   0
                   0
                   0
                   0
                   0
                   0
                   0
                   0
                   0
                   0
                   0
                   0
                   0
                   0
                   0
                   0
                   0
                   0
                   0
                   0
                   0
                   0
                   0
                   0
                   0
                   0
                   0
                   0
                   0
                   0
                   0
                   0
                   0
                   0
                   0
                   0
                   0
                   0
                   0
                   0
                   0
                   0
                   0
                   0
                   0
                   0
                   0
                   0
                   0
                   0
                   0
                   0
                   0
                   0
                   0
                   0
                   0
                   0
                   0
                   0
                   0
                   0
                   0
                   0
                   0
                   0
                   0
                   0
                   0
                   0
                   0
                   0
                   0
                   0
                   0
                   0
                   0
                   0
                   0
                   0
                   0
                   0
                   0
                   0
                   0
                   0
                   0
                   0
                   0
                   0
                   0
                   0
                   0
                   0
                   0
                   0
                   0
                   0
                   0
                   0
                   0
                   0
                   0
                   0
                   0
                   0
                   0
                   0
                   0
                   0
                   0
                   0
                   0
                   0
                   0
                   0
                   0
                   0
                   0
                   0
                   0
                   0
                   0
                   0
                   0
                   0
                   0
                   0
                   0
                   0
                   0
                   0
                   0
                   0
                   0
                   0
                   0
                   0
                   0
                   0
                   0
                   0
                   0
                   0
                   0
                   0
                   0
                   0
                   0
                   0
                   0
                   0
                   0
                   0
                   0
                   0
                   0
                   0
                   0
                   0
                   0
                   0
                   0
                   0
                   0
                   0
                   0
                   0
                   0
                   0
                   0
                   0
                   0
                   0
                   0
                   0
                   0
                   0
                   0
                   0
                   0
                   0
                   0
                   0
                   0
                   0
                   0
                   0
                   0
                   0
                   0
                   0
                   0
                   0
                   0
                   0
                   0
                   0
                   0
                   0
                   0
                   0
                   0
                   0
                   0
                   0
                   0
                   0
                   0
                   0
                   0
                   0
                   0
                   0
                   0
                   0
                   0
                   0
                   0
                   0
                   0
                   0
                   0
                   0
                   0
                   0
                   0
                   0
                   0
                   0
                   0
                   0
                   0
                   0
                   0
                   0
                   0
                   0
                   0
                   0
                   0
                   0
                   0
                   0
                   0
                   0
                   0
                   0
                   0
                   0
                   0
                   0
                   0
                   0
                   0
                   0
                   0
                   0
                   0
                   0
                   0
                   0
                   0
                   0
                   0
                   0
                   0
                   0
                   0
                   0
                   0
                   0
                   0
                   0
                   0
                   0
                   0
                   0
                   0
                   0
                   0
                   0
                   0
                   0
                   0
                   0
                   0
                   0
                   0
                   0
                   0
                   0
                   0
                   0
                   0
                   0
                   0
                   0
                   0
                   0
                   0
                   0
                   0
                   0
                   0
                   0
                   0
                   0
                   0
                   0
                   0
                   0
                   0
                   0
                   0
                   0
                   0
                   0
                   0
                   0
                   0
                   0
                   0
                   0
                   0
                   0
                   0
                   0
                   0
                   0
                   0
                   0
                   0
                   0
                   0
                   0
                   0
                   0
                   0
                   0
                   0
                   0
                   0
                   0
                   0
                   0
                   0
                   0
                   0
                   0
                   0
                   0
                   0
                   0
                   0
                   0
                   0
                   0
                   0
                   0
                   0
                   0
                   0
                   0
                   0
                   0
                   0
                   0
                   0
                   0
                   0
                   0
                   0
                   0
                   0
                   0
                   0
                   0
                   0
                   0
                   0
                   0
                   0
                   0
                   0
                   0
                   0
                   0
                   0
                   0
                   0
                   0
                   0
                   0
                   0
                   0
                   0
                   0
                   0
                   0
                   0
                   0
                   0
                   0
                   0
                   0
                   0
                   0
                   0
                   0
                   0
                   0
                   0
                   0
                   0
                   0
                   0
                   0
                   0
                   0
                   0
                   0
                   0
                   0
                   0
                   0
                   0
                   0
                   0
                   0
                   0
                   0
                   0
                   0
                   0
                   0
                   0
                   0
                   0
                   0
                   0
                   0
                   0
                   0
                   0
                   0
                   0
                   0
                   0
                   0
                   0
                   0
                   0
                   0
                   0
                   0
                   0
                   0
                   0
                   0
                   0
                   0
                   0
                   0
                   0
                   0
                   0
                   0
                   0
                   0
                   0
                   0
                   0
                   0
                   0
                   0
                   0
                   0
                   0
                   0
                   0
                   0
                   0
                   0
                   0
                   0
                   0
                   0
                   0
                   0
                   0
                   0
                   0
                   0
                   0
                   0
                   0
                   0
                   0
                   0
                   0
                   0
                   0
                   0
                   0
                   0
                   0
                   0
                   0
                   0
                   0
                   0
                   0
                   0
                   0
                   0
                   0
                   0
                   0
                   0
                   0
                   0
                   0
                   0
                   0
                   0
                   0
                   0
                   0
                   0
                   0
                   0
                   0
                   0
                   0
                   0
                   0
                   0
                   0
                   0
                   0
                   0
                   0
                   0
                   0
                   0
                   0
                   0
                   0
                   0
                   0
                   0
                   0
                   0
                   0
                   0
                   0
                   0
                   0
                   0
                   0
                   0
                   0
                   0
                   0
                   0
                   0
                   0
                   0
                   0
                   0
                   0
                   0
                   0
                   0
                   0
                   0
                   0
                   0
                   0
                   0
                   0
                   0
                   0
                   0
                   0
                   0
                   0
                   0
                   0
                   0
                   0
                   0
                   0
                   0
                   0
                   0
                   0
                   0
                   0
                   0
                   0
                   0
                   0
                   0
                   0
                   0
                   0
                   0
                   0
                   0
                   0
                   0
                   0
                   0
                   0
                   0
                   0
                   0
                   0
                   0
                   0
                   0
                   0
                   0
                   0
                   0
                   0
                   0
                   0
                   0
                   0
                   0
                   0
                   0
                   0
                   0
                   0
                   0
                   0
                   0
                   0
                   0
                   0
                   0
                   0
                   0
                   0
                   0
                   0
                   0
                   0
                   0
                   0
                   0
                   0
                   0
                   0
                   0
                   0
                   0
                   0
                   0
                   0
                   0
                   0
                   0
                   0
                   0
                   0
                   0
                   0
                   0
                   0
                   0
                   0
                   0
                   0
                   0
                   0
                   0
                   0
                   0
                   0
                   0
                   0
                   0
                   0
                   0
                   0
                   0
                   0
                   0
                   0
                   0
                   0
                   0
                   0
                   0
                   0
                   0
                   0
                   0
                   0
                   0
                   0
                   0
                   0
                   0
                   0
                   0
                   0
                   0
                   0
                   0
                   0
                   0
                   0
                   0
                   0
                   0
                   0
                   0
                   0
                   0
                   0
                   0
                   0
                   0
                   0
                   0
                   0
                   0
                   0
                   0
                   0
                   0
                   0
                   0
                   0
                   0
                   0
                   0
                   0
                   0
                   0
                   0
                   0
                   0
                   0
                   0
                   0
                   0
                   0
                   0
                   0
                   0
                   0
                   0
                   0
                   0
                   0
                   0
                   0
                   0
                   0
                   0
                   0
                   0
                   0
                   0
                   0
                   0
                   0
                   0
                   0
                   0
                   0
                   0
                   0
                   0
                   0
                   0
                   0
                   0
                   0
                   0
                   0
                   0
                   0
                   0
                   0
                   0
                   0
                   0
                   0
                   0
                   0
                   0
                   0
                   0
                   0
                   0
                   0
                   0
                   0
                   0
                   0
                   0
                   0
                   0
                   0
                   0
                   0
                   0
                   0
                   0
                   0
                   0
                   0
                   0
                   0
                   0
                   0
                   0
                   0
                   0
                   0
                   0
                   0
                   0
                   0
                   0
                   0
                   0
                   0
                   0
                   0
                   0
                   0
                   0
                   0
                   0
                   0
                   0
                   0
                   0
                   0
                   0
                   0
                   0
                   0
                   0
                   0
                   0
                   0
                   0
                   0
                   0
                   0
                   0
                   0
                   0
                   0
                   0
                   0
                   0
                   0
                   0
                   0
                   0
                   0
                   0
                   0
                   0
                   0
                   0
                   0
                   0
                   0
                   0
                   0
                   0
                   0
                   0
                   0
                   0
                   0
                   0
                   0
                   0
                   0
                   0
                   0
                   0
                   0
                   0
                   0
                   0
                   0
                   0
                   0
                   0
                   0
                   0
                   0
                   0
                   0
                   0
                   0
                   0
                   0
                   0
                   0
                   0
                   0
                   0
                   0
                   0
                   0
                   0
                   0
                   0
                   0
                   0
                   0
                   0
                   0
                   0
                   0
                   0
                   0
                   0
                   0
                   0
                   0
                   0
                   0
                   0
                   0
                   0
                   0
                   0
                   0
                   0
                   0
                   0
                   0
                   0
                   0
                   0
                   0
                   0
                   0
                   0
                   0
                   0
                   0
                   0
                   0
                   0
                   0
                   0
                   0
                   0
                   0
                   0
                   0
                   0
                   0
                   0
                   0
                   0
                   0
                   0
                   0
                   0
                   0
                   0
                   0
                   0
                   0
                   0
                   0
                   0
                   0
                   0
                   0
                   0
                   0
                   0
                   0
                   0
                   0
                   0
                   0
                   0
                   0
                   0
                   0
                   0
                   0
                   0
                   0
                   0
                   0
                   0
                   0
                   0
                   0
                   0
                   0
                   0
                   0
                   0
                   0
                   0
                   0
                   0
                   0
                   0
                   0
                   0
                   0
                   0
                   0
                   0
                   0
                   0
                   0
                   0
                   0
                   0
                   0
                   0
                   0
                   0
                   0
                   0
                   0
                   0
                   0
                   0
                   0
                   0
                   0
                   0
                   0
                   0
                   0
                   0
                   0
                   0
                   0
                   0
                   0
                   0
                   0
                   0
                   0
                   0
                   0
                   0
                   0
                   0
                   0
                   0
                   0
                   0
                   0
                   0
                   0
                   0
                   0
                   0
                   0
                   0
                   0
                   0
                   0
                   0
                   0
                   0
                   0
                   0
                   0
                   0
                   0
                   0
                   0
                   0
                   0
                   0
                   0
                   0
                   0
                   0
                   0
                   0
                   0
                   0
                   0
                   0
                   0
                   0
                   0
                   0
                   0
                   0
                   0
                   0
                   0
                   0
                   0
                   0
                   0
                   0
                   0
                   0
                   0
                   0
                   0
                   0
                   0
                   0
                   0
                   0
                   0
                   0
                   0
                   0
                   0
                   0
                   0
                   0
                   0
                   0
                   0
                   0
                   0
                   0
                   0
                   0
                   0
                   0
                   0
                   0
                   0
                   0
                   0
                   0
                   0
                   0
                   0
                   0
                   0
                   0
                   0
                   0
                   0
                   0
                   0
                   0
                   0
                   0
                   0
                   0
                   0
                   0
                   0
                   0
                   0
                   0
                   0
                   0
                   0
                   0
                   0
                   0
                   0
                   0
                   0
                   0
                   0
                   0
                   0
                   0
                   0
                   0
                   0
                   0
                   0
                   0
                   0
                   0
                   0
                   0
                   0
                   0
                   0
                   0
                   0
                   0
                   0
                   0
                   0
                   0
                   0
                   0
                   0
                   0
                   0
                   0
                   0
                   0
                   0
                   0
                   0
                   0
                   0
                   0
                   0
                   0
                   0
                   0
                   0
                   0
                   0
                   0
                   0
                   0
                   0
                   0
                   0
                   0
                   0
                   0
                   0
                   0
                   0
                   0
                   0
                   0
                   0
                   0
                   0
                   0
                   0
                   0
                   0
                   0
                   0
                   0
                   0
                   0
                   0
                   0
                   0
                   0
                   0
                   0
                   0
                   0
                   0
                   0
                   0
                   0
                   0
                   0
                   0
                   0
                   0
                   0
                   0
                   0
                   0
                   0
                   0
                   0
                   0
                   0
                   0
                   0
                   0
                   0
                   0
                   0
                   0
                   0
                   0
                   0
                   0
                   0
                   0
                   0
                   0
                   0
                   0
                   0
                   0
                   0
                   0
                   0
                   0
                   0
                   0
                   0
                   0
                   0
                   0
                   0
                   0
                   0
                   0
                   0
                   0
                   0
                   0
                   0
                   0
                   0
                   0
                   0
                   0
                   0
                   0
                   0
                   0
                   0
                   0
                   0
                   0
                   0
                   0
                   0
                   0
                   0
                   0
                   0
                   0
                   0
                   0
                   0
                   0
                   0
                   0
                   0
                   0
                   0
                   0
                   0
                   0
                   0
                   0
                   0
                   0
                   0
                   0
                   0
                   0
                   0
                   0
                   0
                   0
                   0
                   0
                   0
                   0
                   0
                   0
                   0
                   0
                   0
                   0
                   0
                   0
                   0
                   0
                   0
                   0
                   0
                   0
                   0
                   0
                   0
                   0
                   0
                   0
                   0
                   0
                   0
                   0
                   0
                   0
                   0
                   0
                   0
                   0
                   0
                   0
                   0
                   0
                   0
                   0
                   0
                   0
                   0
                   0
                   0
                   0
                   0
                   0
                   0
                   0
                   0
                   0
                   0
                   0
                   0
                   0
                   0
                   0
                   0
                   0
                   0
                   0
                   0
                   0
                   0
                   0
                   0
                   0
                   0
                   0
                   0
                   0
                   0
                   0
                   0
                   0
                   0
                   0
                   0
                   0
                   0
                   0
                   0
                   0
                   0
                   0
                   0
                   0
                   0
                   0
                   0
                   0
                   0
                   0
                   0
                   0
                   0
                   0
                   0
                   0
                   0
                   0
                   0
                   0
                   0
                   0
                   0
                   0
                   0
                   0
                   0
                   0
                   0
                   0
                   0
                   0
                   0
                   0
                   0
                   0
                   0
                   0
                   0
                   0
                   0
                   0
                   0
                   0
                   0
                   0
                   0
                   0
                   0
                   0
                   0
                   0
                   0
                   0
                   0
                   0
                   0
                   0
                   0
  
SCALARS                         Ispace  double 1
LOOKUP_TABLE default
                  12
                  12
                  12
                  12
                  12
                  12
                  12
                  12
                  12
                  12
                  12
                  12
                  12
                  11
                  12
                  11
                  11
                  11
                  11
                  11
                  11
                  12
                  12
                  11
                  12
                  12
                  11
                  11
                  11
                  11
                  11
                  11
                  11
                  11
                  11
                  11
                  11
                  11
                  11
                  11
                  11
                  11
                  11
                  11
                  11
                  11
                  11
                  11
                  11
                  11
                  11
                  11
                  11
                  11
                  11
                  11
                  11
                  11
                  11
                  11
                  11
                  11
                  11
                  11
                  11
                  11
                  12
                  12
                  12
                  12
                  12
                  12
                  12
                  12
                  11
                  11
                  11
                  11
                  11
                  11
                  11
                  11
                  11
                  11
                  11
                  11
                  11
                  11
                  11
                  11
                  11
                  11
                  11
                  11
                  11
                  11
                  12
                  12
                  12
                  12
                  12
                  12
                  12
                  12
                  12
                  12
                  12
                  12
                  12
                  12
                  12
                  12
                  12
                  12
                  12
                  12
                  11
                  11
                  11
                  11
                  11
                  11
                  11
                  11
                  11
                  11
                  11
                  11
                  11
                  11
                  11
                  11
                  11
                  11
                  11
                  11
                  11
                  11
                  11
                  11
                  11
                  11
                  11
                  11
                  11
                  11
                  12
                  12
                  12
                  12
                  12
                  12
                  12
                  12
                  12
                  12
                  12
                  12
                  12
                  12
                  12
                  12
                  12
                  11
                  11
                  11
                  11
                  12
                  12
                  11
                  11
                  11
                  11
                  11
                  11
                  11
                  11
                  11
                  11
                  11
                  11
                  11
                  11
                  11
                  11
                  11
                  11
                  11
                  11
                  12
                  12
                  12
                  12
                  11
                  11
                  11
                  11
                  11
                  11
                  11
                  11
                  11
                  11
                  11
                  12
                  12
                  12
                  12
                  12
                  12
                  12
                  12
                  12
                  12
                  11
                  11
                  11
                  11
                  11
                  11
                  11
                  11
                  11
                  11
                  11
                  11
                  11
                  11
                  11
                  12
                  12
                  12
                  12
                  12
                  12
                  12
                  12
                  12
                  12
                  12
                  12
                  11
                  11
                  11
                  11
                  12
                  12
                  11
                  11
                  11
                  11
                  11
                  11
                  11
                  11
                  11
                  11
                  11
                  11
                  11
                  11
                  11
                  11
                  11
                  11
                  11
                  11
                  12
                  12
                  12
                  12
                  11
                  11
                  11
                  11
                  11
                  11
                  11
                  11
                  11
                  11
                  11
                  12
                  12
                  12
                  12
                  12
                  12
                  12
                  12
                  12
                  12
                  11
                  11
                  11
                  11
                  11
                  11
                  11
                  11
                  11
                  11
                  11
                  11
                  11
                  11
                  11
                  12
                  12
                  12
                  12
                  12
                  12
                  12
                  12
                  12
                  12
                  12
                  12
                  11
                  11
                  11
                  11
                  12
                  12
                  11
                  11
                  11
                  11
                  11
                  11
                  11
                  11
                  11
                  11
                  11
                  11
                  11
                  11
                  11
                  11
                  11
                  11
                  11
                  11
                  12
                  12
                  12
                  12
                  11
                  11
                  11
                  11
                  11
                  11
                  11
                  11
                  11
                  11
                  11
                  12
                  12
                  12
                  12
                  12
                  12
                  12
                  12
                  12
                  12
                  11
                  11
                  11
                  11
                  11
                  11
                  11
                  11
                  11
                  11
                  11
                  11
                  11
                  11
                  11
                  12
                  12
                  12
                  12
                  12
                  12
                  12
                  12
                  12
                  12
                  12
                  12
                  11
                  11
                  11
                  11
                  12
                  12
                  11
                  11
                  11
                  11
                  11
                  11
                  11
                  11
                  11
                  11
                  11
                  11
                  11
                  11
                  11
                  11
                  11
                  11
                  11
                  11
                  12
                  12
                  12
                  12
                  11
                  11
                  11
                  11
                  11
                  11
                  11
                  11
                  11
                  11
                  11
                  12
                  12
                  12
                  12
                  12
                  12
                  12
                  12
                  12
                  12
                  11
                  11
                  11
                  11
                  11
                  11
                  11
                  11
                  11
                  11
                  11
                  11
                  11
                  11
                  11
                  12
                  12
                  12
                  12
                  12
                  12
                  12
                  12
                  12
                  12
                  12
                  12
                  11
                  11
                  11
                  11
                  12
                  12
                  11
                  11
                  11
                  11
                  11
                  11
                  11
                  11
                  11
                  11
                  11
                  11
                  11
                  11
                  11
                  11
                  11
                  11
                  11
                  11
                  12
                  12
                  12
                  12
                  11
                  11
                  11
                  11
                  11
                  11
                  11
                  11
                  11
                  11
                  11
                  12
                  12
                  12
                  12
                  12
                  12
                  12
                  12
                  12
                  12
                  11
                  11
                  11
                  11
                  11
                  11
                  11
                  11
                  11
                  11
                  11
                  11
                  11
                  11
                  11
                  12
                  12
                  12
                  12
                  12
                  12
                  12
                  12
                  12
                  12
                  12
                  12
                  11
                  11
                  11
                  11
                  12
                  12
                  11
                  11
                  11
                  11
                  11
                  11
                  11
                  11
                  11
                  11
                  11
                  11
                  11
                  11
                  11
                  11
                  11
                  11
                  11
                  11
                  12
                  12
                  12
                  12
                  11
                  11
                  11
                  11
                  11
                  11
                  11
                  11
                  11
                  11
                  11
                  12
                  12
                  12
                  12
                  12
                  12
                  12
                  12
                  12
                  12
                  11
                  11
                  11
                  11
                  11
                  11
                  11
                  11
                  11
                  11
                  11
                  11
                  11
                  11
                  11
                  12
                  12
                  12
                  12
                  12
                  12
                  12
                  12
                  12
                  12
                  12
                  12
                  11
                  11
                  11
                  11
                  12
                  12
                  11
                  11
                  11
                  11
                  11
                  11
                  11
                  11
                  11
                  11
                  11
                  11
                  11
                  11
                  11
                  11
                  11
                  11
                  11
                  11
                  12
                  12
                  12
                  12
                  11
                  11
                  11
                  11
                  11
                  11
                  11
                  11
                  11
                  11
                  11
                  12
                  12
                  12
                  12
                  12
                  12
                  12
                  12
                  12
                  12
                  11
                  11
                  11
                  11
                  11
                  11
                  11
                  11
                  11
                  11
                  11
                  11
                  11
                  11
                  11
                  12
                  12
                  12
                  12
                  12
                  12
                  12
                  12
                  12
                  12
                  12
                  12
                  11
                  11
                  11
                  11
                  12
                  12
                  11
                  11
                  11
                  11
                  11
                  11
                  11
                  11
                  11
                  11
                  11
                  11
                  11
                  11
                  11
                  11
                  11
                  11
                  11
                  11
                  12
                  12
                  12
                  12
                  11
                  11
                  11
                  11
                  11
                  11
                  11
                  11
                  11
                  11
                  11
                  12
                  12
                  12
                  12
                  12
                  12
                  12
                  12
                  12
                  12
                  11
                  11
                  11
                  11
                  11
                  11
                  11
                  11
                  11
                  11
                  11
                  11
                  11
                  11
                  11
                  12
                  12
                  12
                  12
                  12
                  12
                  12
                  12
                  12
                  12
                  12
                  12
                  11
                  11
                  11
                  11
                  12
                  12
                  11
                  11
                  11
                  11
                  11
                  11
                  11
                  11
                  11
                  11
                  11
                  11
                  11
                  11
                  11
                  11
                  11
                  11
                  11
                  11
                  12
                  12
                  12
                  12
                  11
                  11
                  11
                  11
                  11
                  11
                  11
                  11
                  11
                  11
                  11
                  12
                  12
                  12
                  12
                  12
                  12
                  12
                  12
                  12
                  12
                  11
                  11
                  11
                  11
                  11
                  11
                  11
                  11
                  11
                  11
                  11
                  11
                  11
                  11
                  11
                  12
                  12
                  12
                  12
                  12
                  12
                  12
                  12
                  12
                  12
                  12
                  12
                  11
                  11
                  11
                  11
                  12
                  12
                  11
                  11
                  11
                  11
                  11
                  11
                  11
                  11
                  11
                  11
                  11
                  11
                  11
                  11
                  11
                  11
                  11
                  11
                  11
                  11
                  12
                  12
                  12
                  12
                  11
                  11
                  11
                  11
                  11
                  11
                  11
                  11
                  11
                  11
                  11
                  12
                  12
                  12
                  12
                  12
                  12
                  12
                  12
                  12
                  12
                  11
                  11
                  11
                  11
                  11
                  11
                  11
                  11
                  11
                  11
                  11
                  11
                  11
                  11
                  11
                  12
                  12
                  12
                  12
                  12
                  12
                  12
                  12
                  12
                  12
                  12
                  12
                  11
                  11
                  11
                  11
                  12
                  12
                  11
                  11
                  11
                  11
                  11
                  11
                  11
                  11
                  11
                  11
                  11
                  11
                  11
                  11
                  11
                  11
                  11
                  11
                  11
                  11
                  12
                  12
                  12
                  12
                  11
                  11
                  11
                  11
                  11
                  11
                  11
                  11
                  11
                  11
                  11
                  12
                  12
                  12
                  12
                  12
                  12
                  12
                  12
                  12
                  12
                  11
                  11
                  11
                  11
                  11
                  11
                  11
                  11
                  11
                  11
                  11
                  11
                  11
                  11
                  11
                  12
                  12
                  12
                  12
                  12
                  12
                  12
                  12
                  12
                  12
                  12
                  12
                  11
                  11
                  11
                  11
                  12
                  12
                  11
                  11
                  11
                  11
                  11
                  11
                  11
                  11
                  11
                  11
                  11
                  11
                  11
                  11
                  11
                  11
                  11
                  11
                  11
                  11
                  12
                  12
                  12
                  12
                  11
                  11
                  11
                  11
                  11
                  11
                  11
                  11
                  11
                  11
                  11
                  12
                  12
                  12
                  12
                  12
                  12
                  12
                  12
                  12
                  12
                  11
                  11
                  11
                  11
                  11
                  11
                  11
                  11
                  11
                  11
                  11
                  11
                  11
                  11
                  11
                  12
                  12
                  12
                  12
                  12
                  12
                  12
                  12
                  12
                  12
                  12
                  12
                  11
                  11
                  11
                  11
                  12
                  12
                  11
                  11
                  11
                  11
                  11
                  11
                  11
                  11
                  11
                  11
                  11
                  11
                  11
                  11
                  11
                  11
                  11
                  11
                  11
                  11
                  12
                  12
                  12
                  12
                  11
                  11
                  11
                  11
                  11
                  11
                  11
                  11
                  11
                  11
                  11
                  12
                  12
                  12
                  12
                  12
                  12
                  12
                  12
                  12
                  12
                  11
                  11
                  11
                  11
                  11
                  11
                  11
                  11
                  11
                  11
                  11
                  11
                  11
                  11
                  11
                  12
                  12
                  12
                  12
                  12
                  12
                  12
                  12
                  12
                  12
                  12
                  12
                  11
                  11
                  11
                  11
                  12
                  12
                  11
                  11
                  11
                  11
                  11
                  11
                  11
                  11
                  11
                  11
                  11
                  11
                  11
                  11
                  11
                  11
                  11
                  11
                  11
                  11
                  12
                  12
                  12
                  12
                  11
                  11
                  11
                  11
                  11
                  11
                  11
                  11
                  11
                  11
                  11
                  12
                  12
                  12
                  12
                  12
                  12
                  12
                  12
                  12
                  12
                  11
                  11
                  11
                  11
                  11
                  11
                  11
                  11
                  11
                  11
                  11
                  11
                  11
                  11
                  11
                  12
                  12
                  12
                  12
                  12
                  12
                  12
                  12
                  12
                  12
                  12
                  12
                  11
                  11
                  11
                  11
                  12
                  12
                  11
                  11
                  11
                  11
                  11
                  11
                  11
                  11
                  11
                  11
                  11
                  11
                  11
                  11
                  11
                  11
                  11
                  11
                  11
                  11
                  12
                  12
                  12
                  12
                  11
                  11
                  11
                  11
                  11
                  11
                  11
                  11
                  11
                  11
                  11
                  12
                  12
                  12
                  12
                  12
                  12
                  12
                  12
                  12
                  12
                  11
                  11
                  11
                  11
                  11
                  11
                  11
                  11
                  11
                  11
                  11
                  11
                  11
                  11
                  11
                  12
                  12
                  12
                  12
                  12
                  12
                  12
                  12
                  12
                  12
                  12
                  12
                  11
                  11
                  11
                  11
                  12
                  12
                  11
                  11
                  11
                  11
                  11
                  11
                  11
                  11
                  11
                  11
                  11
                  11
                  11
                  11
                  11
                  11
                  11
                  11
                  11
                  11
                  12
                  12
                  12
                  12
                  11
                  11
                  11
                  11
                  11
                  11
                  11
                  11
                  11
                  11
                  11
                  12
                  12
                  12
                  12
                  12
                  12
                  12
                  12
                  12
                  12
                  11
                  11
                  11
                  11
                  11
                  11
                  11
                  11
                  11
                  11
                  11
                  11
                  11
                  11
                  11
                  12
                  12
                  12
                  12
                  12
                  12
                  12
                  12
                  12
                  12
                  12
                  12
                  11
                  11
                  11
                  11
                  12
                  12
                  11
                  11
                  11
                  11
                  11
                  11
                  11
                  11
                  11
                  11
                  11
                  11
                  11
                  11
                  11
                  11
                  11
                  11
                  11
                  11
                  12
                  12
                  12
                  12
                  11
                  11
                  11
                  11
                  11
                  11
                  11
                  11
                  11
                  11
                  11
                  12
                  12
                  12
                  12
                  12
                  12
                  12
                  12
                  12
                  12
                  11
                  11
                  11
                  11
                  11
                  11
                  11
                  11
                  11
                  11
                  11
                  11
                  11
                  11
                  11
                  12
                  12
                  12
                  12
                  12
                  12
                  12
                  12
                  12
                  12
                  12
                  12
                  11
                  11
                  11
                  11
                  12
                  12
                  11
                  11
                  11
                  11
                  11
                  11
                  11
                  11
                  11
                  11
                  11
                  11
                  11
                  11
                  11
                  11
                  11
                  11
                  11
                  11
                  12
                  12
                  12
                  12
                  11
                  11
                  11
                  11
                  11
                  11
                  11
                  11
                  11
                  11
                  11
                  12
                  12
                  12
                  12
                  12
                  12
                  12
                  12
                  12
                  12
                  11
                  11
                  11
                  11
                  11
                  11
                  11
                  11
                  11
                  11
                  11
                  11
                  11
                  11
                  11
                  12
                  12
                  12
                  12
                  12
                  12
                  12
                  12
                  12
                  12
                  12
                  12
                  11
                  11
                  11
                  11
                  12
                  12
                  11
                  11
                  11
                  11
                  11
                  11
                  11
                  11
                  11
                  11
                  11
                  11
                  11
                  11
                  11
                  11
                  11
                  11
                  11
                  11
                  12
                  12
                  12
                  12
                  11
                  11
                  11
                  11
                  11
                  11
                  11
                  11
                  11
                  11
                  11
                  12
                  12
                  12
                  12
                  12
                  12
                  12
                  12
                  12
                  12
                  11
                  11
                  11
                  11
                  11
                  11
                  11
                  11
                  11
                  11
                  11
                  11
                  11
                  11
                  11
                  12
                  12
                  12
                  12
                  12
                  12
                  12
                  12
                  12
                  12
                  12
                  12
                  11
                  11
                  11
                  11
                  12
                  12
                  11
                  11
                  11
                  11
                  11
                  11
                  11
                  11
                  11
                  11
                  11
                  11
                  11
                  11
                  11
                  11
                  11
                  11
                  11
                  11
                  12
                  12
                  12
                  12
                  11
                  11
                  11
                  11
                  11
                  11
                  11
                  11
                  11
                  11
                  11
                  12
                  12
                  12
                  12
                  12
                  12
                  12
                  12
                  12
                  12
                  11
                  11
                  11
                  11
                  11
                  11
                  11
                  11
                  11
                  11
                  11
                  11
                  11
                  11
                  11
                  12
                  12
                  12
                  12
                  12
                  12
                  12
                  12
                  12
                  12
                  12
                  12
                  11
                  11
                  11
                  11
                  12
                  12
                  11
                  11
                  11
                  11
                  11
                  11
                  11
                  11
                  11
                  11
                  11
                  11
                  11
                  11
                  11
                  11
                  11
                  11
                  11
                  11
                  12
                  12
                  12
                  12
                  11
                  11
                  11
                  11
                  11
                  11
                  11
                  11
                  11
                  11
                  11
                  12
                  12
                  12
                  12
                  12
                  12
                  12
                  12
                  12
                  12
                  11
                  11
                  11
                  11
                  11
                  11
                  11
                  11
                  11
                  11
                  11
                  11
                  11
                  11
                  11
                  12
                  12
                  12
                  12
                  12
                  12
                  12
                  12
                  12
                  12
                  12
                  12
                  11
                  11
                  11
                  11
                  12
                  12
                  11
                  11
                  11
                  11
                  11
                  11
                  11
                  11
                  11
                  11
                  11
                  11
                  11
                  11
                  11
                  11
                  11
                  11
                  11
                  11
                  12
                  12
                  12
                  12
                  11
                  11
                  11
                  11
                  11
                  11
                  11
                  11
                  11
                  11
                  11
                  12
                  12
                  12
                  12
                  12
                  12
                  12
                  12
                  12
                  12
                  11
                  11
                  11
                  11
                  11
                  11
                  11
                  11
                  11
                  11
                  11
                  11
                  11
                  11
                  11
                  12
                  12
                  12
                  12
                  12
                  12
                  12
                  12
                  12
                  12
                  12
                  12
                  11
                  11
                  11
                  11
                  12
                  12
                  11
                  11
                  11
                  11
                  11
                  11
                  11
                  11
                  11
                  11
                  11
                  11
                  11
                  11
                  11
                  11
                  11
                  11
                  11
                  11
                  12
                  12
                  12
                  12
                  11
                  11
                  11
                  11
                  11
                  11
                  11
                  11
                  11
                  11
                  11
                  12
                  12
                  12
                  12
                  12
                  12
                  12
                  12
                  12
                  12
                  11
                  11
                  11
                  11
                  11
                  11
                  11
                  11
                  11
                  11
                  11
                  11
                  11
                  11
                  11
                  12
                  12
                  12
                  12
                  12
  
SCALARS                         Jspace  double 1
LOOKUP_TABLE default
                  11
                  12
                  11
                  11
                  11
                  12
                  11
                  11
                  11
                  11
                  11
                  11
                  12
                  12
                  12
                  12
                  11
                  12
                  11
                  12
                  12
                  12
                  12
                  12
                  12
                  12
                  12
                  12
                  12
                  12
                  11
                  11
                  11
                  11
                  11
                  11
                  11
                  11
                  11
                  11
                  11
                  11
                  11
                  11
                  11
                  11
                  11
                  11
                  11
                  11
                  11
                  11
                  12
                  12
                  12
                  12
                  12
                  11
                  12
                  11
                  11
                  11
                  11
                  11
                  11
                  11
                  11
                  11
                  11
                  12
                  11
                  12
                  12
                  12
                  12
                  12
                  12
                  12
                  12
                  12
                  12
                  12
                  12
                  12
                  11
                  11
                  11
                  11
                  11
                  11
                  11
                  11
                  11
                  11
                  11
                  11
                  11
                  11
                  11
                  11
                  11
                  11
                  11
                  11
                  11
                  11
                  11
                  11
                  12
                  12
                  12
                  12
                  12
                  12
                  12
                  12
                  12
                  12
                  12
                  12
                  12
                  12
                  12
                  12
                  12
                  12
                  12
                  12
                  11
                  11
                  11
                  11
                  11
                  11
                  11
                  11
                  11
                  11
                  11
                  11
                  11
                  11
                  11
                  11
                  11
                  11
                  11
                  11
                  11
                  11
                  11
                  11
                  11
                  11
                  11
                  11
                  11
                  12
                  11
                  11
                  11
                  11
                  12
                  12
                  11
                  12
                  12
                  12
                  12
                  12
                  12
                  11
                  11
                  11
                  11
                  11
                  11
                  11
                  11
                  11
                  11
                  11
                  12
                  12
                  12
                  11
                  11
                  11
                  11
                  11
                  11
                  12
                  12
                  12
                  12
                  12
                  12
                  12
                  11
                  11
                  11
                  11
                  11
                  11
                  11
                  11
                  11
                  11
                  11
                  11
                  12
                  12
                  12
                  12
                  12
                  12
                  12
                  12
                  12
                  12
                  11
                  11
                  11
                  11
                  11
                  11
                  11
                  11
                  11
                  11
                  11
                  11
                  11
                  11
                  11
                  12
                  11
                  11
                  11
                  11
                  12
                  12
                  11
                  12
                  12
                  12
                  12
                  12
                  12
                  11
                  11
                  11
                  11
                  11
                  11
                  11
                  11
                  11
                  11
                  11
                  12
                  12
                  12
                  11
                  11
                  11
                  11
                  11
                  11
                  12
                  12
                  12
                  12
                  12
                  12
                  12
                  11
                  11
                  11
                  11
                  11
                  11
                  11
                  11
                  11
                  11
                  11
                  11
                  12
                  12
                  12
                  12
                  12
                  12
                  12
                  12
                  12
                  12
                  11
                  11
                  11
                  11
                  11
                  11
                  11
                  11
                  11
                  11
                  11
                  11
                  11
                  11
                  11
                  12
                  11
                  11
                  11
                  11
                  12
                  12
                  11
                  12
                  12
                  12
                  12
                  12
                  12
                  11
                  11
                  11
                  11
                  11
                  11
                  11
                  11
                  11
                  11
                  11
                  12
                  12
                  12
                  11
                  11
                  11
                  11
                  11
                  11
                  12
                  12
                  12
                  12
                  12
                  12
                  12
                  11
                  11
                  11
                  11
                  11
                  11
                  11
                  11
                  11
                  11
                  11
                  11
                  12
                  12
                  12
                  12
                  12
                  12
                  12
                  12
                  12
                  12
                  11
                  11
                  11
                  11
                  11
                  11
                  11
                  11
                  11
                  11
                  11
                  11
                  11
                  11
                  11
                  12
                  11
                  11
                  11
                  11
                  12
                  12
                  11
                  12
                  12
                  12
                  12
                  12
                  12
                  11
                  11
                  11
                  11
                  11
                  11
                  11
                  11
                  11
                  11
                  11
                  12
                  12
                  12
                  11
                  11
                  11
                  11
                  11
                  11
                  12
                  12
                  12
                  12
                  12
                  12
                  12
                  11
                  11
                  11
                  11
                  11
                  11
                  11
                  11
                  11
                  11
                  11
                  11
                  12
                  12
                  12
                  12
                  12
                  12
                  12
                  12
                  12
                  12
                  11
                  11
                  11
                  11
                  11
                  11
                  11
                  11
                  11
                  11
                  11
                  11
                  11
                  11
                  11
                  12
                  11
                  11
                  11
                  11
                  12
                  12
                  11
                  12
                  12
                  12
                  12
                  12
                  12
                  11
                  11
                  11
                  11
                  11
                  11
                  11
                  11
                  11
                  11
                  11
                  12
                  12
                  12
                  11
                  11
                  11
                  11
                  11
                  11
                  12
                  12
                  12
                  12
                  12
                  12
                  12
                  11
                  11
                  11
                  11
                  11
                  11
                  11
                  11
                  11
                  11
                  11
                  11
                  12
                  12
                  12
                  12
                  12
                  12
                  12
                  12
                  12
                  12
                  11
                  11
                  11
                  11
                  11
                  11
                  11
                  11
                  11
                  11
                  11
                  11
                  11
                  11
                  11
                  12
                  11
                  11
                  11
                  11
                  12
                  12
                  11
                  12
                  12
                  12
                  12
                  12
                  12
                  11
                  11
                  11
                  11
                  11
                  11
                  11
                  11
                  11
                  11
                  11
                  12
                  12
                  12
                  11
                  11
                  11
                  11
                  11
                  11
                  12
                  12
                  12
                  12
                  12
                  12
                  12
                  11
                  11
                  11
                  11
                  11
                  11
                  11
                  11
                  11
                  11
                  11
                  11
                  12
                  12
                  12
                  12
                  12
                  12
                  12
                  12
                  12
                  12
                  11
                  11
                  11
                  11
                  11
                  11
                  11
                  11
                  11
                  11
                  11
                  11
                  11
                  11
                  11
                  12
                  11
                  11
                  11
                  11
                  12
                  12
                  11
                  12
                  12
                  12
                  12
                  12
                  12
                  11
                  11
                  11
                  11
                  11
                  11
                  11
                  11
                  11
                  11
                  11
                  12
                  12
                  12
                  11
                  11
                  11
                  11
                  11
                  11
                  12
                  12
                  12
                  12
                  12
                  12
                  12
                  11
                  11
                  11
                  11
                  11
                  11
                  11
                  11
                  11
                  11
                  11
                  11
                  12
                  12
                  12
                  12
                  12
                  12
                  12
                  12
                  12
                  12
                  11
                  11
                  11
                  11
                  11
                  11
                  11
                  11
                  11
                  11
                  11
                  11
                  11
                  11
                  11
                  12
                  11
                  11
                  11
                  11
                  12
                  12
                  11
                  12
                  12
                  12
                  12
                  12
                  12
                  11
                  11
                  11
                  11
                  11
                  11
                  11
                  11
                  11
                  11
                  11
                  12
                  12
                  12
                  11
                  11
                  11
                  11
                  11
                  11
                  12
                  12
                  12
                  12
                  12
                  12
                  12
                  11
                  11
                  11
                  11
                  11
                  11
                  11
                  11
                  11
                  11
                  11
                  11
                  12
                  12
                  12
                  12
                  12
                  12
                  12
                  12
                  12
                  12
                  11
                  11
                  11
                  11
                  11
                  11
                  11
                  11
                  11
                  11
                  11
                  11
                  11
                  11
                  11
                  12
                  11
                  11
                  11
                  11
                  12
                  12
                  11
                  12
                  12
                  12
                  12
                  12
                  12
                  11
                  11
                  11
                  11
                  11
                  11
                  11
                  11
                  11
                  11
                  11
                  12
                  12
                  12
                  11
                  11
                  11
                  11
                  11
                  11
                  12
                  12
                  12
                  12
                  12
                  12
                  12
                  11
                  11
                  11
                  11
                  11
                  11
                  11
                  11
                  11
                  11
                  11
                  11
                  12
                  12
                  12
                  12
                  12
                  12
                  12
                  12
                  12
                  12
                  11
                  11
                  11
                  11
                  11
                  11
                  11
                  11
                  11
                  11
                  11
                  11
                  11
                  11
                  11
                  12
                  11
                  11
                  11
                  11
                  12
                  12
                  11
                  12
                  12
                  12
                  12
                  12
                  12
                  11
                  11
                  11
                  11
                  11
                  11
                  11
                  11
                  11
                  11
                  11
                  12
                  12
                  12
                  11
                  11
                  11
                  11
                  11
                  11
                  12
                  12
                  12
                  12
                  12
                  12
                  12
                  11
                  11
                  11
                  11
                  11
                  11
                  11
                  11
                  11
                  11
                  11
                  11
                  12
                  12
                  12
                  12
                  12
                  12
                  12
                  12
                  12
                  12
                  11
                  11
                  11
                  11
                  11
                  11
                  11
                  11
                  11
                  11
                  11
                  11
                  11
                  11
                  11
                  12
                  11
                  11
                  11
                  11
                  12
                  12
                  11
                  12
                  12
                  12
                  12
                  12
                  12
                  11
                  11
                  11
                  11
                  11
                  11
                  11
                  11
                  11
                  11
                  11
                  12
                  12
                  12
                  11
                  11
                  11
                  11
                  11
                  11
                  12
                  12
                  12
                  12
                  12
                  12
                  12
                  11
                  11
                  11
                  11
                  11
                  11
                  11
                  11
                  11
                  11
                  11
                  11
                  12
                  12
                  12
                  12
                  12
                  12
                  12
                  12
                  12
                  12
                  11
                  11
                  11
                  11
                  11
                  11
                  11
                  11
                  11
                  11
                  11
                  11
                  11
                  11
                  11
                  12
                  11
                  11
                  11
                  11
                  12
                  12
                  11
                  12
                  12
                  12
                  12
                  12
                  12
                  11
                  11
                  11
                  11
                  11
                  11
                  11
                  11
                  11
                  11
                  11
                  12
                  12
                  12
                  11
                  11
                  11
                  11
                  11
                  11
                  12
                  12
                  12
                  12
                  12
                  12
                  12
                  11
                  11
                  11
                  11
                  11
                  11
                  11
                  11
                  11
                  11
                  11
                  11
                  12
                  12
                  12
                  12
                  12
                  12
                  12
                  12
                  12
                  12
                  11
                  11
                  11
                  11
                  11
                  11
                  11
                  11
                  11
                  11
                  11
                  11
                  11
                  11
                  11
                  12
                  11
                  11
                  11
                  11
                  12
                  12
                  11
                  12
                  12
                  12
                  12
                  12
                  12
                  11
                  11
                  11
                  11
                  11
                  11
                  11
                  11
                  11
                  11
                  11
                  12
                  12
                  12
                  11
                  11
                  11
                  11
                  11
                  11
                  12
                  12
                  12
                  12
                  12
                  12
                  12
                  11
                  11
                  11
                  11
                  11
                  11
                  11
                  11
                  11
                  11
                  11
                  11
                  12
                  12
                  12
                  12
                  12
                  12
                  12
                  12
                  12
                  12
                  11
                  11
                  11
                  11
                  11
                  11
                  11
                  11
                  11
                  11
                  11
                  11
                  11
                  11
                  11
                  12
                  11
                  11
                  11
                  11
                  12
                  12
                  11
                  12
                  12
                  12
                  12
                  12
                  12
                  11
                  11
                  11
                  11
                  11
                  11
                  11
                  11
                  11
                  11
                  11
                  12
                  12
                  12
                  11
                  11
                  11
                  11
                  11
                  11
                  12
                  12
                  12
                  12
                  12
                  12
                  12
                  11
                  11
                  11
                  11
                  11
                  11
                  11
                  11
                  11
                  11
                  11
                  11
                  12
                  12
                  12
                  12
                  12
                  12
                  12
                  12
                  12
                  12
                  11
                  11
                  11
                  11
                  11
                  11
                  11
                  11
                  11
                  11
                  11
                  11
                  11
                  11
                  11
                  12
                  11
                  11
                  11
                  11
                  12
                  12
                  11
                  12
                  12
                  12
                  12
                  12
                  12
                  11
                  11
                  11
                  11
                  11
                  11
                  11
                  11
                  11
                  11
                  11
                  12
                  12
                  12
                  11
                  11
                  11
                  11
                  11
                  11
                  12
                  12
                  12
                  12
                  12
                  12
                  12
                  11
                  11
                  11
                  11
                  11
                  11
                  11
                  11
                  11
                  11
                  11
                  11
                  12
                  12
                  12
                  12
                  12
                  12
                  12
                  12
                  12
                  12
                  11
                  11
                  11
                  11
                  11
                  11
                  11
                  11
                  11
                  11
                  11
                  11
                  11
                  11
                  11
                  12
                  11
                  11
                  11
                  11
                  12
                  12
                  11
                  12
                  12
                  12
                  12
                  12
                  12
                  11
                  11
                  11
                  11
                  11
                  11
                  11
                  11
                  11
                  11
                  11
                  12
                  12
                  12
                  11
                  11
                  11
                  11
                  11
                  11
                  12
                  12
                  12
                  12
                  12
                  12
                  12
                  11
                  11
                  11
                  11
                  11
                  11
                  11
                  11
                  11
                  11
                  11
                  11
                  12
                  12
                  12
                  12
                  12
                  12
                  12
                  12
                  12
                  12
                  11
                  11
                  11
                  11
                  11
                  11
                  11
                  11
                  11
                  11
                  11
                  11
                  11
                  11
                  11
                  12
                  11
                  11
                  11
                  11
                  12
                  12
                  11
                  12
                  12
                  12
                  12
                  12
                  12
                  11
                  11
                  11
                  11
                  11
                  11
                  11
                  11
                  11
                  11
                  11
                  12
                  12
                  12
                  11
                  11
                  11
                  11
                  11
                  11
                  12
                  12
                  12
                  12
                  12
                  12
                  12
                  11
                  11
                  11
                  11
                  11
                  11
                  11
                  11
                  11
                  11
                  11
                  11
                  12
                  12
                  12
                  12
                  12
                  12
                  12
                  12
                  12
                  12
                  11
                  11
                  11
                  11
                  11
                  11
                  11
                  11
                  11
                  11
                  11
                  11
                  11
                  11
                  11
                  12
                  11
                  11
                  11
                  11
                  12
                  12
                  11
                  12
                  12
                  12
                  12
                  12
                  12
                  11
                  11
                  11
                  11
                  11
                  11
                  11
                  11
                  11
                  11
                  11
                  12
                  12
                  12
                  11
                  11
                  11
                  11
                  11
                  11
                  12
                  12
                  12
                  12
                  12
                  12
                  12
                  11
                  11
                  11
                  11
                  11
                  11
                  11
                  11
                  11
                  11
                  11
                  11
                  12
                  12
                  12
                  12
                  12
                  12
                  12
                  12
                  12
                  12
                  11
                  11
                  11
                  11
                  11
                  11
                  11
                  11
                  11
                  11
                  11
                  11
                  11
                  11
                  11
                  12
                  11
                  11
                  11
                  11
                  12
                  12
                  11
                  12
                  12
                  12
                  12
                  12
                  12
                  11
                  11
                  11
                  11
                  11
                  11
                  11
                  11
                  11
                  11
                  11
                  12
                  12
                  12
                  11
                  11
                  11
                  11
                  11
                  11
                  12
                  12
                  12
                  12
                  12
                  12
                  12
                  11
                  11
                  11
                  11
                  11
                  11
                  11
                  11
                  11
                  11
                  11
                  11
                  12
                  12
                  12
                  12
                  12
                  12
                  12
                  12
                  12
                  12
                  11
                  11
                  11
                  11
                  11
                  11
                  11
                  11
                  11
                  11
                  11
                  11
                  11
                  11
                  11
                  12
                  11
                  11
                  11
                  11
                  12
                  12
                  11
                  12
                  12
                  12
                  12
                  12
                  12
                  11
                  11
                  11
                  11
                  11
                  11
                  11
                  11
                  11
                  11
                  11
                  12
                  12
                  12
                  11
                  11
                  11
                  11
                  11
                  11
                  12
                  12
                  12
                  12
                  12
                  12
                  12
                  11
                  11
                  11
                  11
                  11
                  11
                  11
                  11
                  11
                  11
                  11
                  11
                  12
                  12
                  12
                  12
                  12
                  12
                  12
                  12
                  12
                  12
                  11
                  11
                  11
                  11
                  11
                  11
                  11
                  11
                  11
                  11
                  11
                  11
                  11
                  11
                  11
                  12
                  11
                  11
                  11
                  11
                  12
                  12
                  11
                  12
                  12
                  12
                  12
                  12
                  12
                  11
                  11
                  11
                  11
                  11
                  11
                  11
                  11
                  11
                  11
                  11
                  12
                  12
                  12
                  11
                  11
                  11
                  11
                  11
                  11
                  12
                  12
                  12
                  12
                  12
                  12
                  12
                  11
                  11
                  11
                  11
                  11
                  11
                  11
                  11
                  11
                  11
                  11
                  11
                  12
                  12
                  12
                  12
                  12
                  12
                  12
                  12
                  12
                  12
                  11
                  11
                  11
                  11
                  11
                  11
                  11
                  11
                  11
                  11
                  11
                  11
                  11
                  11
                  11
                  12
                  11
                  11
                  11
                  11
                  12
                  12
                  11
                  12
                  12
                  12
                  12
                  12
                  12
                  11
                  11
                  11
                  11
                  11
                  11
                  11
                  11
                  11
                  11
                  11
                  12
                  12
                  12
                  11
                  11
                  11
                  11
                  11
                  11
                  12
                  12
                  12
                  12
                  12
                  12
                  12
                  11
                  11
                  11
                  11
                  11
                  11
                  11
                  11
                  11
                  11
                  11
                  11
                  12
                  12
                  12
                  12
                  12
                  12
                  12
                  12
                  12
                  12
                  11
                  11
                  11
                  11
                  11
                  11
                  11
                  11
                  11
                  11
                  11
                  11
                  11
                  11
                  11
                  12
                  11
                  11
                  11
                  11
                  12
                  12
                  11
                  12
                  12
                  12
                  12
                  12
                  12
                  11
                  11
                  11
                  11
                  11
                  11
                  11
                  11
                  11
                  11
                  11
                  12
                  12
                  12
                  11
                  11
                  11
                  11
                  11
                  11
                  12
                  12
                  12
                  12
                  12
                  12
                  12
                  11
                  11
                  11
                  11
                  11
                  11
                  11
                  11
                  11
                  11
                  11
                  11
                  12
                  12
                  12
                  12
                  12
                  12
                  12
                  12
                  12
                  12
                  11
                  11
                  11
                  11
                  11
                  11
                  11
                  11
                  11
                  11
                  11
                  11
                  11
                  11
  
SCALARS                         Kspace  double 1
LOOKUP_TABLE default
                  11
                  11
                  11
                  11
                  11
                  11
                  11
                  11
                  11
                  11
                  11
                  11
                  11
                  11
                  11
                  11
                  11
                  11
                  11
                  11
                  11
                  11
                  11
                  11
                  11
                  11
                  11
                  11
                  11
                  11
                  11
                  11
                  11
                  11
                  11
                  11
                  11
                  11
                  11
                  11
                  11
                  11
                  11
                  11
                  11
                  11
                  11
                  11
                  11
                  11
                  11
                  11
                  11
                  11
                  11
                  11
                  11
                  11
                  11
                  11
                  11
                  11
                  11
                  11
                  11
                  11
                  11
                  11
                  11
                  11
                  11
                  11
                  11
                  11
                  11
                  11
                  11
                  11
                  11
                  11
                  11
                  11
                  11
                  11
                  11
                  11
                  11
                  11
                  11
                  11
                  11
                  11
                  11
                  11
                  11
                  11
                  11
                  11
                  11
                  11
                  11
                  11
                  11
                  11
                  11
                  11
                  11
                  11
                  11
                  11
                  11
                  11
                  11
                  11
                  11
                  11
                  11
                  11
                  11
                  11
                  11
                  11
                  11
                  11
                  11
                  11
                  11
                  11
                  11
                  11
                  11
                  11
                  11
                  11
                  11
                  11
                  11
                  11
                  11
                  11
                  11
                  11
                  11
                  11
                  11
                  11
                  11
                  11
                  11
                  11
                  11
                  11
                  11
                  11
                  11
                  11
                  11
                  11
                  11
                  11
                  11
                  11
                  11
                  11
                  11
                  11
                  11
                  11
                  11
                  11
                  11
                  11
                  11
                  11
                  11
                  11
                  11
                  11
                  11
                  11
                  11
                  11
                  11
                  11
                  11
                  11
                  11
                  11
                  11
                  11
                  11
                  11
                  11
                  11
                  11
                  11
                  11
                  11
                  11
                  11
                  11
                  11
                  11
                  11
                  11
                  11
                  11
                  11
                  11
                  11
                  11
                  11
                  11
                  11
                  11
                  11
                  11
                  11
                  11
                  11
                  11
                  11
                  11
                  11
                  11
                  11
                  11
                  11
                  11
                  11
                  11
                  11
                  11
                  11
                  11
                  11
                  11
                  11
                  11
                  11
                  11
                  11
                  11
                  11
                  11
                  11
                  11
                  11
                  11
                  11
                  11
                  11
                  11
                  11
                  11
                  11
                  11
                  11
                  11
                  11
                  11
                  11
                  11
                  11
                  11
                  11
                  11
                  11
                  11
                  11
                  11
                  11
                  11
                  11
                  11
                  11
                  11
                  11
                  11
                  11
                  11
                  11
                  11
                  11
                  11
                  11
                  11
                  11
                  11
                  11
                  11
                  11
                  11
                  11
                  11
                  11
                  11
                  11
                  11
                  11
                  11
                  11
                  11
                  11
                  11
                  11
                  11
                  11
                  11
                  11
                  11
                  11
                  12
                  12
                  12
                  12
                  12
                  12
                  12
                  12
                  12
                  12
                  12
                  12
                  12
                  12
                  12
                  12
                  12
                  12
                  12
                  12
                  12
                  12
                  12
                  12
                  12
                  12
                  12
                  12
                  12
                  12
                  12
                  12
                  12
                  12
                  12
                  12
                  12
                  12
                  12
                  12
                  12
                  12
                  12
                  12
                  12
                  12
                  12
                  12
                  12
                  12
                  12
                  12
                  12
                  12
                  12
                  12
                  12
                  12
                  12
                  12
                  12
                  12
                  12
                  12
                  12
                  12
                  12
                  12
                  12
                  12
                  12
                  12
                  12
                  12
                  12
                  12
                  12
                  12
                  12
                  12
                  12
                  12
                  12
                  12
                  12
                  12
                  12
                  12
                  12
                  12
                  12
                  12
                  12
                  12
                  12
                  12
                  12
                  12
                  12
                  12
                  12
                  12
                  12
                  12
                  12
                  12
                  12
                  12
                  12
                  12
                  12
                  12
                  12
                  12
                  12
                  12
                  12
                  12
                  12
                  12
                  12
                  12
                  12
                  12
                  12
                  12
                  12
                  12
                  12
                  12
                  12
                  12
                  12
                  12
                  12
                  12
                  12
                  12
                  12
                  12
                  12
                  12
                  12
                  12
                  12
                  12
                  12
                  12
                  12
                  12
                  12
                  12
                  12
                  12
                  12
                  12
                  12
                  12
                  12
                  12
                  12
                  12
                  12
                  12
                  12
                  12
                  12
                  12
                  12
                  12
                  12
                  12
                  12
                  12
                  12
                  12
                  12
                  12
                  12
                  12
                  12
                  12
                  12
                  12
                  12
                  12
                  12
                  12
                  12
                  12
                  12
                  12
                  12
                  12
                  12
                  12
                  12
                  12
                  12
                  12
                  12
                  12
                  12
                  12
                  12
                  12
                  12
                  12
                  12
                  12
                  12
                  12
                  12
                  12
                  12
                  12
                  12
                  12
                  12
                  12
                  12
                  12
                  12
                  12
                  12
                  12
                  12
                  12
                  12
                  12
                  12
                  12
                  12
                  12
                  13
                  13
                  13
                  13
                  13
                  13
                  13
                  13
                  13
                  13
                  13
                  13
                  13
                  13
                  13
                  13
                  13
                  13
                  13
                  13
                  13
                  13
                  13
                  13
                  13
                  13
                  13
                  13
                  13
                  13
                  13
                  13
                  13
                  13
                  13
                  13
                  13
                  13
                  13
                  13
                  13
                  13
                  13
                  13
                  13
                  13
                  13
                  13
                  13
                  13
                  13
                  13
                  13
                  13
                  13
                  13
                  13
                  13
                  13
                  13
                  13
                  13
                  13
                  13
                  13
                  13
                  13
                  13
                  13
                  13
                  13
                  13
                  13
                  13
                  13
                  13
                  13
                  13
                  13
                  13
                  13
                  13
                  13
                  13
                  13
                  13
                  13
                  13
                  13
                  13
                  13
                  13
                  13
                  13
                  13
                  13
                  13
                  13
                  13
                  13
                  13
                  13
                  13
                  13
                  13
                  13
                  13
                  13
                  13
                  13
                  13
                  13
                  13
                  13
                  13
                  13
                  13
                  13
                  13
                  13
                  13
                  13
                  13
                  13
                  13
                  13
                  13
                  13
                  13
                  13
                  13
                  13
                  13
                  13
                  13
                  13
                  13
                  13
                  13
                  13
                  13
                  13
                  13
                  13
                  13
                  13
                  13
                  13
                  13
                  13
                  13
                  13
                  13
                  13
                  13
                  13
                  13
                  13
                  13
                  13
                  13
                  13
                  13
                  13
                  13
                  13
                  13
                  13
                  13
                  13
                  13
                  13
                  13
                  13
                  13
                  13
                  13
                  13
                  13
                  13
                  13
                  13
                  13
                  13
                  13
                  13
                  13
                  13
                  13
                  13
                  13
                  13
                  13
                  13
                  13
                  13
                  13
                  13
                  13
                  13
                  13
                  13
                  13
                  13
                  13
                  13
                  13
                  13
                  13
                  13
                  13
                  13
                  13
                  13
                  13
                  13
                  13
                  13
                  13
                  13
                  13
                  13
                  13
                  13
                  13
                  13
                  13
                  13
                  13
                  13
                  13
                  13
                  13
                  13
                  14
                  14
                  14
                  14
                  14
                  14
                  14
                  14
                  14
                  14
                  14
                  14
                  14
                  14
                  14
                  14
                  14
                  14
                  14
                  14
                  14
                  14
                  14
                  14
                  14
                  14
                  14
                  14
                  14
                  14
                  14
                  14
                  14
                  14
                  14
                  14
                  14
                  14
                  14
                  14
                  14
                  14
                  14
                  14
                  14
                  14
                  14
                  14
                  14
                  14
                  14
                  14
                  14
                  14
                  14
                  14
                  14
                  14
                  14
                  14
                  14
                  14
                  14
                  14
                  14
                  14
                  14
                  14
                  14
                  14
                  14
                  14
                  14
                  14
                  14
                  14
                  14
                  14
                  14
                  14
                  14
                  14
                  14
                  14
                  14
                  14
                  14
                  14
                  14
                  14
                  14
                  14
                  14
                  14
                  14
                  14
                  14
                  14
                  14
                  14
                  14
                  14
                  14
                  14
                  14
                  14
                  14
                  14
                  14
                  14
                  14
                  14
                  14
                  14
                  14
                  14
                  14
                  14
                  14
                  14
                  14
                  14
                  14
                  14
                  14
                  14
                  14
                  14
                  14
                  14
                  14
                  14
                  14
                  14
                  14
                  14
                  14
                  14
                  14
                  14
                  14
                  14
                  14
                  14
                  14
                  14
                  14
                  14
                  14
                  14
                  14
                  14
                  14
                  14
                  14
                  14
                  14
                  14
                  14
                  14
                  14
                  14
                  14
                  14
                  14
                  14
                  14
                  14
                  14
                  14
                  14
                  14
                  14
                  14
                  14
                  14
                  14
                  14
                  14
                  14
                  14
                  14
                  14
                  14
                  14
                  14
                  14
                  14
                  14
                  14
                  14
                  14
                  14
                  14
                  14
                  14
                  14
                  14
                  14
                  14
                  14
                  14
                  14
                  14
                  14
                  14
                  14
                  14
                  14
                  14
                  14
                  14
                  14
                  14
                  14
                  14
                  14
                  14
                  14
                  14
                  14
                  14
                  14
                  14
                  14
                  14
                  14
                  14
                  14
                  14
                  14
                  14
                  14
                  14
                  15
                  15
                  15
                  15
                  15
                  15
                  15
                  15
                  15
                  15
                  15
                  15
                  15
                  15
                  15
                  15
                  15
                  15
                  15
                  15
                  15
                  15
                  15
                  15
                  15
                  15
                  15
                  15
                  15
                  15
                  15
                  15
                  15
                  15
                  15
                  15
                  15
                  15
                  15
                  15
                  15
                  15
                  15
                  15
                  15
                  15
                  15
                  15
                  15
                  15
                  15
                  15
                  15
                  15
                  15
                  15
                  15
                  15
                  15
                  15
                  15
                  15
                  15
                  15
                  15
                  15
                  15
                  15
                  15
                  15
                  15
                  15
                  15
                  15
                  15
                  15
                  15
                  15
                  15
                  15
                  15
                  15
                  15
                  15
                  15
                  15
                  15
                  15
                  15
                  15
                  15
                  15
                  15
                  15
                  15
                  15
                  15
                  15
                  15
                  15
                  15
                  15
                  15
                  15
                  15
                  15
                  15
                  15
                  15
                  15
                  15
                  15
                  15
                  15
                  15
                  15
                  15
                  15
                  15
                  15
                  15
                  15
                  15
                  15
                  15
                  15
                  15
                  15
                  15
                  15
                  15
                  15
                  15
                  15
                  15
                  15
                  15
                  15
                  15
                  15
                  15
                  15
                  15
                  15
                  15
                  15
                  15
                  15
                  15
                  15
                  15
                  15
                  15
                  15
                  15
                  15
                  15
                  15
                  15
                  15
                  15
                  15
                  15
                  15
                  15
                  15
                  15
                  15
                  15
                  15
                  15
                  15
                  15
                  15
                  15
                  15
                  15
                  15
                  15
                  15
                  15
                  15
                  15
                  15
                  15
                  15
                  15
                  15
                  15
                  15
                  15
                  15
                  15
                  15
                  15
                  15
                  15
                  15
                  15
                  15
                  15
                  15
                  15
                  15
                  15
                  15
                  15
                  15
                  15
                  15
                  15
                  15
                  15
                  15
                  15
                  15
                  15
                  15
                  15
                  15
                  15
                  15
                  15
                  15
                  15
                  15
                  15
                  15
                  15
                  15
                  15
                  15
                  15
                  15
                  15
                  15
                  15
                  15
                  15
                  15
                  15
                  15
                  15
                  15
                  15
                  15
                  15
                  15
                  15
                  15
                  15
                  15
                  15
                  15
                  15
                  15
                  15
                  15
                  15
                  15
                  15
                  15
                  15
                  15
                  15
                  15
                  15
                  15
                  15
                  15
                  15
                  15
                  15
                  15
                  15
                  15
                  15
                  15
                  15
                  15
                  15
                  15
                  15
                  15
                  15
                  15
                  15
                  15
                  15
                  15
                  15
                  15
                  15
                  15
                  15
                  15
                  15
                  15
                  15
                  15
                  15
                  15
                  15
                  15
                  15
                  15
                  15
                  15
                  15
                  15
                  15
                  15
                  16
                  16
                  16
                  16
                  16
                  16
                  16
                  16
                  16
                  16
                  16
                  16
                  16
                  16
                  16
                  16
                  16
                  16
                  16
                  16
                  16
                  16
                  16
                  16
                  16
                  16
                  16
                  16
                  16
                  16
                  16
                  16
                  16
                  16
                  16
                  16
                  16
                  16
                  16
                  16
                  16
                  16
                  16
                  16
                  16
                  16
                  16
                  16
                  16
                  16
                  16
                  16
                  16
                  16
                  16
                  16
                  16
                  16
                  16
                  16
                  16
                  16
                  16
                  16
                  16
                  16
                  16
                  16
                  16
                  16
                  16
                  16
                  16
                  16
                  16
                  16
                  16
                  16
                  16
                  16
                  16
                  16
                  16
                  16
                  16
                  16
                  16
                  16
                  16
                  16
                  16
                  16
                  16
                  16
                  16
                  16
                  16
                  16
                  16
                  16
                  16
                  16
                  16
                  16
                  16
                  16
                  16
                  16
                  16
                  16
                  16
                  16
                  16
                  16
                  16
                  16
                  16
                  16
                  16
                  16
                  16
                  16
                  16
                  16
                  16
                  16
                  16
                  16
                  16
                  16
                  16
                  16
                  16
                  16
                  16
                  16
                  16
                  16
                  16
                  16
                  16
                  16
                  16
                  16
                  16
                  16
                  16
                  16
                  16
                  16
                  16
                  16
                  16
                  16
                  16
                  16
                  16
                  16
                  16
                  16
                  16
                  16
                  16
                  16
                  16
                  16
                  16
                  16
                  16
                  16
                  16
                  16
                  16
                  16
                  16
                  16
                  16
                  16
                  16
                  16
                  16
                  16
                  16
                  16
                  16
                  16
                  16
                  16
                  16
                  16
                  16
                  16
                  16
                  16
                  16
                  16
                  16
                  16
                  16
                  16
                  16
                  16
                  16
                  16
                  16
                  16
                  16
                  16
                  16
                  16
                  16
                  16
                  16
                  16
                  16
                  16
                  16
                  16
                  16
                  16
                  16
                  16
                  16
                  16
                  16
                  16
                  16
                  16
                  16
                  16
                  16
                  16
                  16
                  16
                  17
                  17
                  17
                  17
                  17
                  17
                  17
                  17
                  17
                  17
                  17
                  17
                  17
                  17
                  17
                  17
                  17
                  17
                  17
                  17
                  17
                  17
                  17
                  17
                  17
                  17
                  17
                  17
                  17
                  17
                  17
                  17
                  17
                  17
                  17
                  17
                  17
                  17
                  17
                  17
                  17
                  17
                  17
                  17
                  17
                  17
                  17
                  17
                  17
                  17
                  17
                  17
                  17
                  17
                  17
                  17
                  17
                  17
                  17
                  17
                  17
                  17
                  17
                  17
                  17
                  17
                  17
                  17
                  17
                  17
                  17
                  17
                  17
                  17
                  17
                  17
                  17
                  17
                  17
                  17
                  17
                  17
                  17
                  17
                  17
                  17
                  17
                  17
                  17
                  17
                  17
                  17
                  17
                  17
                  17
                  17
                  17
                  17
                  17
                  17
                  17
                  17
                  17
                  17
                  17
                  17
                  17
                  17
                  17
                  17
                  17
                  17
                  17
                  17
                  17
                  17
                  17
                  17
                  17
                  17
                  17
                  17
                  17
                  17
                  17
                  17
                  17
                  17
                  17
                  17
                  17
                  17
                  17
                  17
                  17
                  17
                  17
                  17
                  17
                  17
                  17
                  17
                  17
                  17
                  17
                  17
                  17
                  17
                  17
                  17
                  17
                  17
                  17
                  17
                  17
                  17
                  17
                  17
                  17
                  17
                  17
                  17
                  17
                  17
                  17
                  17
                  17
                  17
                  17
                  17
                  17
                  17
                  17
                  17
                  17
                  17
                  17
                  17
                  17
                  17
                  17
                  17
                  17
                  17
                  17
                  17
                  17
                  17
                  17
                  17
                  17
                  17
                  17
                  17
                  17
                  17
                  17
                  17
                  17
                  17
                  17
                  17
                  17
                  17
                  17
                  17
                  17
                  17
                  17
                  17
                  17
                  17
                  17
                  17
                  17
                  17
                  17
                  17
                  17
                  17
                  17
                  17
                  17
                  17
                  17
                  17
                  17
                  17
                  17
                  17
                  17
                  17
                  17
                  17
                  18
                  18
                  18
                  18
                  18
                  18
                  18
                  18
                  18
                  18
                  18
                  18
                  18
                  18
                  18
                  18
                  18
                  18
                  18
                  18
                  18
                  18
                  18
                  18
                  18
                  18
                  18
                  18
                  18
                  18
                  18
                  18
                  18
                  18
                  18
                  18
                  18
                  18
                  18
                  18
                  18
                  18
                  18
                  18
                  18
                  18
                  18
                  18
                  18
                  18
                  18
                  18
                  18
                  18
                  18
                  18
                  18
                  18
                  18
                  18
                  18
                  18
                  18
                  18
                  18
                  18
                  18
                  18
                  18
                  18
                  18
                  18
                  18
                  18
                  18
                  18
                  18
                  18
                  18
                  18
                  18
                  18
                  18
                  18
                  18
                  18
                  18
                  18
                  18
                  18
                  18
                  18
                  18
                  18
                  18
                  18
                  18
                  18
                  18
                  18
                  18
                  18
                  18
                  18
                  18
                  18
                  18
                  18
                  18
                  18
                  18
                  18
                  18
                  18
                  18
                  18
                  18
                  18
                  18
                  18
                  18
                  18
                  18
                  18
                  18
                  18
                  18
                  18
                  18
                  18
                  18
                  18
                  18
                  18
                  18
                  18
                  18
                  18
                  18
                  18
                  18
                  18
                  18
                  18
                  18
                  18
                  18
                  18
                  18
                  18
                  18
                  18
                  18
                  18
                  18
                  18
  
SCALARS                 displacement_x  double 1
LOOKUP_TABLE default
         0.00000E+00
         0.00000E+00
         0.00000E+00
         0.00000E+00
         0.00000E+00
         0.00000E+00
         0.00000E+00
         0.00000E+00
         0.00000E+00
         0.00000E+00
         0.00000E+00
         0.00000E+00
         0.00000E+00
         0.00000E+00
         0.00000E+00
         0.00000E+00
         0.00000E+00
         0.00000E+00
         0.00000E+00
         0.00000E+00
         0.00000E+00
         0.00000E+00
         0.00000E+00
         0.00000E+00
         0.00000E+00
         0.00000E+00
         0.00000E+00
         0.00000E+00
         0.00000E+00
         0.00000E+00
         0.00000E+00
         0.00000E+00
         0.00000E+00
         0.00000E+00
         0.00000E+00
         0.00000E+00
         0.00000E+00
         0.00000E+00
         0.00000E+00
         0.00000E+00
         0.00000E+00
         0.00000E+00
         0.00000E+00
         0.00000E+00
         0.00000E+00
         0.00000E+00
         0.00000E+00
         0.00000E+00
         0.00000E+00
         0.00000E+00
         0.00000E+00
         0.00000E+00
         0.00000E+00
         0.00000E+00
         0.00000E+00
         0.00000E+00
         0.00000E+00
         0.00000E+00
         0.00000E+00
         0.00000E+00
         0.00000E+00
         0.00000E+00
         0.00000E+00
         0.00000E+00
         0.00000E+00
         0.00000E+00
         0.00000E+00
         0.00000E+00
         0.00000E+00
         0.00000E+00
         0.00000E+00
         0.00000E+00
         0.00000E+00
         0.00000E+00
         0.00000E+00
         0.00000E+00
         0.00000E+00
         0.00000E+00
         0.00000E+00
         0.00000E+00
         0.00000E+00
         0.00000E+00
         0.00000E+00
         0.00000E+00
         0.00000E+00
         0.00000E+00
         0.00000E+00
         0.00000E+00
         0.00000E+00
         0.00000E+00
         0.00000E+00
         0.00000E+00
         0.00000E+00
         0.00000E+00
         0.00000E+00
         0.00000E+00
         0.00000E+00
         0.00000E+00
         0.00000E+00
         0.00000E+00
         0.00000E+00
         0.00000E+00
         0.00000E+00
         0.00000E+00
         0.00000E+00
         0.00000E+00
         0.00000E+00
         0.00000E+00
         0.00000E+00
         0.00000E+00
         0.00000E+00
         0.00000E+00
         0.00000E+00
         0.00000E+00
         0.00000E+00
         0.00000E+00
         0.00000E+00
         0.00000E+00
         0.00000E+00
         0.00000E+00
         0.00000E+00
         0.00000E+00
         0.00000E+00
         0.00000E+00
         0.00000E+00
         0.00000E+00
         0.00000E+00
         0.00000E+00
         0.00000E+00
         0.00000E+00
         0.00000E+00
         0.00000E+00
         0.00000E+00
         0.00000E+00
         0.00000E+00
         0.00000E+00
         0.00000E+00
         0.00000E+00
         0.00000E+00
         0.00000E+00
         0.00000E+00
         0.00000E+00
         0.00000E+00
         0.00000E+00
         0.00000E+00
         0.00000E+00
         0.00000E+00
         0.00000E+00
         0.00000E+00
         0.00000E+00
         0.00000E+00
         0.00000E+00
         0.00000E+00
         0.00000E+00
         0.00000E+00
         0.00000E+00
         0.00000E+00
         0.00000E+00
         0.00000E+00
         0.00000E+00
         0.00000E+00
         0.00000E+00
         0.00000E+00
         0.00000E+00
         0.00000E+00
         0.00000E+00
         0.00000E+00
         0.00000E+00
         0.00000E+00
         0.00000E+00
         0.00000E+00
         0.00000E+00
         0.00000E+00
         0.00000E+00
         0.00000E+00
         0.00000E+00
         0.00000E+00
         0.00000E+00
         0.00000E+00
         0.00000E+00
         0.00000E+00
         0.00000E+00
         0.00000E+00
         0.00000E+00
         0.00000E+00
         0.00000E+00
         0.00000E+00
         0.00000E+00
         0.00000E+00
         0.00000E+00
         0.00000E+00
         0.00000E+00
         0.00000E+00
         0.00000E+00
         0.00000E+00
         0.00000E+00
         0.00000E+00
         0.00000E+00
         0.00000E+00
         0.00000E+00
         0.00000E+00
         0.00000E+00
         0.00000E+00
         0.00000E+00
         0.00000E+00
         0.00000E+00
         0.00000E+00
         0.00000E+00
         0.00000E+00
         0.00000E+00
         0.00000E+00
         0.00000E+00
         0.00000E+00
         0.00000E+00
         0.00000E+00
         0.00000E+00
         0.00000E+00
         0.00000E+00
         0.00000E+00
         0.00000E+00
         0.00000E+00
         0.00000E+00
         0.00000E+00
         0.00000E+00
         0.00000E+00
         0.00000E+00
         0.00000E+00
         0.00000E+00
         0.00000E+00
         0.00000E+00
         0.00000E+00
         0.00000E+00
         0.00000E+00
         0.00000E+00
         0.00000E+00
         0.00000E+00
         0.00000E+00
         0.00000E+00
         0.00000E+00
         0.00000E+00
         0.00000E+00
         0.00000E+00
         0.00000E+00
         0.00000E+00
         0.00000E+00
         0.00000E+00
         0.00000E+00
         0.00000E+00
         0.00000E+00
         0.00000E+00
         0.00000E+00
         0.00000E+00
         0.00000E+00
         0.00000E+00
         0.00000E+00
         0.00000E+00
         0.00000E+00
         0.00000E+00
         0.00000E+00
         0.00000E+00
         0.00000E+00
         0.00000E+00
         0.00000E+00
         0.00000E+00
         0.00000E+00
         0.00000E+00
         0.00000E+00
         0.00000E+00
         0.00000E+00
         0.00000E+00
         0.00000E+00
         0.00000E+00
         0.00000E+00
         0.00000E+00
         0.00000E+00
         0.00000E+00
         0.00000E+00
         0.00000E+00
         0.00000E+00
         0.00000E+00
         0.00000E+00
         0.00000E+00
         0.00000E+00
         0.00000E+00
         0.00000E+00
         0.00000E+00
         0.00000E+00
         0.00000E+00
         0.00000E+00
         0.00000E+00
         0.00000E+00
         0.00000E+00
         0.00000E+00
         0.00000E+00
         0.00000E+00
         0.00000E+00
         0.00000E+00
         0.00000E+00
         0.00000E+00
         0.00000E+00
         0.00000E+00
         0.00000E+00
         0.00000E+00
         0.00000E+00
         0.00000E+00
         0.00000E+00
         0.00000E+00
         0.00000E+00
         0.00000E+00
         0.00000E+00
         0.00000E+00
         0.00000E+00
         0.00000E+00
         0.00000E+00
         0.00000E+00
         0.00000E+00
         0.00000E+00
         0.00000E+00
         0.00000E+00
         0.00000E+00
         0.00000E+00
         0.00000E+00
         0.00000E+00
         0.00000E+00
         0.00000E+00
         0.00000E+00
         0.00000E+00
         0.00000E+00
         0.00000E+00
         0.00000E+00
         0.00000E+00
         0.00000E+00
         0.00000E+00
         0.00000E+00
         0.00000E+00
         0.00000E+00
         0.00000E+00
         0.00000E+00
         0.00000E+00
         0.00000E+00
         0.00000E+00
         0.00000E+00
         0.00000E+00
         0.00000E+00
         0.00000E+00
         0.00000E+00
         0.00000E+00
         0.00000E+00
         0.00000E+00
         0.00000E+00
         0.00000E+00
         0.00000E+00
         0.00000E+00
         0.00000E+00
         0.00000E+00
         0.00000E+00
         0.00000E+00
         0.00000E+00
         0.00000E+00
         0.00000E+00
         0.00000E+00
         0.00000E+00
         0.00000E+00
         0.00000E+00
         0.00000E+00
         0.00000E+00
         0.00000E+00
         0.00000E+00
         0.00000E+00
         0.00000E+00
         0.00000E+00
         0.00000E+00
         0.00000E+00
         0.00000E+00
         0.00000E+00
         0.00000E+00
         0.00000E+00
         0.00000E+00
         0.00000E+00
         0.00000E+00
         0.00000E+00
         0.00000E+00
         0.00000E+00
         0.00000E+00
         0.00000E+00
         0.00000E+00
         0.00000E+00
         0.00000E+00
         0.00000E+00
         0.00000E+00
         0.00000E+00
         0.00000E+00
         0.00000E+00
         0.00000E+00
         0.00000E+00
         0.00000E+00
         0.00000E+00
         0.00000E+00
         0.00000E+00
         0.00000E+00
         0.00000E+00
         0.00000E+00
         0.00000E+00
         0.00000E+00
         0.00000E+00
         0.00000E+00
         0.00000E+00
         0.00000E+00
         0.00000E+00
         0.00000E+00
         0.00000E+00
         0.00000E+00
         0.00000E+00
         0.00000E+00
         0.00000E+00
         0.00000E+00
         0.00000E+00
         0.00000E+00
         0.00000E+00
         0.00000E+00
         0.00000E+00
         0.00000E+00
         0.00000E+00
         0.00000E+00
         0.00000E+00
         0.00000E+00
         0.00000E+00
         0.00000E+00
         0.00000E+00
         0.00000E+00
         0.00000E+00
         0.00000E+00
         0.00000E+00
         0.00000E+00
         0.00000E+00
         0.00000E+00
         0.00000E+00
         0.00000E+00
         0.00000E+00
         0.00000E+00
         0.00000E+00
         0.00000E+00
         0.00000E+00
         0.00000E+00
         0.00000E+00
         0.00000E+00
         0.00000E+00
         0.00000E+00
         0.00000E+00
         0.00000E+00
         0.00000E+00
         0.00000E+00
         0.00000E+00
         0.00000E+00
         0.00000E+00
         0.00000E+00
         0.00000E+00
         0.00000E+00
         0.00000E+00
         0.00000E+00
         0.00000E+00
         0.00000E+00
         0.00000E+00
         0.00000E+00
         0.00000E+00
         0.00000E+00
         0.00000E+00
         0.00000E+00
         0.00000E+00
         0.00000E+00
         0.00000E+00
         0.00000E+00
         0.00000E+00
         0.00000E+00
         0.00000E+00
         0.00000E+00
         0.00000E+00
         0.00000E+00
         0.00000E+00
         0.00000E+00
         0.00000E+00
         0.00000E+00
         0.00000E+00
         0.00000E+00
         0.00000E+00
         0.00000E+00
         0.00000E+00
         0.00000E+00
         0.00000E+00
         0.00000E+00
         0.00000E+00
         0.00000E+00
         0.00000E+00
         0.00000E+00
         0.00000E+00
         0.00000E+00
         0.00000E+00
         0.00000E+00
         0.00000E+00
         0.00000E+00
         0.00000E+00
         0.00000E+00
         0.00000E+00
         0.00000E+00
         0.00000E+00
         0.00000E+00
         0.00000E+00
         0.00000E+00
         0.00000E+00
         0.00000E+00
         0.00000E+00
         0.00000E+00
         0.00000E+00
         0.00000E+00
         0.00000E+00
         0.00000E+00
         0.00000E+00
         0.00000E+00
         0.00000E+00
         0.00000E+00
         0.00000E+00
         0.00000E+00
         0.00000E+00
         0.00000E+00
         0.00000E+00
         0.00000E+00
         0.00000E+00
         0.00000E+00
         0.00000E+00
         0.00000E+00
         0.00000E+00
         0.00000E+00
         0.00000E+00
         0.00000E+00
         0.00000E+00
         0.00000E+00
         0.00000E+00
         0.00000E+00
         0.00000E+00
         0.00000E+00
         0.00000E+00
         0.00000E+00
         0.00000E+00
         0.00000E+00
         0.00000E+00
         0.00000E+00
         0.00000E+00
         0.00000E+00
         0.00000E+00
         0.00000E+00
         0.00000E+00
         0.00000E+00
         0.00000E+00
         0.00000E+00
         0.00000E+00
         0.00000E+00
         0.00000E+00
         0.00000E+00
         0.00000E+00
         0.00000E+00
         0.00000E+00
         0.00000E+00
         0.00000E+00
         0.00000E+00
         0.00000E+00
         0.00000E+00
         0.00000E+00
         0.00000E+00
         0.00000E+00
         0.00000E+00
         0.00000E+00
         0.00000E+00
         0.00000E+00
         0.00000E+00
         0.00000E+00
         0.00000E+00
         0.00000E+00
         0.00000E+00
         0.00000E+00
         0.00000E+00
         0.00000E+00
         0.00000E+00
         0.00000E+00
         0.00000E+00
         0.00000E+00
         0.00000E+00
         0.00000E+00
         0.00000E+00
         0.00000E+00
         0.00000E+00
         0.00000E+00
         0.00000E+00
         0.00000E+00
         0.00000E+00
         0.00000E+00
         0.00000E+00
         0.00000E+00
         0.00000E+00
         0.00000E+00
         0.00000E+00
         0.00000E+00
         0.00000E+00
         0.00000E+00
         0.00000E+00
         0.00000E+00
         0.00000E+00
         0.00000E+00
         0.00000E+00
         0.00000E+00
         0.00000E+00
         0.00000E+00
         0.00000E+00
         0.00000E+00
         0.00000E+00
         0.00000E+00
         0.00000E+00
         0.00000E+00
         0.00000E+00
         0.00000E+00
         0.00000E+00
         0.00000E+00
         0.00000E+00
         0.00000E+00
         0.00000E+00
         0.00000E+00
         0.00000E+00
         0.00000E+00
         0.00000E+00
         0.00000E+00
         0.00000E+00
         0.00000E+00
         0.00000E+00
         0.00000E+00
         0.00000E+00
         0.00000E+00
         0.00000E+00
         0.00000E+00
         0.00000E+00
         0.00000E+00
         0.00000E+00
         0.00000E+00
         0.00000E+00
         0.00000E+00
         0.00000E+00
         0.00000E+00
         0.00000E+00
         0.00000E+00
         0.00000E+00
         0.00000E+00
         0.00000E+00
         0.00000E+00
         0.00000E+00
         0.00000E+00
         0.00000E+00
         0.00000E+00
         0.00000E+00
         0.00000E+00
         0.00000E+00
         0.00000E+00
         0.00000E+00
         0.00000E+00
         0.00000E+00
         0.00000E+00
         0.00000E+00
         0.00000E+00
         0.00000E+00
         0.00000E+00
         0.00000E+00
         0.00000E+00
         0.00000E+00
         0.00000E+00
         0.00000E+00
         0.00000E+00
         0.00000E+00
         0.00000E+00
         0.00000E+00
         0.00000E+00
         0.00000E+00
         0.00000E+00
         0.00000E+00
         0.00000E+00
         0.00000E+00
         0.00000E+00
         0.00000E+00
         0.00000E+00
         0.00000E+00
         0.00000E+00
         0.00000E+00
         0.00000E+00
         0.00000E+00
         0.00000E+00
         0.00000E+00
         0.00000E+00
         0.00000E+00
         0.00000E+00
         0.00000E+00
         0.00000E+00
         0.00000E+00
         0.00000E+00
         0.00000E+00
         0.00000E+00
         0.00000E+00
         0.00000E+00
         0.00000E+00
         0.00000E+00
         0.00000E+00
         0.00000E+00
         0.00000E+00
         0.00000E+00
         0.00000E+00
         0.00000E+00
         0.00000E+00
         0.00000E+00
         0.00000E+00
         0.00000E+00
         0.00000E+00
         0.00000E+00
         0.00000E+00
         0.00000E+00
         0.00000E+00
         0.00000E+00
         0.00000E+00
         0.00000E+00
         0.00000E+00
         0.00000E+00
         0.00000E+00
         0.00000E+00
         0.00000E+00
         0.00000E+00
         0.00000E+00
         0.00000E+00
         0.00000E+00
         0.00000E+00
         0.00000E+00
         0.00000E+00
         0.00000E+00
         0.00000E+00
         0.00000E+00
         0.00000E+00
         0.00000E+00
         0.00000E+00
         0.00000E+00
         0.00000E+00
         0.00000E+00
         0.00000E+00
         0.00000E+00
         0.00000E+00
         0.00000E+00
         0.00000E+00
         0.00000E+00
         0.00000E+00
         0.00000E+00
         0.00000E+00
         0.00000E+00
         0.00000E+00
         0.00000E+00
         0.00000E+00
         0.00000E+00
         0.00000E+00
         0.00000E+00
         0.00000E+00
         0.00000E+00
         0.00000E+00
         0.00000E+00
         0.00000E+00
         0.00000E+00
         0.00000E+00
         0.00000E+00
         0.00000E+00
         0.00000E+00
         0.00000E+00
         0.00000E+00
         0.00000E+00
         0.00000E+00
         0.00000E+00
         0.00000E+00
         0.00000E+00
         0.00000E+00
         0.00000E+00
         0.00000E+00
         0.00000E+00
         0.00000E+00
         0.00000E+00
         0.00000E+00
         0.00000E+00
         0.00000E+00
         0.00000E+00
         0.00000E+00
         0.00000E+00
         0.00000E+00
         0.00000E+00
         0.00000E+00
         0.00000E+00
         0.00000E+00
         0.00000E+00
         0.00000E+00
         0.00000E+00
         0.00000E+00
         0.00000E+00
         0.00000E+00
         0.00000E+00
         0.00000E+00
         0.00000E+00
         0.00000E+00
         0.00000E+00
         0.00000E+00
         0.00000E+00
         0.00000E+00
         0.00000E+00
         0.00000E+00
         0.00000E+00
         0.00000E+00
         0.00000E+00
         0.00000E+00
         0.00000E+00
         0.00000E+00
         0.00000E+00
         0.00000E+00
         0.00000E+00
         0.00000E+00
         0.00000E+00
         0.00000E+00
         0.00000E+00
         0.00000E+00
         0.00000E+00
         0.00000E+00
         0.00000E+00
         0.00000E+00
         0.00000E+00
         0.00000E+00
         0.00000E+00
         0.00000E+00
         0.00000E+00
         0.00000E+00
         0.00000E+00
         0.00000E+00
         0.00000E+00
         0.00000E+00
         0.00000E+00
         0.00000E+00
         0.00000E+00
         0.00000E+00
         0.00000E+00
         0.00000E+00
         0.00000E+00
         0.00000E+00
         0.00000E+00
         0.00000E+00
         0.00000E+00
         0.00000E+00
         0.00000E+00
         0.00000E+00
         0.00000E+00
         0.00000E+00
         0.00000E+00
         0.00000E+00
         0.00000E+00
         0.00000E+00
         0.00000E+00
         0.00000E+00
         0.00000E+00
         0.00000E+00
         0.00000E+00
         0.00000E+00
         0.00000E+00
         0.00000E+00
         0.00000E+00
         0.00000E+00
         0.00000E+00
         0.00000E+00
         0.00000E+00
         0.00000E+00
         0.00000E+00
         0.00000E+00
         0.00000E+00
         0.00000E+00
         0.00000E+00
         0.00000E+00
         0.00000E+00
         0.00000E+00
         0.00000E+00
         0.00000E+00
         0.00000E+00
         0.00000E+00
         0.00000E+00
         0.00000E+00
         0.00000E+00
         0.00000E+00
         0.00000E+00
         0.00000E+00
         0.00000E+00
         0.00000E+00
         0.00000E+00
         0.00000E+00
         0.00000E+00
         0.00000E+00
         0.00000E+00
         0.00000E+00
         0.00000E+00
         0.00000E+00
         0.00000E+00
         0.00000E+00
         0.00000E+00
         0.00000E+00
         0.00000E+00
         0.00000E+00
         0.00000E+00
         0.00000E+00
         0.00000E+00
         0.00000E+00
         0.00000E+00
         0.00000E+00
         0.00000E+00
         0.00000E+00
         0.00000E+00
         0.00000E+00
         0.00000E+00
         0.00000E+00
         0.00000E+00
         0.00000E+00
         0.00000E+00
         0.00000E+00
         0.00000E+00
         0.00000E+00
         0.00000E+00
         0.00000E+00
         0.00000E+00
         0.00000E+00
         0.00000E+00
         0.00000E+00
         0.00000E+00
         0.00000E+00
         0.00000E+00
         0.00000E+00
         0.00000E+00
         0.00000E+00
         0.00000E+00
         0.00000E+00
         0.00000E+00
         0.00000E+00
         0.00000E+00
         0.00000E+00
         0.00000E+00
         0.00000E+00
         0.00000E+00
         0.00000E+00
         0.00000E+00
         0.00000E+00
         0.00000E+00
         0.00000E+00
         0.00000E+00
         0.00000E+00
         0.00000E+00
         0.00000E+00
         0.00000E+00
         0.00000E+00
         0.00000E+00
         0.00000E+00
         0.00000E+00
         0.00000E+00
         0.00000E+00
         0.00000E+00
         0.00000E+00
         0.00000E+00
         0.00000E+00
         0.00000E+00
         0.00000E+00
         0.00000E+00
         0.00000E+00
         0.00000E+00
         0.00000E+00
         0.00000E+00
         0.00000E+00
         0.00000E+00
         0.00000E+00
         0.00000E+00
         0.00000E+00
         0.00000E+00
         0.00000E+00
         0.00000E+00
         0.00000E+00
         0.00000E+00
         0.00000E+00
         0.00000E+00
         0.00000E+00
         0.00000E+00
         0.00000E+00
         0.00000E+00
         0.00000E+00
         0.00000E+00
         0.00000E+00
         0.00000E+00
         0.00000E+00
         0.00000E+00
         0.00000E+00
         0.00000E+00
         0.00000E+00
         0.00000E+00
         0.00000E+00
         0.00000E+00
         0.00000E+00
         0.00000E+00
         0.00000E+00
         0.00000E+00
         0.00000E+00
         0.00000E+00
         0.00000E+00
         0.00000E+00
         0.00000E+00
         0.00000E+00
         0.00000E+00
         0.00000E+00
         0.00000E+00
         0.00000E+00
         0.00000E+00
         0.00000E+00
         0.00000E+00
         0.00000E+00
         0.00000E+00
         0.00000E+00
         0.00000E+00
         0.00000E+00
         0.00000E+00
         0.00000E+00
         0.00000E+00
         0.00000E+00
         0.00000E+00
         0.00000E+00
         0.00000E+00
         0.00000E+00
         0.00000E+00
         0.00000E+00
         0.00000E+00
         0.00000E+00
         0.00000E+00
         0.00000E+00
         0.00000E+00
         0.00000E+00
         0.00000E+00
         0.00000E+00
         0.00000E+00
         0.00000E+00
         0.00000E+00
         0.00000E+00
         0.00000E+00
         0.00000E+00
         0.00000E+00
         0.00000E+00
         0.00000E+00
         0.00000E+00
         0.00000E+00
         0.00000E+00
         0.00000E+00
         0.00000E+00
         0.00000E+00
         0.00000E+00
         0.00000E+00
         0.00000E+00
         0.00000E+00
         0.00000E+00
         0.00000E+00
         0.00000E+00
         0.00000E+00
         0.00000E+00
         0.00000E+00
         0.00000E+00
         0.00000E+00
         0.00000E+00
         0.00000E+00
         0.00000E+00
         0.00000E+00
         0.00000E+00
         0.00000E+00
         0.00000E+00
         0.00000E+00
         0.00000E+00
         0.00000E+00
         0.00000E+00
         0.00000E+00
         0.00000E+00
         0.00000E+00
         0.00000E+00
         0.00000E+00
         0.00000E+00
         0.00000E+00
         0.00000E+00
         0.00000E+00
         0.00000E+00
         0.00000E+00
         0.00000E+00
         0.00000E+00
         0.00000E+00
         0.00000E+00
         0.00000E+00
         0.00000E+00
         0.00000E+00
         0.00000E+00
         0.00000E+00
         0.00000E+00
         0.00000E+00
         0.00000E+00
         0.00000E+00
         0.00000E+00
         0.00000E+00
         0.00000E+00
         0.00000E+00
         0.00000E+00
         0.00000E+00
         0.00000E+00
         0.00000E+00
         0.00000E+00
         0.00000E+00
         0.00000E+00
         0.00000E+00
         0.00000E+00
         0.00000E+00
         0.00000E+00
         0.00000E+00
         0.00000E+00
         0.00000E+00
         0.00000E+00
         0.00000E+00
         0.00000E+00
         0.00000E+00
         0.00000E+00
         0.00000E+00
         0.00000E+00
         0.00000E+00
         0.00000E+00
         0.00000E+00
         0.00000E+00
         0.00000E+00
         0.00000E+00
         0.00000E+00
         0.00000E+00
         0.00000E+00
         0.00000E+00
         0.00000E+00
         0.00000E+00
         0.00000E+00
         0.00000E+00
         0.00000E+00
         0.00000E+00
         0.00000E+00
         0.00000E+00
         0.00000E+00
         0.00000E+00
         0.00000E+00
         0.00000E+00
         0.00000E+00
         0.00000E+00
         0.00000E+00
         0.00000E+00
         0.00000E+00
         0.00000E+00
         0.00000E+00
         0.00000E+00
         0.00000E+00
         0.00000E+00
         0.00000E+00
         0.00000E+00
         0.00000E+00
         0.00000E+00
         0.00000E+00
         0.00000E+00
         0.00000E+00
         0.00000E+00
         0.00000E+00
         0.00000E+00
         0.00000E+00
         0.00000E+00
         0.00000E+00
         0.00000E+00
         0.00000E+00
         0.00000E+00
         0.00000E+00
         0.00000E+00
         0.00000E+00
         0.00000E+00
         0.00000E+00
         0.00000E+00
         0.00000E+00
         0.00000E+00
         0.00000E+00
         0.00000E+00
         0.00000E+00
         0.00000E+00
         0.00000E+00
         0.00000E+00
         0.00000E+00
         0.00000E+00
         0.00000E+00
         0.00000E+00
         0.00000E+00
         0.00000E+00
         0.00000E+00
         0.00000E+00
         0.00000E+00
         0.00000E+00
         0.00000E+00
         0.00000E+00
         0.00000E+00
         0.00000E+00
         0.00000E+00
         0.00000E+00
         0.00000E+00
         0.00000E+00
         0.00000E+00
         0.00000E+00
         0.00000E+00
         0.00000E+00
         0.00000E+00
         0.00000E+00
         0.00000E+00
         0.00000E+00
         0.00000E+00
         0.00000E+00
         0.00000E+00
         0.00000E+00
         0.00000E+00
         0.00000E+00
         0.00000E+00
         0.00000E+00
         0.00000E+00
         0.00000E+00
         0.00000E+00
         0.00000E+00
         0.00000E+00
         0.00000E+00
         0.00000E+00
         0.00000E+00
         0.00000E+00
         0.00000E+00
         0.00000E+00
         0.00000E+00
         0.00000E+00
         0.00000E+00
         0.00000E+00
         0.00000E+00
         0.00000E+00
         0.00000E+00
         0.00000E+00
         0.00000E+00
         0.00000E+00
         0.00000E+00
         0.00000E+00
         0.00000E+00
         0.00000E+00
         0.00000E+00
         0.00000E+00
         0.00000E+00
         0.00000E+00
         0.00000E+00
         0.00000E+00
         0.00000E+00
         0.00000E+00
         0.00000E+00
         0.00000E+00
         0.00000E+00
         0.00000E+00
         0.00000E+00
         0.00000E+00
         0.00000E+00
         0.00000E+00
         0.00000E+00
         0.00000E+00
         0.00000E+00
         0.00000E+00
         0.00000E+00
         0.00000E+00
         0.00000E+00
         0.00000E+00
         0.00000E+00
         0.00000E+00
         0.00000E+00
         0.00000E+00
         0.00000E+00
         0.00000E+00
         0.00000E+00
         0.00000E+00
         0.00000E+00
         0.00000E+00
         0.00000E+00
         0.00000E+00
         0.00000E+00
         0.00000E+00
         0.00000E+00
         0.00000E+00
         0.00000E+00
         0.00000E+00
         0.00000E+00
         0.00000E+00
         0.00000E+00
         0.00000E+00
         0.00000E+00
         0.00000E+00
         0.00000E+00
         0.00000E+00
         0.00000E+00
         0.00000E+00
         0.00000E+00
         0.00000E+00
         0.00000E+00
         0.00000E+00
         0.00000E+00
         0.00000E+00
         0.00000E+00
         0.00000E+00
         0.00000E+00
         0.00000E+00
         0.00000E+00
         0.00000E+00
         0.00000E+00
         0.00000E+00
         0.00000E+00
         0.00000E+00
         0.00000E+00
         0.00000E+00
         0.00000E+00
         0.00000E+00
         0.00000E+00
         0.00000E+00
         0.00000E+00
         0.00000E+00
         0.00000E+00
         0.00000E+00
         0.00000E+00
         0.00000E+00
         0.00000E+00
         0.00000E+00
         0.00000E+00
         0.00000E+00
         0.00000E+00
         0.00000E+00
         0.00000E+00
         0.00000E+00
         0.00000E+00
         0.00000E+00
         0.00000E+00
         0.00000E+00
         0.00000E+00
         0.00000E+00
         0.00000E+00
         0.00000E+00
         0.00000E+00
         0.00000E+00
         0.00000E+00
         0.00000E+00
         0.00000E+00
         0.00000E+00
         0.00000E+00
         0.00000E+00
         0.00000E+00
         0.00000E+00
         0.00000E+00
         0.00000E+00
         0.00000E+00
         0.00000E+00
         0.00000E+00
         0.00000E+00
         0.00000E+00
         0.00000E+00
         0.00000E+00
         0.00000E+00
         0.00000E+00
         0.00000E+00
         0.00000E+00
         0.00000E+00
         0.00000E+00
         0.00000E+00
         0.00000E+00
         0.00000E+00
         0.00000E+00
         0.00000E+00
         0.00000E+00
         0.00000E+00
         0.00000E+00
         0.00000E+00
         0.00000E+00
         0.00000E+00
         0.00000E+00
         0.00000E+00
         0.00000E+00
         0.00000E+00
         0.00000E+00
         0.00000E+00
         0.00000E+00
         0.00000E+00
         0.00000E+00
         0.00000E+00
         0.00000E+00
         0.00000E+00
         0.00000E+00
         0.00000E+00
         0.00000E+00
         0.00000E+00
         0.00000E+00
         0.00000E+00
         0.00000E+00
         0.00000E+00
         0.00000E+00
         0.00000E+00
         0.00000E+00
         0.00000E+00
         0.00000E+00
         0.00000E+00
         0.00000E+00
         0.00000E+00
         0.00000E+00
         0.00000E+00
         0.00000E+00
         0.00000E+00
         0.00000E+00
         0.00000E+00
         0.00000E+00
         0.00000E+00
         0.00000E+00
         0.00000E+00
         0.00000E+00
         0.00000E+00
         0.00000E+00
         0.00000E+00
         0.00000E+00
         0.00000E+00
         0.00000E+00
         0.00000E+00
         0.00000E+00
         0.00000E+00
         0.00000E+00
         0.00000E+00
         0.00000E+00
         0.00000E+00
         0.00000E+00
         0.00000E+00
         0.00000E+00
         0.00000E+00
         0.00000E+00
         0.00000E+00
         0.00000E+00
         0.00000E+00
         0.00000E+00
         0.00000E+00
         0.00000E+00
         0.00000E+00
         0.00000E+00
         0.00000E+00
         0.00000E+00
         0.00000E+00
         0.00000E+00
         0.00000E+00
         0.00000E+00
         0.00000E+00
         0.00000E+00
         0.00000E+00
         0.00000E+00
         0.00000E+00
         0.00000E+00
         0.00000E+00
         0.00000E+00
         0.00000E+00
         0.00000E+00
         0.00000E+00
         0.00000E+00
         0.00000E+00
         0.00000E+00
         0.00000E+00
         0.00000E+00
         0.00000E+00
         0.00000E+00
         0.00000E+00
         0.00000E+00
         0.00000E+00
         0.00000E+00
         0.00000E+00
         0.00000E+00
         0.00000E+00
         0.00000E+00
         0.00000E+00
         0.00000E+00
         0.00000E+00
         0.00000E+00
         0.00000E+00
         0.00000E+00
         0.00000E+00
         0.00000E+00
         0.00000E+00
         0.00000E+00
         0.00000E+00
         0.00000E+00
         0.00000E+00
         0.00000E+00
         0.00000E+00
         0.00000E+00
         0.00000E+00
         0.00000E+00
         0.00000E+00
         0.00000E+00
         0.00000E+00
         0.00000E+00
         0.00000E+00
         0.00000E+00
         0.00000E+00
         0.00000E+00
         0.00000E+00
         0.00000E+00
         0.00000E+00
         0.00000E+00
         0.00000E+00
         0.00000E+00
         0.00000E+00
         0.00000E+00
         0.00000E+00
         0.00000E+00
         0.00000E+00
         0.00000E+00
         0.00000E+00
         0.00000E+00
         0.00000E+00
         0.00000E+00
         0.00000E+00
         0.00000E+00
         0.00000E+00
         0.00000E+00
         0.00000E+00
         0.00000E+00
         0.00000E+00
         0.00000E+00
         0.00000E+00
         0.00000E+00
         0.00000E+00
         0.00000E+00
         0.00000E+00
         0.00000E+00
         0.00000E+00
         0.00000E+00
         0.00000E+00
         0.00000E+00
         0.00000E+00
         0.00000E+00
         0.00000E+00
         0.00000E+00
         0.00000E+00
         0.00000E+00
         0.00000E+00
         0.00000E+00
         0.00000E+00
         0.00000E+00
         0.00000E+00
         0.00000E+00
         0.00000E+00
         0.00000E+00
         0.00000E+00
         0.00000E+00
         0.00000E+00
         0.00000E+00
         0.00000E+00
         0.00000E+00
         0.00000E+00
         0.00000E+00
         0.00000E+00
         0.00000E+00
         0.00000E+00
         0.00000E+00
         0.00000E+00
         0.00000E+00
         0.00000E+00
         0.00000E+00
         0.00000E+00
         0.00000E+00
         0.00000E+00
         0.00000E+00
         0.00000E+00
         0.00000E+00
         0.00000E+00
         0.00000E+00
         0.00000E+00
         0.00000E+00
         0.00000E+00
         0.00000E+00
         0.00000E+00
         0.00000E+00
         0.00000E+00
         0.00000E+00
         0.00000E+00
         0.00000E+00
         0.00000E+00
         0.00000E+00
         0.00000E+00
         0.00000E+00
         0.00000E+00
         0.00000E+00
         0.00000E+00
         0.00000E+00
         0.00000E+00
         0.00000E+00
         0.00000E+00
         0.00000E+00
         0.00000E+00
         0.00000E+00
         0.00000E+00
         0.00000E+00
         0.00000E+00
         0.00000E+00
         0.00000E+00
         0.00000E+00
         0.00000E+00
         0.00000E+00
         0.00000E+00
         0.00000E+00
         0.00000E+00
         0.00000E+00
         0.00000E+00
         0.00000E+00
         0.00000E+00
         0.00000E+00
         0.00000E+00
         0.00000E+00
         0.00000E+00
         0.00000E+00
         0.00000E+00
         0.00000E+00
         0.00000E+00
         0.00000E+00
         0.00000E+00
         0.00000E+00
         0.00000E+00
         0.00000E+00
         0.00000E+00
         0.00000E+00
         0.00000E+00
         0.00000E+00
         0.00000E+00
         0.00000E+00
         0.00000E+00
         0.00000E+00
         0.00000E+00
         0.00000E+00
         0.00000E+00
         0.00000E+00
         0.00000E+00
         0.00000E+00
         0.00000E+00
         0.00000E+00
         0.00000E+00
         0.00000E+00
         0.00000E+00
         0.00000E+00
         0.00000E+00
         0.00000E+00
         0.00000E+00
         0.00000E+00
         0.00000E+00
         0.00000E+00
         0.00000E+00
         0.00000E+00
         0.00000E+00
         0.00000E+00
         0.00000E+00
         0.00000E+00
         0.00000E+00
         0.00000E+00
         0.00000E+00
         0.00000E+00
         0.00000E+00
         0.00000E+00
         0.00000E+00
         0.00000E+00
         0.00000E+00
         0.00000E+00
         0.00000E+00
         0.00000E+00
         0.00000E+00
         0.00000E+00
         0.00000E+00
         0.00000E+00
         0.00000E+00
         0.00000E+00
         0.00000E+00
         0.00000E+00
         0.00000E+00
         0.00000E+00
         0.00000E+00
         0.00000E+00
         0.00000E+00
         0.00000E+00
         0.00000E+00
         0.00000E+00
         0.00000E+00
         0.00000E+00
         0.00000E+00
         0.00000E+00
         0.00000E+00
         0.00000E+00
         0.00000E+00
         0.00000E+00
         0.00000E+00
         0.00000E+00
         0.00000E+00
         0.00000E+00
         0.00000E+00
         0.00000E+00
         0.00000E+00
         0.00000E+00
         0.00000E+00
         0.00000E+00
         0.00000E+00
         0.00000E+00
         0.00000E+00
         0.00000E+00
         0.00000E+00
         0.00000E+00
         0.00000E+00
         0.00000E+00
         0.00000E+00
         0.00000E+00
         0.00000E+00
         0.00000E+00
         0.00000E+00
         0.00000E+00
         0.00000E+00
         0.00000E+00
         0.00000E+00
         0.00000E+00
         0.00000E+00
         0.00000E+00
         0.00000E+00
         0.00000E+00
         0.00000E+00
         0.00000E+00
         0.00000E+00
         0.00000E+00
         0.00000E+00
         0.00000E+00
         0.00000E+00
         0.00000E+00
         0.00000E+00
         0.00000E+00
         0.00000E+00
         0.00000E+00
         0.00000E+00
         0.00000E+00
         0.00000E+00
         0.00000E+00
         0.00000E+00
         0.00000E+00
         0.00000E+00
         0.00000E+00
         0.00000E+00
         0.00000E+00
         0.00000E+00
         0.00000E+00
         0.00000E+00
         0.00000E+00
         0.00000E+00
         0.00000E+00
         0.00000E+00
         0.00000E+00
         0.00000E+00
         0.00000E+00
         0.00000E+00
         0.00000E+00
         0.00000E+00
         0.00000E+00
         0.00000E+00
         0.00000E+00
         0.00000E+00
         0.00000E+00
         0.00000E+00
         0.00000E+00
         0.00000E+00
         0.00000E+00
         0.00000E+00
         0.00000E+00
         0.00000E+00
         0.00000E+00
         0.00000E+00
         0.00000E+00
         0.00000E+00
         0.00000E+00
         0.00000E+00
         0.00000E+00
         0.00000E+00
         0.00000E+00
         0.00000E+00
         0.00000E+00
         0.00000E+00
         0.00000E+00
         0.00000E+00
         0.00000E+00
         0.00000E+00
         0.00000E+00
         0.00000E+00
         0.00000E+00
         0.00000E+00
         0.00000E+00
         0.00000E+00
         0.00000E+00
         0.00000E+00
         0.00000E+00
         0.00000E+00
         0.00000E+00
         0.00000E+00
         0.00000E+00
         0.00000E+00
         0.00000E+00
         0.00000E+00
         0.00000E+00
         0.00000E+00
         0.00000E+00
         0.00000E+00
         0.00000E+00
         0.00000E+00
         0.00000E+00
         0.00000E+00
         0.00000E+00
         0.00000E+00
         0.00000E+00
         0.00000E+00
         0.00000E+00
         0.00000E+00
         0.00000E+00
         0.00000E+00
         0.00000E+00
         0.00000E+00
         0.00000E+00
         0.00000E+00
         0.00000E+00
         0.00000E+00
         0.00000E+00
         0.00000E+00
         0.00000E+00
         0.00000E+00
         0.00000E+00
         0.00000E+00
         0.00000E+00
         0.00000E+00
         0.00000E+00
         0.00000E+00
         0.00000E+00
         0.00000E+00
         0.00000E+00
         0.00000E+00
         0.00000E+00
         0.00000E+00
         0.00000E+00
         0.00000E+00
         0.00000E+00
         0.00000E+00
         0.00000E+00
         0.00000E+00
         0.00000E+00
         0.00000E+00
         0.00000E+00
         0.00000E+00
         0.00000E+00
         0.00000E+00
         0.00000E+00
         0.00000E+00
         0.00000E+00
         0.00000E+00
         0.00000E+00
         0.00000E+00
         0.00000E+00
         0.00000E+00
         0.00000E+00
         0.00000E+00
         0.00000E+00
         0.00000E+00
         0.00000E+00
         0.00000E+00
         0.00000E+00
         0.00000E+00
         0.00000E+00
         0.00000E+00
         0.00000E+00
         0.00000E+00
         0.00000E+00
         0.00000E+00
         0.00000E+00
         0.00000E+00
         0.00000E+00
         0.00000E+00
         0.00000E+00
         0.00000E+00
         0.00000E+00
         0.00000E+00
         0.00000E+00
         0.00000E+00
         0.00000E+00
         0.00000E+00
         0.00000E+00
         0.00000E+00
         0.00000E+00
         0.00000E+00
         0.00000E+00
         0.00000E+00
         0.00000E+00
         0.00000E+00
         0.00000E+00
         0.00000E+00
         0.00000E+00
         0.00000E+00
         0.00000E+00
         0.00000E+00
         0.00000E+00
         0.00000E+00
         0.00000E+00
         0.00000E+00
         0.00000E+00
         0.00000E+00
         0.00000E+00
         0.00000E+00
         0.00000E+00
         0.00000E+00
         0.00000E+00
         0.00000E+00
         0.00000E+00
         0.00000E+00
         0.00000E+00
         0.00000E+00
         0.00000E+00
         0.00000E+00
         0.00000E+00
         0.00000E+00
         0.00000E+00
         0.00000E+00
         0.00000E+00
         0.00000E+00
         0.00000E+00
         0.00000E+00
         0.00000E+00
         0.00000E+00
         0.00000E+00
         0.00000E+00
         0.00000E+00
         0.00000E+00
         0.00000E+00
         0.00000E+00
         0.00000E+00
         0.00000E+00
         0.00000E+00
         0.00000E+00
         0.00000E+00
         0.00000E+00
         0.00000E+00
         0.00000E+00
         0.00000E+00
         0.00000E+00
         0.00000E+00
         0.00000E+00
  
SCALARS                 displacement_y  double 1
LOOKUP_TABLE default
         0.00000E+00
         0.00000E+00
         0.00000E+00
         0.00000E+00
         0.00000E+00
         0.00000E+00
         0.00000E+00
         0.00000E+00
         0.00000E+00
         0.00000E+00
         0.00000E+00
         0.00000E+00
         0.00000E+00
         0.00000E+00
         0.00000E+00
         0.00000E+00
         0.00000E+00
         0.00000E+00
         0.00000E+00
         0.00000E+00
         0.00000E+00
         0.00000E+00
         0.00000E+00
         0.00000E+00
         0.00000E+00
         0.00000E+00
         0.00000E+00
         0.00000E+00
         0.00000E+00
         0.00000E+00
         0.00000E+00
         0.00000E+00
         0.00000E+00
         0.00000E+00
         0.00000E+00
         0.00000E+00
         0.00000E+00
         0.00000E+00
         0.00000E+00
         0.00000E+00
         0.00000E+00
         0.00000E+00
         0.00000E+00
         0.00000E+00
         0.00000E+00
         0.00000E+00
         0.00000E+00
         0.00000E+00
         0.00000E+00
         0.00000E+00
         0.00000E+00
         0.00000E+00
         0.00000E+00
         0.00000E+00
         0.00000E+00
         0.00000E+00
         0.00000E+00
         0.00000E+00
         0.00000E+00
         0.00000E+00
         0.00000E+00
         0.00000E+00
         0.00000E+00
         0.00000E+00
         0.00000E+00
         0.00000E+00
         0.00000E+00
         0.00000E+00
         0.00000E+00
         0.00000E+00
         0.00000E+00
         0.00000E+00
         0.00000E+00
         0.00000E+00
         0.00000E+00
         0.00000E+00
         0.00000E+00
         0.00000E+00
         0.00000E+00
         0.00000E+00
         0.00000E+00
         0.00000E+00
         0.00000E+00
         0.00000E+00
         0.00000E+00
         0.00000E+00
         0.00000E+00
         0.00000E+00
         0.00000E+00
         0.00000E+00
         0.00000E+00
         0.00000E+00
         0.00000E+00
         0.00000E+00
         0.00000E+00
         0.00000E+00
         0.00000E+00
         0.00000E+00
         0.00000E+00
         0.00000E+00
         0.00000E+00
         0.00000E+00
         0.00000E+00
         0.00000E+00
         0.00000E+00
         0.00000E+00
         0.00000E+00
         0.00000E+00
         0.00000E+00
         0.00000E+00
         0.00000E+00
         0.00000E+00
         0.00000E+00
         0.00000E+00
         0.00000E+00
         0.00000E+00
         0.00000E+00
         0.00000E+00
         0.00000E+00
         0.00000E+00
         0.00000E+00
         0.00000E+00
         0.00000E+00
         0.00000E+00
         0.00000E+00
         0.00000E+00
         0.00000E+00
         0.00000E+00
         0.00000E+00
         0.00000E+00
         0.00000E+00
         0.00000E+00
         0.00000E+00
         0.00000E+00
         0.00000E+00
         0.00000E+00
         0.00000E+00
         0.00000E+00
         0.00000E+00
         0.00000E+00
         0.00000E+00
         0.00000E+00
         0.00000E+00
         0.00000E+00
         0.00000E+00
         0.00000E+00
         0.00000E+00
         0.00000E+00
         0.00000E+00
         0.00000E+00
         0.00000E+00
         0.00000E+00
         0.00000E+00
         0.00000E+00
         0.00000E+00
         0.00000E+00
         0.00000E+00
         0.00000E+00
         0.00000E+00
         0.00000E+00
         0.00000E+00
         0.00000E+00
         0.00000E+00
         0.00000E+00
         0.00000E+00
         0.00000E+00
         0.00000E+00
         0.00000E+00
         0.00000E+00
         0.00000E+00
         0.00000E+00
         0.00000E+00
         0.00000E+00
         0.00000E+00
         0.00000E+00
         0.00000E+00
         0.00000E+00
         0.00000E+00
         0.00000E+00
         0.00000E+00
         0.00000E+00
         0.00000E+00
         0.00000E+00
         0.00000E+00
         0.00000E+00
         0.00000E+00
         0.00000E+00
         0.00000E+00
         0.00000E+00
         0.00000E+00
         0.00000E+00
         0.00000E+00
         0.00000E+00
         0.00000E+00
         0.00000E+00
         0.00000E+00
         0.00000E+00
         0.00000E+00
         0.00000E+00
         0.00000E+00
         0.00000E+00
         0.00000E+00
         0.00000E+00
         0.00000E+00
         0.00000E+00
         0.00000E+00
         0.00000E+00
         0.00000E+00
         0.00000E+00
         0.00000E+00
         0.00000E+00
         0.00000E+00
         0.00000E+00
         0.00000E+00
         0.00000E+00
         0.00000E+00
         0.00000E+00
         0.00000E+00
         0.00000E+00
         0.00000E+00
         0.00000E+00
         0.00000E+00
         0.00000E+00
         0.00000E+00
         0.00000E+00
         0.00000E+00
         0.00000E+00
         0.00000E+00
         0.00000E+00
         0.00000E+00
         0.00000E+00
         0.00000E+00
         0.00000E+00
         0.00000E+00
         0.00000E+00
         0.00000E+00
         0.00000E+00
         0.00000E+00
         0.00000E+00
         0.00000E+00
         0.00000E+00
         0.00000E+00
         0.00000E+00
         0.00000E+00
         0.00000E+00
         0.00000E+00
         0.00000E+00
         0.00000E+00
         0.00000E+00
         0.00000E+00
         0.00000E+00
         0.00000E+00
         0.00000E+00
         0.00000E+00
         0.00000E+00
         0.00000E+00
         0.00000E+00
         0.00000E+00
         0.00000E+00
         0.00000E+00
         0.00000E+00
         0.00000E+00
         0.00000E+00
         0.00000E+00
         0.00000E+00
         0.00000E+00
         0.00000E+00
         0.00000E+00
         0.00000E+00
         0.00000E+00
         0.00000E+00
         0.00000E+00
         0.00000E+00
         0.00000E+00
         0.00000E+00
         0.00000E+00
         0.00000E+00
         0.00000E+00
         0.00000E+00
         0.00000E+00
         0.00000E+00
         0.00000E+00
         0.00000E+00
         0.00000E+00
         0.00000E+00
         0.00000E+00
         0.00000E+00
         0.00000E+00
         0.00000E+00
         0.00000E+00
         0.00000E+00
         0.00000E+00
         0.00000E+00
         0.00000E+00
         0.00000E+00
         0.00000E+00
         0.00000E+00
         0.00000E+00
         0.00000E+00
         0.00000E+00
         0.00000E+00
         0.00000E+00
         0.00000E+00
         0.00000E+00
         0.00000E+00
         0.00000E+00
         0.00000E+00
         0.00000E+00
         0.00000E+00
         0.00000E+00
         0.00000E+00
         0.00000E+00
         0.00000E+00
         0.00000E+00
         0.00000E+00
         0.00000E+00
         0.00000E+00
         0.00000E+00
         0.00000E+00
         0.00000E+00
         0.00000E+00
         0.00000E+00
         0.00000E+00
         0.00000E+00
         0.00000E+00
         0.00000E+00
         0.00000E+00
         0.00000E+00
         0.00000E+00
         0.00000E+00
         0.00000E+00
         0.00000E+00
         0.00000E+00
         0.00000E+00
         0.00000E+00
         0.00000E+00
         0.00000E+00
         0.00000E+00
         0.00000E+00
         0.00000E+00
         0.00000E+00
         0.00000E+00
         0.00000E+00
         0.00000E+00
         0.00000E+00
         0.00000E+00
         0.00000E+00
         0.00000E+00
         0.00000E+00
         0.00000E+00
         0.00000E+00
         0.00000E+00
         0.00000E+00
         0.00000E+00
         0.00000E+00
         0.00000E+00
         0.00000E+00
         0.00000E+00
         0.00000E+00
         0.00000E+00
         0.00000E+00
         0.00000E+00
         0.00000E+00
         0.00000E+00
         0.00000E+00
         0.00000E+00
         0.00000E+00
         0.00000E+00
         0.00000E+00
         0.00000E+00
         0.00000E+00
         0.00000E+00
         0.00000E+00
         0.00000E+00
         0.00000E+00
         0.00000E+00
         0.00000E+00
         0.00000E+00
         0.00000E+00
         0.00000E+00
         0.00000E+00
         0.00000E+00
         0.00000E+00
         0.00000E+00
         0.00000E+00
         0.00000E+00
         0.00000E+00
         0.00000E+00
         0.00000E+00
         0.00000E+00
         0.00000E+00
         0.00000E+00
         0.00000E+00
         0.00000E+00
         0.00000E+00
         0.00000E+00
         0.00000E+00
         0.00000E+00
         0.00000E+00
         0.00000E+00
         0.00000E+00
         0.00000E+00
         0.00000E+00
         0.00000E+00
         0.00000E+00
         0.00000E+00
         0.00000E+00
         0.00000E+00
         0.00000E+00
         0.00000E+00
         0.00000E+00
         0.00000E+00
         0.00000E+00
         0.00000E+00
         0.00000E+00
         0.00000E+00
         0.00000E+00
         0.00000E+00
         0.00000E+00
         0.00000E+00
         0.00000E+00
         0.00000E+00
         0.00000E+00
         0.00000E+00
         0.00000E+00
         0.00000E+00
         0.00000E+00
         0.00000E+00
         0.00000E+00
         0.00000E+00
         0.00000E+00
         0.00000E+00
         0.00000E+00
         0.00000E+00
         0.00000E+00
         0.00000E+00
         0.00000E+00
         0.00000E+00
         0.00000E+00
         0.00000E+00
         0.00000E+00
         0.00000E+00
         0.00000E+00
         0.00000E+00
         0.00000E+00
         0.00000E+00
         0.00000E+00
         0.00000E+00
         0.00000E+00
         0.00000E+00
         0.00000E+00
         0.00000E+00
         0.00000E+00
         0.00000E+00
         0.00000E+00
         0.00000E+00
         0.00000E+00
         0.00000E+00
         0.00000E+00
         0.00000E+00
         0.00000E+00
         0.00000E+00
         0.00000E+00
         0.00000E+00
         0.00000E+00
         0.00000E+00
         0.00000E+00
         0.00000E+00
         0.00000E+00
         0.00000E+00
         0.00000E+00
         0.00000E+00
         0.00000E+00
         0.00000E+00
         0.00000E+00
         0.00000E+00
         0.00000E+00
         0.00000E+00
         0.00000E+00
         0.00000E+00
         0.00000E+00
         0.00000E+00
         0.00000E+00
         0.00000E+00
         0.00000E+00
         0.00000E+00
         0.00000E+00
         0.00000E+00
         0.00000E+00
         0.00000E+00
         0.00000E+00
         0.00000E+00
         0.00000E+00
         0.00000E+00
         0.00000E+00
         0.00000E+00
         0.00000E+00
         0.00000E+00
         0.00000E+00
         0.00000E+00
         0.00000E+00
         0.00000E+00
         0.00000E+00
         0.00000E+00
         0.00000E+00
         0.00000E+00
         0.00000E+00
         0.00000E+00
         0.00000E+00
         0.00000E+00
         0.00000E+00
         0.00000E+00
         0.00000E+00
         0.00000E+00
         0.00000E+00
         0.00000E+00
         0.00000E+00
         0.00000E+00
         0.00000E+00
         0.00000E+00
         0.00000E+00
         0.00000E+00
         0.00000E+00
         0.00000E+00
         0.00000E+00
         0.00000E+00
         0.00000E+00
         0.00000E+00
         0.00000E+00
         0.00000E+00
         0.00000E+00
         0.00000E+00
         0.00000E+00
         0.00000E+00
         0.00000E+00
         0.00000E+00
         0.00000E+00
         0.00000E+00
         0.00000E+00
         0.00000E+00
         0.00000E+00
         0.00000E+00
         0.00000E+00
         0.00000E+00
         0.00000E+00
         0.00000E+00
         0.00000E+00
         0.00000E+00
         0.00000E+00
         0.00000E+00
         0.00000E+00
         0.00000E+00
         0.00000E+00
         0.00000E+00
         0.00000E+00
         0.00000E+00
         0.00000E+00
         0.00000E+00
         0.00000E+00
         0.00000E+00
         0.00000E+00
         0.00000E+00
         0.00000E+00
         0.00000E+00
         0.00000E+00
         0.00000E+00
         0.00000E+00
         0.00000E+00
         0.00000E+00
         0.00000E+00
         0.00000E+00
         0.00000E+00
         0.00000E+00
         0.00000E+00
         0.00000E+00
         0.00000E+00
         0.00000E+00
         0.00000E+00
         0.00000E+00
         0.00000E+00
         0.00000E+00
         0.00000E+00
         0.00000E+00
         0.00000E+00
         0.00000E+00
         0.00000E+00
         0.00000E+00
         0.00000E+00
         0.00000E+00
         0.00000E+00
         0.00000E+00
         0.00000E+00
         0.00000E+00
         0.00000E+00
         0.00000E+00
         0.00000E+00
         0.00000E+00
         0.00000E+00
         0.00000E+00
         0.00000E+00
         0.00000E+00
         0.00000E+00
         0.00000E+00
         0.00000E+00
         0.00000E+00
         0.00000E+00
         0.00000E+00
         0.00000E+00
         0.00000E+00
         0.00000E+00
         0.00000E+00
         0.00000E+00
         0.00000E+00
         0.00000E+00
         0.00000E+00
         0.00000E+00
         0.00000E+00
         0.00000E+00
         0.00000E+00
         0.00000E+00
         0.00000E+00
         0.00000E+00
         0.00000E+00
         0.00000E+00
         0.00000E+00
         0.00000E+00
         0.00000E+00
         0.00000E+00
         0.00000E+00
         0.00000E+00
         0.00000E+00
         0.00000E+00
         0.00000E+00
         0.00000E+00
         0.00000E+00
         0.00000E+00
         0.00000E+00
         0.00000E+00
         0.00000E+00
         0.00000E+00
         0.00000E+00
         0.00000E+00
         0.00000E+00
         0.00000E+00
         0.00000E+00
         0.00000E+00
         0.00000E+00
         0.00000E+00
         0.00000E+00
         0.00000E+00
         0.00000E+00
         0.00000E+00
         0.00000E+00
         0.00000E+00
         0.00000E+00
         0.00000E+00
         0.00000E+00
         0.00000E+00
         0.00000E+00
         0.00000E+00
         0.00000E+00
         0.00000E+00
         0.00000E+00
         0.00000E+00
         0.00000E+00
         0.00000E+00
         0.00000E+00
         0.00000E+00
         0.00000E+00
         0.00000E+00
         0.00000E+00
         0.00000E+00
         0.00000E+00
         0.00000E+00
         0.00000E+00
         0.00000E+00
         0.00000E+00
         0.00000E+00
         0.00000E+00
         0.00000E+00
         0.00000E+00
         0.00000E+00
         0.00000E+00
         0.00000E+00
         0.00000E+00
         0.00000E+00
         0.00000E+00
         0.00000E+00
         0.00000E+00
         0.00000E+00
         0.00000E+00
         0.00000E+00
         0.00000E+00
         0.00000E+00
         0.00000E+00
         0.00000E+00
         0.00000E+00
         0.00000E+00
         0.00000E+00
         0.00000E+00
         0.00000E+00
         0.00000E+00
         0.00000E+00
         0.00000E+00
         0.00000E+00
         0.00000E+00
         0.00000E+00
         0.00000E+00
         0.00000E+00
         0.00000E+00
         0.00000E+00
         0.00000E+00
         0.00000E+00
         0.00000E+00
         0.00000E+00
         0.00000E+00
         0.00000E+00
         0.00000E+00
         0.00000E+00
         0.00000E+00
         0.00000E+00
         0.00000E+00
         0.00000E+00
         0.00000E+00
         0.00000E+00
         0.00000E+00
         0.00000E+00
         0.00000E+00
         0.00000E+00
         0.00000E+00
         0.00000E+00
         0.00000E+00
         0.00000E+00
         0.00000E+00
         0.00000E+00
         0.00000E+00
         0.00000E+00
         0.00000E+00
         0.00000E+00
         0.00000E+00
         0.00000E+00
         0.00000E+00
         0.00000E+00
         0.00000E+00
         0.00000E+00
         0.00000E+00
         0.00000E+00
         0.00000E+00
         0.00000E+00
         0.00000E+00
         0.00000E+00
         0.00000E+00
         0.00000E+00
         0.00000E+00
         0.00000E+00
         0.00000E+00
         0.00000E+00
         0.00000E+00
         0.00000E+00
         0.00000E+00
         0.00000E+00
         0.00000E+00
         0.00000E+00
         0.00000E+00
         0.00000E+00
         0.00000E+00
         0.00000E+00
         0.00000E+00
         0.00000E+00
         0.00000E+00
         0.00000E+00
         0.00000E+00
         0.00000E+00
         0.00000E+00
         0.00000E+00
         0.00000E+00
         0.00000E+00
         0.00000E+00
         0.00000E+00
         0.00000E+00
         0.00000E+00
         0.00000E+00
         0.00000E+00
         0.00000E+00
         0.00000E+00
         0.00000E+00
         0.00000E+00
         0.00000E+00
         0.00000E+00
         0.00000E+00
         0.00000E+00
         0.00000E+00
         0.00000E+00
         0.00000E+00
         0.00000E+00
         0.00000E+00
         0.00000E+00
         0.00000E+00
         0.00000E+00
         0.00000E+00
         0.00000E+00
         0.00000E+00
         0.00000E+00
         0.00000E+00
         0.00000E+00
         0.00000E+00
         0.00000E+00
         0.00000E+00
         0.00000E+00
         0.00000E+00
         0.00000E+00
         0.00000E+00
         0.00000E+00
         0.00000E+00
         0.00000E+00
         0.00000E+00
         0.00000E+00
         0.00000E+00
         0.00000E+00
         0.00000E+00
         0.00000E+00
         0.00000E+00
         0.00000E+00
         0.00000E+00
         0.00000E+00
         0.00000E+00
         0.00000E+00
         0.00000E+00
         0.00000E+00
         0.00000E+00
         0.00000E+00
         0.00000E+00
         0.00000E+00
         0.00000E+00
         0.00000E+00
         0.00000E+00
         0.00000E+00
         0.00000E+00
         0.00000E+00
         0.00000E+00
         0.00000E+00
         0.00000E+00
         0.00000E+00
         0.00000E+00
         0.00000E+00
         0.00000E+00
         0.00000E+00
         0.00000E+00
         0.00000E+00
         0.00000E+00
         0.00000E+00
         0.00000E+00
         0.00000E+00
         0.00000E+00
         0.00000E+00
         0.00000E+00
         0.00000E+00
         0.00000E+00
         0.00000E+00
         0.00000E+00
         0.00000E+00
         0.00000E+00
         0.00000E+00
         0.00000E+00
         0.00000E+00
         0.00000E+00
         0.00000E+00
         0.00000E+00
         0.00000E+00
         0.00000E+00
         0.00000E+00
         0.00000E+00
         0.00000E+00
         0.00000E+00
         0.00000E+00
         0.00000E+00
         0.00000E+00
         0.00000E+00
         0.00000E+00
         0.00000E+00
         0.00000E+00
         0.00000E+00
         0.00000E+00
         0.00000E+00
         0.00000E+00
         0.00000E+00
         0.00000E+00
         0.00000E+00
         0.00000E+00
         0.00000E+00
         0.00000E+00
         0.00000E+00
         0.00000E+00
         0.00000E+00
         0.00000E+00
         0.00000E+00
         0.00000E+00
         0.00000E+00
         0.00000E+00
         0.00000E+00
         0.00000E+00
         0.00000E+00
         0.00000E+00
         0.00000E+00
         0.00000E+00
         0.00000E+00
         0.00000E+00
         0.00000E+00
         0.00000E+00
         0.00000E+00
         0.00000E+00
         0.00000E+00
         0.00000E+00
         0.00000E+00
         0.00000E+00
         0.00000E+00
         0.00000E+00
         0.00000E+00
         0.00000E+00
         0.00000E+00
         0.00000E+00
         0.00000E+00
         0.00000E+00
         0.00000E+00
         0.00000E+00
         0.00000E+00
         0.00000E+00
         0.00000E+00
         0.00000E+00
         0.00000E+00
         0.00000E+00
         0.00000E+00
         0.00000E+00
         0.00000E+00
         0.00000E+00
         0.00000E+00
         0.00000E+00
         0.00000E+00
         0.00000E+00
         0.00000E+00
         0.00000E+00
         0.00000E+00
         0.00000E+00
         0.00000E+00
         0.00000E+00
         0.00000E+00
         0.00000E+00
         0.00000E+00
         0.00000E+00
         0.00000E+00
         0.00000E+00
         0.00000E+00
         0.00000E+00
         0.00000E+00
         0.00000E+00
         0.00000E+00
         0.00000E+00
         0.00000E+00
         0.00000E+00
         0.00000E+00
         0.00000E+00
         0.00000E+00
         0.00000E+00
         0.00000E+00
         0.00000E+00
         0.00000E+00
         0.00000E+00
         0.00000E+00
         0.00000E+00
         0.00000E+00
         0.00000E+00
         0.00000E+00
         0.00000E+00
         0.00000E+00
         0.00000E+00
         0.00000E+00
         0.00000E+00
         0.00000E+00
         0.00000E+00
         0.00000E+00
         0.00000E+00
         0.00000E+00
         0.00000E+00
         0.00000E+00
         0.00000E+00
         0.00000E+00
         0.00000E+00
         0.00000E+00
         0.00000E+00
         0.00000E+00
         0.00000E+00
         0.00000E+00
         0.00000E+00
         0.00000E+00
         0.00000E+00
         0.00000E+00
         0.00000E+00
         0.00000E+00
         0.00000E+00
         0.00000E+00
         0.00000E+00
         0.00000E+00
         0.00000E+00
         0.00000E+00
         0.00000E+00
         0.00000E+00
         0.00000E+00
         0.00000E+00
         0.00000E+00
         0.00000E+00
         0.00000E+00
         0.00000E+00
         0.00000E+00
         0.00000E+00
         0.00000E+00
         0.00000E+00
         0.00000E+00
         0.00000E+00
         0.00000E+00
         0.00000E+00
         0.00000E+00
         0.00000E+00
         0.00000E+00
         0.00000E+00
         0.00000E+00
         0.00000E+00
         0.00000E+00
         0.00000E+00
         0.00000E+00
         0.00000E+00
         0.00000E+00
         0.00000E+00
         0.00000E+00
         0.00000E+00
         0.00000E+00
         0.00000E+00
         0.00000E+00
         0.00000E+00
         0.00000E+00
         0.00000E+00
         0.00000E+00
         0.00000E+00
         0.00000E+00
         0.00000E+00
         0.00000E+00
         0.00000E+00
         0.00000E+00
         0.00000E+00
         0.00000E+00
         0.00000E+00
         0.00000E+00
         0.00000E+00
         0.00000E+00
         0.00000E+00
         0.00000E+00
         0.00000E+00
         0.00000E+00
         0.00000E+00
         0.00000E+00
         0.00000E+00
         0.00000E+00
         0.00000E+00
         0.00000E+00
         0.00000E+00
         0.00000E+00
         0.00000E+00
         0.00000E+00
         0.00000E+00
         0.00000E+00
         0.00000E+00
         0.00000E+00
         0.00000E+00
         0.00000E+00
         0.00000E+00
         0.00000E+00
         0.00000E+00
         0.00000E+00
         0.00000E+00
         0.00000E+00
         0.00000E+00
         0.00000E+00
         0.00000E+00
         0.00000E+00
         0.00000E+00
         0.00000E+00
         0.00000E+00
         0.00000E+00
         0.00000E+00
         0.00000E+00
         0.00000E+00
         0.00000E+00
         0.00000E+00
         0.00000E+00
         0.00000E+00
         0.00000E+00
         0.00000E+00
         0.00000E+00
         0.00000E+00
         0.00000E+00
         0.00000E+00
         0.00000E+00
         0.00000E+00
         0.00000E+00
         0.00000E+00
         0.00000E+00
         0.00000E+00
         0.00000E+00
         0.00000E+00
         0.00000E+00
         0.00000E+00
         0.00000E+00
         0.00000E+00
         0.00000E+00
         0.00000E+00
         0.00000E+00
         0.00000E+00
         0.00000E+00
         0.00000E+00
         0.00000E+00
         0.00000E+00
         0.00000E+00
         0.00000E+00
         0.00000E+00
         0.00000E+00
         0.00000E+00
         0.00000E+00
         0.00000E+00
         0.00000E+00
         0.00000E+00
         0.00000E+00
         0.00000E+00
         0.00000E+00
         0.00000E+00
         0.00000E+00
         0.00000E+00
         0.00000E+00
         0.00000E+00
         0.00000E+00
         0.00000E+00
         0.00000E+00
         0.00000E+00
         0.00000E+00
         0.00000E+00
         0.00000E+00
         0.00000E+00
         0.00000E+00
         0.00000E+00
         0.00000E+00
         0.00000E+00
         0.00000E+00
         0.00000E+00
         0.00000E+00
         0.00000E+00
         0.00000E+00
         0.00000E+00
         0.00000E+00
         0.00000E+00
         0.00000E+00
         0.00000E+00
         0.00000E+00
         0.00000E+00
         0.00000E+00
         0.00000E+00
         0.00000E+00
         0.00000E+00
         0.00000E+00
         0.00000E+00
         0.00000E+00
         0.00000E+00
         0.00000E+00
         0.00000E+00
         0.00000E+00
         0.00000E+00
         0.00000E+00
         0.00000E+00
         0.00000E+00
         0.00000E+00
         0.00000E+00
         0.00000E+00
         0.00000E+00
         0.00000E+00
         0.00000E+00
         0.00000E+00
         0.00000E+00
         0.00000E+00
         0.00000E+00
         0.00000E+00
         0.00000E+00
         0.00000E+00
         0.00000E+00
         0.00000E+00
         0.00000E+00
         0.00000E+00
         0.00000E+00
         0.00000E+00
         0.00000E+00
         0.00000E+00
         0.00000E+00
         0.00000E+00
         0.00000E+00
         0.00000E+00
         0.00000E+00
         0.00000E+00
         0.00000E+00
         0.00000E+00
         0.00000E+00
         0.00000E+00
         0.00000E+00
         0.00000E+00
         0.00000E+00
         0.00000E+00
         0.00000E+00
         0.00000E+00
         0.00000E+00
         0.00000E+00
         0.00000E+00
         0.00000E+00
         0.00000E+00
         0.00000E+00
         0.00000E+00
         0.00000E+00
         0.00000E+00
         0.00000E+00
         0.00000E+00
         0.00000E+00
         0.00000E+00
         0.00000E+00
         0.00000E+00
         0.00000E+00
         0.00000E+00
         0.00000E+00
         0.00000E+00
         0.00000E+00
         0.00000E+00
         0.00000E+00
         0.00000E+00
         0.00000E+00
         0.00000E+00
         0.00000E+00
         0.00000E+00
         0.00000E+00
         0.00000E+00
         0.00000E+00
         0.00000E+00
         0.00000E+00
         0.00000E+00
         0.00000E+00
         0.00000E+00
         0.00000E+00
         0.00000E+00
         0.00000E+00
         0.00000E+00
         0.00000E+00
         0.00000E+00
         0.00000E+00
         0.00000E+00
         0.00000E+00
         0.00000E+00
         0.00000E+00
         0.00000E+00
         0.00000E+00
         0.00000E+00
         0.00000E+00
         0.00000E+00
         0.00000E+00
         0.00000E+00
         0.00000E+00
         0.00000E+00
         0.00000E+00
         0.00000E+00
         0.00000E+00
         0.00000E+00
         0.00000E+00
         0.00000E+00
         0.00000E+00
         0.00000E+00
         0.00000E+00
         0.00000E+00
         0.00000E+00
         0.00000E+00
         0.00000E+00
         0.00000E+00
         0.00000E+00
         0.00000E+00
         0.00000E+00
         0.00000E+00
         0.00000E+00
         0.00000E+00
         0.00000E+00
         0.00000E+00
         0.00000E+00
         0.00000E+00
         0.00000E+00
         0.00000E+00
         0.00000E+00
         0.00000E+00
         0.00000E+00
         0.00000E+00
         0.00000E+00
         0.00000E+00
         0.00000E+00
         0.00000E+00
         0.00000E+00
         0.00000E+00
         0.00000E+00
         0.00000E+00
         0.00000E+00
         0.00000E+00
         0.00000E+00
         0.00000E+00
         0.00000E+00
         0.00000E+00
         0.00000E+00
         0.00000E+00
         0.00000E+00
         0.00000E+00
         0.00000E+00
         0.00000E+00
         0.00000E+00
         0.00000E+00
         0.00000E+00
         0.00000E+00
         0.00000E+00
         0.00000E+00
         0.00000E+00
         0.00000E+00
         0.00000E+00
         0.00000E+00
         0.00000E+00
         0.00000E+00
         0.00000E+00
         0.00000E+00
         0.00000E+00
         0.00000E+00
         0.00000E+00
         0.00000E+00
         0.00000E+00
         0.00000E+00
         0.00000E+00
         0.00000E+00
         0.00000E+00
         0.00000E+00
         0.00000E+00
         0.00000E+00
         0.00000E+00
         0.00000E+00
         0.00000E+00
         0.00000E+00
         0.00000E+00
         0.00000E+00
         0.00000E+00
         0.00000E+00
         0.00000E+00
         0.00000E+00
         0.00000E+00
         0.00000E+00
         0.00000E+00
         0.00000E+00
         0.00000E+00
         0.00000E+00
         0.00000E+00
         0.00000E+00
         0.00000E+00
         0.00000E+00
         0.00000E+00
         0.00000E+00
         0.00000E+00
         0.00000E+00
         0.00000E+00
         0.00000E+00
         0.00000E+00
         0.00000E+00
         0.00000E+00
         0.00000E+00
         0.00000E+00
         0.00000E+00
         0.00000E+00
         0.00000E+00
         0.00000E+00
         0.00000E+00
         0.00000E+00
         0.00000E+00
         0.00000E+00
         0.00000E+00
         0.00000E+00
         0.00000E+00
         0.00000E+00
         0.00000E+00
         0.00000E+00
         0.00000E+00
         0.00000E+00
         0.00000E+00
         0.00000E+00
         0.00000E+00
         0.00000E+00
         0.00000E+00
         0.00000E+00
         0.00000E+00
         0.00000E+00
         0.00000E+00
         0.00000E+00
         0.00000E+00
         0.00000E+00
         0.00000E+00
         0.00000E+00
         0.00000E+00
         0.00000E+00
         0.00000E+00
         0.00000E+00
         0.00000E+00
         0.00000E+00
         0.00000E+00
         0.00000E+00
         0.00000E+00
         0.00000E+00
         0.00000E+00
         0.00000E+00
         0.00000E+00
         0.00000E+00
         0.00000E+00
         0.00000E+00
         0.00000E+00
         0.00000E+00
         0.00000E+00
         0.00000E+00
         0.00000E+00
         0.00000E+00
         0.00000E+00
         0.00000E+00
         0.00000E+00
         0.00000E+00
         0.00000E+00
         0.00000E+00
         0.00000E+00
         0.00000E+00
         0.00000E+00
         0.00000E+00
         0.00000E+00
         0.00000E+00
         0.00000E+00
         0.00000E+00
         0.00000E+00
         0.00000E+00
         0.00000E+00
         0.00000E+00
         0.00000E+00
         0.00000E+00
         0.00000E+00
         0.00000E+00
         0.00000E+00
         0.00000E+00
         0.00000E+00
         0.00000E+00
         0.00000E+00
         0.00000E+00
         0.00000E+00
         0.00000E+00
         0.00000E+00
         0.00000E+00
         0.00000E+00
         0.00000E+00
         0.00000E+00
         0.00000E+00
         0.00000E+00
         0.00000E+00
         0.00000E+00
         0.00000E+00
         0.00000E+00
         0.00000E+00
         0.00000E+00
         0.00000E+00
         0.00000E+00
         0.00000E+00
         0.00000E+00
         0.00000E+00
         0.00000E+00
         0.00000E+00
         0.00000E+00
         0.00000E+00
         0.00000E+00
         0.00000E+00
         0.00000E+00
         0.00000E+00
         0.00000E+00
         0.00000E+00
         0.00000E+00
         0.00000E+00
         0.00000E+00
         0.00000E+00
         0.00000E+00
         0.00000E+00
         0.00000E+00
         0.00000E+00
         0.00000E+00
         0.00000E+00
         0.00000E+00
         0.00000E+00
         0.00000E+00
         0.00000E+00
         0.00000E+00
         0.00000E+00
         0.00000E+00
         0.00000E+00
         0.00000E+00
         0.00000E+00
         0.00000E+00
         0.00000E+00
         0.00000E+00
         0.00000E+00
         0.00000E+00
         0.00000E+00
         0.00000E+00
         0.00000E+00
         0.00000E+00
         0.00000E+00
         0.00000E+00
         0.00000E+00
         0.00000E+00
         0.00000E+00
         0.00000E+00
         0.00000E+00
         0.00000E+00
         0.00000E+00
         0.00000E+00
         0.00000E+00
         0.00000E+00
         0.00000E+00
         0.00000E+00
         0.00000E+00
         0.00000E+00
         0.00000E+00
         0.00000E+00
         0.00000E+00
         0.00000E+00
         0.00000E+00
         0.00000E+00
         0.00000E+00
         0.00000E+00
         0.00000E+00
         0.00000E+00
         0.00000E+00
         0.00000E+00
         0.00000E+00
         0.00000E+00
         0.00000E+00
         0.00000E+00
         0.00000E+00
         0.00000E+00
         0.00000E+00
         0.00000E+00
         0.00000E+00
         0.00000E+00
         0.00000E+00
         0.00000E+00
         0.00000E+00
         0.00000E+00
         0.00000E+00
         0.00000E+00
         0.00000E+00
         0.00000E+00
         0.00000E+00
         0.00000E+00
         0.00000E+00
         0.00000E+00
         0.00000E+00
         0.00000E+00
         0.00000E+00
         0.00000E+00
         0.00000E+00
         0.00000E+00
         0.00000E+00
         0.00000E+00
         0.00000E+00
         0.00000E+00
         0.00000E+00
         0.00000E+00
         0.00000E+00
         0.00000E+00
         0.00000E+00
         0.00000E+00
         0.00000E+00
         0.00000E+00
         0.00000E+00
         0.00000E+00
         0.00000E+00
         0.00000E+00
         0.00000E+00
         0.00000E+00
         0.00000E+00
         0.00000E+00
         0.00000E+00
         0.00000E+00
         0.00000E+00
         0.00000E+00
         0.00000E+00
         0.00000E+00
         0.00000E+00
         0.00000E+00
         0.00000E+00
         0.00000E+00
         0.00000E+00
         0.00000E+00
         0.00000E+00
         0.00000E+00
         0.00000E+00
         0.00000E+00
         0.00000E+00
         0.00000E+00
         0.00000E+00
         0.00000E+00
         0.00000E+00
         0.00000E+00
         0.00000E+00
         0.00000E+00
         0.00000E+00
         0.00000E+00
         0.00000E+00
         0.00000E+00
         0.00000E+00
         0.00000E+00
         0.00000E+00
         0.00000E+00
         0.00000E+00
         0.00000E+00
         0.00000E+00
         0.00000E+00
         0.00000E+00
         0.00000E+00
         0.00000E+00
         0.00000E+00
         0.00000E+00
         0.00000E+00
         0.00000E+00
         0.00000E+00
         0.00000E+00
         0.00000E+00
         0.00000E+00
         0.00000E+00
         0.00000E+00
         0.00000E+00
         0.00000E+00
         0.00000E+00
         0.00000E+00
         0.00000E+00
         0.00000E+00
         0.00000E+00
         0.00000E+00
         0.00000E+00
         0.00000E+00
         0.00000E+00
         0.00000E+00
         0.00000E+00
         0.00000E+00
         0.00000E+00
         0.00000E+00
         0.00000E+00
         0.00000E+00
         0.00000E+00
         0.00000E+00
         0.00000E+00
         0.00000E+00
         0.00000E+00
         0.00000E+00
         0.00000E+00
         0.00000E+00
         0.00000E+00
         0.00000E+00
         0.00000E+00
         0.00000E+00
         0.00000E+00
         0.00000E+00
         0.00000E+00
         0.00000E+00
         0.00000E+00
         0.00000E+00
         0.00000E+00
         0.00000E+00
         0.00000E+00
         0.00000E+00
         0.00000E+00
         0.00000E+00
         0.00000E+00
         0.00000E+00
         0.00000E+00
         0.00000E+00
         0.00000E+00
         0.00000E+00
         0.00000E+00
         0.00000E+00
         0.00000E+00
         0.00000E+00
         0.00000E+00
         0.00000E+00
         0.00000E+00
         0.00000E+00
         0.00000E+00
         0.00000E+00
         0.00000E+00
         0.00000E+00
         0.00000E+00
         0.00000E+00
         0.00000E+00
         0.00000E+00
         0.00000E+00
         0.00000E+00
         0.00000E+00
         0.00000E+00
         0.00000E+00
         0.00000E+00
         0.00000E+00
         0.00000E+00
         0.00000E+00
         0.00000E+00
         0.00000E+00
         0.00000E+00
         0.00000E+00
         0.00000E+00
         0.00000E+00
         0.00000E+00
         0.00000E+00
         0.00000E+00
         0.00000E+00
         0.00000E+00
         0.00000E+00
         0.00000E+00
         0.00000E+00
         0.00000E+00
         0.00000E+00
         0.00000E+00
         0.00000E+00
         0.00000E+00
         0.00000E+00
         0.00000E+00
         0.00000E+00
         0.00000E+00
         0.00000E+00
         0.00000E+00
         0.00000E+00
         0.00000E+00
         0.00000E+00
         0.00000E+00
         0.00000E+00
         0.00000E+00
         0.00000E+00
         0.00000E+00
         0.00000E+00
         0.00000E+00
         0.00000E+00
         0.00000E+00
         0.00000E+00
         0.00000E+00
         0.00000E+00
         0.00000E+00
         0.00000E+00
         0.00000E+00
         0.00000E+00
         0.00000E+00
         0.00000E+00
         0.00000E+00
         0.00000E+00
         0.00000E+00
         0.00000E+00
         0.00000E+00
         0.00000E+00
         0.00000E+00
         0.00000E+00
         0.00000E+00
         0.00000E+00
         0.00000E+00
         0.00000E+00
         0.00000E+00
         0.00000E+00
         0.00000E+00
         0.00000E+00
         0.00000E+00
         0.00000E+00
         0.00000E+00
         0.00000E+00
         0.00000E+00
         0.00000E+00
         0.00000E+00
         0.00000E+00
         0.00000E+00
         0.00000E+00
         0.00000E+00
         0.00000E+00
         0.00000E+00
         0.00000E+00
         0.00000E+00
         0.00000E+00
         0.00000E+00
         0.00000E+00
         0.00000E+00
         0.00000E+00
         0.00000E+00
         0.00000E+00
         0.00000E+00
         0.00000E+00
         0.00000E+00
         0.00000E+00
         0.00000E+00
         0.00000E+00
         0.00000E+00
         0.00000E+00
         0.00000E+00
         0.00000E+00
         0.00000E+00
         0.00000E+00
         0.00000E+00
         0.00000E+00
         0.00000E+00
         0.00000E+00
         0.00000E+00
         0.00000E+00
         0.00000E+00
         0.00000E+00
         0.00000E+00
         0.00000E+00
         0.00000E+00
         0.00000E+00
         0.00000E+00
         0.00000E+00
         0.00000E+00
         0.00000E+00
         0.00000E+00
         0.00000E+00
         0.00000E+00
         0.00000E+00
         0.00000E+00
         0.00000E+00
         0.00000E+00
         0.00000E+00
         0.00000E+00
         0.00000E+00
         0.00000E+00
         0.00000E+00
         0.00000E+00
         0.00000E+00
         0.00000E+00
         0.00000E+00
         0.00000E+00
         0.00000E+00
         0.00000E+00
         0.00000E+00
         0.00000E+00
         0.00000E+00
         0.00000E+00
         0.00000E+00
         0.00000E+00
         0.00000E+00
         0.00000E+00
         0.00000E+00
         0.00000E+00
         0.00000E+00
         0.00000E+00
         0.00000E+00
         0.00000E+00
         0.00000E+00
         0.00000E+00
         0.00000E+00
         0.00000E+00
         0.00000E+00
         0.00000E+00
         0.00000E+00
         0.00000E+00
         0.00000E+00
         0.00000E+00
         0.00000E+00
         0.00000E+00
         0.00000E+00
         0.00000E+00
         0.00000E+00
         0.00000E+00
         0.00000E+00
         0.00000E+00
         0.00000E+00
         0.00000E+00
         0.00000E+00
         0.00000E+00
         0.00000E+00
         0.00000E+00
         0.00000E+00
         0.00000E+00
         0.00000E+00
         0.00000E+00
         0.00000E+00
         0.00000E+00
         0.00000E+00
         0.00000E+00
         0.00000E+00
         0.00000E+00
         0.00000E+00
         0.00000E+00
         0.00000E+00
         0.00000E+00
         0.00000E+00
         0.00000E+00
         0.00000E+00
         0.00000E+00
         0.00000E+00
         0.00000E+00
         0.00000E+00
         0.00000E+00
         0.00000E+00
         0.00000E+00
         0.00000E+00
         0.00000E+00
         0.00000E+00
         0.00000E+00
         0.00000E+00
         0.00000E+00
         0.00000E+00
         0.00000E+00
         0.00000E+00
         0.00000E+00
         0.00000E+00
         0.00000E+00
         0.00000E+00
         0.00000E+00
         0.00000E+00
         0.00000E+00
         0.00000E+00
         0.00000E+00
         0.00000E+00
         0.00000E+00
         0.00000E+00
         0.00000E+00
         0.00000E+00
         0.00000E+00
         0.00000E+00
         0.00000E+00
         0.00000E+00
         0.00000E+00
         0.00000E+00
         0.00000E+00
         0.00000E+00
         0.00000E+00
         0.00000E+00
         0.00000E+00
         0.00000E+00
         0.00000E+00
         0.00000E+00
         0.00000E+00
         0.00000E+00
         0.00000E+00
         0.00000E+00
         0.00000E+00
         0.00000E+00
         0.00000E+00
         0.00000E+00
  
SCALARS                 displacement_z  double 1
LOOKUP_TABLE default
        -0.94189E-02
        -0.94040E-02
        -0.94017E-02
        -0.94294E-02
        -0.57881E-16
        -0.64904E-16
        -0.62148E-16
        -0.56460E-16
        -0.93735E-02
        -0.94068E-02
        -0.58365E-16
        -0.56484E-16
        -0.93876E-02
        -0.94088E-02
        -0.69348E-16
        -0.65205E-16
        -0.94202E-02
        -0.94242E-02
        -0.51244E-16
        -0.56835E-16
        -0.93763E-02
        -0.93635E-02
        -0.93696E-02
        -0.68731E-16
        -0.60025E-16
        -0.61983E-16
        -0.94025E-02
        -0.93941E-02
        -0.65937E-16
        -0.55608E-16
        -0.94321E-02
        -0.94393E-02
        -0.94270E-02
        -0.56271E-16
        -0.52313E-16
        -0.50862E-16
        -0.94022E-02
        -0.94326E-02
        -0.59532E-16
        -0.54323E-16
        -0.93933E-02
        -0.94189E-02
        -0.51452E-16
        -0.45550E-16
        -0.93697E-02
        -0.93817E-02
        -0.56384E-16
        -0.63001E-16
        -0.94415E-02
        -0.55082E-16
        -0.93983E-02
        -0.64725E-16
        -0.94302E-02
        -0.58166E-16
        -0.94395E-02
        -0.55794E-16
        -0.94141E-02
        -0.94343E-02
        -0.56848E-16
        -0.55365E-16
        -0.94253E-02
        -0.93981E-02
        -0.57006E-16
        -0.64444E-16
        -0.94236E-02
        -0.55008E-16
        -0.94124E-02
        -0.60035E-16
        -0.93315E-02
        -0.93642E-02
        -0.57787E-16
        -0.60551E-16
        -0.93764E-02
        -0.61059E-16
        -0.94115E-02
        -0.48240E-16
        -0.94082E-02
        -0.46824E-16
        -0.93775E-02
        -0.49372E-16
        -0.93424E-02
        -0.93863E-02
        -0.47041E-16
        -0.49043E-16
        -0.94219E-02
        -0.45677E-16
        -0.93727E-02
        -0.59898E-16
        -0.93599E-02
        -0.61305E-16
        -0.93281E-02
        -0.93715E-02
        -0.58873E-16
        -0.59560E-16
        -0.94009E-02
        -0.54098E-16
        -0.93967E-02
        -0.53326E-16
        -0.93731E-02
        -0.57087E-16
        -0.93394E-02
        -0.93788E-02
        -0.55982E-16
        -0.57625E-16
        -0.92418E-02
        -0.92573E-02
        -0.43463E-16
        -0.40880E-16
        -0.92555E-02
        -0.41502E-16
        -0.92443E-02
        -0.39794E-16
        -0.92453E-02
        -0.39239E-16
        -0.92438E-02
        -0.37082E-16
        -0.92528E-02
        -0.32943E-16
        -0.92566E-02
        -0.29664E-16
        -0.92544E-02
        -0.29458E-16
        -0.92525E-02
        -0.31945E-16
        -0.92388E-02
        -0.33573E-16
        -0.92563E-02
        -0.30656E-16
        -0.92625E-02
        -0.27633E-16
        -0.92609E-02
        -0.27602E-16
        -0.92539E-02
        -0.30852E-16
        -0.92470E-02
        -0.35178E-16
        -0.92433E-02
        -0.37792E-16
        -0.92542E-02
        -0.40815E-16
        -0.92437E-02
        -0.43727E-16
        -0.92595E-02
        -0.40057E-16
        -0.92541E-02
        -0.35141E-16
        -0.92490E-02
        -0.35032E-16
        -0.92579E-02
        -0.38329E-16
        -0.92454E-02
        -0.40862E-16
        -0.92580E-02
        -0.38778E-16
        -0.92583E-02
        -0.37489E-16
        -0.13276E-01
        -0.13273E-01
        -0.13273E-01
        -0.13277E-01
        -0.13269E-01
        -0.13274E-01
        -0.13270E-01
        -0.13274E-01
        -0.13276E-01
        -0.13277E-01
        -0.13269E-01
        -0.13267E-01
        -0.13268E-01
        -0.13273E-01
        -0.13272E-01
        -0.13277E-01
        -0.13279E-01
        -0.13277E-01
        -0.13273E-01
        -0.13278E-01
        -0.13272E-01
        -0.13276E-01
        -0.13268E-01
        -0.13270E-01
        -0.13279E-01
        -0.13272E-01
        -0.13277E-01
        -0.13278E-01
        -0.13274E-01
        -0.13278E-01
        -0.13277E-01
        -0.13272E-01
        -0.13276E-01
        -0.13274E-01
        -0.13263E-01
        -0.13267E-01
        -0.13269E-01
        -0.13275E-01
        -0.13274E-01
        -0.13269E-01
        -0.13264E-01
        -0.13270E-01
        -0.13276E-01
        -0.13268E-01
        -0.13266E-01
        -0.13262E-01
        -0.13268E-01
        -0.13273E-01
        -0.13272E-01
        -0.13268E-01
        -0.13264E-01
        -0.13269E-01
        -0.13253E-01
        -0.13256E-01
        -0.13255E-01
        -0.13254E-01
        -0.13254E-01
        -0.13254E-01
        -0.13256E-01
        -0.13256E-01
        -0.13255E-01
        -0.13255E-01
        -0.13252E-01
        -0.13255E-01
        -0.13257E-01
        -0.13257E-01
        -0.13256E-01
        -0.13254E-01
        -0.13254E-01
        -0.13255E-01
        -0.13254E-01
        -0.13256E-01
        -0.13256E-01
        -0.13255E-01
        -0.13256E-01
        -0.13254E-01
        -0.13256E-01
        -0.13257E-01
        -0.13592E-01
        -0.13592E-01
        -0.13592E-01
        -0.13592E-01
        -0.13592E-01
        -0.13592E-01
        -0.13592E-01
        -0.13592E-01
        -0.13592E-01
        -0.13592E-01
        -0.13592E-01
        -0.13592E-01
        -0.13592E-01
        -0.13592E-01
        -0.13592E-01
        -0.13592E-01
        -0.13592E-01
        -0.13592E-01
        -0.13592E-01
        -0.13592E-01
        -0.13592E-01
        -0.13592E-01
        -0.13592E-01
        -0.13592E-01
        -0.13592E-01
        -0.13592E-01
        -0.13592E-01
        -0.13592E-01
        -0.13592E-01
        -0.13592E-01
        -0.13592E-01
        -0.13592E-01
        -0.13592E-01
        -0.13592E-01
        -0.13592E-01
        -0.13592E-01
        -0.13592E-01
        -0.13592E-01
        -0.13592E-01
        -0.13592E-01
        -0.13592E-01
        -0.13592E-01
        -0.13592E-01
        -0.13592E-01
        -0.13592E-01
        -0.13592E-01
        -0.13592E-01
        -0.13592E-01
        -0.13592E-01
        -0.13592E-01
        -0.13592E-01
        -0.13592E-01
        -0.13592E-01
        -0.13592E-01
        -0.13592E-01
        -0.13592E-01
        -0.13592E-01
        -0.13592E-01
        -0.13592E-01
        -0.13592E-01
        -0.13592E-01
        -0.13592E-01
        -0.13592E-01
        -0.13592E-01
        -0.13592E-01
        -0.13592E-01
        -0.13592E-01
        -0.13592E-01
        -0.13592E-01
        -0.13592E-01
        -0.13592E-01
        -0.13592E-01
        -0.13592E-01
        -0.13592E-01
        -0.13592E-01
        -0.13592E-01
        -0.13592E-01
        -0.13592E-01
        -0.13592E-01
        -0.13592E-01
        -0.13592E-01
        -0.13592E-01
        -0.13592E-01
        -0.13592E-01
        -0.13592E-01
        -0.13592E-01
        -0.13592E-01
        -0.13592E-01
        -0.13592E-01
        -0.13592E-01
        -0.13592E-01
        -0.13592E-01
        -0.13592E-01
        -0.13592E-01
        -0.13592E-01
        -0.13592E-01
        -0.13592E-01
        -0.13592E-01
        -0.13592E-01
        -0.13592E-01
        -0.13592E-01
        -0.13592E-01
        -0.13592E-01
        -0.13592E-01
        -0.13592E-01
        -0.13592E-01
        -0.13592E-01
        -0.13592E-01
        -0.13592E-01
        -0.13592E-01
        -0.13592E-01
        -0.13592E-01
        -0.13592E-01
        -0.13592E-01
        -0.13592E-01
        -0.13592E-01
        -0.13592E-01
        -0.13592E-01
        -0.13592E-01
        -0.13592E-01
        -0.13592E-01
        -0.13592E-01
        -0.13592E-01
        -0.13592E-01
        -0.13592E-01
        -0.13592E-01
        -0.13592E-01
        -0.13592E-01
        -0.13592E-01
        -0.13592E-01
        -0.13592E-01
        -0.13592E-01
        -0.13592E-01
        -0.13592E-01
        -0.13592E-01
        -0.13592E-01
        -0.13592E-01
        -0.13592E-01
        -0.13592E-01
        -0.13592E-01
        -0.13592E-01
        -0.13592E-01
        -0.13592E-01
        -0.13592E-01
        -0.13592E-01
        -0.13592E-01
        -0.13592E-01
        -0.13592E-01
        -0.13592E-01
        -0.13592E-01
        -0.13592E-01
        -0.13592E-01
        -0.13592E-01
        -0.13592E-01
        -0.13592E-01
        -0.13592E-01
        -0.13592E-01
        -0.13592E-01
        -0.13592E-01
        -0.13592E-01
        -0.13592E-01
        -0.13592E-01
        -0.13592E-01
        -0.13592E-01
        -0.13592E-01
        -0.13592E-01
        -0.13592E-01
        -0.13592E-01
        -0.13592E-01
        -0.13592E-01
        -0.13592E-01
        -0.13592E-01
        -0.13592E-01
        -0.13592E-01
        -0.13592E-01
        -0.13592E-01
        -0.13592E-01
        -0.13592E-01
        -0.13592E-01
        -0.13592E-01
        -0.13592E-01
        -0.13592E-01
        -0.13592E-01
        -0.13592E-01
        -0.13592E-01
        -0.13592E-01
        -0.13592E-01
        -0.13592E-01
        -0.13592E-01
        -0.13592E-01
        -0.13592E-01
        -0.13592E-01
        -0.13592E-01
        -0.13592E-01
        -0.13592E-01
        -0.13592E-01
        -0.13592E-01
        -0.13592E-01
        -0.13592E-01
        -0.13592E-01
        -0.13592E-01
        -0.13592E-01
        -0.13592E-01
        -0.13592E-01
        -0.13592E-01
        -0.13592E-01
        -0.13592E-01
        -0.13592E-01
        -0.13592E-01
        -0.13592E-01
        -0.13592E-01
        -0.13592E-01
        -0.13592E-01
        -0.13592E-01
        -0.13592E-01
        -0.13592E-01
        -0.13592E-01
        -0.13592E-01
        -0.13592E-01
        -0.13592E-01
        -0.13592E-01
        -0.13592E-01
        -0.13592E-01
        -0.13592E-01
        -0.13592E-01
        -0.13592E-01
        -0.13592E-01
        -0.13592E-01
        -0.13592E-01
        -0.13592E-01
        -0.13592E-01
        -0.13592E-01
        -0.13592E-01
        -0.13592E-01
        -0.13592E-01
        -0.13592E-01
        -0.13592E-01
        -0.13592E-01
        -0.13592E-01
        -0.13592E-01
        -0.13592E-01
        -0.13592E-01
        -0.13592E-01
        -0.13592E-01
        -0.13592E-01
        -0.13592E-01
        -0.13592E-01
        -0.13592E-01
        -0.13592E-01
        -0.13592E-01
        -0.13592E-01
        -0.13592E-01
        -0.13592E-01
        -0.13592E-01
        -0.13592E-01
        -0.13592E-01
        -0.13592E-01
        -0.13592E-01
        -0.13592E-01
        -0.13592E-01
        -0.13592E-01
        -0.13592E-01
        -0.13592E-01
        -0.13592E-01
        -0.13592E-01
        -0.13592E-01
        -0.13592E-01
        -0.13592E-01
        -0.13592E-01
        -0.13592E-01
        -0.13592E-01
        -0.13592E-01
        -0.13592E-01
        -0.13592E-01
        -0.13592E-01
        -0.13592E-01
        -0.13592E-01
        -0.13592E-01
        -0.13592E-01
        -0.13592E-01
        -0.13592E-01
        -0.13592E-01
        -0.13592E-01
        -0.13592E-01
        -0.13592E-01
        -0.13592E-01
        -0.13592E-01
        -0.13592E-01
        -0.13592E-01
        -0.13592E-01
        -0.13592E-01
        -0.13592E-01
        -0.13592E-01
        -0.13592E-01
        -0.13592E-01
        -0.13592E-01
        -0.13592E-01
        -0.13592E-01
        -0.13592E-01
        -0.13592E-01
        -0.13592E-01
        -0.13592E-01
        -0.13592E-01
        -0.13592E-01
        -0.13592E-01
        -0.13592E-01
        -0.13592E-01
        -0.13592E-01
        -0.13592E-01
        -0.13592E-01
        -0.13592E-01
        -0.13592E-01
        -0.13592E-01
        -0.13592E-01
        -0.13592E-01
        -0.13592E-01
        -0.13592E-01
        -0.13592E-01
        -0.13592E-01
        -0.13592E-01
        -0.13592E-01
        -0.13592E-01
        -0.13592E-01
        -0.13592E-01
        -0.13592E-01
        -0.13592E-01
        -0.13592E-01
        -0.13592E-01
        -0.13592E-01
        -0.13592E-01
        -0.13592E-01
        -0.13592E-01
        -0.13592E-01
        -0.13592E-01
        -0.13592E-01
        -0.13592E-01
        -0.13592E-01
        -0.13592E-01
        -0.13592E-01
        -0.13592E-01
        -0.13592E-01
        -0.13592E-01
        -0.13592E-01
        -0.13592E-01
        -0.13592E-01
        -0.13592E-01
        -0.13592E-01
        -0.13592E-01
        -0.13592E-01
        -0.13592E-01
        -0.13592E-01
        -0.13592E-01
        -0.13592E-01
        -0.13592E-01
        -0.13592E-01
        -0.13592E-01
        -0.13592E-01
        -0.13592E-01
        -0.13592E-01
        -0.13592E-01
        -0.13592E-01
        -0.13592E-01
        -0.13592E-01
        -0.13592E-01
        -0.13592E-01
        -0.13592E-01
        -0.13592E-01
        -0.13592E-01
        -0.13592E-01
        -0.13592E-01
        -0.13592E-01
        -0.13592E-01
        -0.13592E-01
        -0.13592E-01
        -0.13592E-01
        -0.13592E-01
        -0.13592E-01
        -0.13592E-01
        -0.13592E-01
        -0.13592E-01
        -0.13592E-01
        -0.13592E-01
        -0.13592E-01
        -0.13592E-01
        -0.13592E-01
        -0.13592E-01
        -0.13592E-01
        -0.13592E-01
        -0.13592E-01
        -0.13592E-01
        -0.13592E-01
        -0.13592E-01
        -0.13592E-01
        -0.13592E-01
        -0.13592E-01
        -0.13592E-01
        -0.13592E-01
        -0.13592E-01
        -0.13592E-01
        -0.13592E-01
        -0.13592E-01
        -0.13592E-01
        -0.13592E-01
        -0.13592E-01
        -0.13592E-01
        -0.13592E-01
        -0.13592E-01
        -0.13592E-01
        -0.13592E-01
        -0.13592E-01
        -0.13592E-01
        -0.13592E-01
        -0.13592E-01
        -0.13592E-01
        -0.13592E-01
        -0.13592E-01
        -0.13592E-01
        -0.13592E-01
        -0.13592E-01
        -0.13592E-01
        -0.13592E-01
        -0.13592E-01
        -0.13592E-01
        -0.13592E-01
        -0.13592E-01
        -0.13592E-01
        -0.13592E-01
        -0.13592E-01
        -0.13592E-01
        -0.13592E-01
        -0.13592E-01
        -0.13592E-01
        -0.13592E-01
        -0.13592E-01
        -0.13592E-01
        -0.13592E-01
        -0.13592E-01
        -0.13592E-01
        -0.13592E-01
        -0.13592E-01
        -0.13592E-01
        -0.13592E-01
        -0.13592E-01
        -0.13592E-01
        -0.13592E-01
        -0.13592E-01
        -0.13592E-01
        -0.13592E-01
        -0.13592E-01
        -0.13592E-01
        -0.13592E-01
        -0.13592E-01
        -0.13592E-01
        -0.13592E-01
        -0.13592E-01
        -0.13592E-01
        -0.13592E-01
        -0.13592E-01
        -0.13592E-01
        -0.13592E-01
        -0.13592E-01
        -0.13592E-01
        -0.13592E-01
        -0.13592E-01
        -0.13592E-01
        -0.13592E-01
        -0.13592E-01
        -0.13592E-01
        -0.13592E-01
        -0.13592E-01
        -0.13592E-01
        -0.13592E-01
        -0.13592E-01
        -0.13592E-01
        -0.13592E-01
        -0.13592E-01
        -0.13592E-01
        -0.13592E-01
        -0.13592E-01
        -0.13592E-01
        -0.13592E-01
        -0.13592E-01
        -0.13592E-01
        -0.13592E-01
        -0.13592E-01
        -0.13592E-01
        -0.13592E-01
        -0.13592E-01
        -0.13592E-01
        -0.13592E-01
        -0.13592E-01
        -0.13592E-01
        -0.13592E-01
        -0.13592E-01
        -0.13592E-01
        -0.13592E-01
        -0.13592E-01
        -0.13592E-01
        -0.13592E-01
        -0.13592E-01
        -0.13592E-01
        -0.13592E-01
        -0.13592E-01
        -0.13592E-01
        -0.13592E-01
        -0.13592E-01
        -0.13592E-01
        -0.13592E-01
        -0.13592E-01
        -0.13592E-01
        -0.13592E-01
        -0.13592E-01
        -0.13592E-01
        -0.13592E-01
        -0.13592E-01
        -0.13592E-01
        -0.13592E-01
        -0.13592E-01
        -0.13592E-01
        -0.13592E-01
        -0.13592E-01
        -0.13592E-01
        -0.13592E-01
        -0.13592E-01
        -0.13592E-01
        -0.13592E-01
        -0.13592E-01
        -0.13592E-01
        -0.13592E-01
        -0.13592E-01
        -0.13592E-01
        -0.13592E-01
        -0.13592E-01
        -0.13592E-01
        -0.13592E-01
        -0.13592E-01
        -0.13592E-01
        -0.13592E-01
        -0.13592E-01
        -0.13592E-01
        -0.13592E-01
        -0.13592E-01
        -0.13592E-01
        -0.13592E-01
        -0.13592E-01
        -0.13592E-01
        -0.13592E-01
        -0.13592E-01
        -0.13592E-01
        -0.13592E-01
        -0.13592E-01
        -0.13592E-01
        -0.13592E-01
        -0.13592E-01
        -0.13592E-01
        -0.13592E-01
        -0.13592E-01
        -0.13592E-01
        -0.13592E-01
        -0.13592E-01
        -0.13592E-01
        -0.13592E-01
        -0.13592E-01
        -0.13592E-01
        -0.13592E-01
        -0.13592E-01
        -0.13592E-01
        -0.13592E-01
        -0.13592E-01
        -0.13592E-01
        -0.13592E-01
        -0.13592E-01
        -0.13592E-01
        -0.13592E-01
        -0.13592E-01
        -0.13592E-01
        -0.13592E-01
        -0.13592E-01
        -0.13592E-01
        -0.13592E-01
        -0.13592E-01
        -0.13592E-01
        -0.13592E-01
        -0.13592E-01
        -0.13592E-01
        -0.13592E-01
        -0.13592E-01
        -0.13592E-01
        -0.13592E-01
        -0.13592E-01
        -0.13592E-01
        -0.13592E-01
        -0.13592E-01
        -0.13592E-01
        -0.13592E-01
        -0.13592E-01
        -0.13592E-01
        -0.13592E-01
        -0.13592E-01
        -0.13592E-01
        -0.13592E-01
        -0.13592E-01
        -0.13592E-01
        -0.13592E-01
        -0.13592E-01
        -0.13592E-01
        -0.13592E-01
        -0.13592E-01
        -0.13592E-01
        -0.13592E-01
        -0.13592E-01
        -0.13592E-01
        -0.13592E-01
        -0.13592E-01
        -0.13592E-01
        -0.13592E-01
        -0.13592E-01
        -0.13592E-01
        -0.13592E-01
        -0.13592E-01
        -0.13592E-01
        -0.13592E-01
        -0.13592E-01
        -0.13592E-01
        -0.13592E-01
        -0.13592E-01
        -0.13592E-01
        -0.13592E-01
        -0.13592E-01
        -0.13592E-01
        -0.13592E-01
        -0.13592E-01
        -0.13592E-01
        -0.13592E-01
        -0.13592E-01
        -0.13592E-01
        -0.13592E-01
        -0.13592E-01
        -0.13592E-01
        -0.13592E-01
        -0.13592E-01
        -0.13592E-01
        -0.13592E-01
        -0.13592E-01
        -0.13592E-01
        -0.13592E-01
        -0.13592E-01
        -0.13592E-01
        -0.13592E-01
        -0.13592E-01
        -0.13592E-01
        -0.13592E-01
        -0.13592E-01
        -0.13592E-01
        -0.13592E-01
        -0.13592E-01
        -0.13592E-01
        -0.13592E-01
        -0.13592E-01
        -0.13592E-01
        -0.13592E-01
        -0.13592E-01
        -0.13592E-01
        -0.13592E-01
        -0.13592E-01
        -0.13592E-01
        -0.13592E-01
        -0.13592E-01
        -0.13592E-01
        -0.13592E-01
        -0.13592E-01
        -0.13592E-01
        -0.13592E-01
        -0.13592E-01
        -0.13592E-01
        -0.13592E-01
        -0.13592E-01
        -0.13592E-01
        -0.13592E-01
        -0.13592E-01
        -0.13592E-01
        -0.13592E-01
        -0.13592E-01
        -0.13592E-01
        -0.13592E-01
        -0.13592E-01
        -0.13592E-01
        -0.13592E-01
        -0.13592E-01
        -0.13592E-01
        -0.13592E-01
        -0.13592E-01
        -0.13592E-01
        -0.13592E-01
        -0.13592E-01
        -0.13592E-01
        -0.13592E-01
        -0.13592E-01
        -0.13592E-01
        -0.13592E-01
        -0.13592E-01
        -0.13592E-01
        -0.13592E-01
        -0.13592E-01
        -0.13592E-01
        -0.13592E-01
        -0.13592E-01
        -0.13592E-01
        -0.13592E-01
        -0.13592E-01
        -0.13592E-01
        -0.13592E-01
        -0.13592E-01
        -0.13592E-01
        -0.13592E-01
        -0.13592E-01
        -0.13592E-01
        -0.13592E-01
        -0.13592E-01
        -0.13592E-01
        -0.13592E-01
        -0.13592E-01
        -0.13592E-01
        -0.13592E-01
        -0.13592E-01
        -0.13592E-01
        -0.13592E-01
        -0.13592E-01
        -0.13592E-01
        -0.13592E-01
        -0.13592E-01
        -0.13592E-01
        -0.13592E-01
        -0.13592E-01
        -0.13592E-01
        -0.13592E-01
        -0.13592E-01
        -0.13592E-01
        -0.13592E-01
        -0.13592E-01
        -0.13592E-01
        -0.13592E-01
        -0.13592E-01
        -0.13592E-01
        -0.13592E-01
        -0.13592E-01
        -0.13592E-01
        -0.13592E-01
        -0.13592E-01
        -0.13592E-01
        -0.13592E-01
        -0.13592E-01
        -0.13592E-01
        -0.13592E-01
        -0.13592E-01
        -0.13592E-01
        -0.13592E-01
        -0.13592E-01
        -0.13592E-01
        -0.13592E-01
        -0.13592E-01
        -0.13592E-01
        -0.13592E-01
        -0.13592E-01
        -0.13592E-01
        -0.13592E-01
        -0.13592E-01
        -0.13592E-01
        -0.13592E-01
        -0.13592E-01
        -0.13592E-01
        -0.13592E-01
        -0.13592E-01
        -0.13592E-01
        -0.13592E-01
        -0.13592E-01
        -0.13592E-01
        -0.13592E-01
        -0.13592E-01
        -0.13592E-01
        -0.13592E-01
        -0.13592E-01
        -0.13592E-01
        -0.13592E-01
        -0.13592E-01
        -0.13592E-01
        -0.13592E-01
        -0.13592E-01
        -0.13592E-01
        -0.13592E-01
        -0.13592E-01
        -0.13592E-01
        -0.13592E-01
        -0.13592E-01
        -0.13592E-01
        -0.13592E-01
        -0.13592E-01
        -0.13592E-01
        -0.13592E-01
        -0.13592E-01
        -0.13592E-01
        -0.13592E-01
        -0.13592E-01
        -0.13592E-01
        -0.13592E-01
        -0.13592E-01
        -0.13592E-01
        -0.13592E-01
        -0.13592E-01
        -0.13592E-01
        -0.13592E-01
        -0.13592E-01
        -0.13592E-01
        -0.13592E-01
        -0.13592E-01
        -0.13592E-01
        -0.13592E-01
        -0.13592E-01
        -0.13592E-01
        -0.13592E-01
        -0.13592E-01
        -0.13592E-01
        -0.13592E-01
        -0.13592E-01
        -0.13592E-01
        -0.13592E-01
        -0.13592E-01
        -0.13592E-01
        -0.13592E-01
        -0.13592E-01
        -0.13592E-01
        -0.13592E-01
        -0.13592E-01
        -0.13592E-01
        -0.13592E-01
        -0.13592E-01
        -0.13592E-01
        -0.13592E-01
        -0.13592E-01
        -0.13592E-01
        -0.13592E-01
        -0.13592E-01
        -0.13592E-01
        -0.13592E-01
        -0.13592E-01
        -0.13592E-01
        -0.13592E-01
        -0.13592E-01
        -0.13592E-01
        -0.13592E-01
        -0.13592E-01
        -0.13592E-01
        -0.13592E-01
        -0.13592E-01
        -0.13592E-01
        -0.13592E-01
        -0.13592E-01
        -0.13592E-01
        -0.13592E-01
        -0.13592E-01
        -0.13592E-01
        -0.13592E-01
        -0.13592E-01
        -0.13592E-01
        -0.13592E-01
        -0.13592E-01
        -0.13592E-01
        -0.13592E-01
        -0.13592E-01
        -0.13592E-01
        -0.13592E-01
        -0.13592E-01
        -0.13592E-01
        -0.13592E-01
        -0.13592E-01
        -0.13592E-01
        -0.13592E-01
        -0.13592E-01
        -0.13592E-01
        -0.13592E-01
        -0.13592E-01
        -0.13592E-01
        -0.13592E-01
        -0.13592E-01
        -0.13592E-01
        -0.13592E-01
        -0.13592E-01
        -0.13592E-01
        -0.13592E-01
        -0.13592E-01
        -0.13592E-01
        -0.13592E-01
        -0.13592E-01
        -0.13592E-01
        -0.13592E-01
        -0.13592E-01
        -0.13592E-01
        -0.13592E-01
        -0.13592E-01
        -0.13592E-01
        -0.13592E-01
        -0.13592E-01
        -0.13592E-01
        -0.13592E-01
        -0.13592E-01
        -0.13592E-01
        -0.13592E-01
        -0.13592E-01
        -0.13592E-01
        -0.13592E-01
        -0.13592E-01
        -0.13592E-01
        -0.13592E-01
        -0.13592E-01
        -0.13592E-01
        -0.13592E-01
        -0.13592E-01
        -0.13592E-01
        -0.13592E-01
        -0.13592E-01
        -0.13592E-01
        -0.13592E-01
        -0.13592E-01
        -0.13592E-01
        -0.13592E-01
        -0.13592E-01
        -0.13592E-01
        -0.13592E-01
        -0.13592E-01
        -0.13592E-01
        -0.13592E-01
        -0.13592E-01
        -0.13592E-01
        -0.13592E-01
        -0.13592E-01
        -0.13592E-01
        -0.13592E-01
        -0.13592E-01
        -0.13592E-01
        -0.13592E-01
        -0.13592E-01
        -0.13592E-01
        -0.13592E-01
        -0.13592E-01
        -0.13592E-01
        -0.13592E-01
        -0.13592E-01
        -0.13592E-01
        -0.13592E-01
        -0.13592E-01
        -0.13592E-01
        -0.13592E-01
        -0.13592E-01
        -0.13592E-01
        -0.13592E-01
        -0.13592E-01
        -0.13592E-01
        -0.13592E-01
        -0.13592E-01
        -0.13592E-01
        -0.13592E-01
        -0.13592E-01
        -0.13592E-01
        -0.13592E-01
        -0.13592E-01
        -0.13592E-01
        -0.13592E-01
        -0.13592E-01
        -0.13592E-01
        -0.13592E-01
        -0.13592E-01
        -0.13592E-01
        -0.13592E-01
        -0.13592E-01
        -0.13592E-01
        -0.13592E-01
        -0.13592E-01
        -0.13592E-01
        -0.13592E-01
        -0.13592E-01
        -0.13592E-01
        -0.13592E-01
        -0.13592E-01
        -0.13592E-01
        -0.13592E-01
        -0.13592E-01
        -0.13592E-01
        -0.13592E-01
        -0.13592E-01
        -0.13592E-01
        -0.13592E-01
        -0.13592E-01
        -0.13592E-01
        -0.13592E-01
        -0.13592E-01
        -0.13592E-01
        -0.13592E-01
        -0.13592E-01
        -0.13592E-01
        -0.13592E-01
        -0.13592E-01
        -0.13592E-01
        -0.13592E-01
        -0.13592E-01
        -0.13592E-01
        -0.13592E-01
        -0.13592E-01
        -0.13592E-01
        -0.13592E-01
        -0.13592E-01
        -0.13592E-01
        -0.13592E-01
        -0.13592E-01
        -0.13592E-01
        -0.13592E-01
        -0.13592E-01
        -0.13592E-01
        -0.13592E-01
        -0.13592E-01
        -0.13592E-01
        -0.13592E-01
        -0.13592E-01
        -0.13592E-01
        -0.13592E-01
        -0.13592E-01
        -0.13592E-01
        -0.13592E-01
        -0.13592E-01
        -0.13592E-01
        -0.13592E-01
        -0.13592E-01
        -0.13592E-01
        -0.13592E-01
        -0.13592E-01
        -0.13592E-01
        -0.13592E-01
        -0.13592E-01
        -0.13592E-01
        -0.13592E-01
        -0.13592E-01
        -0.13592E-01
        -0.13592E-01
        -0.13592E-01
        -0.13592E-01
        -0.13592E-01
        -0.13592E-01
        -0.13592E-01
        -0.13592E-01
        -0.13592E-01
        -0.13592E-01
        -0.13592E-01
        -0.13592E-01
        -0.13592E-01
        -0.13592E-01
        -0.13592E-01
        -0.13592E-01
        -0.13592E-01
        -0.13592E-01
        -0.13592E-01
        -0.13592E-01
        -0.13592E-01
        -0.13592E-01
        -0.13592E-01
        -0.13592E-01
        -0.13592E-01
        -0.13592E-01
        -0.13592E-01
        -0.13592E-01
        -0.13592E-01
        -0.13592E-01
        -0.13592E-01
        -0.13592E-01
        -0.13592E-01
        -0.13592E-01
        -0.13592E-01
        -0.13592E-01
        -0.13592E-01
        -0.13592E-01
        -0.13592E-01
        -0.13592E-01
        -0.13592E-01
        -0.13592E-01
        -0.13592E-01
        -0.13592E-01
        -0.13592E-01
        -0.13592E-01
        -0.13592E-01
        -0.13592E-01
        -0.13592E-01
        -0.13592E-01
        -0.13592E-01
        -0.13592E-01
        -0.13592E-01
        -0.13592E-01
        -0.13592E-01
        -0.13592E-01
        -0.13592E-01
        -0.13592E-01
        -0.13592E-01
        -0.13592E-01
        -0.13592E-01
        -0.13592E-01
        -0.13592E-01
        -0.13592E-01
        -0.13592E-01
        -0.13592E-01
        -0.13592E-01
        -0.13592E-01
        -0.13592E-01
        -0.13592E-01
        -0.13592E-01
        -0.13592E-01
        -0.13592E-01
        -0.13592E-01
        -0.13592E-01
        -0.13592E-01
        -0.13592E-01
        -0.13592E-01
        -0.13592E-01
        -0.13592E-01
        -0.13592E-01
        -0.13592E-01
        -0.13592E-01
        -0.13592E-01
        -0.13592E-01
        -0.13592E-01
        -0.13592E-01
        -0.13592E-01
        -0.13592E-01
        -0.13592E-01
        -0.13592E-01
        -0.13592E-01
        -0.13592E-01
        -0.13592E-01
        -0.13592E-01
        -0.13592E-01
        -0.13592E-01
        -0.13592E-01
        -0.13592E-01
        -0.13592E-01
        -0.13592E-01
        -0.13592E-01
        -0.13592E-01
        -0.13592E-01
        -0.13592E-01
        -0.13592E-01
        -0.13592E-01
        -0.13592E-01
        -0.13592E-01
        -0.13592E-01
        -0.13592E-01
        -0.13592E-01
        -0.13592E-01
        -0.13592E-01
        -0.13592E-01
        -0.13592E-01
        -0.13592E-01
        -0.13592E-01
        -0.13592E-01
        -0.13592E-01
        -0.13592E-01
        -0.13592E-01
        -0.13592E-01
        -0.13592E-01
        -0.13592E-01
        -0.13592E-01
        -0.13592E-01
        -0.13592E-01
        -0.13592E-01
        -0.13592E-01
        -0.13592E-01
        -0.13592E-01
        -0.13592E-01
        -0.13592E-01
        -0.13592E-01
        -0.13592E-01
        -0.13592E-01
        -0.13592E-01
        -0.13592E-01
        -0.13592E-01
        -0.13592E-01
        -0.13592E-01
        -0.13592E-01
        -0.13592E-01
        -0.13592E-01
        -0.13592E-01
        -0.13592E-01
        -0.13592E-01
        -0.13592E-01
        -0.13592E-01
        -0.13592E-01
        -0.13592E-01
        -0.13592E-01
        -0.13592E-01
        -0.13592E-01
        -0.13592E-01
        -0.13592E-01
        -0.13592E-01
        -0.13592E-01
        -0.13592E-01
        -0.13592E-01
        -0.13592E-01
        -0.13592E-01
        -0.13592E-01
        -0.13592E-01
        -0.13592E-01
        -0.13592E-01
        -0.13592E-01
        -0.13592E-01
        -0.13592E-01
        -0.13592E-01
        -0.13592E-01
        -0.13592E-01
        -0.13592E-01
        -0.13592E-01
        -0.13592E-01
        -0.13592E-01
        -0.13592E-01
        -0.13592E-01
        -0.13592E-01
        -0.13592E-01
        -0.13592E-01
        -0.13592E-01
        -0.13592E-01
        -0.13592E-01
        -0.13592E-01
        -0.13592E-01
        -0.13592E-01
        -0.13592E-01
        -0.13592E-01
        -0.13592E-01
        -0.13592E-01
        -0.13592E-01
        -0.13592E-01
        -0.13592E-01
        -0.13592E-01
        -0.13592E-01
        -0.13592E-01
        -0.13592E-01
        -0.13592E-01
        -0.13592E-01
        -0.13592E-01
        -0.13592E-01
        -0.13592E-01
        -0.13592E-01
        -0.13592E-01
        -0.13592E-01
        -0.13592E-01
        -0.13592E-01
        -0.13592E-01
        -0.13592E-01
        -0.13592E-01
        -0.13592E-01
        -0.13592E-01
        -0.13592E-01
        -0.13592E-01
        -0.13592E-01
        -0.13592E-01
        -0.13592E-01
        -0.13592E-01
        -0.13592E-01
        -0.13592E-01
        -0.13592E-01
        -0.13592E-01
        -0.13592E-01
        -0.13592E-01
        -0.13592E-01
        -0.13592E-01
        -0.13592E-01
        -0.13592E-01
        -0.13592E-01
        -0.13592E-01
        -0.13592E-01
        -0.13592E-01
        -0.13592E-01
        -0.13592E-01
        -0.13592E-01
        -0.13592E-01
        -0.13592E-01
        -0.13592E-01
        -0.13592E-01
        -0.13592E-01
        -0.13592E-01
        -0.13592E-01
        -0.13592E-01
        -0.13592E-01
        -0.13592E-01
        -0.13592E-01
        -0.13592E-01
        -0.13592E-01
        -0.13592E-01
        -0.13592E-01
        -0.13592E-01
        -0.13592E-01
        -0.13592E-01
        -0.13592E-01
        -0.13592E-01
        -0.13592E-01
        -0.13592E-01
        -0.13592E-01
        -0.13592E-01
        -0.13592E-01
        -0.13592E-01
        -0.13592E-01
        -0.13592E-01
        -0.13592E-01
        -0.13592E-01
        -0.13592E-01
        -0.13592E-01
        -0.13592E-01
        -0.13592E-01
        -0.13592E-01
        -0.13592E-01
        -0.13592E-01
        -0.13592E-01
        -0.13592E-01
        -0.13592E-01
        -0.13592E-01
        -0.13592E-01
        -0.13592E-01
        -0.13592E-01
        -0.13592E-01
        -0.13592E-01
        -0.13592E-01
        -0.13592E-01
        -0.13592E-01
        -0.13592E-01
        -0.13592E-01
        -0.13592E-01
        -0.13592E-01
        -0.13592E-01
        -0.13592E-01
        -0.13592E-01
        -0.13592E-01
        -0.13592E-01
        -0.13592E-01
        -0.13592E-01
        -0.13592E-01
        -0.13592E-01
        -0.13592E-01
        -0.13592E-01
        -0.13592E-01
        -0.13592E-01
        -0.13592E-01
        -0.13592E-01
        -0.13592E-01
        -0.13592E-01
        -0.13592E-01
        -0.13592E-01
        -0.13592E-01
        -0.13592E-01
        -0.13592E-01
        -0.13592E-01
        -0.13592E-01
        -0.13592E-01
        -0.13592E-01
        -0.13592E-01
        -0.13592E-01
        -0.13592E-01
        -0.13592E-01
        -0.13592E-01
        -0.13592E-01
        -0.13592E-01
        -0.13592E-01
        -0.13592E-01
        -0.13592E-01
        -0.13592E-01
        -0.13592E-01
        -0.13592E-01
        -0.13592E-01
        -0.13592E-01
        -0.13592E-01
        -0.13592E-01
        -0.13592E-01
        -0.13592E-01
        -0.13592E-01
        -0.13592E-01
        -0.13592E-01
        -0.13592E-01
        -0.13592E-01
        -0.13592E-01
        -0.13592E-01
        -0.13592E-01
        -0.13592E-01
        -0.13592E-01
        -0.13592E-01
        -0.13592E-01
        -0.13592E-01
        -0.13592E-01
        -0.13592E-01
        -0.13592E-01
        -0.13592E-01
        -0.13592E-01
        -0.13592E-01
        -0.13592E-01
        -0.13592E-01
        -0.13592E-01
        -0.13592E-01
        -0.13592E-01
        -0.13592E-01
        -0.13592E-01
        -0.13592E-01
        -0.13592E-01
        -0.13592E-01
        -0.13592E-01
        -0.13592E-01
        -0.13592E-01
        -0.13592E-01
        -0.13592E-01
        -0.13592E-01
        -0.13592E-01
        -0.13592E-01
        -0.13592E-01
        -0.13592E-01
        -0.13592E-01
        -0.13592E-01
        -0.13592E-01
        -0.13592E-01
        -0.13592E-01
        -0.13592E-01
        -0.13592E-01
        -0.13592E-01
        -0.13592E-01
        -0.13592E-01
        -0.13592E-01
        -0.13592E-01
        -0.13592E-01
        -0.13592E-01
        -0.13592E-01
        -0.13592E-01
        -0.13592E-01
        -0.13592E-01
        -0.13592E-01
        -0.13592E-01
        -0.13592E-01
        -0.13592E-01
        -0.13592E-01
        -0.13592E-01
        -0.13592E-01
        -0.13592E-01
        -0.13592E-01
        -0.13592E-01
        -0.13592E-01
        -0.13592E-01
        -0.13592E-01
        -0.13592E-01
        -0.13592E-01
        -0.13592E-01
        -0.13592E-01
        -0.13592E-01
        -0.13592E-01
        -0.13592E-01
        -0.13592E-01
        -0.13592E-01
        -0.13592E-01
        -0.13592E-01
        -0.13592E-01
        -0.13592E-01
        -0.13592E-01
        -0.13592E-01
        -0.13592E-01
        -0.13592E-01
        -0.13592E-01
        -0.13592E-01
        -0.13592E-01
        -0.13592E-01
        -0.13592E-01
        -0.13592E-01
        -0.13592E-01
        -0.13592E-01
        -0.13592E-01
        -0.13592E-01
        -0.13592E-01
        -0.13592E-01
        -0.13592E-01
        -0.13592E-01
        -0.13592E-01
        -0.13592E-01
        -0.13592E-01
        -0.13592E-01
        -0.13592E-01
        -0.13592E-01
        -0.13592E-01
        -0.13592E-01
        -0.13592E-01
        -0.13592E-01
        -0.13592E-01
        -0.13592E-01
        -0.13592E-01
        -0.13592E-01
        -0.13592E-01
        -0.13592E-01
        -0.13592E-01
        -0.13592E-01
        -0.13592E-01
        -0.13592E-01
        -0.13592E-01
        -0.13592E-01
        -0.13592E-01
        -0.13592E-01
        -0.13592E-01
        -0.13592E-01
        -0.13592E-01
        -0.13592E-01
        -0.13592E-01
        -0.13592E-01
        -0.13592E-01
        -0.13592E-01
        -0.13592E-01
        -0.13592E-01
        -0.13592E-01
        -0.13592E-01
        -0.13592E-01
        -0.13592E-01
        -0.13592E-01
        -0.13592E-01
        -0.13592E-01
        -0.13592E-01
        -0.13592E-01
        -0.13592E-01
        -0.13592E-01
        -0.13592E-01
        -0.13592E-01
        -0.13592E-01
        -0.13592E-01
        -0.13592E-01
        -0.13592E-01
        -0.13592E-01
        -0.13592E-01
        -0.13592E-01
        -0.13592E-01
        -0.13592E-01
        -0.13592E-01
        -0.13592E-01
        -0.13592E-01
        -0.13592E-01
        -0.13592E-01
        -0.13592E-01
        -0.13592E-01
        -0.13592E-01
        -0.13592E-01
        -0.13592E-01
        -0.13592E-01
        -0.13592E-01
        -0.13592E-01
        -0.13592E-01
        -0.13592E-01
        -0.13592E-01
        -0.13592E-01
        -0.13592E-01
        -0.13592E-01
        -0.13592E-01
        -0.13592E-01
        -0.13592E-01
        -0.13592E-01
        -0.13592E-01
        -0.13592E-01
        -0.13592E-01
        -0.13592E-01
        -0.13592E-01
        -0.13592E-01
        -0.13592E-01
        -0.13592E-01
        -0.13592E-01
        -0.13592E-01
        -0.13592E-01
        -0.13592E-01
        -0.13592E-01
        -0.13592E-01
        -0.13592E-01
        -0.13592E-01
        -0.13592E-01
        -0.13592E-01
        -0.13592E-01
        -0.13592E-01
        -0.13592E-01
        -0.13592E-01
        -0.13592E-01
        -0.13592E-01
        -0.13592E-01
        -0.13592E-01
        -0.13592E-01
        -0.13592E-01
        -0.13592E-01
        -0.13592E-01
        -0.13592E-01
        -0.13592E-01
        -0.13592E-01
        -0.13592E-01
        -0.13592E-01
        -0.13592E-01
        -0.13592E-01
        -0.13592E-01
        -0.13592E-01
        -0.13592E-01
        -0.13592E-01
        -0.13592E-01
        -0.13592E-01
        -0.13592E-01
        -0.13592E-01
        -0.13592E-01
        -0.13592E-01
        -0.13592E-01
        -0.13592E-01
        -0.13592E-01
        -0.13592E-01
        -0.13592E-01
        -0.13592E-01
        -0.13592E-01
        -0.13592E-01
        -0.13592E-01
        -0.13592E-01
        -0.13592E-01
        -0.13592E-01
        -0.13592E-01
        -0.13592E-01
        -0.13592E-01
        -0.13592E-01
        -0.13592E-01
        -0.13592E-01
        -0.13592E-01
        -0.13592E-01
        -0.13592E-01
        -0.13592E-01
        -0.13592E-01
        -0.13592E-01
        -0.13592E-01
        -0.13592E-01
        -0.13592E-01
        -0.13592E-01
        -0.13592E-01
        -0.13592E-01
        -0.13592E-01
        -0.13592E-01
        -0.13592E-01
        -0.13592E-01
        -0.13592E-01
        -0.13592E-01
        -0.13592E-01
        -0.13592E-01
        -0.13592E-01
        -0.13592E-01
        -0.13592E-01
        -0.13592E-01
        -0.13592E-01
        -0.13592E-01
        -0.13592E-01
        -0.13592E-01
        -0.13592E-01
        -0.13592E-01
        -0.13592E-01
        -0.13592E-01
        -0.13592E-01
        -0.13592E-01
        -0.13592E-01
        -0.13592E-01
        -0.13592E-01
        -0.13592E-01
        -0.13592E-01
        -0.13592E-01
        -0.13592E-01
        -0.13592E-01
        -0.13592E-01
        -0.13592E-01
        -0.13592E-01
        -0.13592E-01
        -0.13592E-01
        -0.13592E-01
        -0.13592E-01
        -0.13592E-01
        -0.13592E-01
        -0.13592E-01
        -0.13592E-01
        -0.13592E-01
        -0.13592E-01
        -0.13592E-01
        -0.13592E-01
        -0.13592E-01
        -0.13592E-01
        -0.13592E-01
        -0.13592E-01
        -0.13592E-01
        -0.13592E-01
        -0.13592E-01
        -0.13592E-01
        -0.13592E-01
        -0.13592E-01
        -0.13592E-01
        -0.13592E-01
        -0.13592E-01
        -0.13592E-01
        -0.13592E-01
        -0.13592E-01
        -0.13592E-01
        -0.13592E-01
        -0.13592E-01
        -0.13592E-01
        -0.13592E-01
        -0.13592E-01
        -0.13592E-01
        -0.13592E-01
        -0.13592E-01
        -0.13592E-01
        -0.13592E-01
        -0.13592E-01
        -0.13592E-01
        -0.13592E-01
        -0.13592E-01
        -0.13592E-01
        -0.13592E-01
        -0.13592E-01
        -0.13592E-01
        -0.13592E-01
        -0.13592E-01
        -0.13592E-01
        -0.13592E-01
  
SCALARS                     velocity_x  double 1
LOOKUP_TABLE default
         0.00000E+00
         0.00000E+00
         0.00000E+00
         0.00000E+00
         0.00000E+00
         0.00000E+00
         0.00000E+00
         0.00000E+00
         0.00000E+00
         0.00000E+00
         0.00000E+00
         0.00000E+00
         0.00000E+00
         0.00000E+00
         0.00000E+00
         0.00000E+00
         0.00000E+00
         0.00000E+00
         0.00000E+00
         0.00000E+00
         0.00000E+00
         0.00000E+00
         0.00000E+00
         0.00000E+00
         0.00000E+00
         0.00000E+00
         0.00000E+00
         0.00000E+00
         0.00000E+00
         0.00000E+00
         0.00000E+00
         0.00000E+00
         0.00000E+00
         0.00000E+00
         0.00000E+00
         0.00000E+00
         0.00000E+00
         0.00000E+00
         0.00000E+00
         0.00000E+00
         0.00000E+00
         0.00000E+00
         0.00000E+00
         0.00000E+00
         0.00000E+00
         0.00000E+00
         0.00000E+00
         0.00000E+00
         0.00000E+00
         0.00000E+00
         0.00000E+00
         0.00000E+00
         0.00000E+00
         0.00000E+00
         0.00000E+00
         0.00000E+00
         0.00000E+00
         0.00000E+00
         0.00000E+00
         0.00000E+00
         0.00000E+00
         0.00000E+00
         0.00000E+00
         0.00000E+00
         0.00000E+00
         0.00000E+00
         0.00000E+00
         0.00000E+00
         0.00000E+00
         0.00000E+00
         0.00000E+00
         0.00000E+00
         0.00000E+00
         0.00000E+00
         0.00000E+00
         0.00000E+00
         0.00000E+00
         0.00000E+00
         0.00000E+00
         0.00000E+00
         0.00000E+00
         0.00000E+00
         0.00000E+00
         0.00000E+00
         0.00000E+00
         0.00000E+00
         0.00000E+00
         0.00000E+00
         0.00000E+00
         0.00000E+00
         0.00000E+00
         0.00000E+00
         0.00000E+00
         0.00000E+00
         0.00000E+00
         0.00000E+00
         0.00000E+00
         0.00000E+00
         0.00000E+00
         0.00000E+00
         0.00000E+00
         0.00000E+00
         0.00000E+00
         0.00000E+00
         0.00000E+00
         0.00000E+00
         0.00000E+00
         0.00000E+00
         0.00000E+00
         0.00000E+00
         0.00000E+00
         0.00000E+00
         0.00000E+00
         0.00000E+00
         0.00000E+00
         0.00000E+00
         0.00000E+00
         0.00000E+00
         0.00000E+00
         0.00000E+00
         0.00000E+00
         0.00000E+00
         0.00000E+00
         0.00000E+00
         0.00000E+00
         0.00000E+00
         0.00000E+00
         0.00000E+00
         0.00000E+00
         0.00000E+00
         0.00000E+00
         0.00000E+00
         0.00000E+00
         0.00000E+00
         0.00000E+00
         0.00000E+00
         0.00000E+00
         0.00000E+00
         0.00000E+00
         0.00000E+00
         0.00000E+00
         0.00000E+00
         0.00000E+00
         0.00000E+00
         0.00000E+00
         0.00000E+00
         0.00000E+00
         0.00000E+00
         0.00000E+00
         0.00000E+00
         0.00000E+00
         0.00000E+00
         0.00000E+00
         0.00000E+00
         0.00000E+00
         0.00000E+00
         0.00000E+00
         0.00000E+00
         0.00000E+00
         0.00000E+00
         0.00000E+00
         0.00000E+00
         0.00000E+00
         0.00000E+00
         0.00000E+00
         0.00000E+00
         0.00000E+00
         0.00000E+00
         0.00000E+00
         0.00000E+00
         0.00000E+00
         0.00000E+00
         0.00000E+00
         0.00000E+00
         0.00000E+00
         0.00000E+00
         0.00000E+00
         0.00000E+00
         0.00000E+00
         0.00000E+00
         0.00000E+00
         0.00000E+00
         0.00000E+00
         0.00000E+00
         0.00000E+00
         0.00000E+00
         0.00000E+00
         0.00000E+00
         0.00000E+00
         0.00000E+00
         0.00000E+00
         0.00000E+00
         0.00000E+00
         0.00000E+00
         0.00000E+00
         0.00000E+00
         0.00000E+00
         0.00000E+00
         0.00000E+00
         0.00000E+00
         0.00000E+00
         0.00000E+00
         0.00000E+00
         0.00000E+00
         0.00000E+00
         0.00000E+00
         0.00000E+00
         0.00000E+00
         0.00000E+00
         0.00000E+00
         0.00000E+00
         0.00000E+00
         0.00000E+00
         0.00000E+00
         0.00000E+00
         0.00000E+00
         0.00000E+00
         0.00000E+00
         0.00000E+00
         0.00000E+00
         0.00000E+00
         0.00000E+00
         0.00000E+00
         0.00000E+00
         0.00000E+00
         0.00000E+00
         0.00000E+00
         0.00000E+00
         0.00000E+00
         0.00000E+00
         0.00000E+00
         0.00000E+00
         0.00000E+00
         0.00000E+00
         0.00000E+00
         0.00000E+00
         0.00000E+00
         0.00000E+00
         0.00000E+00
         0.00000E+00
         0.00000E+00
         0.00000E+00
         0.00000E+00
         0.00000E+00
         0.00000E+00
         0.00000E+00
         0.00000E+00
         0.00000E+00
         0.00000E+00
         0.00000E+00
         0.00000E+00
         0.00000E+00
         0.00000E+00
         0.00000E+00
         0.00000E+00
         0.00000E+00
         0.00000E+00
         0.00000E+00
         0.00000E+00
         0.00000E+00
         0.00000E+00
         0.00000E+00
         0.00000E+00
         0.00000E+00
         0.00000E+00
         0.00000E+00
         0.00000E+00
         0.00000E+00
         0.00000E+00
         0.00000E+00
         0.00000E+00
         0.00000E+00
         0.00000E+00
         0.00000E+00
         0.00000E+00
         0.00000E+00
         0.00000E+00
         0.00000E+00
         0.00000E+00
         0.00000E+00
         0.00000E+00
         0.00000E+00
         0.00000E+00
         0.00000E+00
         0.00000E+00
         0.00000E+00
         0.00000E+00
         0.00000E+00
         0.00000E+00
         0.00000E+00
         0.00000E+00
         0.00000E+00
         0.00000E+00
         0.00000E+00
         0.00000E+00
         0.00000E+00
         0.00000E+00
         0.00000E+00
         0.00000E+00
         0.00000E+00
         0.00000E+00
         0.00000E+00
         0.00000E+00
         0.00000E+00
         0.00000E+00
         0.00000E+00
         0.00000E+00
         0.00000E+00
         0.00000E+00
         0.00000E+00
         0.00000E+00
         0.00000E+00
         0.00000E+00
         0.00000E+00
         0.00000E+00
         0.00000E+00
         0.00000E+00
         0.00000E+00
         0.00000E+00
         0.00000E+00
         0.00000E+00
         0.00000E+00
         0.00000E+00
         0.00000E+00
         0.00000E+00
         0.00000E+00
         0.00000E+00
         0.00000E+00
         0.00000E+00
         0.00000E+00
         0.00000E+00
         0.00000E+00
         0.00000E+00
         0.00000E+00
         0.00000E+00
         0.00000E+00
         0.00000E+00
         0.00000E+00
         0.00000E+00
         0.00000E+00
         0.00000E+00
         0.00000E+00
         0.00000E+00
         0.00000E+00
         0.00000E+00
         0.00000E+00
         0.00000E+00
         0.00000E+00
         0.00000E+00
         0.00000E+00
         0.00000E+00
         0.00000E+00
         0.00000E+00
         0.00000E+00
         0.00000E+00
         0.00000E+00
         0.00000E+00
         0.00000E+00
         0.00000E+00
         0.00000E+00
         0.00000E+00
         0.00000E+00
         0.00000E+00
         0.00000E+00
         0.00000E+00
         0.00000E+00
         0.00000E+00
         0.00000E+00
         0.00000E+00
         0.00000E+00
         0.00000E+00
         0.00000E+00
         0.00000E+00
         0.00000E+00
         0.00000E+00
         0.00000E+00
         0.00000E+00
         0.00000E+00
         0.00000E+00
         0.00000E+00
         0.00000E+00
         0.00000E+00
         0.00000E+00
         0.00000E+00
         0.00000E+00
         0.00000E+00
         0.00000E+00
         0.00000E+00
         0.00000E+00
         0.00000E+00
         0.00000E+00
         0.00000E+00
         0.00000E+00
         0.00000E+00
         0.00000E+00
         0.00000E+00
         0.00000E+00
         0.00000E+00
         0.00000E+00
         0.00000E+00
         0.00000E+00
         0.00000E+00
         0.00000E+00
         0.00000E+00
         0.00000E+00
         0.00000E+00
         0.00000E+00
         0.00000E+00
         0.00000E+00
         0.00000E+00
         0.00000E+00
         0.00000E+00
         0.00000E+00
         0.00000E+00
         0.00000E+00
         0.00000E+00
         0.00000E+00
         0.00000E+00
         0.00000E+00
         0.00000E+00
         0.00000E+00
         0.00000E+00
         0.00000E+00
         0.00000E+00
         0.00000E+00
         0.00000E+00
         0.00000E+00
         0.00000E+00
         0.00000E+00
         0.00000E+00
         0.00000E+00
         0.00000E+00
         0.00000E+00
         0.00000E+00
         0.00000E+00
         0.00000E+00
         0.00000E+00
         0.00000E+00
         0.00000E+00
         0.00000E+00
         0.00000E+00
         0.00000E+00
         0.00000E+00
         0.00000E+00
         0.00000E+00
         0.00000E+00
         0.00000E+00
         0.00000E+00
         0.00000E+00
         0.00000E+00
         0.00000E+00
         0.00000E+00
         0.00000E+00
         0.00000E+00
         0.00000E+00
         0.00000E+00
         0.00000E+00
         0.00000E+00
         0.00000E+00
         0.00000E+00
         0.00000E+00
         0.00000E+00
         0.00000E+00
         0.00000E+00
         0.00000E+00
         0.00000E+00
         0.00000E+00
         0.00000E+00
         0.00000E+00
         0.00000E+00
         0.00000E+00
         0.00000E+00
         0.00000E+00
         0.00000E+00
         0.00000E+00
         0.00000E+00
         0.00000E+00
         0.00000E+00
         0.00000E+00
         0.00000E+00
         0.00000E+00
         0.00000E+00
         0.00000E+00
         0.00000E+00
         0.00000E+00
         0.00000E+00
         0.00000E+00
         0.00000E+00
         0.00000E+00
         0.00000E+00
         0.00000E+00
         0.00000E+00
         0.00000E+00
         0.00000E+00
         0.00000E+00
         0.00000E+00
         0.00000E+00
         0.00000E+00
         0.00000E+00
         0.00000E+00
         0.00000E+00
         0.00000E+00
         0.00000E+00
         0.00000E+00
         0.00000E+00
         0.00000E+00
         0.00000E+00
         0.00000E+00
         0.00000E+00
         0.00000E+00
         0.00000E+00
         0.00000E+00
         0.00000E+00
         0.00000E+00
         0.00000E+00
         0.00000E+00
         0.00000E+00
         0.00000E+00
         0.00000E+00
         0.00000E+00
         0.00000E+00
         0.00000E+00
         0.00000E+00
         0.00000E+00
         0.00000E+00
         0.00000E+00
         0.00000E+00
         0.00000E+00
         0.00000E+00
         0.00000E+00
         0.00000E+00
         0.00000E+00
         0.00000E+00
         0.00000E+00
         0.00000E+00
         0.00000E+00
         0.00000E+00
         0.00000E+00
         0.00000E+00
         0.00000E+00
         0.00000E+00
         0.00000E+00
         0.00000E+00
         0.00000E+00
         0.00000E+00
         0.00000E+00
         0.00000E+00
         0.00000E+00
         0.00000E+00
         0.00000E+00
         0.00000E+00
         0.00000E+00
         0.00000E+00
         0.00000E+00
         0.00000E+00
         0.00000E+00
         0.00000E+00
         0.00000E+00
         0.00000E+00
         0.00000E+00
         0.00000E+00
         0.00000E+00
         0.00000E+00
         0.00000E+00
         0.00000E+00
         0.00000E+00
         0.00000E+00
         0.00000E+00
         0.00000E+00
         0.00000E+00
         0.00000E+00
         0.00000E+00
         0.00000E+00
         0.00000E+00
         0.00000E+00
         0.00000E+00
         0.00000E+00
         0.00000E+00
         0.00000E+00
         0.00000E+00
         0.00000E+00
         0.00000E+00
         0.00000E+00
         0.00000E+00
         0.00000E+00
         0.00000E+00
         0.00000E+00
         0.00000E+00
         0.00000E+00
         0.00000E+00
         0.00000E+00
         0.00000E+00
         0.00000E+00
         0.00000E+00
         0.00000E+00
         0.00000E+00
         0.00000E+00
         0.00000E+00
         0.00000E+00
         0.00000E+00
         0.00000E+00
         0.00000E+00
         0.00000E+00
         0.00000E+00
         0.00000E+00
         0.00000E+00
         0.00000E+00
         0.00000E+00
         0.00000E+00
         0.00000E+00
         0.00000E+00
         0.00000E+00
         0.00000E+00
         0.00000E+00
         0.00000E+00
         0.00000E+00
         0.00000E+00
         0.00000E+00
         0.00000E+00
         0.00000E+00
         0.00000E+00
         0.00000E+00
         0.00000E+00
         0.00000E+00
         0.00000E+00
         0.00000E+00
         0.00000E+00
         0.00000E+00
         0.00000E+00
         0.00000E+00
         0.00000E+00
         0.00000E+00
         0.00000E+00
         0.00000E+00
         0.00000E+00
         0.00000E+00
         0.00000E+00
         0.00000E+00
         0.00000E+00
         0.00000E+00
         0.00000E+00
         0.00000E+00
         0.00000E+00
         0.00000E+00
         0.00000E+00
         0.00000E+00
         0.00000E+00
         0.00000E+00
         0.00000E+00
         0.00000E+00
         0.00000E+00
         0.00000E+00
         0.00000E+00
         0.00000E+00
         0.00000E+00
         0.00000E+00
         0.00000E+00
         0.00000E+00
         0.00000E+00
         0.00000E+00
         0.00000E+00
         0.00000E+00
         0.00000E+00
         0.00000E+00
         0.00000E+00
         0.00000E+00
         0.00000E+00
         0.00000E+00
         0.00000E+00
         0.00000E+00
         0.00000E+00
         0.00000E+00
         0.00000E+00
         0.00000E+00
         0.00000E+00
         0.00000E+00
         0.00000E+00
         0.00000E+00
         0.00000E+00
         0.00000E+00
         0.00000E+00
         0.00000E+00
         0.00000E+00
         0.00000E+00
         0.00000E+00
         0.00000E+00
         0.00000E+00
         0.00000E+00
         0.00000E+00
         0.00000E+00
         0.00000E+00
         0.00000E+00
         0.00000E+00
         0.00000E+00
         0.00000E+00
         0.00000E+00
         0.00000E+00
         0.00000E+00
         0.00000E+00
         0.00000E+00
         0.00000E+00
         0.00000E+00
         0.00000E+00
         0.00000E+00
         0.00000E+00
         0.00000E+00
         0.00000E+00
         0.00000E+00
         0.00000E+00
         0.00000E+00
         0.00000E+00
         0.00000E+00
         0.00000E+00
         0.00000E+00
         0.00000E+00
         0.00000E+00
         0.00000E+00
         0.00000E+00
         0.00000E+00
         0.00000E+00
         0.00000E+00
         0.00000E+00
         0.00000E+00
         0.00000E+00
         0.00000E+00
         0.00000E+00
         0.00000E+00
         0.00000E+00
         0.00000E+00
         0.00000E+00
         0.00000E+00
         0.00000E+00
         0.00000E+00
         0.00000E+00
         0.00000E+00
         0.00000E+00
         0.00000E+00
         0.00000E+00
         0.00000E+00
         0.00000E+00
         0.00000E+00
         0.00000E+00
         0.00000E+00
         0.00000E+00
         0.00000E+00
         0.00000E+00
         0.00000E+00
         0.00000E+00
         0.00000E+00
         0.00000E+00
         0.00000E+00
         0.00000E+00
         0.00000E+00
         0.00000E+00
         0.00000E+00
         0.00000E+00
         0.00000E+00
         0.00000E+00
         0.00000E+00
         0.00000E+00
         0.00000E+00
         0.00000E+00
         0.00000E+00
         0.00000E+00
         0.00000E+00
         0.00000E+00
         0.00000E+00
         0.00000E+00
         0.00000E+00
         0.00000E+00
         0.00000E+00
         0.00000E+00
         0.00000E+00
         0.00000E+00
         0.00000E+00
         0.00000E+00
         0.00000E+00
         0.00000E+00
         0.00000E+00
         0.00000E+00
         0.00000E+00
         0.00000E+00
         0.00000E+00
         0.00000E+00
         0.00000E+00
         0.00000E+00
         0.00000E+00
         0.00000E+00
         0.00000E+00
         0.00000E+00
         0.00000E+00
         0.00000E+00
         0.00000E+00
         0.00000E+00
         0.00000E+00
         0.00000E+00
         0.00000E+00
         0.00000E+00
         0.00000E+00
         0.00000E+00
         0.00000E+00
         0.00000E+00
         0.00000E+00
         0.00000E+00
         0.00000E+00
         0.00000E+00
         0.00000E+00
         0.00000E+00
         0.00000E+00
         0.00000E+00
         0.00000E+00
         0.00000E+00
         0.00000E+00
         0.00000E+00
         0.00000E+00
         0.00000E+00
         0.00000E+00
         0.00000E+00
         0.00000E+00
         0.00000E+00
         0.00000E+00
         0.00000E+00
         0.00000E+00
         0.00000E+00
         0.00000E+00
         0.00000E+00
         0.00000E+00
         0.00000E+00
         0.00000E+00
         0.00000E+00
         0.00000E+00
         0.00000E+00
         0.00000E+00
         0.00000E+00
         0.00000E+00
         0.00000E+00
         0.00000E+00
         0.00000E+00
         0.00000E+00
         0.00000E+00
         0.00000E+00
         0.00000E+00
         0.00000E+00
         0.00000E+00
         0.00000E+00
         0.00000E+00
         0.00000E+00
         0.00000E+00
         0.00000E+00
         0.00000E+00
         0.00000E+00
         0.00000E+00
         0.00000E+00
         0.00000E+00
         0.00000E+00
         0.00000E+00
         0.00000E+00
         0.00000E+00
         0.00000E+00
         0.00000E+00
         0.00000E+00
         0.00000E+00
         0.00000E+00
         0.00000E+00
         0.00000E+00
         0.00000E+00
         0.00000E+00
         0.00000E+00
         0.00000E+00
         0.00000E+00
         0.00000E+00
         0.00000E+00
         0.00000E+00
         0.00000E+00
         0.00000E+00
         0.00000E+00
         0.00000E+00
         0.00000E+00
         0.00000E+00
         0.00000E+00
         0.00000E+00
         0.00000E+00
         0.00000E+00
         0.00000E+00
         0.00000E+00
         0.00000E+00
         0.00000E+00
         0.00000E+00
         0.00000E+00
         0.00000E+00
         0.00000E+00
         0.00000E+00
         0.00000E+00
         0.00000E+00
         0.00000E+00
         0.00000E+00
         0.00000E+00
         0.00000E+00
         0.00000E+00
         0.00000E+00
         0.00000E+00
         0.00000E+00
         0.00000E+00
         0.00000E+00
         0.00000E+00
         0.00000E+00
         0.00000E+00
         0.00000E+00
         0.00000E+00
         0.00000E+00
         0.00000E+00
         0.00000E+00
         0.00000E+00
         0.00000E+00
         0.00000E+00
         0.00000E+00
         0.00000E+00
         0.00000E+00
         0.00000E+00
         0.00000E+00
         0.00000E+00
         0.00000E+00
         0.00000E+00
         0.00000E+00
         0.00000E+00
         0.00000E+00
         0.00000E+00
         0.00000E+00
         0.00000E+00
         0.00000E+00
         0.00000E+00
         0.00000E+00
         0.00000E+00
         0.00000E+00
         0.00000E+00
         0.00000E+00
         0.00000E+00
         0.00000E+00
         0.00000E+00
         0.00000E+00
         0.00000E+00
         0.00000E+00
         0.00000E+00
         0.00000E+00
         0.00000E+00
         0.00000E+00
         0.00000E+00
         0.00000E+00
         0.00000E+00
         0.00000E+00
         0.00000E+00
         0.00000E+00
         0.00000E+00
         0.00000E+00
         0.00000E+00
         0.00000E+00
         0.00000E+00
         0.00000E+00
         0.00000E+00
         0.00000E+00
         0.00000E+00
         0.00000E+00
         0.00000E+00
         0.00000E+00
         0.00000E+00
         0.00000E+00
         0.00000E+00
         0.00000E+00
         0.00000E+00
         0.00000E+00
         0.00000E+00
         0.00000E+00
         0.00000E+00
         0.00000E+00
         0.00000E+00
         0.00000E+00
         0.00000E+00
         0.00000E+00
         0.00000E+00
         0.00000E+00
         0.00000E+00
         0.00000E+00
         0.00000E+00
         0.00000E+00
         0.00000E+00
         0.00000E+00
         0.00000E+00
         0.00000E+00
         0.00000E+00
         0.00000E+00
         0.00000E+00
         0.00000E+00
         0.00000E+00
         0.00000E+00
         0.00000E+00
         0.00000E+00
         0.00000E+00
         0.00000E+00
         0.00000E+00
         0.00000E+00
         0.00000E+00
         0.00000E+00
         0.00000E+00
         0.00000E+00
         0.00000E+00
         0.00000E+00
         0.00000E+00
         0.00000E+00
         0.00000E+00
         0.00000E+00
         0.00000E+00
         0.00000E+00
         0.00000E+00
         0.00000E+00
         0.00000E+00
         0.00000E+00
         0.00000E+00
         0.00000E+00
         0.00000E+00
         0.00000E+00
         0.00000E+00
         0.00000E+00
         0.00000E+00
         0.00000E+00
         0.00000E+00
         0.00000E+00
         0.00000E+00
         0.00000E+00
         0.00000E+00
         0.00000E+00
         0.00000E+00
         0.00000E+00
         0.00000E+00
         0.00000E+00
         0.00000E+00
         0.00000E+00
         0.00000E+00
         0.00000E+00
         0.00000E+00
         0.00000E+00
         0.00000E+00
         0.00000E+00
         0.00000E+00
         0.00000E+00
         0.00000E+00
         0.00000E+00
         0.00000E+00
         0.00000E+00
         0.00000E+00
         0.00000E+00
         0.00000E+00
         0.00000E+00
         0.00000E+00
         0.00000E+00
         0.00000E+00
         0.00000E+00
         0.00000E+00
         0.00000E+00
         0.00000E+00
         0.00000E+00
         0.00000E+00
         0.00000E+00
         0.00000E+00
         0.00000E+00
         0.00000E+00
         0.00000E+00
         0.00000E+00
         0.00000E+00
         0.00000E+00
         0.00000E+00
         0.00000E+00
         0.00000E+00
         0.00000E+00
         0.00000E+00
         0.00000E+00
         0.00000E+00
         0.00000E+00
         0.00000E+00
         0.00000E+00
         0.00000E+00
         0.00000E+00
         0.00000E+00
         0.00000E+00
         0.00000E+00
         0.00000E+00
         0.00000E+00
         0.00000E+00
         0.00000E+00
         0.00000E+00
         0.00000E+00
         0.00000E+00
         0.00000E+00
         0.00000E+00
         0.00000E+00
         0.00000E+00
         0.00000E+00
         0.00000E+00
         0.00000E+00
         0.00000E+00
         0.00000E+00
         0.00000E+00
         0.00000E+00
         0.00000E+00
         0.00000E+00
         0.00000E+00
         0.00000E+00
         0.00000E+00
         0.00000E+00
         0.00000E+00
         0.00000E+00
         0.00000E+00
         0.00000E+00
         0.00000E+00
         0.00000E+00
         0.00000E+00
         0.00000E+00
         0.00000E+00
         0.00000E+00
         0.00000E+00
         0.00000E+00
         0.00000E+00
         0.00000E+00
         0.00000E+00
         0.00000E+00
         0.00000E+00
         0.00000E+00
         0.00000E+00
         0.00000E+00
         0.00000E+00
         0.00000E+00
         0.00000E+00
         0.00000E+00
         0.00000E+00
         0.00000E+00
         0.00000E+00
         0.00000E+00
         0.00000E+00
         0.00000E+00
         0.00000E+00
         0.00000E+00
         0.00000E+00
         0.00000E+00
         0.00000E+00
         0.00000E+00
         0.00000E+00
         0.00000E+00
         0.00000E+00
         0.00000E+00
         0.00000E+00
         0.00000E+00
         0.00000E+00
         0.00000E+00
         0.00000E+00
         0.00000E+00
         0.00000E+00
         0.00000E+00
         0.00000E+00
         0.00000E+00
         0.00000E+00
         0.00000E+00
         0.00000E+00
         0.00000E+00
         0.00000E+00
         0.00000E+00
         0.00000E+00
         0.00000E+00
         0.00000E+00
         0.00000E+00
         0.00000E+00
         0.00000E+00
         0.00000E+00
         0.00000E+00
         0.00000E+00
         0.00000E+00
         0.00000E+00
         0.00000E+00
         0.00000E+00
         0.00000E+00
         0.00000E+00
         0.00000E+00
         0.00000E+00
         0.00000E+00
         0.00000E+00
         0.00000E+00
         0.00000E+00
         0.00000E+00
         0.00000E+00
         0.00000E+00
         0.00000E+00
         0.00000E+00
         0.00000E+00
         0.00000E+00
         0.00000E+00
         0.00000E+00
         0.00000E+00
         0.00000E+00
         0.00000E+00
         0.00000E+00
         0.00000E+00
         0.00000E+00
         0.00000E+00
         0.00000E+00
         0.00000E+00
         0.00000E+00
         0.00000E+00
         0.00000E+00
         0.00000E+00
         0.00000E+00
         0.00000E+00
         0.00000E+00
         0.00000E+00
         0.00000E+00
         0.00000E+00
         0.00000E+00
         0.00000E+00
         0.00000E+00
         0.00000E+00
         0.00000E+00
         0.00000E+00
         0.00000E+00
         0.00000E+00
         0.00000E+00
         0.00000E+00
         0.00000E+00
         0.00000E+00
         0.00000E+00
         0.00000E+00
         0.00000E+00
         0.00000E+00
         0.00000E+00
         0.00000E+00
         0.00000E+00
         0.00000E+00
         0.00000E+00
         0.00000E+00
         0.00000E+00
         0.00000E+00
         0.00000E+00
         0.00000E+00
         0.00000E+00
         0.00000E+00
         0.00000E+00
         0.00000E+00
         0.00000E+00
         0.00000E+00
         0.00000E+00
         0.00000E+00
         0.00000E+00
         0.00000E+00
         0.00000E+00
         0.00000E+00
         0.00000E+00
         0.00000E+00
         0.00000E+00
         0.00000E+00
         0.00000E+00
         0.00000E+00
         0.00000E+00
         0.00000E+00
         0.00000E+00
         0.00000E+00
         0.00000E+00
         0.00000E+00
         0.00000E+00
         0.00000E+00
         0.00000E+00
         0.00000E+00
         0.00000E+00
         0.00000E+00
         0.00000E+00
         0.00000E+00
         0.00000E+00
         0.00000E+00
         0.00000E+00
         0.00000E+00
         0.00000E+00
         0.00000E+00
         0.00000E+00
         0.00000E+00
         0.00000E+00
         0.00000E+00
         0.00000E+00
         0.00000E+00
         0.00000E+00
         0.00000E+00
         0.00000E+00
         0.00000E+00
         0.00000E+00
         0.00000E+00
         0.00000E+00
         0.00000E+00
         0.00000E+00
         0.00000E+00
         0.00000E+00
         0.00000E+00
         0.00000E+00
         0.00000E+00
         0.00000E+00
         0.00000E+00
         0.00000E+00
         0.00000E+00
         0.00000E+00
         0.00000E+00
         0.00000E+00
         0.00000E+00
         0.00000E+00
         0.00000E+00
         0.00000E+00
         0.00000E+00
         0.00000E+00
         0.00000E+00
         0.00000E+00
         0.00000E+00
         0.00000E+00
         0.00000E+00
         0.00000E+00
         0.00000E+00
         0.00000E+00
         0.00000E+00
         0.00000E+00
         0.00000E+00
         0.00000E+00
         0.00000E+00
         0.00000E+00
         0.00000E+00
         0.00000E+00
         0.00000E+00
         0.00000E+00
         0.00000E+00
         0.00000E+00
         0.00000E+00
         0.00000E+00
         0.00000E+00
         0.00000E+00
         0.00000E+00
         0.00000E+00
         0.00000E+00
         0.00000E+00
         0.00000E+00
         0.00000E+00
         0.00000E+00
         0.00000E+00
         0.00000E+00
         0.00000E+00
         0.00000E+00
         0.00000E+00
         0.00000E+00
         0.00000E+00
         0.00000E+00
         0.00000E+00
         0.00000E+00
         0.00000E+00
         0.00000E+00
         0.00000E+00
         0.00000E+00
         0.00000E+00
         0.00000E+00
         0.00000E+00
         0.00000E+00
         0.00000E+00
         0.00000E+00
         0.00000E+00
         0.00000E+00
         0.00000E+00
         0.00000E+00
         0.00000E+00
         0.00000E+00
         0.00000E+00
         0.00000E+00
         0.00000E+00
         0.00000E+00
         0.00000E+00
         0.00000E+00
         0.00000E+00
         0.00000E+00
         0.00000E+00
         0.00000E+00
         0.00000E+00
         0.00000E+00
         0.00000E+00
         0.00000E+00
         0.00000E+00
         0.00000E+00
         0.00000E+00
         0.00000E+00
         0.00000E+00
         0.00000E+00
         0.00000E+00
         0.00000E+00
         0.00000E+00
         0.00000E+00
         0.00000E+00
         0.00000E+00
         0.00000E+00
         0.00000E+00
         0.00000E+00
         0.00000E+00
         0.00000E+00
         0.00000E+00
         0.00000E+00
         0.00000E+00
         0.00000E+00
         0.00000E+00
         0.00000E+00
         0.00000E+00
         0.00000E+00
         0.00000E+00
         0.00000E+00
         0.00000E+00
         0.00000E+00
         0.00000E+00
         0.00000E+00
         0.00000E+00
         0.00000E+00
         0.00000E+00
         0.00000E+00
         0.00000E+00
         0.00000E+00
         0.00000E+00
         0.00000E+00
         0.00000E+00
         0.00000E+00
         0.00000E+00
         0.00000E+00
         0.00000E+00
         0.00000E+00
         0.00000E+00
         0.00000E+00
         0.00000E+00
         0.00000E+00
         0.00000E+00
         0.00000E+00
         0.00000E+00
         0.00000E+00
         0.00000E+00
         0.00000E+00
         0.00000E+00
         0.00000E+00
         0.00000E+00
         0.00000E+00
         0.00000E+00
         0.00000E+00
         0.00000E+00
         0.00000E+00
         0.00000E+00
         0.00000E+00
         0.00000E+00
         0.00000E+00
         0.00000E+00
         0.00000E+00
         0.00000E+00
         0.00000E+00
         0.00000E+00
         0.00000E+00
         0.00000E+00
         0.00000E+00
         0.00000E+00
         0.00000E+00
         0.00000E+00
         0.00000E+00
         0.00000E+00
         0.00000E+00
         0.00000E+00
         0.00000E+00
         0.00000E+00
         0.00000E+00
         0.00000E+00
         0.00000E+00
         0.00000E+00
         0.00000E+00
         0.00000E+00
         0.00000E+00
         0.00000E+00
         0.00000E+00
         0.00000E+00
         0.00000E+00
         0.00000E+00
         0.00000E+00
         0.00000E+00
         0.00000E+00
         0.00000E+00
         0.00000E+00
         0.00000E+00
         0.00000E+00
         0.00000E+00
         0.00000E+00
         0.00000E+00
         0.00000E+00
         0.00000E+00
         0.00000E+00
         0.00000E+00
         0.00000E+00
         0.00000E+00
         0.00000E+00
         0.00000E+00
         0.00000E+00
         0.00000E+00
         0.00000E+00
         0.00000E+00
         0.00000E+00
         0.00000E+00
         0.00000E+00
         0.00000E+00
         0.00000E+00
         0.00000E+00
         0.00000E+00
         0.00000E+00
         0.00000E+00
         0.00000E+00
         0.00000E+00
         0.00000E+00
         0.00000E+00
         0.00000E+00
         0.00000E+00
         0.00000E+00
         0.00000E+00
         0.00000E+00
         0.00000E+00
         0.00000E+00
         0.00000E+00
         0.00000E+00
         0.00000E+00
         0.00000E+00
         0.00000E+00
         0.00000E+00
         0.00000E+00
         0.00000E+00
         0.00000E+00
         0.00000E+00
         0.00000E+00
         0.00000E+00
         0.00000E+00
         0.00000E+00
         0.00000E+00
         0.00000E+00
         0.00000E+00
         0.00000E+00
         0.00000E+00
         0.00000E+00
         0.00000E+00
         0.00000E+00
         0.00000E+00
         0.00000E+00
         0.00000E+00
         0.00000E+00
         0.00000E+00
         0.00000E+00
         0.00000E+00
         0.00000E+00
         0.00000E+00
         0.00000E+00
         0.00000E+00
         0.00000E+00
         0.00000E+00
         0.00000E+00
         0.00000E+00
         0.00000E+00
         0.00000E+00
         0.00000E+00
         0.00000E+00
         0.00000E+00
         0.00000E+00
         0.00000E+00
         0.00000E+00
         0.00000E+00
         0.00000E+00
         0.00000E+00
         0.00000E+00
         0.00000E+00
         0.00000E+00
         0.00000E+00
         0.00000E+00
         0.00000E+00
         0.00000E+00
         0.00000E+00
         0.00000E+00
         0.00000E+00
         0.00000E+00
         0.00000E+00
         0.00000E+00
         0.00000E+00
         0.00000E+00
         0.00000E+00
         0.00000E+00
         0.00000E+00
         0.00000E+00
         0.00000E+00
         0.00000E+00
         0.00000E+00
         0.00000E+00
         0.00000E+00
         0.00000E+00
         0.00000E+00
         0.00000E+00
         0.00000E+00
         0.00000E+00
         0.00000E+00
         0.00000E+00
         0.00000E+00
         0.00000E+00
         0.00000E+00
         0.00000E+00
         0.00000E+00
         0.00000E+00
         0.00000E+00
         0.00000E+00
         0.00000E+00
         0.00000E+00
         0.00000E+00
         0.00000E+00
         0.00000E+00
         0.00000E+00
         0.00000E+00
         0.00000E+00
         0.00000E+00
         0.00000E+00
         0.00000E+00
         0.00000E+00
         0.00000E+00
         0.00000E+00
         0.00000E+00
         0.00000E+00
         0.00000E+00
         0.00000E+00
         0.00000E+00
         0.00000E+00
         0.00000E+00
         0.00000E+00
         0.00000E+00
         0.00000E+00
         0.00000E+00
         0.00000E+00
         0.00000E+00
         0.00000E+00
         0.00000E+00
         0.00000E+00
         0.00000E+00
         0.00000E+00
         0.00000E+00
         0.00000E+00
         0.00000E+00
         0.00000E+00
         0.00000E+00
         0.00000E+00
         0.00000E+00
         0.00000E+00
         0.00000E+00
         0.00000E+00
         0.00000E+00
         0.00000E+00
         0.00000E+00
         0.00000E+00
         0.00000E+00
         0.00000E+00
         0.00000E+00
         0.00000E+00
         0.00000E+00
         0.00000E+00
         0.00000E+00
         0.00000E+00
         0.00000E+00
         0.00000E+00
         0.00000E+00
         0.00000E+00
         0.00000E+00
         0.00000E+00
         0.00000E+00
         0.00000E+00
         0.00000E+00
         0.00000E+00
         0.00000E+00
         0.00000E+00
         0.00000E+00
         0.00000E+00
         0.00000E+00
         0.00000E+00
         0.00000E+00
         0.00000E+00
         0.00000E+00
         0.00000E+00
         0.00000E+00
         0.00000E+00
         0.00000E+00
         0.00000E+00
         0.00000E+00
         0.00000E+00
         0.00000E+00
         0.00000E+00
         0.00000E+00
         0.00000E+00
         0.00000E+00
         0.00000E+00
         0.00000E+00
         0.00000E+00
         0.00000E+00
         0.00000E+00
         0.00000E+00
         0.00000E+00
         0.00000E+00
         0.00000E+00
         0.00000E+00
         0.00000E+00
         0.00000E+00
         0.00000E+00
         0.00000E+00
         0.00000E+00
         0.00000E+00
         0.00000E+00
         0.00000E+00
         0.00000E+00
         0.00000E+00
         0.00000E+00
         0.00000E+00
         0.00000E+00
         0.00000E+00
         0.00000E+00
         0.00000E+00
         0.00000E+00
         0.00000E+00
         0.00000E+00
         0.00000E+00
         0.00000E+00
         0.00000E+00
         0.00000E+00
         0.00000E+00
         0.00000E+00
         0.00000E+00
         0.00000E+00
         0.00000E+00
         0.00000E+00
         0.00000E+00
         0.00000E+00
         0.00000E+00
         0.00000E+00
         0.00000E+00
         0.00000E+00
         0.00000E+00
         0.00000E+00
         0.00000E+00
         0.00000E+00
         0.00000E+00
         0.00000E+00
         0.00000E+00
         0.00000E+00
         0.00000E+00
         0.00000E+00
         0.00000E+00
         0.00000E+00
         0.00000E+00
         0.00000E+00
         0.00000E+00
         0.00000E+00
         0.00000E+00
         0.00000E+00
         0.00000E+00
         0.00000E+00
         0.00000E+00
         0.00000E+00
         0.00000E+00
         0.00000E+00
         0.00000E+00
         0.00000E+00
         0.00000E+00
         0.00000E+00
         0.00000E+00
         0.00000E+00
         0.00000E+00
         0.00000E+00
         0.00000E+00
         0.00000E+00
         0.00000E+00
         0.00000E+00
         0.00000E+00
         0.00000E+00
         0.00000E+00
         0.00000E+00
         0.00000E+00
         0.00000E+00
         0.00000E+00
         0.00000E+00
         0.00000E+00
         0.00000E+00
         0.00000E+00
         0.00000E+00
         0.00000E+00
         0.00000E+00
         0.00000E+00
         0.00000E+00
         0.00000E+00
         0.00000E+00
         0.00000E+00
         0.00000E+00
         0.00000E+00
         0.00000E+00
         0.00000E+00
         0.00000E+00
         0.00000E+00
         0.00000E+00
         0.00000E+00
         0.00000E+00
         0.00000E+00
         0.00000E+00
         0.00000E+00
         0.00000E+00
         0.00000E+00
         0.00000E+00
         0.00000E+00
         0.00000E+00
         0.00000E+00
         0.00000E+00
         0.00000E+00
         0.00000E+00
         0.00000E+00
         0.00000E+00
         0.00000E+00
         0.00000E+00
         0.00000E+00
         0.00000E+00
         0.00000E+00
         0.00000E+00
         0.00000E+00
         0.00000E+00
         0.00000E+00
         0.00000E+00
         0.00000E+00
         0.00000E+00
         0.00000E+00
         0.00000E+00
         0.00000E+00
         0.00000E+00
         0.00000E+00
         0.00000E+00
         0.00000E+00
         0.00000E+00
         0.00000E+00
         0.00000E+00
         0.00000E+00
         0.00000E+00
         0.00000E+00
         0.00000E+00
         0.00000E+00
         0.00000E+00
         0.00000E+00
         0.00000E+00
         0.00000E+00
         0.00000E+00
         0.00000E+00
         0.00000E+00
         0.00000E+00
         0.00000E+00
         0.00000E+00
         0.00000E+00
         0.00000E+00
         0.00000E+00
         0.00000E+00
         0.00000E+00
         0.00000E+00
         0.00000E+00
         0.00000E+00
         0.00000E+00
         0.00000E+00
         0.00000E+00
         0.00000E+00
         0.00000E+00
         0.00000E+00
         0.00000E+00
         0.00000E+00
         0.00000E+00
         0.00000E+00
         0.00000E+00
         0.00000E+00
         0.00000E+00
         0.00000E+00
         0.00000E+00
         0.00000E+00
         0.00000E+00
         0.00000E+00
         0.00000E+00
         0.00000E+00
         0.00000E+00
         0.00000E+00
         0.00000E+00
         0.00000E+00
         0.00000E+00
         0.00000E+00
         0.00000E+00
         0.00000E+00
         0.00000E+00
         0.00000E+00
         0.00000E+00
         0.00000E+00
         0.00000E+00
         0.00000E+00
         0.00000E+00
         0.00000E+00
         0.00000E+00
         0.00000E+00
         0.00000E+00
         0.00000E+00
         0.00000E+00
         0.00000E+00
         0.00000E+00
         0.00000E+00
         0.00000E+00
         0.00000E+00
         0.00000E+00
         0.00000E+00
         0.00000E+00
         0.00000E+00
         0.00000E+00
         0.00000E+00
         0.00000E+00
         0.00000E+00
         0.00000E+00
         0.00000E+00
         0.00000E+00
         0.00000E+00
         0.00000E+00
         0.00000E+00
         0.00000E+00
         0.00000E+00
         0.00000E+00
         0.00000E+00
         0.00000E+00
         0.00000E+00
         0.00000E+00
         0.00000E+00
         0.00000E+00
         0.00000E+00
         0.00000E+00
         0.00000E+00
         0.00000E+00
         0.00000E+00
         0.00000E+00
         0.00000E+00
         0.00000E+00
         0.00000E+00
         0.00000E+00
         0.00000E+00
         0.00000E+00
         0.00000E+00
         0.00000E+00
         0.00000E+00
         0.00000E+00
         0.00000E+00
         0.00000E+00
         0.00000E+00
         0.00000E+00
         0.00000E+00
         0.00000E+00
  
SCALARS                     velocity_y  double 1
LOOKUP_TABLE default
         0.00000E+00
         0.00000E+00
         0.00000E+00
         0.00000E+00
         0.00000E+00
         0.00000E+00
         0.00000E+00
         0.00000E+00
         0.00000E+00
         0.00000E+00
         0.00000E+00
         0.00000E+00
         0.00000E+00
         0.00000E+00
         0.00000E+00
         0.00000E+00
         0.00000E+00
         0.00000E+00
         0.00000E+00
         0.00000E+00
         0.00000E+00
         0.00000E+00
         0.00000E+00
         0.00000E+00
         0.00000E+00
         0.00000E+00
         0.00000E+00
         0.00000E+00
         0.00000E+00
         0.00000E+00
         0.00000E+00
         0.00000E+00
         0.00000E+00
         0.00000E+00
         0.00000E+00
         0.00000E+00
         0.00000E+00
         0.00000E+00
         0.00000E+00
         0.00000E+00
         0.00000E+00
         0.00000E+00
         0.00000E+00
         0.00000E+00
         0.00000E+00
         0.00000E+00
         0.00000E+00
         0.00000E+00
         0.00000E+00
         0.00000E+00
         0.00000E+00
         0.00000E+00
         0.00000E+00
         0.00000E+00
         0.00000E+00
         0.00000E+00
         0.00000E+00
         0.00000E+00
         0.00000E+00
         0.00000E+00
         0.00000E+00
         0.00000E+00
         0.00000E+00
         0.00000E+00
         0.00000E+00
         0.00000E+00
         0.00000E+00
         0.00000E+00
         0.00000E+00
         0.00000E+00
         0.00000E+00
         0.00000E+00
         0.00000E+00
         0.00000E+00
         0.00000E+00
         0.00000E+00
         0.00000E+00
         0.00000E+00
         0.00000E+00
         0.00000E+00
         0.00000E+00
         0.00000E+00
         0.00000E+00
         0.00000E+00
         0.00000E+00
         0.00000E+00
         0.00000E+00
         0.00000E+00
         0.00000E+00
         0.00000E+00
         0.00000E+00
         0.00000E+00
         0.00000E+00
         0.00000E+00
         0.00000E+00
         0.00000E+00
         0.00000E+00
         0.00000E+00
         0.00000E+00
         0.00000E+00
         0.00000E+00
         0.00000E+00
         0.00000E+00
         0.00000E+00
         0.00000E+00
         0.00000E+00
         0.00000E+00
         0.00000E+00
         0.00000E+00
         0.00000E+00
         0.00000E+00
         0.00000E+00
         0.00000E+00
         0.00000E+00
         0.00000E+00
         0.00000E+00
         0.00000E+00
         0.00000E+00
         0.00000E+00
         0.00000E+00
         0.00000E+00
         0.00000E+00
         0.00000E+00
         0.00000E+00
         0.00000E+00
         0.00000E+00
         0.00000E+00
         0.00000E+00
         0.00000E+00
         0.00000E+00
         0.00000E+00
         0.00000E+00
         0.00000E+00
         0.00000E+00
         0.00000E+00
         0.00000E+00
         0.00000E+00
         0.00000E+00
         0.00000E+00
         0.00000E+00
         0.00000E+00
         0.00000E+00
         0.00000E+00
         0.00000E+00
         0.00000E+00
         0.00000E+00
         0.00000E+00
         0.00000E+00
         0.00000E+00
         0.00000E+00
         0.00000E+00
         0.00000E+00
         0.00000E+00
         0.00000E+00
         0.00000E+00
         0.00000E+00
         0.00000E+00
         0.00000E+00
         0.00000E+00
         0.00000E+00
         0.00000E+00
         0.00000E+00
         0.00000E+00
         0.00000E+00
         0.00000E+00
         0.00000E+00
         0.00000E+00
         0.00000E+00
         0.00000E+00
         0.00000E+00
         0.00000E+00
         0.00000E+00
         0.00000E+00
         0.00000E+00
         0.00000E+00
         0.00000E+00
         0.00000E+00
         0.00000E+00
         0.00000E+00
         0.00000E+00
         0.00000E+00
         0.00000E+00
         0.00000E+00
         0.00000E+00
         0.00000E+00
         0.00000E+00
         0.00000E+00
         0.00000E+00
         0.00000E+00
         0.00000E+00
         0.00000E+00
         0.00000E+00
         0.00000E+00
         0.00000E+00
         0.00000E+00
         0.00000E+00
         0.00000E+00
         0.00000E+00
         0.00000E+00
         0.00000E+00
         0.00000E+00
         0.00000E+00
         0.00000E+00
         0.00000E+00
         0.00000E+00
         0.00000E+00
         0.00000E+00
         0.00000E+00
         0.00000E+00
         0.00000E+00
         0.00000E+00
         0.00000E+00
         0.00000E+00
         0.00000E+00
         0.00000E+00
         0.00000E+00
         0.00000E+00
         0.00000E+00
         0.00000E+00
         0.00000E+00
         0.00000E+00
         0.00000E+00
         0.00000E+00
         0.00000E+00
         0.00000E+00
         0.00000E+00
         0.00000E+00
         0.00000E+00
         0.00000E+00
         0.00000E+00
         0.00000E+00
         0.00000E+00
         0.00000E+00
         0.00000E+00
         0.00000E+00
         0.00000E+00
         0.00000E+00
         0.00000E+00
         0.00000E+00
         0.00000E+00
         0.00000E+00
         0.00000E+00
         0.00000E+00
         0.00000E+00
         0.00000E+00
         0.00000E+00
         0.00000E+00
         0.00000E+00
         0.00000E+00
         0.00000E+00
         0.00000E+00
         0.00000E+00
         0.00000E+00
         0.00000E+00
         0.00000E+00
         0.00000E+00
         0.00000E+00
         0.00000E+00
         0.00000E+00
         0.00000E+00
         0.00000E+00
         0.00000E+00
         0.00000E+00
         0.00000E+00
         0.00000E+00
         0.00000E+00
         0.00000E+00
         0.00000E+00
         0.00000E+00
         0.00000E+00
         0.00000E+00
         0.00000E+00
         0.00000E+00
         0.00000E+00
         0.00000E+00
         0.00000E+00
         0.00000E+00
         0.00000E+00
         0.00000E+00
         0.00000E+00
         0.00000E+00
         0.00000E+00
         0.00000E+00
         0.00000E+00
         0.00000E+00
         0.00000E+00
         0.00000E+00
         0.00000E+00
         0.00000E+00
         0.00000E+00
         0.00000E+00
         0.00000E+00
         0.00000E+00
         0.00000E+00
         0.00000E+00
         0.00000E+00
         0.00000E+00
         0.00000E+00
         0.00000E+00
         0.00000E+00
         0.00000E+00
         0.00000E+00
         0.00000E+00
         0.00000E+00
         0.00000E+00
         0.00000E+00
         0.00000E+00
         0.00000E+00
         0.00000E+00
         0.00000E+00
         0.00000E+00
         0.00000E+00
         0.00000E+00
         0.00000E+00
         0.00000E+00
         0.00000E+00
         0.00000E+00
         0.00000E+00
         0.00000E+00
         0.00000E+00
         0.00000E+00
         0.00000E+00
         0.00000E+00
         0.00000E+00
         0.00000E+00
         0.00000E+00
         0.00000E+00
         0.00000E+00
         0.00000E+00
         0.00000E+00
         0.00000E+00
         0.00000E+00
         0.00000E+00
         0.00000E+00
         0.00000E+00
         0.00000E+00
         0.00000E+00
         0.00000E+00
         0.00000E+00
         0.00000E+00
         0.00000E+00
         0.00000E+00
         0.00000E+00
         0.00000E+00
         0.00000E+00
         0.00000E+00
         0.00000E+00
         0.00000E+00
         0.00000E+00
         0.00000E+00
         0.00000E+00
         0.00000E+00
         0.00000E+00
         0.00000E+00
         0.00000E+00
         0.00000E+00
         0.00000E+00
         0.00000E+00
         0.00000E+00
         0.00000E+00
         0.00000E+00
         0.00000E+00
         0.00000E+00
         0.00000E+00
         0.00000E+00
         0.00000E+00
         0.00000E+00
         0.00000E+00
         0.00000E+00
         0.00000E+00
         0.00000E+00
         0.00000E+00
         0.00000E+00
         0.00000E+00
         0.00000E+00
         0.00000E+00
         0.00000E+00
         0.00000E+00
         0.00000E+00
         0.00000E+00
         0.00000E+00
         0.00000E+00
         0.00000E+00
         0.00000E+00
         0.00000E+00
         0.00000E+00
         0.00000E+00
         0.00000E+00
         0.00000E+00
         0.00000E+00
         0.00000E+00
         0.00000E+00
         0.00000E+00
         0.00000E+00
         0.00000E+00
         0.00000E+00
         0.00000E+00
         0.00000E+00
         0.00000E+00
         0.00000E+00
         0.00000E+00
         0.00000E+00
         0.00000E+00
         0.00000E+00
         0.00000E+00
         0.00000E+00
         0.00000E+00
         0.00000E+00
         0.00000E+00
         0.00000E+00
         0.00000E+00
         0.00000E+00
         0.00000E+00
         0.00000E+00
         0.00000E+00
         0.00000E+00
         0.00000E+00
         0.00000E+00
         0.00000E+00
         0.00000E+00
         0.00000E+00
         0.00000E+00
         0.00000E+00
         0.00000E+00
         0.00000E+00
         0.00000E+00
         0.00000E+00
         0.00000E+00
         0.00000E+00
         0.00000E+00
         0.00000E+00
         0.00000E+00
         0.00000E+00
         0.00000E+00
         0.00000E+00
         0.00000E+00
         0.00000E+00
         0.00000E+00
         0.00000E+00
         0.00000E+00
         0.00000E+00
         0.00000E+00
         0.00000E+00
         0.00000E+00
         0.00000E+00
         0.00000E+00
         0.00000E+00
         0.00000E+00
         0.00000E+00
         0.00000E+00
         0.00000E+00
         0.00000E+00
         0.00000E+00
         0.00000E+00
         0.00000E+00
         0.00000E+00
         0.00000E+00
         0.00000E+00
         0.00000E+00
         0.00000E+00
         0.00000E+00
         0.00000E+00
         0.00000E+00
         0.00000E+00
         0.00000E+00
         0.00000E+00
         0.00000E+00
         0.00000E+00
         0.00000E+00
         0.00000E+00
         0.00000E+00
         0.00000E+00
         0.00000E+00
         0.00000E+00
         0.00000E+00
         0.00000E+00
         0.00000E+00
         0.00000E+00
         0.00000E+00
         0.00000E+00
         0.00000E+00
         0.00000E+00
         0.00000E+00
         0.00000E+00
         0.00000E+00
         0.00000E+00
         0.00000E+00
         0.00000E+00
         0.00000E+00
         0.00000E+00
         0.00000E+00
         0.00000E+00
         0.00000E+00
         0.00000E+00
         0.00000E+00
         0.00000E+00
         0.00000E+00
         0.00000E+00
         0.00000E+00
         0.00000E+00
         0.00000E+00
         0.00000E+00
         0.00000E+00
         0.00000E+00
         0.00000E+00
         0.00000E+00
         0.00000E+00
         0.00000E+00
         0.00000E+00
         0.00000E+00
         0.00000E+00
         0.00000E+00
         0.00000E+00
         0.00000E+00
         0.00000E+00
         0.00000E+00
         0.00000E+00
         0.00000E+00
         0.00000E+00
         0.00000E+00
         0.00000E+00
         0.00000E+00
         0.00000E+00
         0.00000E+00
         0.00000E+00
         0.00000E+00
         0.00000E+00
         0.00000E+00
         0.00000E+00
         0.00000E+00
         0.00000E+00
         0.00000E+00
         0.00000E+00
         0.00000E+00
         0.00000E+00
         0.00000E+00
         0.00000E+00
         0.00000E+00
         0.00000E+00
         0.00000E+00
         0.00000E+00
         0.00000E+00
         0.00000E+00
         0.00000E+00
         0.00000E+00
         0.00000E+00
         0.00000E+00
         0.00000E+00
         0.00000E+00
         0.00000E+00
         0.00000E+00
         0.00000E+00
         0.00000E+00
         0.00000E+00
         0.00000E+00
         0.00000E+00
         0.00000E+00
         0.00000E+00
         0.00000E+00
         0.00000E+00
         0.00000E+00
         0.00000E+00
         0.00000E+00
         0.00000E+00
         0.00000E+00
         0.00000E+00
         0.00000E+00
         0.00000E+00
         0.00000E+00
         0.00000E+00
         0.00000E+00
         0.00000E+00
         0.00000E+00
         0.00000E+00
         0.00000E+00
         0.00000E+00
         0.00000E+00
         0.00000E+00
         0.00000E+00
         0.00000E+00
         0.00000E+00
         0.00000E+00
         0.00000E+00
         0.00000E+00
         0.00000E+00
         0.00000E+00
         0.00000E+00
         0.00000E+00
         0.00000E+00
         0.00000E+00
         0.00000E+00
         0.00000E+00
         0.00000E+00
         0.00000E+00
         0.00000E+00
         0.00000E+00
         0.00000E+00
         0.00000E+00
         0.00000E+00
         0.00000E+00
         0.00000E+00
         0.00000E+00
         0.00000E+00
         0.00000E+00
         0.00000E+00
         0.00000E+00
         0.00000E+00
         0.00000E+00
         0.00000E+00
         0.00000E+00
         0.00000E+00
         0.00000E+00
         0.00000E+00
         0.00000E+00
         0.00000E+00
         0.00000E+00
         0.00000E+00
         0.00000E+00
         0.00000E+00
         0.00000E+00
         0.00000E+00
         0.00000E+00
         0.00000E+00
         0.00000E+00
         0.00000E+00
         0.00000E+00
         0.00000E+00
         0.00000E+00
         0.00000E+00
         0.00000E+00
         0.00000E+00
         0.00000E+00
         0.00000E+00
         0.00000E+00
         0.00000E+00
         0.00000E+00
         0.00000E+00
         0.00000E+00
         0.00000E+00
         0.00000E+00
         0.00000E+00
         0.00000E+00
         0.00000E+00
         0.00000E+00
         0.00000E+00
         0.00000E+00
         0.00000E+00
         0.00000E+00
         0.00000E+00
         0.00000E+00
         0.00000E+00
         0.00000E+00
         0.00000E+00
         0.00000E+00
         0.00000E+00
         0.00000E+00
         0.00000E+00
         0.00000E+00
         0.00000E+00
         0.00000E+00
         0.00000E+00
         0.00000E+00
         0.00000E+00
         0.00000E+00
         0.00000E+00
         0.00000E+00
         0.00000E+00
         0.00000E+00
         0.00000E+00
         0.00000E+00
         0.00000E+00
         0.00000E+00
         0.00000E+00
         0.00000E+00
         0.00000E+00
         0.00000E+00
         0.00000E+00
         0.00000E+00
         0.00000E+00
         0.00000E+00
         0.00000E+00
         0.00000E+00
         0.00000E+00
         0.00000E+00
         0.00000E+00
         0.00000E+00
         0.00000E+00
         0.00000E+00
         0.00000E+00
         0.00000E+00
         0.00000E+00
         0.00000E+00
         0.00000E+00
         0.00000E+00
         0.00000E+00
         0.00000E+00
         0.00000E+00
         0.00000E+00
         0.00000E+00
         0.00000E+00
         0.00000E+00
         0.00000E+00
         0.00000E+00
         0.00000E+00
         0.00000E+00
         0.00000E+00
         0.00000E+00
         0.00000E+00
         0.00000E+00
         0.00000E+00
         0.00000E+00
         0.00000E+00
         0.00000E+00
         0.00000E+00
         0.00000E+00
         0.00000E+00
         0.00000E+00
         0.00000E+00
         0.00000E+00
         0.00000E+00
         0.00000E+00
         0.00000E+00
         0.00000E+00
         0.00000E+00
         0.00000E+00
         0.00000E+00
         0.00000E+00
         0.00000E+00
         0.00000E+00
         0.00000E+00
         0.00000E+00
         0.00000E+00
         0.00000E+00
         0.00000E+00
         0.00000E+00
         0.00000E+00
         0.00000E+00
         0.00000E+00
         0.00000E+00
         0.00000E+00
         0.00000E+00
         0.00000E+00
         0.00000E+00
         0.00000E+00
         0.00000E+00
         0.00000E+00
         0.00000E+00
         0.00000E+00
         0.00000E+00
         0.00000E+00
         0.00000E+00
         0.00000E+00
         0.00000E+00
         0.00000E+00
         0.00000E+00
         0.00000E+00
         0.00000E+00
         0.00000E+00
         0.00000E+00
         0.00000E+00
         0.00000E+00
         0.00000E+00
         0.00000E+00
         0.00000E+00
         0.00000E+00
         0.00000E+00
         0.00000E+00
         0.00000E+00
         0.00000E+00
         0.00000E+00
         0.00000E+00
         0.00000E+00
         0.00000E+00
         0.00000E+00
         0.00000E+00
         0.00000E+00
         0.00000E+00
         0.00000E+00
         0.00000E+00
         0.00000E+00
         0.00000E+00
         0.00000E+00
         0.00000E+00
         0.00000E+00
         0.00000E+00
         0.00000E+00
         0.00000E+00
         0.00000E+00
         0.00000E+00
         0.00000E+00
         0.00000E+00
         0.00000E+00
         0.00000E+00
         0.00000E+00
         0.00000E+00
         0.00000E+00
         0.00000E+00
         0.00000E+00
         0.00000E+00
         0.00000E+00
         0.00000E+00
         0.00000E+00
         0.00000E+00
         0.00000E+00
         0.00000E+00
         0.00000E+00
         0.00000E+00
         0.00000E+00
         0.00000E+00
         0.00000E+00
         0.00000E+00
         0.00000E+00
         0.00000E+00
         0.00000E+00
         0.00000E+00
         0.00000E+00
         0.00000E+00
         0.00000E+00
         0.00000E+00
         0.00000E+00
         0.00000E+00
         0.00000E+00
         0.00000E+00
         0.00000E+00
         0.00000E+00
         0.00000E+00
         0.00000E+00
         0.00000E+00
         0.00000E+00
         0.00000E+00
         0.00000E+00
         0.00000E+00
         0.00000E+00
         0.00000E+00
         0.00000E+00
         0.00000E+00
         0.00000E+00
         0.00000E+00
         0.00000E+00
         0.00000E+00
         0.00000E+00
         0.00000E+00
         0.00000E+00
         0.00000E+00
         0.00000E+00
         0.00000E+00
         0.00000E+00
         0.00000E+00
         0.00000E+00
         0.00000E+00
         0.00000E+00
         0.00000E+00
         0.00000E+00
         0.00000E+00
         0.00000E+00
         0.00000E+00
         0.00000E+00
         0.00000E+00
         0.00000E+00
         0.00000E+00
         0.00000E+00
         0.00000E+00
         0.00000E+00
         0.00000E+00
         0.00000E+00
         0.00000E+00
         0.00000E+00
         0.00000E+00
         0.00000E+00
         0.00000E+00
         0.00000E+00
         0.00000E+00
         0.00000E+00
         0.00000E+00
         0.00000E+00
         0.00000E+00
         0.00000E+00
         0.00000E+00
         0.00000E+00
         0.00000E+00
         0.00000E+00
         0.00000E+00
         0.00000E+00
         0.00000E+00
         0.00000E+00
         0.00000E+00
         0.00000E+00
         0.00000E+00
         0.00000E+00
         0.00000E+00
         0.00000E+00
         0.00000E+00
         0.00000E+00
         0.00000E+00
         0.00000E+00
         0.00000E+00
         0.00000E+00
         0.00000E+00
         0.00000E+00
         0.00000E+00
         0.00000E+00
         0.00000E+00
         0.00000E+00
         0.00000E+00
         0.00000E+00
         0.00000E+00
         0.00000E+00
         0.00000E+00
         0.00000E+00
         0.00000E+00
         0.00000E+00
         0.00000E+00
         0.00000E+00
         0.00000E+00
         0.00000E+00
         0.00000E+00
         0.00000E+00
         0.00000E+00
         0.00000E+00
         0.00000E+00
         0.00000E+00
         0.00000E+00
         0.00000E+00
         0.00000E+00
         0.00000E+00
         0.00000E+00
         0.00000E+00
         0.00000E+00
         0.00000E+00
         0.00000E+00
         0.00000E+00
         0.00000E+00
         0.00000E+00
         0.00000E+00
         0.00000E+00
         0.00000E+00
         0.00000E+00
         0.00000E+00
         0.00000E+00
         0.00000E+00
         0.00000E+00
         0.00000E+00
         0.00000E+00
         0.00000E+00
         0.00000E+00
         0.00000E+00
         0.00000E+00
         0.00000E+00
         0.00000E+00
         0.00000E+00
         0.00000E+00
         0.00000E+00
         0.00000E+00
         0.00000E+00
         0.00000E+00
         0.00000E+00
         0.00000E+00
         0.00000E+00
         0.00000E+00
         0.00000E+00
         0.00000E+00
         0.00000E+00
         0.00000E+00
         0.00000E+00
         0.00000E+00
         0.00000E+00
         0.00000E+00
         0.00000E+00
         0.00000E+00
         0.00000E+00
         0.00000E+00
         0.00000E+00
         0.00000E+00
         0.00000E+00
         0.00000E+00
         0.00000E+00
         0.00000E+00
         0.00000E+00
         0.00000E+00
         0.00000E+00
         0.00000E+00
         0.00000E+00
         0.00000E+00
         0.00000E+00
         0.00000E+00
         0.00000E+00
         0.00000E+00
         0.00000E+00
         0.00000E+00
         0.00000E+00
         0.00000E+00
         0.00000E+00
         0.00000E+00
         0.00000E+00
         0.00000E+00
         0.00000E+00
         0.00000E+00
         0.00000E+00
         0.00000E+00
         0.00000E+00
         0.00000E+00
         0.00000E+00
         0.00000E+00
         0.00000E+00
         0.00000E+00
         0.00000E+00
         0.00000E+00
         0.00000E+00
         0.00000E+00
         0.00000E+00
         0.00000E+00
         0.00000E+00
         0.00000E+00
         0.00000E+00
         0.00000E+00
         0.00000E+00
         0.00000E+00
         0.00000E+00
         0.00000E+00
         0.00000E+00
         0.00000E+00
         0.00000E+00
         0.00000E+00
         0.00000E+00
         0.00000E+00
         0.00000E+00
         0.00000E+00
         0.00000E+00
         0.00000E+00
         0.00000E+00
         0.00000E+00
         0.00000E+00
         0.00000E+00
         0.00000E+00
         0.00000E+00
         0.00000E+00
         0.00000E+00
         0.00000E+00
         0.00000E+00
         0.00000E+00
         0.00000E+00
         0.00000E+00
         0.00000E+00
         0.00000E+00
         0.00000E+00
         0.00000E+00
         0.00000E+00
         0.00000E+00
         0.00000E+00
         0.00000E+00
         0.00000E+00
         0.00000E+00
         0.00000E+00
         0.00000E+00
         0.00000E+00
         0.00000E+00
         0.00000E+00
         0.00000E+00
         0.00000E+00
         0.00000E+00
         0.00000E+00
         0.00000E+00
         0.00000E+00
         0.00000E+00
         0.00000E+00
         0.00000E+00
         0.00000E+00
         0.00000E+00
         0.00000E+00
         0.00000E+00
         0.00000E+00
         0.00000E+00
         0.00000E+00
         0.00000E+00
         0.00000E+00
         0.00000E+00
         0.00000E+00
         0.00000E+00
         0.00000E+00
         0.00000E+00
         0.00000E+00
         0.00000E+00
         0.00000E+00
         0.00000E+00
         0.00000E+00
         0.00000E+00
         0.00000E+00
         0.00000E+00
         0.00000E+00
         0.00000E+00
         0.00000E+00
         0.00000E+00
         0.00000E+00
         0.00000E+00
         0.00000E+00
         0.00000E+00
         0.00000E+00
         0.00000E+00
         0.00000E+00
         0.00000E+00
         0.00000E+00
         0.00000E+00
         0.00000E+00
         0.00000E+00
         0.00000E+00
         0.00000E+00
         0.00000E+00
         0.00000E+00
         0.00000E+00
         0.00000E+00
         0.00000E+00
         0.00000E+00
         0.00000E+00
         0.00000E+00
         0.00000E+00
         0.00000E+00
         0.00000E+00
         0.00000E+00
         0.00000E+00
         0.00000E+00
         0.00000E+00
         0.00000E+00
         0.00000E+00
         0.00000E+00
         0.00000E+00
         0.00000E+00
         0.00000E+00
         0.00000E+00
         0.00000E+00
         0.00000E+00
         0.00000E+00
         0.00000E+00
         0.00000E+00
         0.00000E+00
         0.00000E+00
         0.00000E+00
         0.00000E+00
         0.00000E+00
         0.00000E+00
         0.00000E+00
         0.00000E+00
         0.00000E+00
         0.00000E+00
         0.00000E+00
         0.00000E+00
         0.00000E+00
         0.00000E+00
         0.00000E+00
         0.00000E+00
         0.00000E+00
         0.00000E+00
         0.00000E+00
         0.00000E+00
         0.00000E+00
         0.00000E+00
         0.00000E+00
         0.00000E+00
         0.00000E+00
         0.00000E+00
         0.00000E+00
         0.00000E+00
         0.00000E+00
         0.00000E+00
         0.00000E+00
         0.00000E+00
         0.00000E+00
         0.00000E+00
         0.00000E+00
         0.00000E+00
         0.00000E+00
         0.00000E+00
         0.00000E+00
         0.00000E+00
         0.00000E+00
         0.00000E+00
         0.00000E+00
         0.00000E+00
         0.00000E+00
         0.00000E+00
         0.00000E+00
         0.00000E+00
         0.00000E+00
         0.00000E+00
         0.00000E+00
         0.00000E+00
         0.00000E+00
         0.00000E+00
         0.00000E+00
         0.00000E+00
         0.00000E+00
         0.00000E+00
         0.00000E+00
         0.00000E+00
         0.00000E+00
         0.00000E+00
         0.00000E+00
         0.00000E+00
         0.00000E+00
         0.00000E+00
         0.00000E+00
         0.00000E+00
         0.00000E+00
         0.00000E+00
         0.00000E+00
         0.00000E+00
         0.00000E+00
         0.00000E+00
         0.00000E+00
         0.00000E+00
         0.00000E+00
         0.00000E+00
         0.00000E+00
         0.00000E+00
         0.00000E+00
         0.00000E+00
         0.00000E+00
         0.00000E+00
         0.00000E+00
         0.00000E+00
         0.00000E+00
         0.00000E+00
         0.00000E+00
         0.00000E+00
         0.00000E+00
         0.00000E+00
         0.00000E+00
         0.00000E+00
         0.00000E+00
         0.00000E+00
         0.00000E+00
         0.00000E+00
         0.00000E+00
         0.00000E+00
         0.00000E+00
         0.00000E+00
         0.00000E+00
         0.00000E+00
         0.00000E+00
         0.00000E+00
         0.00000E+00
         0.00000E+00
         0.00000E+00
         0.00000E+00
         0.00000E+00
         0.00000E+00
         0.00000E+00
         0.00000E+00
         0.00000E+00
         0.00000E+00
         0.00000E+00
         0.00000E+00
         0.00000E+00
         0.00000E+00
         0.00000E+00
         0.00000E+00
         0.00000E+00
         0.00000E+00
         0.00000E+00
         0.00000E+00
         0.00000E+00
         0.00000E+00
         0.00000E+00
         0.00000E+00
         0.00000E+00
         0.00000E+00
         0.00000E+00
         0.00000E+00
         0.00000E+00
         0.00000E+00
         0.00000E+00
         0.00000E+00
         0.00000E+00
         0.00000E+00
         0.00000E+00
         0.00000E+00
         0.00000E+00
         0.00000E+00
         0.00000E+00
         0.00000E+00
         0.00000E+00
         0.00000E+00
         0.00000E+00
         0.00000E+00
         0.00000E+00
         0.00000E+00
         0.00000E+00
         0.00000E+00
         0.00000E+00
         0.00000E+00
         0.00000E+00
         0.00000E+00
         0.00000E+00
         0.00000E+00
         0.00000E+00
         0.00000E+00
         0.00000E+00
         0.00000E+00
         0.00000E+00
         0.00000E+00
         0.00000E+00
         0.00000E+00
         0.00000E+00
         0.00000E+00
         0.00000E+00
         0.00000E+00
         0.00000E+00
         0.00000E+00
         0.00000E+00
         0.00000E+00
         0.00000E+00
         0.00000E+00
         0.00000E+00
         0.00000E+00
         0.00000E+00
         0.00000E+00
         0.00000E+00
         0.00000E+00
         0.00000E+00
         0.00000E+00
         0.00000E+00
         0.00000E+00
         0.00000E+00
         0.00000E+00
         0.00000E+00
         0.00000E+00
         0.00000E+00
         0.00000E+00
         0.00000E+00
         0.00000E+00
         0.00000E+00
         0.00000E+00
         0.00000E+00
         0.00000E+00
         0.00000E+00
         0.00000E+00
         0.00000E+00
         0.00000E+00
         0.00000E+00
         0.00000E+00
         0.00000E+00
         0.00000E+00
         0.00000E+00
         0.00000E+00
         0.00000E+00
         0.00000E+00
         0.00000E+00
         0.00000E+00
         0.00000E+00
         0.00000E+00
         0.00000E+00
         0.00000E+00
         0.00000E+00
         0.00000E+00
         0.00000E+00
         0.00000E+00
         0.00000E+00
         0.00000E+00
         0.00000E+00
         0.00000E+00
         0.00000E+00
         0.00000E+00
         0.00000E+00
         0.00000E+00
         0.00000E+00
         0.00000E+00
         0.00000E+00
         0.00000E+00
         0.00000E+00
         0.00000E+00
         0.00000E+00
         0.00000E+00
         0.00000E+00
         0.00000E+00
         0.00000E+00
         0.00000E+00
         0.00000E+00
         0.00000E+00
         0.00000E+00
         0.00000E+00
         0.00000E+00
         0.00000E+00
         0.00000E+00
         0.00000E+00
         0.00000E+00
         0.00000E+00
         0.00000E+00
         0.00000E+00
         0.00000E+00
         0.00000E+00
         0.00000E+00
         0.00000E+00
         0.00000E+00
         0.00000E+00
         0.00000E+00
         0.00000E+00
         0.00000E+00
         0.00000E+00
         0.00000E+00
         0.00000E+00
         0.00000E+00
         0.00000E+00
         0.00000E+00
         0.00000E+00
         0.00000E+00
         0.00000E+00
         0.00000E+00
         0.00000E+00
         0.00000E+00
         0.00000E+00
         0.00000E+00
         0.00000E+00
         0.00000E+00
         0.00000E+00
         0.00000E+00
         0.00000E+00
         0.00000E+00
         0.00000E+00
         0.00000E+00
         0.00000E+00
         0.00000E+00
         0.00000E+00
         0.00000E+00
         0.00000E+00
         0.00000E+00
         0.00000E+00
         0.00000E+00
         0.00000E+00
         0.00000E+00
         0.00000E+00
         0.00000E+00
         0.00000E+00
         0.00000E+00
         0.00000E+00
         0.00000E+00
         0.00000E+00
         0.00000E+00
         0.00000E+00
         0.00000E+00
         0.00000E+00
         0.00000E+00
         0.00000E+00
         0.00000E+00
         0.00000E+00
         0.00000E+00
         0.00000E+00
         0.00000E+00
         0.00000E+00
         0.00000E+00
         0.00000E+00
         0.00000E+00
         0.00000E+00
         0.00000E+00
         0.00000E+00
         0.00000E+00
         0.00000E+00
         0.00000E+00
         0.00000E+00
         0.00000E+00
         0.00000E+00
         0.00000E+00
         0.00000E+00
         0.00000E+00
         0.00000E+00
         0.00000E+00
         0.00000E+00
         0.00000E+00
         0.00000E+00
         0.00000E+00
         0.00000E+00
         0.00000E+00
         0.00000E+00
         0.00000E+00
         0.00000E+00
         0.00000E+00
         0.00000E+00
         0.00000E+00
         0.00000E+00
         0.00000E+00
         0.00000E+00
         0.00000E+00
         0.00000E+00
         0.00000E+00
         0.00000E+00
         0.00000E+00
         0.00000E+00
         0.00000E+00
         0.00000E+00
         0.00000E+00
         0.00000E+00
         0.00000E+00
         0.00000E+00
         0.00000E+00
         0.00000E+00
         0.00000E+00
         0.00000E+00
         0.00000E+00
         0.00000E+00
         0.00000E+00
         0.00000E+00
         0.00000E+00
         0.00000E+00
         0.00000E+00
         0.00000E+00
         0.00000E+00
         0.00000E+00
         0.00000E+00
         0.00000E+00
         0.00000E+00
         0.00000E+00
         0.00000E+00
         0.00000E+00
         0.00000E+00
         0.00000E+00
         0.00000E+00
         0.00000E+00
         0.00000E+00
         0.00000E+00
         0.00000E+00
         0.00000E+00
         0.00000E+00
         0.00000E+00
         0.00000E+00
         0.00000E+00
         0.00000E+00
         0.00000E+00
         0.00000E+00
         0.00000E+00
         0.00000E+00
         0.00000E+00
         0.00000E+00
         0.00000E+00
         0.00000E+00
         0.00000E+00
         0.00000E+00
         0.00000E+00
         0.00000E+00
         0.00000E+00
         0.00000E+00
         0.00000E+00
         0.00000E+00
         0.00000E+00
         0.00000E+00
         0.00000E+00
         0.00000E+00
         0.00000E+00
         0.00000E+00
         0.00000E+00
         0.00000E+00
         0.00000E+00
         0.00000E+00
         0.00000E+00
         0.00000E+00
         0.00000E+00
         0.00000E+00
         0.00000E+00
         0.00000E+00
         0.00000E+00
         0.00000E+00
         0.00000E+00
         0.00000E+00
         0.00000E+00
         0.00000E+00
         0.00000E+00
         0.00000E+00
         0.00000E+00
         0.00000E+00
         0.00000E+00
         0.00000E+00
         0.00000E+00
         0.00000E+00
         0.00000E+00
         0.00000E+00
         0.00000E+00
         0.00000E+00
         0.00000E+00
         0.00000E+00
         0.00000E+00
         0.00000E+00
         0.00000E+00
         0.00000E+00
         0.00000E+00
         0.00000E+00
         0.00000E+00
         0.00000E+00
         0.00000E+00
         0.00000E+00
         0.00000E+00
         0.00000E+00
         0.00000E+00
         0.00000E+00
         0.00000E+00
         0.00000E+00
         0.00000E+00
         0.00000E+00
         0.00000E+00
         0.00000E+00
         0.00000E+00
         0.00000E+00
         0.00000E+00
         0.00000E+00
         0.00000E+00
         0.00000E+00
         0.00000E+00
         0.00000E+00
         0.00000E+00
         0.00000E+00
         0.00000E+00
         0.00000E+00
         0.00000E+00
         0.00000E+00
         0.00000E+00
         0.00000E+00
         0.00000E+00
         0.00000E+00
         0.00000E+00
         0.00000E+00
         0.00000E+00
         0.00000E+00
         0.00000E+00
         0.00000E+00
         0.00000E+00
         0.00000E+00
         0.00000E+00
         0.00000E+00
         0.00000E+00
         0.00000E+00
         0.00000E+00
         0.00000E+00
         0.00000E+00
         0.00000E+00
         0.00000E+00
         0.00000E+00
         0.00000E+00
         0.00000E+00
         0.00000E+00
         0.00000E+00
         0.00000E+00
         0.00000E+00
         0.00000E+00
         0.00000E+00
         0.00000E+00
         0.00000E+00
         0.00000E+00
         0.00000E+00
         0.00000E+00
         0.00000E+00
         0.00000E+00
         0.00000E+00
         0.00000E+00
         0.00000E+00
         0.00000E+00
         0.00000E+00
         0.00000E+00
         0.00000E+00
         0.00000E+00
         0.00000E+00
         0.00000E+00
         0.00000E+00
         0.00000E+00
         0.00000E+00
         0.00000E+00
         0.00000E+00
         0.00000E+00
         0.00000E+00
         0.00000E+00
         0.00000E+00
         0.00000E+00
         0.00000E+00
         0.00000E+00
         0.00000E+00
         0.00000E+00
         0.00000E+00
         0.00000E+00
         0.00000E+00
         0.00000E+00
         0.00000E+00
         0.00000E+00
         0.00000E+00
         0.00000E+00
         0.00000E+00
         0.00000E+00
         0.00000E+00
         0.00000E+00
         0.00000E+00
         0.00000E+00
         0.00000E+00
         0.00000E+00
         0.00000E+00
         0.00000E+00
         0.00000E+00
         0.00000E+00
         0.00000E+00
         0.00000E+00
         0.00000E+00
         0.00000E+00
         0.00000E+00
         0.00000E+00
         0.00000E+00
         0.00000E+00
         0.00000E+00
         0.00000E+00
         0.00000E+00
         0.00000E+00
         0.00000E+00
         0.00000E+00
         0.00000E+00
         0.00000E+00
         0.00000E+00
         0.00000E+00
         0.00000E+00
         0.00000E+00
         0.00000E+00
         0.00000E+00
         0.00000E+00
         0.00000E+00
         0.00000E+00
         0.00000E+00
         0.00000E+00
         0.00000E+00
         0.00000E+00
         0.00000E+00
         0.00000E+00
         0.00000E+00
         0.00000E+00
         0.00000E+00
         0.00000E+00
         0.00000E+00
         0.00000E+00
         0.00000E+00
         0.00000E+00
         0.00000E+00
         0.00000E+00
         0.00000E+00
         0.00000E+00
         0.00000E+00
         0.00000E+00
         0.00000E+00
         0.00000E+00
         0.00000E+00
         0.00000E+00
         0.00000E+00
         0.00000E+00
         0.00000E+00
         0.00000E+00
         0.00000E+00
         0.00000E+00
         0.00000E+00
         0.00000E+00
         0.00000E+00
         0.00000E+00
         0.00000E+00
         0.00000E+00
         0.00000E+00
         0.00000E+00
         0.00000E+00
         0.00000E+00
         0.00000E+00
         0.00000E+00
         0.00000E+00
         0.00000E+00
         0.00000E+00
         0.00000E+00
         0.00000E+00
         0.00000E+00
         0.00000E+00
         0.00000E+00
         0.00000E+00
         0.00000E+00
         0.00000E+00
         0.00000E+00
         0.00000E+00
         0.00000E+00
         0.00000E+00
         0.00000E+00
         0.00000E+00
         0.00000E+00
         0.00000E+00
         0.00000E+00
         0.00000E+00
         0.00000E+00
         0.00000E+00
         0.00000E+00
         0.00000E+00
         0.00000E+00
         0.00000E+00
         0.00000E+00
         0.00000E+00
         0.00000E+00
         0.00000E+00
         0.00000E+00
         0.00000E+00
         0.00000E+00
         0.00000E+00
         0.00000E+00
         0.00000E+00
         0.00000E+00
         0.00000E+00
         0.00000E+00
         0.00000E+00
         0.00000E+00
         0.00000E+00
         0.00000E+00
         0.00000E+00
         0.00000E+00
         0.00000E+00
         0.00000E+00
         0.00000E+00
         0.00000E+00
         0.00000E+00
         0.00000E+00
         0.00000E+00
         0.00000E+00
         0.00000E+00
         0.00000E+00
         0.00000E+00
         0.00000E+00
         0.00000E+00
         0.00000E+00
         0.00000E+00
         0.00000E+00
         0.00000E+00
         0.00000E+00
         0.00000E+00
         0.00000E+00
         0.00000E+00
         0.00000E+00
         0.00000E+00
         0.00000E+00
         0.00000E+00
         0.00000E+00
         0.00000E+00
         0.00000E+00
         0.00000E+00
         0.00000E+00
         0.00000E+00
         0.00000E+00
         0.00000E+00
         0.00000E+00
         0.00000E+00
         0.00000E+00
         0.00000E+00
         0.00000E+00
         0.00000E+00
         0.00000E+00
         0.00000E+00
         0.00000E+00
         0.00000E+00
         0.00000E+00
         0.00000E+00
         0.00000E+00
         0.00000E+00
         0.00000E+00
         0.00000E+00
         0.00000E+00
         0.00000E+00
         0.00000E+00
         0.00000E+00
         0.00000E+00
         0.00000E+00
         0.00000E+00
         0.00000E+00
         0.00000E+00
         0.00000E+00
         0.00000E+00
         0.00000E+00
         0.00000E+00
         0.00000E+00
         0.00000E+00
         0.00000E+00
         0.00000E+00
         0.00000E+00
         0.00000E+00
         0.00000E+00
         0.00000E+00
         0.00000E+00
         0.00000E+00
         0.00000E+00
         0.00000E+00
         0.00000E+00
         0.00000E+00
         0.00000E+00
         0.00000E+00
         0.00000E+00
         0.00000E+00
         0.00000E+00
         0.00000E+00
         0.00000E+00
         0.00000E+00
         0.00000E+00
         0.00000E+00
         0.00000E+00
         0.00000E+00
         0.00000E+00
         0.00000E+00
         0.00000E+00
         0.00000E+00
         0.00000E+00
         0.00000E+00
         0.00000E+00
         0.00000E+00
         0.00000E+00
         0.00000E+00
         0.00000E+00
         0.00000E+00
         0.00000E+00
         0.00000E+00
         0.00000E+00
         0.00000E+00
         0.00000E+00
         0.00000E+00
         0.00000E+00
         0.00000E+00
         0.00000E+00
         0.00000E+00
         0.00000E+00
         0.00000E+00
         0.00000E+00
         0.00000E+00
         0.00000E+00
         0.00000E+00
         0.00000E+00
         0.00000E+00
         0.00000E+00
         0.00000E+00
         0.00000E+00
         0.00000E+00
         0.00000E+00
         0.00000E+00
         0.00000E+00
         0.00000E+00
         0.00000E+00
         0.00000E+00
         0.00000E+00
         0.00000E+00
         0.00000E+00
         0.00000E+00
         0.00000E+00
         0.00000E+00
         0.00000E+00
         0.00000E+00
         0.00000E+00
         0.00000E+00
         0.00000E+00
         0.00000E+00
         0.00000E+00
         0.00000E+00
         0.00000E+00
         0.00000E+00
         0.00000E+00
         0.00000E+00
  
SCALARS                     velocity_z  double 1
LOOKUP_TABLE default
        -0.37300E+03
        -0.37300E+03
        -0.37300E+03
        -0.37300E+03
         0.00000E+00
         0.00000E+00
         0.00000E+00
         0.00000E+00
        -0.37300E+03
        -0.37300E+03
         0.00000E+00
         0.00000E+00
        -0.37300E+03
        -0.37300E+03
         0.00000E+00
         0.00000E+00
        -0.37300E+03
        -0.37300E+03
         0.00000E+00
         0.00000E+00
        -0.37300E+03
        -0.37300E+03
        -0.37300E+03
         0.00000E+00
         0.00000E+00
         0.00000E+00
        -0.37300E+03
        -0.37300E+03
         0.00000E+00
         0.00000E+00
        -0.37300E+03
        -0.37300E+03
        -0.37300E+03
         0.00000E+00
         0.00000E+00
         0.00000E+00
        -0.37300E+03
        -0.37300E+03
         0.00000E+00
         0.00000E+00
        -0.37300E+03
        -0.37300E+03
         0.00000E+00
         0.00000E+00
        -0.37300E+03
        -0.37300E+03
         0.00000E+00
         0.00000E+00
        -0.37300E+03
         0.00000E+00
        -0.37300E+03
         0.00000E+00
        -0.37300E+03
         0.00000E+00
        -0.37300E+03
         0.00000E+00
        -0.37300E+03
        -0.37300E+03
         0.00000E+00
         0.00000E+00
        -0.37300E+03
        -0.37300E+03
         0.00000E+00
         0.00000E+00
        -0.37300E+03
         0.00000E+00
        -0.37300E+03
         0.00000E+00
        -0.37300E+03
        -0.37300E+03
         0.00000E+00
         0.00000E+00
        -0.37300E+03
         0.00000E+00
        -0.37300E+03
         0.00000E+00
        -0.37300E+03
         0.00000E+00
        -0.37300E+03
         0.00000E+00
        -0.37300E+03
        -0.37300E+03
         0.00000E+00
         0.00000E+00
        -0.37300E+03
         0.00000E+00
        -0.37300E+03
         0.00000E+00
        -0.37300E+03
         0.00000E+00
        -0.37300E+03
        -0.37300E+03
         0.00000E+00
         0.00000E+00
        -0.37300E+03
         0.00000E+00
        -0.37300E+03
         0.00000E+00
        -0.37300E+03
         0.00000E+00
        -0.37300E+03
        -0.37300E+03
         0.00000E+00
         0.00000E+00
        -0.37300E+03
        -0.37300E+03
         0.00000E+00
         0.00000E+00
        -0.37300E+03
         0.00000E+00
        -0.37300E+03
         0.00000E+00
        -0.37300E+03
         0.00000E+00
        -0.37300E+03
         0.00000E+00
        -0.37300E+03
         0.00000E+00
        -0.37300E+03
         0.00000E+00
        -0.37300E+03
         0.00000E+00
        -0.37300E+03
         0.00000E+00
        -0.37300E+03
         0.00000E+00
        -0.37300E+03
         0.00000E+00
        -0.37300E+03
         0.00000E+00
        -0.37300E+03
         0.00000E+00
        -0.37300E+03
         0.00000E+00
        -0.37300E+03
         0.00000E+00
        -0.37300E+03
         0.00000E+00
        -0.37300E+03
         0.00000E+00
        -0.37300E+03
         0.00000E+00
        -0.37300E+03
         0.00000E+00
        -0.37300E+03
         0.00000E+00
        -0.37300E+03
         0.00000E+00
        -0.37300E+03
         0.00000E+00
        -0.37300E+03
         0.00000E+00
        -0.37300E+03
         0.00000E+00
        -0.37300E+03
         0.00000E+00
        -0.37300E+03
        -0.37300E+03
        -0.37300E+03
        -0.37300E+03
        -0.37300E+03
        -0.37300E+03
        -0.37300E+03
        -0.37300E+03
        -0.37300E+03
        -0.37300E+03
        -0.37300E+03
        -0.37300E+03
        -0.37300E+03
        -0.37300E+03
        -0.37300E+03
        -0.37300E+03
        -0.37300E+03
        -0.37300E+03
        -0.37300E+03
        -0.37300E+03
        -0.37300E+03
        -0.37300E+03
        -0.37300E+03
        -0.37300E+03
        -0.37300E+03
        -0.37300E+03
        -0.37300E+03
        -0.37300E+03
        -0.37300E+03
        -0.37300E+03
        -0.37300E+03
        -0.37300E+03
        -0.37300E+03
        -0.37300E+03
        -0.37300E+03
        -0.37300E+03
        -0.37300E+03
        -0.37300E+03
        -0.37300E+03
        -0.37300E+03
        -0.37300E+03
        -0.37300E+03
        -0.37300E+03
        -0.37300E+03
        -0.37300E+03
        -0.37300E+03
        -0.37300E+03
        -0.37300E+03
        -0.37300E+03
        -0.37300E+03
        -0.37300E+03
        -0.37300E+03
        -0.37300E+03
        -0.37300E+03
        -0.37300E+03
        -0.37300E+03
        -0.37300E+03
        -0.37300E+03
        -0.37300E+03
        -0.37300E+03
        -0.37300E+03
        -0.37300E+03
        -0.37300E+03
        -0.37300E+03
        -0.37300E+03
        -0.37300E+03
        -0.37300E+03
        -0.37300E+03
        -0.37300E+03
        -0.37300E+03
        -0.37300E+03
        -0.37300E+03
        -0.37300E+03
        -0.37300E+03
        -0.37300E+03
        -0.37300E+03
        -0.37300E+03
        -0.37300E+03
        -0.37300E+03
        -0.37300E+03
        -0.37300E+03
        -0.37300E+03
        -0.37300E+03
        -0.37300E+03
        -0.37300E+03
        -0.37300E+03
        -0.37300E+03
        -0.37300E+03
        -0.37300E+03
        -0.37300E+03
        -0.37300E+03
        -0.37300E+03
        -0.37300E+03
        -0.37300E+03
        -0.37300E+03
        -0.37300E+03
        -0.37300E+03
        -0.37300E+03
        -0.37300E+03
        -0.37300E+03
        -0.37300E+03
        -0.37300E+03
        -0.37300E+03
        -0.37300E+03
        -0.37300E+03
        -0.37300E+03
        -0.37300E+03
        -0.37300E+03
        -0.37300E+03
        -0.37300E+03
        -0.37300E+03
        -0.37300E+03
        -0.37300E+03
        -0.37300E+03
        -0.37300E+03
        -0.37300E+03
        -0.37300E+03
        -0.37300E+03
        -0.37300E+03
        -0.37300E+03
        -0.37300E+03
        -0.37300E+03
        -0.37300E+03
        -0.37300E+03
        -0.37300E+03
        -0.37300E+03
        -0.37300E+03
        -0.37300E+03
        -0.37300E+03
        -0.37300E+03
        -0.37300E+03
        -0.37300E+03
        -0.37300E+03
        -0.37300E+03
        -0.37300E+03
        -0.37300E+03
        -0.37300E+03
        -0.37300E+03
        -0.37300E+03
        -0.37300E+03
        -0.37300E+03
        -0.37300E+03
        -0.37300E+03
        -0.37300E+03
        -0.37300E+03
        -0.37300E+03
        -0.37300E+03
        -0.37300E+03
        -0.37300E+03
        -0.37300E+03
        -0.37300E+03
        -0.37300E+03
        -0.37300E+03
        -0.37300E+03
        -0.37300E+03
        -0.37300E+03
        -0.37300E+03
        -0.37300E+03
        -0.37300E+03
        -0.37300E+03
        -0.37300E+03
        -0.37300E+03
        -0.37300E+03
        -0.37300E+03
        -0.37300E+03
        -0.37300E+03
        -0.37300E+03
        -0.37300E+03
        -0.37300E+03
        -0.37300E+03
        -0.37300E+03
        -0.37300E+03
        -0.37300E+03
        -0.37300E+03
        -0.37300E+03
        -0.37300E+03
        -0.37300E+03
        -0.37300E+03
        -0.37300E+03
        -0.37300E+03
        -0.37300E+03
        -0.37300E+03
        -0.37300E+03
        -0.37300E+03
        -0.37300E+03
        -0.37300E+03
        -0.37300E+03
        -0.37300E+03
        -0.37300E+03
        -0.37300E+03
        -0.37300E+03
        -0.37300E+03
        -0.37300E+03
        -0.37300E+03
        -0.37300E+03
        -0.37300E+03
        -0.37300E+03
        -0.37300E+03
        -0.37300E+03
        -0.37300E+03
        -0.37300E+03
        -0.37300E+03
        -0.37300E+03
        -0.37300E+03
        -0.37300E+03
        -0.37300E+03
        -0.37300E+03
        -0.37300E+03
        -0.37300E+03
        -0.37300E+03
        -0.37300E+03
        -0.37300E+03
        -0.37300E+03
        -0.37300E+03
        -0.37300E+03
        -0.37300E+03
        -0.37300E+03
        -0.37300E+03
        -0.37300E+03
        -0.37300E+03
        -0.37300E+03
        -0.37300E+03
        -0.37300E+03
        -0.37300E+03
        -0.37300E+03
        -0.37300E+03
        -0.37300E+03
        -0.37300E+03
        -0.37300E+03
        -0.37300E+03
        -0.37300E+03
        -0.37300E+03
        -0.37300E+03
        -0.37300E+03
        -0.37300E+03
        -0.37300E+03
        -0.37300E+03
        -0.37300E+03
        -0.37300E+03
        -0.37300E+03
        -0.37300E+03
        -0.37300E+03
        -0.37300E+03
        -0.37300E+03
        -0.37300E+03
        -0.37300E+03
        -0.37300E+03
        -0.37300E+03
        -0.37300E+03
        -0.37300E+03
        -0.37300E+03
        -0.37300E+03
        -0.37300E+03
        -0.37300E+03
        -0.37300E+03
        -0.37300E+03
        -0.37300E+03
        -0.37300E+03
        -0.37300E+03
        -0.37300E+03
        -0.37300E+03
        -0.37300E+03
        -0.37300E+03
        -0.37300E+03
        -0.37300E+03
        -0.37300E+03
        -0.37300E+03
        -0.37300E+03
        -0.37300E+03
        -0.37300E+03
        -0.37300E+03
        -0.37300E+03
        -0.37300E+03
        -0.37300E+03
        -0.37300E+03
        -0.37300E+03
        -0.37300E+03
        -0.37300E+03
        -0.37300E+03
        -0.37300E+03
        -0.37300E+03
        -0.37300E+03
        -0.37300E+03
        -0.37300E+03
        -0.37300E+03
        -0.37300E+03
        -0.37300E+03
        -0.37300E+03
        -0.37300E+03
        -0.37300E+03
        -0.37300E+03
        -0.37300E+03
        -0.37300E+03
        -0.37300E+03
        -0.37300E+03
        -0.37300E+03
        -0.37300E+03
        -0.37300E+03
        -0.37300E+03
        -0.37300E+03
        -0.37300E+03
        -0.37300E+03
        -0.37300E+03
        -0.37300E+03
        -0.37300E+03
        -0.37300E+03
        -0.37300E+03
        -0.37300E+03
        -0.37300E+03
        -0.37300E+03
        -0.37300E+03
        -0.37300E+03
        -0.37300E+03
        -0.37300E+03
        -0.37300E+03
        -0.37300E+03
        -0.37300E+03
        -0.37300E+03
        -0.37300E+03
        -0.37300E+03
        -0.37300E+03
        -0.37300E+03
        -0.37300E+03
        -0.37300E+03
        -0.37300E+03
        -0.37300E+03
        -0.37300E+03
        -0.37300E+03
        -0.37300E+03
        -0.37300E+03
        -0.37300E+03
        -0.37300E+03
        -0.37300E+03
        -0.37300E+03
        -0.37300E+03
        -0.37300E+03
        -0.37300E+03
        -0.37300E+03
        -0.37300E+03
        -0.37300E+03
        -0.37300E+03
        -0.37300E+03
        -0.37300E+03
        -0.37300E+03
        -0.37300E+03
        -0.37300E+03
        -0.37300E+03
        -0.37300E+03
        -0.37300E+03
        -0.37300E+03
        -0.37300E+03
        -0.37300E+03
        -0.37300E+03
        -0.37300E+03
        -0.37300E+03
        -0.37300E+03
        -0.37300E+03
        -0.37300E+03
        -0.37300E+03
        -0.37300E+03
        -0.37300E+03
        -0.37300E+03
        -0.37300E+03
        -0.37300E+03
        -0.37300E+03
        -0.37300E+03
        -0.37300E+03
        -0.37300E+03
        -0.37300E+03
        -0.37300E+03
        -0.37300E+03
        -0.37300E+03
        -0.37300E+03
        -0.37300E+03
        -0.37300E+03
        -0.37300E+03
        -0.37300E+03
        -0.37300E+03
        -0.37300E+03
        -0.37300E+03
        -0.37300E+03
        -0.37300E+03
        -0.37300E+03
        -0.37300E+03
        -0.37300E+03
        -0.37300E+03
        -0.37300E+03
        -0.37300E+03
        -0.37300E+03
        -0.37300E+03
        -0.37300E+03
        -0.37300E+03
        -0.37300E+03
        -0.37300E+03
        -0.37300E+03
        -0.37300E+03
        -0.37300E+03
        -0.37300E+03
        -0.37300E+03
        -0.37300E+03
        -0.37300E+03
        -0.37300E+03
        -0.37300E+03
        -0.37300E+03
        -0.37300E+03
        -0.37300E+03
        -0.37300E+03
        -0.37300E+03
        -0.37300E+03
        -0.37300E+03
        -0.37300E+03
        -0.37300E+03
        -0.37300E+03
        -0.37300E+03
        -0.37300E+03
        -0.37300E+03
        -0.37300E+03
        -0.37300E+03
        -0.37300E+03
        -0.37300E+03
        -0.37300E+03
        -0.37300E+03
        -0.37300E+03
        -0.37300E+03
        -0.37300E+03
        -0.37300E+03
        -0.37300E+03
        -0.37300E+03
        -0.37300E+03
        -0.37300E+03
        -0.37300E+03
        -0.37300E+03
        -0.37300E+03
        -0.37300E+03
        -0.37300E+03
        -0.37300E+03
        -0.37300E+03
        -0.37300E+03
        -0.37300E+03
        -0.37300E+03
        -0.37300E+03
        -0.37300E+03
        -0.37300E+03
        -0.37300E+03
        -0.37300E+03
        -0.37300E+03
        -0.37300E+03
        -0.37300E+03
        -0.37300E+03
        -0.37300E+03
        -0.37300E+03
        -0.37300E+03
        -0.37300E+03
        -0.37300E+03
        -0.37300E+03
        -0.37300E+03
        -0.37300E+03
        -0.37300E+03
        -0.37300E+03
        -0.37300E+03
        -0.37300E+03
        -0.37300E+03
        -0.37300E+03
        -0.37300E+03
        -0.37300E+03
        -0.37300E+03
        -0.37300E+03
        -0.37300E+03
        -0.37300E+03
        -0.37300E+03
        -0.37300E+03
        -0.37300E+03
        -0.37300E+03
        -0.37300E+03
        -0.37300E+03
        -0.37300E+03
        -0.37300E+03
        -0.37300E+03
        -0.37300E+03
        -0.37300E+03
        -0.37300E+03
        -0.37300E+03
        -0.37300E+03
        -0.37300E+03
        -0.37300E+03
        -0.37300E+03
        -0.37300E+03
        -0.37300E+03
        -0.37300E+03
        -0.37300E+03
        -0.37300E+03
        -0.37300E+03
        -0.37300E+03
        -0.37300E+03
        -0.37300E+03
        -0.37300E+03
        -0.37300E+03
        -0.37300E+03
        -0.37300E+03
        -0.37300E+03
        -0.37300E+03
        -0.37300E+03
        -0.37300E+03
        -0.37300E+03
        -0.37300E+03
        -0.37300E+03
        -0.37300E+03
        -0.37300E+03
        -0.37300E+03
        -0.37300E+03
        -0.37300E+03
        -0.37300E+03
        -0.37300E+03
        -0.37300E+03
        -0.37300E+03
        -0.37300E+03
        -0.37300E+03
        -0.37300E+03
        -0.37300E+03
        -0.37300E+03
        -0.37300E+03
        -0.37300E+03
        -0.37300E+03
        -0.37300E+03
        -0.37300E+03
        -0.37300E+03
        -0.37300E+03
        -0.37300E+03
        -0.37300E+03
        -0.37300E+03
        -0.37300E+03
        -0.37300E+03
        -0.37300E+03
        -0.37300E+03
        -0.37300E+03
        -0.37300E+03
        -0.37300E+03
        -0.37300E+03
        -0.37300E+03
        -0.37300E+03
        -0.37300E+03
        -0.37300E+03
        -0.37300E+03
        -0.37300E+03
        -0.37300E+03
        -0.37300E+03
        -0.37300E+03
        -0.37300E+03
        -0.37300E+03
        -0.37300E+03
        -0.37300E+03
        -0.37300E+03
        -0.37300E+03
        -0.37300E+03
        -0.37300E+03
        -0.37300E+03
        -0.37300E+03
        -0.37300E+03
        -0.37300E+03
        -0.37300E+03
        -0.37300E+03
        -0.37300E+03
        -0.37300E+03
        -0.37300E+03
        -0.37300E+03
        -0.37300E+03
        -0.37300E+03
        -0.37300E+03
        -0.37300E+03
        -0.37300E+03
        -0.37300E+03
        -0.37300E+03
        -0.37300E+03
        -0.37300E+03
        -0.37300E+03
        -0.37300E+03
        -0.37300E+03
        -0.37300E+03
        -0.37300E+03
        -0.37300E+03
        -0.37300E+03
        -0.37300E+03
        -0.37300E+03
        -0.37300E+03
        -0.37300E+03
        -0.37300E+03
        -0.37300E+03
        -0.37300E+03
        -0.37300E+03
        -0.37300E+03
        -0.37300E+03
        -0.37300E+03
        -0.37300E+03
        -0.37300E+03
        -0.37300E+03
        -0.37300E+03
        -0.37300E+03
        -0.37300E+03
        -0.37300E+03
        -0.37300E+03
        -0.37300E+03
        -0.37300E+03
        -0.37300E+03
        -0.37300E+03
        -0.37300E+03
        -0.37300E+03
        -0.37300E+03
        -0.37300E+03
        -0.37300E+03
        -0.37300E+03
        -0.37300E+03
        -0.37300E+03
        -0.37300E+03
        -0.37300E+03
        -0.37300E+03
        -0.37300E+03
        -0.37300E+03
        -0.37300E+03
        -0.37300E+03
        -0.37300E+03
        -0.37300E+03
        -0.37300E+03
        -0.37300E+03
        -0.37300E+03
        -0.37300E+03
        -0.37300E+03
        -0.37300E+03
        -0.37300E+03
        -0.37300E+03
        -0.37300E+03
        -0.37300E+03
        -0.37300E+03
        -0.37300E+03
        -0.37300E+03
        -0.37300E+03
        -0.37300E+03
        -0.37300E+03
        -0.37300E+03
        -0.37300E+03
        -0.37300E+03
        -0.37300E+03
        -0.37300E+03
        -0.37300E+03
        -0.37300E+03
        -0.37300E+03
        -0.37300E+03
        -0.37300E+03
        -0.37300E+03
        -0.37300E+03
        -0.37300E+03
        -0.37300E+03
        -0.37300E+03
        -0.37300E+03
        -0.37300E+03
        -0.37300E+03
        -0.37300E+03
        -0.37300E+03
        -0.37300E+03
        -0.37300E+03
        -0.37300E+03
        -0.37300E+03
        -0.37300E+03
        -0.37300E+03
        -0.37300E+03
        -0.37300E+03
        -0.37300E+03
        -0.37300E+03
        -0.37300E+03
        -0.37300E+03
        -0.37300E+03
        -0.37300E+03
        -0.37300E+03
        -0.37300E+03
        -0.37300E+03
        -0.37300E+03
        -0.37300E+03
        -0.37300E+03
        -0.37300E+03
        -0.37300E+03
        -0.37300E+03
        -0.37300E+03
        -0.37300E+03
        -0.37300E+03
        -0.37300E+03
        -0.37300E+03
        -0.37300E+03
        -0.37300E+03
        -0.37300E+03
        -0.37300E+03
        -0.37300E+03
        -0.37300E+03
        -0.37300E+03
        -0.37300E+03
        -0.37300E+03
        -0.37300E+03
        -0.37300E+03
        -0.37300E+03
        -0.37300E+03
        -0.37300E+03
        -0.37300E+03
        -0.37300E+03
        -0.37300E+03
        -0.37300E+03
        -0.37300E+03
        -0.37300E+03
        -0.37300E+03
        -0.37300E+03
        -0.37300E+03
        -0.37300E+03
        -0.37300E+03
        -0.37300E+03
        -0.37300E+03
        -0.37300E+03
        -0.37300E+03
        -0.37300E+03
        -0.37300E+03
        -0.37300E+03
        -0.37300E+03
        -0.37300E+03
        -0.37300E+03
        -0.37300E+03
        -0.37300E+03
        -0.37300E+03
        -0.37300E+03
        -0.37300E+03
        -0.37300E+03
        -0.37300E+03
        -0.37300E+03
        -0.37300E+03
        -0.37300E+03
        -0.37300E+03
        -0.37300E+03
        -0.37300E+03
        -0.37300E+03
        -0.37300E+03
        -0.37300E+03
        -0.37300E+03
        -0.37300E+03
        -0.37300E+03
        -0.37300E+03
        -0.37300E+03
        -0.37300E+03
        -0.37300E+03
        -0.37300E+03
        -0.37300E+03
        -0.37300E+03
        -0.37300E+03
        -0.37300E+03
        -0.37300E+03
        -0.37300E+03
        -0.37300E+03
        -0.37300E+03
        -0.37300E+03
        -0.37300E+03
        -0.37300E+03
        -0.37300E+03
        -0.37300E+03
        -0.37300E+03
        -0.37300E+03
        -0.37300E+03
        -0.37300E+03
        -0.37300E+03
        -0.37300E+03
        -0.37300E+03
        -0.37300E+03
        -0.37300E+03
        -0.37300E+03
        -0.37300E+03
        -0.37300E+03
        -0.37300E+03
        -0.37300E+03
        -0.37300E+03
        -0.37300E+03
        -0.37300E+03
        -0.37300E+03
        -0.37300E+03
        -0.37300E+03
        -0.37300E+03
        -0.37300E+03
        -0.37300E+03
        -0.37300E+03
        -0.37300E+03
        -0.37300E+03
        -0.37300E+03
        -0.37300E+03
        -0.37300E+03
        -0.37300E+03
        -0.37300E+03
        -0.37300E+03
        -0.37300E+03
        -0.37300E+03
        -0.37300E+03
        -0.37300E+03
        -0.37300E+03
        -0.37300E+03
        -0.37300E+03
        -0.37300E+03
        -0.37300E+03
        -0.37300E+03
        -0.37300E+03
        -0.37300E+03
        -0.37300E+03
        -0.37300E+03
        -0.37300E+03
        -0.37300E+03
        -0.37300E+03
        -0.37300E+03
        -0.37300E+03
        -0.37300E+03
        -0.37300E+03
        -0.37300E+03
        -0.37300E+03
        -0.37300E+03
        -0.37300E+03
        -0.37300E+03
        -0.37300E+03
        -0.37300E+03
        -0.37300E+03
        -0.37300E+03
        -0.37300E+03
        -0.37300E+03
        -0.37300E+03
        -0.37300E+03
        -0.37300E+03
        -0.37300E+03
        -0.37300E+03
        -0.37300E+03
        -0.37300E+03
        -0.37300E+03
        -0.37300E+03
        -0.37300E+03
        -0.37300E+03
        -0.37300E+03
        -0.37300E+03
        -0.37300E+03
        -0.37300E+03
        -0.37300E+03
        -0.37300E+03
        -0.37300E+03
        -0.37300E+03
        -0.37300E+03
        -0.37300E+03
        -0.37300E+03
        -0.37300E+03
        -0.37300E+03
        -0.37300E+03
        -0.37300E+03
        -0.37300E+03
        -0.37300E+03
        -0.37300E+03
        -0.37300E+03
        -0.37300E+03
        -0.37300E+03
        -0.37300E+03
        -0.37300E+03
        -0.37300E+03
        -0.37300E+03
        -0.37300E+03
        -0.37300E+03
        -0.37300E+03
        -0.37300E+03
        -0.37300E+03
        -0.37300E+03
        -0.37300E+03
        -0.37300E+03
        -0.37300E+03
        -0.37300E+03
        -0.37300E+03
        -0.37300E+03
        -0.37300E+03
        -0.37300E+03
        -0.37300E+03
        -0.37300E+03
        -0.37300E+03
        -0.37300E+03
        -0.37300E+03
        -0.37300E+03
        -0.37300E+03
        -0.37300E+03
        -0.37300E+03
        -0.37300E+03
        -0.37300E+03
        -0.37300E+03
        -0.37300E+03
        -0.37300E+03
        -0.37300E+03
        -0.37300E+03
        -0.37300E+03
        -0.37300E+03
        -0.37300E+03
        -0.37300E+03
        -0.37300E+03
        -0.37300E+03
        -0.37300E+03
        -0.37300E+03
        -0.37300E+03
        -0.37300E+03
        -0.37300E+03
        -0.37300E+03
        -0.37300E+03
        -0.37300E+03
        -0.37300E+03
        -0.37300E+03
        -0.37300E+03
        -0.37300E+03
        -0.37300E+03
        -0.37300E+03
        -0.37300E+03
        -0.37300E+03
        -0.37300E+03
        -0.37300E+03
        -0.37300E+03
        -0.37300E+03
        -0.37300E+03
        -0.37300E+03
        -0.37300E+03
        -0.37300E+03
        -0.37300E+03
        -0.37300E+03
        -0.37300E+03
        -0.37300E+03
        -0.37300E+03
        -0.37300E+03
        -0.37300E+03
        -0.37300E+03
        -0.37300E+03
        -0.37300E+03
        -0.37300E+03
        -0.37300E+03
        -0.37300E+03
        -0.37300E+03
        -0.37300E+03
        -0.37300E+03
        -0.37300E+03
        -0.37300E+03
        -0.37300E+03
        -0.37300E+03
        -0.37300E+03
        -0.37300E+03
        -0.37300E+03
        -0.37300E+03
        -0.37300E+03
        -0.37300E+03
        -0.37300E+03
        -0.37300E+03
        -0.37300E+03
        -0.37300E+03
        -0.37300E+03
        -0.37300E+03
        -0.37300E+03
        -0.37300E+03
        -0.37300E+03
        -0.37300E+03
        -0.37300E+03
        -0.37300E+03
        -0.37300E+03
        -0.37300E+03
        -0.37300E+03
        -0.37300E+03
        -0.37300E+03
        -0.37300E+03
        -0.37300E+03
        -0.37300E+03
        -0.37300E+03
        -0.37300E+03
        -0.37300E+03
        -0.37300E+03
        -0.37300E+03
        -0.37300E+03
        -0.37300E+03
        -0.37300E+03
        -0.37300E+03
        -0.37300E+03
        -0.37300E+03
        -0.37300E+03
        -0.37300E+03
        -0.37300E+03
        -0.37300E+03
        -0.37300E+03
        -0.37300E+03
        -0.37300E+03
        -0.37300E+03
        -0.37300E+03
        -0.37300E+03
        -0.37300E+03
        -0.37300E+03
        -0.37300E+03
        -0.37300E+03
        -0.37300E+03
        -0.37300E+03
        -0.37300E+03
        -0.37300E+03
        -0.37300E+03
        -0.37300E+03
        -0.37300E+03
        -0.37300E+03
        -0.37300E+03
        -0.37300E+03
        -0.37300E+03
        -0.37300E+03
        -0.37300E+03
        -0.37300E+03
        -0.37300E+03
        -0.37300E+03
        -0.37300E+03
        -0.37300E+03
        -0.37300E+03
        -0.37300E+03
        -0.37300E+03
        -0.37300E+03
        -0.37300E+03
        -0.37300E+03
        -0.37300E+03
        -0.37300E+03
        -0.37300E+03
        -0.37300E+03
        -0.37300E+03
        -0.37300E+03
        -0.37300E+03
        -0.37300E+03
        -0.37300E+03
        -0.37300E+03
        -0.37300E+03
        -0.37300E+03
        -0.37300E+03
        -0.37300E+03
        -0.37300E+03
        -0.37300E+03
        -0.37300E+03
        -0.37300E+03
        -0.37300E+03
        -0.37300E+03
        -0.37300E+03
        -0.37300E+03
        -0.37300E+03
        -0.37300E+03
        -0.37300E+03
        -0.37300E+03
        -0.37300E+03
        -0.37300E+03
        -0.37300E+03
        -0.37300E+03
        -0.37300E+03
        -0.37300E+03
        -0.37300E+03
        -0.37300E+03
        -0.37300E+03
        -0.37300E+03
        -0.37300E+03
        -0.37300E+03
        -0.37300E+03
        -0.37300E+03
        -0.37300E+03
        -0.37300E+03
        -0.37300E+03
        -0.37300E+03
        -0.37300E+03
        -0.37300E+03
        -0.37300E+03
        -0.37300E+03
        -0.37300E+03
        -0.37300E+03
        -0.37300E+03
        -0.37300E+03
        -0.37300E+03
        -0.37300E+03
        -0.37300E+03
        -0.37300E+03
        -0.37300E+03
        -0.37300E+03
        -0.37300E+03
        -0.37300E+03
        -0.37300E+03
        -0.37300E+03
        -0.37300E+03
        -0.37300E+03
        -0.37300E+03
        -0.37300E+03
        -0.37300E+03
        -0.37300E+03
        -0.37300E+03
        -0.37300E+03
        -0.37300E+03
        -0.37300E+03
        -0.37300E+03
        -0.37300E+03
        -0.37300E+03
        -0.37300E+03
        -0.37300E+03
        -0.37300E+03
        -0.37300E+03
        -0.37300E+03
        -0.37300E+03
        -0.37300E+03
        -0.37300E+03
        -0.37300E+03
        -0.37300E+03
        -0.37300E+03
        -0.37300E+03
        -0.37300E+03
        -0.37300E+03
        -0.37300E+03
        -0.37300E+03
        -0.37300E+03
        -0.37300E+03
        -0.37300E+03
        -0.37300E+03
        -0.37300E+03
        -0.37300E+03
        -0.37300E+03
        -0.37300E+03
        -0.37300E+03
        -0.37300E+03
        -0.37300E+03
        -0.37300E+03
        -0.37300E+03
        -0.37300E+03
        -0.37300E+03
        -0.37300E+03
        -0.37300E+03
        -0.37300E+03
        -0.37300E+03
        -0.37300E+03
        -0.37300E+03
        -0.37300E+03
        -0.37300E+03
        -0.37300E+03
        -0.37300E+03
        -0.37300E+03
        -0.37300E+03
        -0.37300E+03
        -0.37300E+03
        -0.37300E+03
        -0.37300E+03
        -0.37300E+03
        -0.37300E+03
        -0.37300E+03
        -0.37300E+03
        -0.37300E+03
        -0.37300E+03
        -0.37300E+03
        -0.37300E+03
        -0.37300E+03
        -0.37300E+03
        -0.37300E+03
        -0.37300E+03
        -0.37300E+03
        -0.37300E+03
        -0.37300E+03
        -0.37300E+03
        -0.37300E+03
        -0.37300E+03
        -0.37300E+03
        -0.37300E+03
        -0.37300E+03
        -0.37300E+03
        -0.37300E+03
        -0.37300E+03
        -0.37300E+03
        -0.37300E+03
        -0.37300E+03
        -0.37300E+03
        -0.37300E+03
        -0.37300E+03
        -0.37300E+03
        -0.37300E+03
        -0.37300E+03
        -0.37300E+03
        -0.37300E+03
        -0.37300E+03
        -0.37300E+03
        -0.37300E+03
        -0.37300E+03
        -0.37300E+03
        -0.37300E+03
        -0.37300E+03
        -0.37300E+03
        -0.37300E+03
        -0.37300E+03
        -0.37300E+03
        -0.37300E+03
        -0.37300E+03
        -0.37300E+03
        -0.37300E+03
        -0.37300E+03
        -0.37300E+03
        -0.37300E+03
        -0.37300E+03
        -0.37300E+03
        -0.37300E+03
        -0.37300E+03
        -0.37300E+03
        -0.37300E+03
        -0.37300E+03
        -0.37300E+03
        -0.37300E+03
        -0.37300E+03
        -0.37300E+03
        -0.37300E+03
        -0.37300E+03
        -0.37300E+03
        -0.37300E+03
        -0.37300E+03
        -0.37300E+03
        -0.37300E+03
        -0.37300E+03
        -0.37300E+03
        -0.37300E+03
        -0.37300E+03
        -0.37300E+03
        -0.37300E+03
        -0.37300E+03
        -0.37300E+03
        -0.37300E+03
        -0.37300E+03
        -0.37300E+03
        -0.37300E+03
        -0.37300E+03
        -0.37300E+03
        -0.37300E+03
        -0.37300E+03
        -0.37300E+03
        -0.37300E+03
        -0.37300E+03
        -0.37300E+03
        -0.37300E+03
        -0.37300E+03
        -0.37300E+03
        -0.37300E+03
        -0.37300E+03
        -0.37300E+03
        -0.37300E+03
        -0.37300E+03
        -0.37300E+03
        -0.37300E+03
        -0.37300E+03
        -0.37300E+03
        -0.37300E+03
        -0.37300E+03
        -0.37300E+03
        -0.37300E+03
        -0.37300E+03
        -0.37300E+03
        -0.37300E+03
        -0.37300E+03
        -0.37300E+03
        -0.37300E+03
        -0.37300E+03
        -0.37300E+03
        -0.37300E+03
        -0.37300E+03
        -0.37300E+03
        -0.37300E+03
        -0.37300E+03
        -0.37300E+03
        -0.37300E+03
        -0.37300E+03
        -0.37300E+03
        -0.37300E+03
        -0.37300E+03
        -0.37300E+03
        -0.37300E+03
        -0.37300E+03
        -0.37300E+03
        -0.37300E+03
        -0.37300E+03
        -0.37300E+03
        -0.37300E+03
        -0.37300E+03
        -0.37300E+03
        -0.37300E+03
        -0.37300E+03
        -0.37300E+03
        -0.37300E+03
        -0.37300E+03
        -0.37300E+03
        -0.37300E+03
        -0.37300E+03
        -0.37300E+03
        -0.37300E+03
        -0.37300E+03
        -0.37300E+03
        -0.37300E+03
        -0.37300E+03
        -0.37300E+03
        -0.37300E+03
        -0.37300E+03
        -0.37300E+03
        -0.37300E+03
        -0.37300E+03
        -0.37300E+03
        -0.37300E+03
        -0.37300E+03
        -0.37300E+03
        -0.37300E+03
        -0.37300E+03
        -0.37300E+03
        -0.37300E+03
        -0.37300E+03
        -0.37300E+03
        -0.37300E+03
        -0.37300E+03
        -0.37300E+03
        -0.37300E+03
        -0.37300E+03
        -0.37300E+03
        -0.37300E+03
        -0.37300E+03
        -0.37300E+03
        -0.37300E+03
        -0.37300E+03
        -0.37300E+03
        -0.37300E+03
        -0.37300E+03
        -0.37300E+03
        -0.37300E+03
        -0.37300E+03
        -0.37300E+03
        -0.37300E+03
        -0.37300E+03
        -0.37300E+03
        -0.37300E+03
        -0.37300E+03
        -0.37300E+03
        -0.37300E+03
        -0.37300E+03
        -0.37300E+03
        -0.37300E+03
        -0.37300E+03
        -0.37300E+03
        -0.37300E+03
        -0.37300E+03
        -0.37300E+03
        -0.37300E+03
        -0.37300E+03
        -0.37300E+03
        -0.37300E+03
        -0.37300E+03
        -0.37300E+03
        -0.37300E+03
        -0.37300E+03
        -0.37300E+03
        -0.37300E+03
        -0.37300E+03
        -0.37300E+03
        -0.37300E+03
        -0.37300E+03
        -0.37300E+03
        -0.37300E+03
        -0.37300E+03
        -0.37300E+03
        -0.37300E+03
        -0.37300E+03
        -0.37300E+03
        -0.37300E+03
        -0.37300E+03
        -0.37300E+03
        -0.37300E+03
        -0.37300E+03
        -0.37300E+03
        -0.37300E+03
        -0.37300E+03
        -0.37300E+03
        -0.37300E+03
        -0.37300E+03
        -0.37300E+03
        -0.37300E+03
        -0.37300E+03
        -0.37300E+03
        -0.37300E+03
        -0.37300E+03
        -0.37300E+03
        -0.37300E+03
        -0.37300E+03
        -0.37300E+03
        -0.37300E+03
        -0.37300E+03
        -0.37300E+03
        -0.37300E+03
        -0.37300E+03
        -0.37300E+03
        -0.37300E+03
        -0.37300E+03
        -0.37300E+03
        -0.37300E+03
        -0.37300E+03
        -0.37300E+03
        -0.37300E+03
        -0.37300E+03
        -0.37300E+03
        -0.37300E+03
        -0.37300E+03
        -0.37300E+03
        -0.37300E+03
        -0.37300E+03
        -0.37300E+03
        -0.37300E+03
        -0.37300E+03
        -0.37300E+03
        -0.37300E+03
        -0.37300E+03
        -0.37300E+03
        -0.37300E+03
        -0.37300E+03
        -0.37300E+03
        -0.37300E+03
        -0.37300E+03
        -0.37300E+03
        -0.37300E+03
        -0.37300E+03
        -0.37300E+03
        -0.37300E+03
        -0.37300E+03
        -0.37300E+03
        -0.37300E+03
        -0.37300E+03
        -0.37300E+03
        -0.37300E+03
        -0.37300E+03
        -0.37300E+03
        -0.37300E+03
        -0.37300E+03
        -0.37300E+03
        -0.37300E+03
        -0.37300E+03
        -0.37300E+03
        -0.37300E+03
        -0.37300E+03
        -0.37300E+03
        -0.37300E+03
        -0.37300E+03
        -0.37300E+03
        -0.37300E+03
        -0.37300E+03
        -0.37300E+03
        -0.37300E+03
        -0.37300E+03
        -0.37300E+03
        -0.37300E+03
        -0.37300E+03
        -0.37300E+03
        -0.37300E+03
        -0.37300E+03
        -0.37300E+03
        -0.37300E+03
        -0.37300E+03
        -0.37300E+03
        -0.37300E+03
        -0.37300E+03
        -0.37300E+03
        -0.37300E+03
        -0.37300E+03
        -0.37300E+03
        -0.37300E+03
        -0.37300E+03
        -0.37300E+03
        -0.37300E+03
        -0.37300E+03
        -0.37300E+03
        -0.37300E+03
        -0.37300E+03
        -0.37300E+03
        -0.37300E+03
        -0.37300E+03
        -0.37300E+03
        -0.37300E+03
        -0.37300E+03
        -0.37300E+03
        -0.37300E+03
        -0.37300E+03
        -0.37300E+03
        -0.37300E+03
        -0.37300E+03
        -0.37300E+03
        -0.37300E+03
        -0.37300E+03
        -0.37300E+03
        -0.37300E+03
        -0.37300E+03
        -0.37300E+03
        -0.37300E+03
        -0.37300E+03
        -0.37300E+03
        -0.37300E+03
        -0.37300E+03
        -0.37300E+03
        -0.37300E+03
        -0.37300E+03
        -0.37300E+03
        -0.37300E+03
        -0.37300E+03
        -0.37300E+03
        -0.37300E+03
        -0.37300E+03
        -0.37300E+03
        -0.37300E+03
        -0.37300E+03
        -0.37300E+03
        -0.37300E+03
        -0.37300E+03
        -0.37300E+03
        -0.37300E+03
        -0.37300E+03
        -0.37300E+03
        -0.37300E+03
        -0.37300E+03
        -0.37300E+03
        -0.37300E+03
        -0.37300E+03
        -0.37300E+03
        -0.37300E+03
        -0.37300E+03
        -0.37300E+03
        -0.37300E+03
        -0.37300E+03
        -0.37300E+03
        -0.37300E+03
        -0.37300E+03
        -0.37300E+03
        -0.37300E+03
        -0.37300E+03
        -0.37300E+03
        -0.37300E+03
        -0.37300E+03
        -0.37300E+03
        -0.37300E+03
        -0.37300E+03
        -0.37300E+03
        -0.37300E+03
        -0.37300E+03
        -0.37300E+03
        -0.37300E+03
        -0.37300E+03
        -0.37300E+03
        -0.37300E+03
        -0.37300E+03
        -0.37300E+03
        -0.37300E+03
        -0.37300E+03
        -0.37300E+03
        -0.37300E+03
        -0.37300E+03
        -0.37300E+03
        -0.37300E+03
        -0.37300E+03
        -0.37300E+03
        -0.37300E+03
        -0.37300E+03
        -0.37300E+03
        -0.37300E+03
        -0.37300E+03
        -0.37300E+03
        -0.37300E+03
        -0.37300E+03
        -0.37300E+03
        -0.37300E+03
        -0.37300E+03
        -0.37300E+03
        -0.37300E+03
        -0.37300E+03
        -0.37300E+03
        -0.37300E+03
        -0.37300E+03
        -0.37300E+03
        -0.37300E+03
        -0.37300E+03
        -0.37300E+03
        -0.37300E+03
        -0.37300E+03
        -0.37300E+03
        -0.37300E+03
        -0.37300E+03
        -0.37300E+03
        -0.37300E+03
        -0.37300E+03
        -0.37300E+03
        -0.37300E+03
        -0.37300E+03
        -0.37300E+03
        -0.37300E+03
        -0.37300E+03
        -0.37300E+03
        -0.37300E+03
        -0.37300E+03
        -0.37300E+03
        -0.37300E+03
        -0.37300E+03
        -0.37300E+03
        -0.37300E+03
        -0.37300E+03
        -0.37300E+03
        -0.37300E+03
        -0.37300E+03
        -0.37300E+03
        -0.37300E+03
        -0.37300E+03
        -0.37300E+03
        -0.37300E+03
        -0.37300E+03
        -0.37300E+03
        -0.37300E+03
        -0.37300E+03
        -0.37300E+03
        -0.37300E+03
        -0.37300E+03
        -0.37300E+03
        -0.37300E+03
        -0.37300E+03
        -0.37300E+03
        -0.37300E+03
        -0.37300E+03
        -0.37300E+03
        -0.37300E+03
        -0.37300E+03
        -0.37300E+03
        -0.37300E+03
        -0.37300E+03
        -0.37300E+03
        -0.37300E+03
        -0.37300E+03
        -0.37300E+03
        -0.37300E+03
        -0.37300E+03
        -0.37300E+03
        -0.37300E+03
        -0.37300E+03
        -0.37300E+03
        -0.37300E+03
        -0.37300E+03
        -0.37300E+03
        -0.37300E+03
        -0.37300E+03
        -0.37300E+03
        -0.37300E+03
        -0.37300E+03
        -0.37300E+03
        -0.37300E+03
        -0.37300E+03
        -0.37300E+03
        -0.37300E+03
        -0.37300E+03
        -0.37300E+03
        -0.37300E+03
        -0.37300E+03
        -0.37300E+03
        -0.37300E+03
        -0.37300E+03
        -0.37300E+03
        -0.37300E+03
        -0.37300E+03
        -0.37300E+03
        -0.37300E+03
        -0.37300E+03
        -0.37300E+03
        -0.37300E+03
        -0.37300E+03
        -0.37300E+03
        -0.37300E+03
        -0.37300E+03
        -0.37300E+03
        -0.37300E+03
        -0.37300E+03
        -0.37300E+03
        -0.37300E+03
        -0.37300E+03
        -0.37300E+03
        -0.37300E+03
        -0.37300E+03
        -0.37300E+03
        -0.37300E+03
        -0.37300E+03
        -0.37300E+03
        -0.37300E+03
        -0.37300E+03
        -0.37300E+03
        -0.37300E+03
        -0.37300E+03
        -0.37300E+03
        -0.37300E+03
        -0.37300E+03
        -0.37300E+03
        -0.37300E+03
        -0.37300E+03
        -0.37300E+03
        -0.37300E+03
        -0.37300E+03
        -0.37300E+03
        -0.37300E+03
        -0.37300E+03
        -0.37300E+03
        -0.37300E+03
        -0.37300E+03
        -0.37300E+03
        -0.37300E+03
        -0.37300E+03
        -0.37300E+03
        -0.37300E+03
        -0.37300E+03
        -0.37300E+03
        -0.37300E+03
        -0.37300E+03
        -0.37300E+03
        -0.37300E+03
        -0.37300E+03
        -0.37300E+03
        -0.37300E+03
        -0.37300E+03
        -0.37300E+03
        -0.37300E+03
        -0.37300E+03
        -0.37300E+03
        -0.37300E+03
        -0.37300E+03
        -0.37300E+03
        -0.37300E+03
        -0.37300E+03
        -0.37300E+03
        -0.37300E+03
        -0.37300E+03
        -0.37300E+03
        -0.37300E+03
        -0.37300E+03
        -0.37300E+03
        -0.37300E+03
        -0.37300E+03
        -0.37300E+03
        -0.37300E+03
        -0.37300E+03
        -0.37300E+03
        -0.37300E+03
        -0.37300E+03
        -0.37300E+03
        -0.37300E+03
        -0.37300E+03
        -0.37300E+03
        -0.37300E+03
        -0.37300E+03
        -0.37300E+03
        -0.37300E+03
        -0.37300E+03
        -0.37300E+03
        -0.37300E+03
        -0.37300E+03
        -0.37300E+03
        -0.37300E+03
        -0.37300E+03
        -0.37300E+03
        -0.37300E+03
        -0.37300E+03
        -0.37300E+03
        -0.37300E+03
        -0.37300E+03
        -0.37300E+03
        -0.37300E+03
        -0.37300E+03
        -0.37300E+03
        -0.37300E+03
        -0.37300E+03
        -0.37300E+03
        -0.37300E+03
        -0.37300E+03
        -0.37300E+03
        -0.37300E+03
        -0.37300E+03
        -0.37300E+03
        -0.37300E+03
        -0.37300E+03
        -0.37300E+03
        -0.37300E+03
        -0.37300E+03
        -0.37300E+03
        -0.37300E+03
        -0.37300E+03
        -0.37300E+03
        -0.37300E+03
        -0.37300E+03
        -0.37300E+03
        -0.37300E+03
        -0.37300E+03
        -0.37300E+03
        -0.37300E+03
        -0.37300E+03
        -0.37300E+03
        -0.37300E+03
        -0.37300E+03
        -0.37300E+03
        -0.37300E+03
        -0.37300E+03
        -0.37300E+03
        -0.37300E+03
        -0.37300E+03
        -0.37300E+03
        -0.37300E+03
        -0.37300E+03
  
SCALARS                 acceleration_x  double 1
LOOKUP_TABLE default
         0.00000E+00
         0.00000E+00
         0.00000E+00
         0.00000E+00
         0.00000E+00
         0.00000E+00
         0.00000E+00
         0.00000E+00
         0.00000E+00
         0.00000E+00
         0.00000E+00
         0.00000E+00
         0.00000E+00
         0.00000E+00
         0.00000E+00
         0.00000E+00
         0.00000E+00
         0.00000E+00
         0.00000E+00
         0.00000E+00
         0.00000E+00
         0.00000E+00
         0.00000E+00
         0.00000E+00
         0.00000E+00
         0.00000E+00
         0.00000E+00
         0.00000E+00
         0.00000E+00
         0.00000E+00
         0.00000E+00
         0.00000E+00
         0.00000E+00
         0.00000E+00
         0.00000E+00
         0.00000E+00
         0.00000E+00
         0.00000E+00
         0.00000E+00
         0.00000E+00
         0.00000E+00
         0.00000E+00
         0.00000E+00
         0.00000E+00
         0.00000E+00
         0.00000E+00
         0.00000E+00
         0.00000E+00
         0.00000E+00
         0.00000E+00
         0.00000E+00
         0.00000E+00
         0.00000E+00
         0.00000E+00
         0.00000E+00
         0.00000E+00
         0.00000E+00
         0.00000E+00
         0.00000E+00
         0.00000E+00
         0.00000E+00
         0.00000E+00
         0.00000E+00
         0.00000E+00
         0.00000E+00
         0.00000E+00
         0.00000E+00
         0.00000E+00
         0.00000E+00
         0.00000E+00
         0.00000E+00
         0.00000E+00
         0.00000E+00
         0.00000E+00
         0.00000E+00
         0.00000E+00
         0.00000E+00
         0.00000E+00
         0.00000E+00
         0.00000E+00
         0.00000E+00
         0.00000E+00
         0.00000E+00
         0.00000E+00
         0.00000E+00
         0.00000E+00
         0.00000E+00
         0.00000E+00
         0.00000E+00
         0.00000E+00
         0.00000E+00
         0.00000E+00
         0.00000E+00
         0.00000E+00
         0.00000E+00
         0.00000E+00
         0.00000E+00
         0.00000E+00
         0.00000E+00
         0.00000E+00
         0.00000E+00
         0.00000E+00
         0.00000E+00
         0.00000E+00
         0.00000E+00
         0.00000E+00
         0.00000E+00
         0.00000E+00
         0.00000E+00
         0.00000E+00
         0.00000E+00
         0.00000E+00
         0.00000E+00
         0.00000E+00
         0.00000E+00
         0.00000E+00
         0.00000E+00
         0.00000E+00
         0.00000E+00
         0.00000E+00
         0.00000E+00
         0.00000E+00
         0.00000E+00
         0.00000E+00
         0.00000E+00
         0.00000E+00
         0.00000E+00
         0.00000E+00
         0.00000E+00
         0.00000E+00
         0.00000E+00
         0.00000E+00
         0.00000E+00
         0.00000E+00
         0.00000E+00
         0.00000E+00
         0.00000E+00
         0.00000E+00
         0.00000E+00
         0.00000E+00
         0.00000E+00
         0.00000E+00
         0.00000E+00
         0.00000E+00
         0.00000E+00
         0.00000E+00
         0.00000E+00
         0.00000E+00
         0.00000E+00
         0.00000E+00
         0.00000E+00
         0.00000E+00
         0.00000E+00
         0.00000E+00
         0.00000E+00
         0.00000E+00
         0.00000E+00
         0.00000E+00
         0.00000E+00
         0.00000E+00
         0.00000E+00
         0.00000E+00
         0.00000E+00
         0.00000E+00
         0.00000E+00
         0.00000E+00
         0.00000E+00
         0.00000E+00
         0.00000E+00
         0.00000E+00
         0.00000E+00
         0.00000E+00
         0.00000E+00
         0.00000E+00
         0.00000E+00
         0.00000E+00
         0.00000E+00
         0.00000E+00
         0.00000E+00
         0.00000E+00
         0.00000E+00
         0.00000E+00
         0.00000E+00
         0.00000E+00
         0.00000E+00
         0.00000E+00
         0.00000E+00
         0.00000E+00
         0.00000E+00
         0.00000E+00
         0.00000E+00
         0.00000E+00
         0.00000E+00
         0.00000E+00
         0.00000E+00
         0.00000E+00
         0.00000E+00
         0.00000E+00
         0.00000E+00
         0.00000E+00
         0.00000E+00
         0.00000E+00
         0.00000E+00
         0.00000E+00
         0.00000E+00
         0.00000E+00
         0.00000E+00
         0.00000E+00
         0.00000E+00
         0.00000E+00
         0.00000E+00
         0.00000E+00
         0.00000E+00
         0.00000E+00
         0.00000E+00
         0.00000E+00
         0.00000E+00
         0.00000E+00
         0.00000E+00
         0.00000E+00
         0.00000E+00
         0.00000E+00
         0.00000E+00
         0.00000E+00
         0.00000E+00
         0.00000E+00
         0.00000E+00
         0.00000E+00
         0.00000E+00
         0.00000E+00
         0.00000E+00
         0.00000E+00
         0.00000E+00
         0.00000E+00
         0.00000E+00
         0.00000E+00
         0.00000E+00
         0.00000E+00
         0.00000E+00
         0.00000E+00
         0.00000E+00
         0.00000E+00
         0.00000E+00
         0.00000E+00
         0.00000E+00
         0.00000E+00
         0.00000E+00
         0.00000E+00
         0.00000E+00
         0.00000E+00
         0.00000E+00
         0.00000E+00
         0.00000E+00
         0.00000E+00
         0.00000E+00
         0.00000E+00
         0.00000E+00
         0.00000E+00
         0.00000E+00
         0.00000E+00
         0.00000E+00
         0.00000E+00
         0.00000E+00
         0.00000E+00
         0.00000E+00
         0.00000E+00
         0.00000E+00
         0.00000E+00
         0.00000E+00
         0.00000E+00
         0.00000E+00
         0.00000E+00
         0.00000E+00
         0.00000E+00
         0.00000E+00
         0.00000E+00
         0.00000E+00
         0.00000E+00
         0.00000E+00
         0.00000E+00
         0.00000E+00
         0.00000E+00
         0.00000E+00
         0.00000E+00
         0.00000E+00
         0.00000E+00
         0.00000E+00
         0.00000E+00
         0.00000E+00
         0.00000E+00
         0.00000E+00
         0.00000E+00
         0.00000E+00
         0.00000E+00
         0.00000E+00
         0.00000E+00
         0.00000E+00
         0.00000E+00
         0.00000E+00
         0.00000E+00
         0.00000E+00
         0.00000E+00
         0.00000E+00
         0.00000E+00
         0.00000E+00
         0.00000E+00
         0.00000E+00
         0.00000E+00
         0.00000E+00
         0.00000E+00
         0.00000E+00
         0.00000E+00
         0.00000E+00
         0.00000E+00
         0.00000E+00
         0.00000E+00
         0.00000E+00
         0.00000E+00
         0.00000E+00
         0.00000E+00
         0.00000E+00
         0.00000E+00
         0.00000E+00
         0.00000E+00
         0.00000E+00
         0.00000E+00
         0.00000E+00
         0.00000E+00
         0.00000E+00
         0.00000E+00
         0.00000E+00
         0.00000E+00
         0.00000E+00
         0.00000E+00
         0.00000E+00
         0.00000E+00
         0.00000E+00
         0.00000E+00
         0.00000E+00
         0.00000E+00
         0.00000E+00
         0.00000E+00
         0.00000E+00
         0.00000E+00
         0.00000E+00
         0.00000E+00
         0.00000E+00
         0.00000E+00
         0.00000E+00
         0.00000E+00
         0.00000E+00
         0.00000E+00
         0.00000E+00
         0.00000E+00
         0.00000E+00
         0.00000E+00
         0.00000E+00
         0.00000E+00
         0.00000E+00
         0.00000E+00
         0.00000E+00
         0.00000E+00
         0.00000E+00
         0.00000E+00
         0.00000E+00
         0.00000E+00
         0.00000E+00
         0.00000E+00
         0.00000E+00
         0.00000E+00
         0.00000E+00
         0.00000E+00
         0.00000E+00
         0.00000E+00
         0.00000E+00
         0.00000E+00
         0.00000E+00
         0.00000E+00
         0.00000E+00
         0.00000E+00
         0.00000E+00
         0.00000E+00
         0.00000E+00
         0.00000E+00
         0.00000E+00
         0.00000E+00
         0.00000E+00
         0.00000E+00
         0.00000E+00
         0.00000E+00
         0.00000E+00
         0.00000E+00
         0.00000E+00
         0.00000E+00
         0.00000E+00
         0.00000E+00
         0.00000E+00
         0.00000E+00
         0.00000E+00
         0.00000E+00
         0.00000E+00
         0.00000E+00
         0.00000E+00
         0.00000E+00
         0.00000E+00
         0.00000E+00
         0.00000E+00
         0.00000E+00
         0.00000E+00
         0.00000E+00
         0.00000E+00
         0.00000E+00
         0.00000E+00
         0.00000E+00
         0.00000E+00
         0.00000E+00
         0.00000E+00
         0.00000E+00
         0.00000E+00
         0.00000E+00
         0.00000E+00
         0.00000E+00
         0.00000E+00
         0.00000E+00
         0.00000E+00
         0.00000E+00
         0.00000E+00
         0.00000E+00
         0.00000E+00
         0.00000E+00
         0.00000E+00
         0.00000E+00
         0.00000E+00
         0.00000E+00
         0.00000E+00
         0.00000E+00
         0.00000E+00
         0.00000E+00
         0.00000E+00
         0.00000E+00
         0.00000E+00
         0.00000E+00
         0.00000E+00
         0.00000E+00
         0.00000E+00
         0.00000E+00
         0.00000E+00
         0.00000E+00
         0.00000E+00
         0.00000E+00
         0.00000E+00
         0.00000E+00
         0.00000E+00
         0.00000E+00
         0.00000E+00
         0.00000E+00
         0.00000E+00
         0.00000E+00
         0.00000E+00
         0.00000E+00
         0.00000E+00
         0.00000E+00
         0.00000E+00
         0.00000E+00
         0.00000E+00
         0.00000E+00
         0.00000E+00
         0.00000E+00
         0.00000E+00
         0.00000E+00
         0.00000E+00
         0.00000E+00
         0.00000E+00
         0.00000E+00
         0.00000E+00
         0.00000E+00
         0.00000E+00
         0.00000E+00
         0.00000E+00
         0.00000E+00
         0.00000E+00
         0.00000E+00
         0.00000E+00
         0.00000E+00
         0.00000E+00
         0.00000E+00
         0.00000E+00
         0.00000E+00
         0.00000E+00
         0.00000E+00
         0.00000E+00
         0.00000E+00
         0.00000E+00
         0.00000E+00
         0.00000E+00
         0.00000E+00
         0.00000E+00
         0.00000E+00
         0.00000E+00
         0.00000E+00
         0.00000E+00
         0.00000E+00
         0.00000E+00
         0.00000E+00
         0.00000E+00
         0.00000E+00
         0.00000E+00
         0.00000E+00
         0.00000E+00
         0.00000E+00
         0.00000E+00
         0.00000E+00
         0.00000E+00
         0.00000E+00
         0.00000E+00
         0.00000E+00
         0.00000E+00
         0.00000E+00
         0.00000E+00
         0.00000E+00
         0.00000E+00
         0.00000E+00
         0.00000E+00
         0.00000E+00
         0.00000E+00
         0.00000E+00
         0.00000E+00
         0.00000E+00
         0.00000E+00
         0.00000E+00
         0.00000E+00
         0.00000E+00
         0.00000E+00
         0.00000E+00
         0.00000E+00
         0.00000E+00
         0.00000E+00
         0.00000E+00
         0.00000E+00
         0.00000E+00
         0.00000E+00
         0.00000E+00
         0.00000E+00
         0.00000E+00
         0.00000E+00
         0.00000E+00
         0.00000E+00
         0.00000E+00
         0.00000E+00
         0.00000E+00
         0.00000E+00
         0.00000E+00
         0.00000E+00
         0.00000E+00
         0.00000E+00
         0.00000E+00
         0.00000E+00
         0.00000E+00
         0.00000E+00
         0.00000E+00
         0.00000E+00
         0.00000E+00
         0.00000E+00
         0.00000E+00
         0.00000E+00
         0.00000E+00
         0.00000E+00
         0.00000E+00
         0.00000E+00
         0.00000E+00
         0.00000E+00
         0.00000E+00
         0.00000E+00
         0.00000E+00
         0.00000E+00
         0.00000E+00
         0.00000E+00
         0.00000E+00
         0.00000E+00
         0.00000E+00
         0.00000E+00
         0.00000E+00
         0.00000E+00
         0.00000E+00
         0.00000E+00
         0.00000E+00
         0.00000E+00
         0.00000E+00
         0.00000E+00
         0.00000E+00
         0.00000E+00
         0.00000E+00
         0.00000E+00
         0.00000E+00
         0.00000E+00
         0.00000E+00
         0.00000E+00
         0.00000E+00
         0.00000E+00
         0.00000E+00
         0.00000E+00
         0.00000E+00
         0.00000E+00
         0.00000E+00
         0.00000E+00
         0.00000E+00
         0.00000E+00
         0.00000E+00
         0.00000E+00
         0.00000E+00
         0.00000E+00
         0.00000E+00
         0.00000E+00
         0.00000E+00
         0.00000E+00
         0.00000E+00
         0.00000E+00
         0.00000E+00
         0.00000E+00
         0.00000E+00
         0.00000E+00
         0.00000E+00
         0.00000E+00
         0.00000E+00
         0.00000E+00
         0.00000E+00
         0.00000E+00
         0.00000E+00
         0.00000E+00
         0.00000E+00
         0.00000E+00
         0.00000E+00
         0.00000E+00
         0.00000E+00
         0.00000E+00
         0.00000E+00
         0.00000E+00
         0.00000E+00
         0.00000E+00
         0.00000E+00
         0.00000E+00
         0.00000E+00
         0.00000E+00
         0.00000E+00
         0.00000E+00
         0.00000E+00
         0.00000E+00
         0.00000E+00
         0.00000E+00
         0.00000E+00
         0.00000E+00
         0.00000E+00
         0.00000E+00
         0.00000E+00
         0.00000E+00
         0.00000E+00
         0.00000E+00
         0.00000E+00
         0.00000E+00
         0.00000E+00
         0.00000E+00
         0.00000E+00
         0.00000E+00
         0.00000E+00
         0.00000E+00
         0.00000E+00
         0.00000E+00
         0.00000E+00
         0.00000E+00
         0.00000E+00
         0.00000E+00
         0.00000E+00
         0.00000E+00
         0.00000E+00
         0.00000E+00
         0.00000E+00
         0.00000E+00
         0.00000E+00
         0.00000E+00
         0.00000E+00
         0.00000E+00
         0.00000E+00
         0.00000E+00
         0.00000E+00
         0.00000E+00
         0.00000E+00
         0.00000E+00
         0.00000E+00
         0.00000E+00
         0.00000E+00
         0.00000E+00
         0.00000E+00
         0.00000E+00
         0.00000E+00
         0.00000E+00
         0.00000E+00
         0.00000E+00
         0.00000E+00
         0.00000E+00
         0.00000E+00
         0.00000E+00
         0.00000E+00
         0.00000E+00
         0.00000E+00
         0.00000E+00
         0.00000E+00
         0.00000E+00
         0.00000E+00
         0.00000E+00
         0.00000E+00
         0.00000E+00
         0.00000E+00
         0.00000E+00
         0.00000E+00
         0.00000E+00
         0.00000E+00
         0.00000E+00
         0.00000E+00
         0.00000E+00
         0.00000E+00
         0.00000E+00
         0.00000E+00
         0.00000E+00
         0.00000E+00
         0.00000E+00
         0.00000E+00
         0.00000E+00
         0.00000E+00
         0.00000E+00
         0.00000E+00
         0.00000E+00
         0.00000E+00
         0.00000E+00
         0.00000E+00
         0.00000E+00
         0.00000E+00
         0.00000E+00
         0.00000E+00
         0.00000E+00
         0.00000E+00
         0.00000E+00
         0.00000E+00
         0.00000E+00
         0.00000E+00
         0.00000E+00
         0.00000E+00
         0.00000E+00
         0.00000E+00
         0.00000E+00
         0.00000E+00
         0.00000E+00
         0.00000E+00
         0.00000E+00
         0.00000E+00
         0.00000E+00
         0.00000E+00
         0.00000E+00
         0.00000E+00
         0.00000E+00
         0.00000E+00
         0.00000E+00
         0.00000E+00
         0.00000E+00
         0.00000E+00
         0.00000E+00
         0.00000E+00
         0.00000E+00
         0.00000E+00
         0.00000E+00
         0.00000E+00
         0.00000E+00
         0.00000E+00
         0.00000E+00
         0.00000E+00
         0.00000E+00
         0.00000E+00
         0.00000E+00
         0.00000E+00
         0.00000E+00
         0.00000E+00
         0.00000E+00
         0.00000E+00
         0.00000E+00
         0.00000E+00
         0.00000E+00
         0.00000E+00
         0.00000E+00
         0.00000E+00
         0.00000E+00
         0.00000E+00
         0.00000E+00
         0.00000E+00
         0.00000E+00
         0.00000E+00
         0.00000E+00
         0.00000E+00
         0.00000E+00
         0.00000E+00
         0.00000E+00
         0.00000E+00
         0.00000E+00
         0.00000E+00
         0.00000E+00
         0.00000E+00
         0.00000E+00
         0.00000E+00
         0.00000E+00
         0.00000E+00
         0.00000E+00
         0.00000E+00
         0.00000E+00
         0.00000E+00
         0.00000E+00
         0.00000E+00
         0.00000E+00
         0.00000E+00
         0.00000E+00
         0.00000E+00
         0.00000E+00
         0.00000E+00
         0.00000E+00
         0.00000E+00
         0.00000E+00
         0.00000E+00
         0.00000E+00
         0.00000E+00
         0.00000E+00
         0.00000E+00
         0.00000E+00
         0.00000E+00
         0.00000E+00
         0.00000E+00
         0.00000E+00
         0.00000E+00
         0.00000E+00
         0.00000E+00
         0.00000E+00
         0.00000E+00
         0.00000E+00
         0.00000E+00
         0.00000E+00
         0.00000E+00
         0.00000E+00
         0.00000E+00
         0.00000E+00
         0.00000E+00
         0.00000E+00
         0.00000E+00
         0.00000E+00
         0.00000E+00
         0.00000E+00
         0.00000E+00
         0.00000E+00
         0.00000E+00
         0.00000E+00
         0.00000E+00
         0.00000E+00
         0.00000E+00
         0.00000E+00
         0.00000E+00
         0.00000E+00
         0.00000E+00
         0.00000E+00
         0.00000E+00
         0.00000E+00
         0.00000E+00
         0.00000E+00
         0.00000E+00
         0.00000E+00
         0.00000E+00
         0.00000E+00
         0.00000E+00
         0.00000E+00
         0.00000E+00
         0.00000E+00
         0.00000E+00
         0.00000E+00
         0.00000E+00
         0.00000E+00
         0.00000E+00
         0.00000E+00
         0.00000E+00
         0.00000E+00
         0.00000E+00
         0.00000E+00
         0.00000E+00
         0.00000E+00
         0.00000E+00
         0.00000E+00
         0.00000E+00
         0.00000E+00
         0.00000E+00
         0.00000E+00
         0.00000E+00
         0.00000E+00
         0.00000E+00
         0.00000E+00
         0.00000E+00
         0.00000E+00
         0.00000E+00
         0.00000E+00
         0.00000E+00
         0.00000E+00
         0.00000E+00
         0.00000E+00
         0.00000E+00
         0.00000E+00
         0.00000E+00
         0.00000E+00
         0.00000E+00
         0.00000E+00
         0.00000E+00
         0.00000E+00
         0.00000E+00
         0.00000E+00
         0.00000E+00
         0.00000E+00
         0.00000E+00
         0.00000E+00
         0.00000E+00
         0.00000E+00
         0.00000E+00
         0.00000E+00
         0.00000E+00
         0.00000E+00
         0.00000E+00
         0.00000E+00
         0.00000E+00
         0.00000E+00
         0.00000E+00
         0.00000E+00
         0.00000E+00
         0.00000E+00
         0.00000E+00
         0.00000E+00
         0.00000E+00
         0.00000E+00
         0.00000E+00
         0.00000E+00
         0.00000E+00
         0.00000E+00
         0.00000E+00
         0.00000E+00
         0.00000E+00
         0.00000E+00
         0.00000E+00
         0.00000E+00
         0.00000E+00
         0.00000E+00
         0.00000E+00
         0.00000E+00
         0.00000E+00
         0.00000E+00
         0.00000E+00
         0.00000E+00
         0.00000E+00
         0.00000E+00
         0.00000E+00
         0.00000E+00
         0.00000E+00
         0.00000E+00
         0.00000E+00
         0.00000E+00
         0.00000E+00
         0.00000E+00
         0.00000E+00
         0.00000E+00
         0.00000E+00
         0.00000E+00
         0.00000E+00
         0.00000E+00
         0.00000E+00
         0.00000E+00
         0.00000E+00
         0.00000E+00
         0.00000E+00
         0.00000E+00
         0.00000E+00
         0.00000E+00
         0.00000E+00
         0.00000E+00
         0.00000E+00
         0.00000E+00
         0.00000E+00
         0.00000E+00
         0.00000E+00
         0.00000E+00
         0.00000E+00
         0.00000E+00
         0.00000E+00
         0.00000E+00
         0.00000E+00
         0.00000E+00
         0.00000E+00
         0.00000E+00
         0.00000E+00
         0.00000E+00
         0.00000E+00
         0.00000E+00
         0.00000E+00
         0.00000E+00
         0.00000E+00
         0.00000E+00
         0.00000E+00
         0.00000E+00
         0.00000E+00
         0.00000E+00
         0.00000E+00
         0.00000E+00
         0.00000E+00
         0.00000E+00
         0.00000E+00
         0.00000E+00
         0.00000E+00
         0.00000E+00
         0.00000E+00
         0.00000E+00
         0.00000E+00
         0.00000E+00
         0.00000E+00
         0.00000E+00
         0.00000E+00
         0.00000E+00
         0.00000E+00
         0.00000E+00
         0.00000E+00
         0.00000E+00
         0.00000E+00
         0.00000E+00
         0.00000E+00
         0.00000E+00
         0.00000E+00
         0.00000E+00
         0.00000E+00
         0.00000E+00
         0.00000E+00
         0.00000E+00
         0.00000E+00
         0.00000E+00
         0.00000E+00
         0.00000E+00
         0.00000E+00
         0.00000E+00
         0.00000E+00
         0.00000E+00
         0.00000E+00
         0.00000E+00
         0.00000E+00
         0.00000E+00
         0.00000E+00
         0.00000E+00
         0.00000E+00
         0.00000E+00
         0.00000E+00
         0.00000E+00
         0.00000E+00
         0.00000E+00
         0.00000E+00
         0.00000E+00
         0.00000E+00
         0.00000E+00
         0.00000E+00
         0.00000E+00
         0.00000E+00
         0.00000E+00
         0.00000E+00
         0.00000E+00
         0.00000E+00
         0.00000E+00
         0.00000E+00
         0.00000E+00
         0.00000E+00
         0.00000E+00
         0.00000E+00
         0.00000E+00
         0.00000E+00
         0.00000E+00
         0.00000E+00
         0.00000E+00
         0.00000E+00
         0.00000E+00
         0.00000E+00
         0.00000E+00
         0.00000E+00
         0.00000E+00
         0.00000E+00
         0.00000E+00
         0.00000E+00
         0.00000E+00
         0.00000E+00
         0.00000E+00
         0.00000E+00
         0.00000E+00
         0.00000E+00
         0.00000E+00
         0.00000E+00
         0.00000E+00
         0.00000E+00
         0.00000E+00
         0.00000E+00
         0.00000E+00
         0.00000E+00
         0.00000E+00
         0.00000E+00
         0.00000E+00
         0.00000E+00
         0.00000E+00
         0.00000E+00
         0.00000E+00
         0.00000E+00
         0.00000E+00
         0.00000E+00
         0.00000E+00
         0.00000E+00
         0.00000E+00
         0.00000E+00
         0.00000E+00
         0.00000E+00
         0.00000E+00
         0.00000E+00
         0.00000E+00
         0.00000E+00
         0.00000E+00
         0.00000E+00
         0.00000E+00
         0.00000E+00
         0.00000E+00
         0.00000E+00
         0.00000E+00
         0.00000E+00
         0.00000E+00
         0.00000E+00
         0.00000E+00
         0.00000E+00
         0.00000E+00
         0.00000E+00
         0.00000E+00
         0.00000E+00
         0.00000E+00
         0.00000E+00
         0.00000E+00
         0.00000E+00
         0.00000E+00
         0.00000E+00
         0.00000E+00
         0.00000E+00
         0.00000E+00
         0.00000E+00
         0.00000E+00
         0.00000E+00
         0.00000E+00
         0.00000E+00
         0.00000E+00
         0.00000E+00
         0.00000E+00
         0.00000E+00
         0.00000E+00
         0.00000E+00
         0.00000E+00
         0.00000E+00
         0.00000E+00
         0.00000E+00
         0.00000E+00
         0.00000E+00
         0.00000E+00
         0.00000E+00
         0.00000E+00
         0.00000E+00
         0.00000E+00
         0.00000E+00
         0.00000E+00
         0.00000E+00
         0.00000E+00
         0.00000E+00
         0.00000E+00
         0.00000E+00
         0.00000E+00
         0.00000E+00
         0.00000E+00
         0.00000E+00
         0.00000E+00
         0.00000E+00
         0.00000E+00
         0.00000E+00
         0.00000E+00
         0.00000E+00
         0.00000E+00
         0.00000E+00
         0.00000E+00
         0.00000E+00
         0.00000E+00
         0.00000E+00
         0.00000E+00
         0.00000E+00
         0.00000E+00
         0.00000E+00
         0.00000E+00
         0.00000E+00
         0.00000E+00
         0.00000E+00
         0.00000E+00
         0.00000E+00
         0.00000E+00
         0.00000E+00
         0.00000E+00
         0.00000E+00
         0.00000E+00
         0.00000E+00
         0.00000E+00
         0.00000E+00
         0.00000E+00
         0.00000E+00
         0.00000E+00
         0.00000E+00
         0.00000E+00
         0.00000E+00
         0.00000E+00
         0.00000E+00
         0.00000E+00
         0.00000E+00
         0.00000E+00
         0.00000E+00
         0.00000E+00
         0.00000E+00
         0.00000E+00
         0.00000E+00
         0.00000E+00
         0.00000E+00
         0.00000E+00
         0.00000E+00
         0.00000E+00
         0.00000E+00
         0.00000E+00
         0.00000E+00
         0.00000E+00
         0.00000E+00
         0.00000E+00
         0.00000E+00
         0.00000E+00
         0.00000E+00
         0.00000E+00
         0.00000E+00
         0.00000E+00
         0.00000E+00
         0.00000E+00
         0.00000E+00
         0.00000E+00
         0.00000E+00
         0.00000E+00
         0.00000E+00
         0.00000E+00
         0.00000E+00
         0.00000E+00
         0.00000E+00
         0.00000E+00
         0.00000E+00
         0.00000E+00
         0.00000E+00
         0.00000E+00
         0.00000E+00
         0.00000E+00
         0.00000E+00
         0.00000E+00
         0.00000E+00
         0.00000E+00
         0.00000E+00
         0.00000E+00
         0.00000E+00
         0.00000E+00
         0.00000E+00
         0.00000E+00
         0.00000E+00
         0.00000E+00
         0.00000E+00
         0.00000E+00
         0.00000E+00
         0.00000E+00
         0.00000E+00
         0.00000E+00
         0.00000E+00
         0.00000E+00
         0.00000E+00
         0.00000E+00
         0.00000E+00
         0.00000E+00
         0.00000E+00
         0.00000E+00
         0.00000E+00
         0.00000E+00
         0.00000E+00
         0.00000E+00
         0.00000E+00
         0.00000E+00
         0.00000E+00
         0.00000E+00
         0.00000E+00
         0.00000E+00
         0.00000E+00
         0.00000E+00
         0.00000E+00
         0.00000E+00
         0.00000E+00
         0.00000E+00
         0.00000E+00
         0.00000E+00
         0.00000E+00
         0.00000E+00
         0.00000E+00
         0.00000E+00
         0.00000E+00
         0.00000E+00
         0.00000E+00
         0.00000E+00
         0.00000E+00
         0.00000E+00
         0.00000E+00
         0.00000E+00
         0.00000E+00
         0.00000E+00
         0.00000E+00
         0.00000E+00
         0.00000E+00
         0.00000E+00
         0.00000E+00
         0.00000E+00
         0.00000E+00
         0.00000E+00
         0.00000E+00
         0.00000E+00
         0.00000E+00
         0.00000E+00
         0.00000E+00
         0.00000E+00
         0.00000E+00
         0.00000E+00
         0.00000E+00
         0.00000E+00
         0.00000E+00
         0.00000E+00
         0.00000E+00
         0.00000E+00
         0.00000E+00
         0.00000E+00
         0.00000E+00
         0.00000E+00
         0.00000E+00
         0.00000E+00
         0.00000E+00
         0.00000E+00
         0.00000E+00
         0.00000E+00
         0.00000E+00
         0.00000E+00
         0.00000E+00
         0.00000E+00
         0.00000E+00
         0.00000E+00
         0.00000E+00
         0.00000E+00
         0.00000E+00
         0.00000E+00
         0.00000E+00
         0.00000E+00
         0.00000E+00
         0.00000E+00
         0.00000E+00
         0.00000E+00
         0.00000E+00
         0.00000E+00
         0.00000E+00
         0.00000E+00
         0.00000E+00
         0.00000E+00
         0.00000E+00
         0.00000E+00
         0.00000E+00
         0.00000E+00
         0.00000E+00
         0.00000E+00
         0.00000E+00
         0.00000E+00
         0.00000E+00
         0.00000E+00
         0.00000E+00
         0.00000E+00
         0.00000E+00
         0.00000E+00
         0.00000E+00
         0.00000E+00
         0.00000E+00
         0.00000E+00
         0.00000E+00
         0.00000E+00
         0.00000E+00
         0.00000E+00
         0.00000E+00
         0.00000E+00
         0.00000E+00
         0.00000E+00
         0.00000E+00
         0.00000E+00
         0.00000E+00
         0.00000E+00
         0.00000E+00
         0.00000E+00
         0.00000E+00
         0.00000E+00
         0.00000E+00
         0.00000E+00
         0.00000E+00
         0.00000E+00
         0.00000E+00
         0.00000E+00
         0.00000E+00
         0.00000E+00
         0.00000E+00
         0.00000E+00
         0.00000E+00
         0.00000E+00
         0.00000E+00
         0.00000E+00
         0.00000E+00
         0.00000E+00
         0.00000E+00
         0.00000E+00
         0.00000E+00
         0.00000E+00
         0.00000E+00
         0.00000E+00
         0.00000E+00
         0.00000E+00
         0.00000E+00
         0.00000E+00
         0.00000E+00
         0.00000E+00
         0.00000E+00
         0.00000E+00
         0.00000E+00
         0.00000E+00
         0.00000E+00
         0.00000E+00
         0.00000E+00
         0.00000E+00
         0.00000E+00
         0.00000E+00
         0.00000E+00
         0.00000E+00
         0.00000E+00
         0.00000E+00
         0.00000E+00
         0.00000E+00
         0.00000E+00
         0.00000E+00
         0.00000E+00
         0.00000E+00
         0.00000E+00
         0.00000E+00
         0.00000E+00
         0.00000E+00
         0.00000E+00
         0.00000E+00
         0.00000E+00
         0.00000E+00
         0.00000E+00
         0.00000E+00
         0.00000E+00
         0.00000E+00
         0.00000E+00
         0.00000E+00
         0.00000E+00
         0.00000E+00
         0.00000E+00
         0.00000E+00
         0.00000E+00
         0.00000E+00
         0.00000E+00
         0.00000E+00
         0.00000E+00
         0.00000E+00
         0.00000E+00
         0.00000E+00
         0.00000E+00
         0.00000E+00
         0.00000E+00
         0.00000E+00
         0.00000E+00
         0.00000E+00
         0.00000E+00
         0.00000E+00
         0.00000E+00
         0.00000E+00
         0.00000E+00
         0.00000E+00
         0.00000E+00
         0.00000E+00
         0.00000E+00
         0.00000E+00
         0.00000E+00
         0.00000E+00
         0.00000E+00
         0.00000E+00
         0.00000E+00
         0.00000E+00
         0.00000E+00
         0.00000E+00
         0.00000E+00
         0.00000E+00
         0.00000E+00
         0.00000E+00
         0.00000E+00
         0.00000E+00
         0.00000E+00
         0.00000E+00
         0.00000E+00
         0.00000E+00
         0.00000E+00
         0.00000E+00
         0.00000E+00
         0.00000E+00
         0.00000E+00
         0.00000E+00
         0.00000E+00
         0.00000E+00
         0.00000E+00
         0.00000E+00
         0.00000E+00
         0.00000E+00
         0.00000E+00
         0.00000E+00
         0.00000E+00
         0.00000E+00
         0.00000E+00
         0.00000E+00
         0.00000E+00
         0.00000E+00
         0.00000E+00
         0.00000E+00
         0.00000E+00
         0.00000E+00
         0.00000E+00
         0.00000E+00
         0.00000E+00
         0.00000E+00
         0.00000E+00
         0.00000E+00
         0.00000E+00
         0.00000E+00
         0.00000E+00
         0.00000E+00
         0.00000E+00
         0.00000E+00
         0.00000E+00
         0.00000E+00
         0.00000E+00
         0.00000E+00
         0.00000E+00
         0.00000E+00
         0.00000E+00
         0.00000E+00
         0.00000E+00
         0.00000E+00
         0.00000E+00
         0.00000E+00
         0.00000E+00
         0.00000E+00
         0.00000E+00
         0.00000E+00
         0.00000E+00
         0.00000E+00
         0.00000E+00
         0.00000E+00
         0.00000E+00
         0.00000E+00
         0.00000E+00
         0.00000E+00
         0.00000E+00
         0.00000E+00
         0.00000E+00
         0.00000E+00
         0.00000E+00
         0.00000E+00
         0.00000E+00
         0.00000E+00
         0.00000E+00
         0.00000E+00
         0.00000E+00
         0.00000E+00
         0.00000E+00
         0.00000E+00
         0.00000E+00
         0.00000E+00
         0.00000E+00
         0.00000E+00
         0.00000E+00
         0.00000E+00
         0.00000E+00
         0.00000E+00
         0.00000E+00
         0.00000E+00
         0.00000E+00
         0.00000E+00
         0.00000E+00
         0.00000E+00
         0.00000E+00
         0.00000E+00
         0.00000E+00
         0.00000E+00
         0.00000E+00
         0.00000E+00
         0.00000E+00
         0.00000E+00
         0.00000E+00
         0.00000E+00
         0.00000E+00
         0.00000E+00
         0.00000E+00
         0.00000E+00
         0.00000E+00
         0.00000E+00
         0.00000E+00
         0.00000E+00
         0.00000E+00
         0.00000E+00
         0.00000E+00
         0.00000E+00
         0.00000E+00
         0.00000E+00
         0.00000E+00
         0.00000E+00
         0.00000E+00
         0.00000E+00
         0.00000E+00
         0.00000E+00
         0.00000E+00
         0.00000E+00
         0.00000E+00
         0.00000E+00
         0.00000E+00
         0.00000E+00
         0.00000E+00
         0.00000E+00
         0.00000E+00
         0.00000E+00
         0.00000E+00
         0.00000E+00
         0.00000E+00
         0.00000E+00
         0.00000E+00
         0.00000E+00
         0.00000E+00
         0.00000E+00
         0.00000E+00
         0.00000E+00
         0.00000E+00
         0.00000E+00
         0.00000E+00
         0.00000E+00
         0.00000E+00
         0.00000E+00
         0.00000E+00
         0.00000E+00
         0.00000E+00
         0.00000E+00
         0.00000E+00
         0.00000E+00
         0.00000E+00
         0.00000E+00
         0.00000E+00
         0.00000E+00
         0.00000E+00
         0.00000E+00
         0.00000E+00
         0.00000E+00
         0.00000E+00
         0.00000E+00
         0.00000E+00
         0.00000E+00
         0.00000E+00
         0.00000E+00
         0.00000E+00
         0.00000E+00
         0.00000E+00
         0.00000E+00
         0.00000E+00
         0.00000E+00
         0.00000E+00
         0.00000E+00
         0.00000E+00
         0.00000E+00
         0.00000E+00
         0.00000E+00
         0.00000E+00
         0.00000E+00
         0.00000E+00
         0.00000E+00
         0.00000E+00
         0.00000E+00
         0.00000E+00
         0.00000E+00
         0.00000E+00
         0.00000E+00
         0.00000E+00
         0.00000E+00
         0.00000E+00
         0.00000E+00
         0.00000E+00
         0.00000E+00
         0.00000E+00
         0.00000E+00
         0.00000E+00
         0.00000E+00
         0.00000E+00
         0.00000E+00
         0.00000E+00
         0.00000E+00
         0.00000E+00
         0.00000E+00
         0.00000E+00
         0.00000E+00
         0.00000E+00
         0.00000E+00
         0.00000E+00
         0.00000E+00
         0.00000E+00
         0.00000E+00
         0.00000E+00
         0.00000E+00
         0.00000E+00
         0.00000E+00
         0.00000E+00
         0.00000E+00
         0.00000E+00
         0.00000E+00
         0.00000E+00
         0.00000E+00
         0.00000E+00
         0.00000E+00
         0.00000E+00
         0.00000E+00
         0.00000E+00
         0.00000E+00
         0.00000E+00
         0.00000E+00
         0.00000E+00
         0.00000E+00
         0.00000E+00
         0.00000E+00
         0.00000E+00
         0.00000E+00
         0.00000E+00
         0.00000E+00
         0.00000E+00
         0.00000E+00
         0.00000E+00
         0.00000E+00
         0.00000E+00
         0.00000E+00
         0.00000E+00
         0.00000E+00
         0.00000E+00
         0.00000E+00
         0.00000E+00
         0.00000E+00
         0.00000E+00
         0.00000E+00
         0.00000E+00
         0.00000E+00
         0.00000E+00
         0.00000E+00
         0.00000E+00
         0.00000E+00
         0.00000E+00
         0.00000E+00
         0.00000E+00
         0.00000E+00
         0.00000E+00
         0.00000E+00
         0.00000E+00
         0.00000E+00
         0.00000E+00
         0.00000E+00
         0.00000E+00
         0.00000E+00
         0.00000E+00
         0.00000E+00
         0.00000E+00
         0.00000E+00
         0.00000E+00
         0.00000E+00
         0.00000E+00
         0.00000E+00
         0.00000E+00
         0.00000E+00
         0.00000E+00
         0.00000E+00
         0.00000E+00
         0.00000E+00
         0.00000E+00
         0.00000E+00
         0.00000E+00
         0.00000E+00
         0.00000E+00
         0.00000E+00
         0.00000E+00
         0.00000E+00
         0.00000E+00
         0.00000E+00
         0.00000E+00
         0.00000E+00
         0.00000E+00
         0.00000E+00
         0.00000E+00
         0.00000E+00
         0.00000E+00
         0.00000E+00
         0.00000E+00
         0.00000E+00
         0.00000E+00
         0.00000E+00
         0.00000E+00
         0.00000E+00
         0.00000E+00
         0.00000E+00
         0.00000E+00
         0.00000E+00
         0.00000E+00
         0.00000E+00
         0.00000E+00
         0.00000E+00
         0.00000E+00
         0.00000E+00
         0.00000E+00
         0.00000E+00
         0.00000E+00
         0.00000E+00
         0.00000E+00
         0.00000E+00
         0.00000E+00
         0.00000E+00
         0.00000E+00
         0.00000E+00
         0.00000E+00
         0.00000E+00
         0.00000E+00
         0.00000E+00
         0.00000E+00
         0.00000E+00
         0.00000E+00
         0.00000E+00
         0.00000E+00
         0.00000E+00
         0.00000E+00
         0.00000E+00
         0.00000E+00
         0.00000E+00
         0.00000E+00
         0.00000E+00
         0.00000E+00
         0.00000E+00
         0.00000E+00
         0.00000E+00
         0.00000E+00
         0.00000E+00
         0.00000E+00
         0.00000E+00
         0.00000E+00
         0.00000E+00
         0.00000E+00
         0.00000E+00
         0.00000E+00
         0.00000E+00
         0.00000E+00
         0.00000E+00
         0.00000E+00
         0.00000E+00
         0.00000E+00
         0.00000E+00
         0.00000E+00
         0.00000E+00
         0.00000E+00
         0.00000E+00
         0.00000E+00
         0.00000E+00
         0.00000E+00
         0.00000E+00
         0.00000E+00
         0.00000E+00
         0.00000E+00
         0.00000E+00
         0.00000E+00
         0.00000E+00
         0.00000E+00
         0.00000E+00
         0.00000E+00
         0.00000E+00
         0.00000E+00
         0.00000E+00
         0.00000E+00
         0.00000E+00
         0.00000E+00
         0.00000E+00
         0.00000E+00
         0.00000E+00
         0.00000E+00
         0.00000E+00
         0.00000E+00
         0.00000E+00
         0.00000E+00
         0.00000E+00
         0.00000E+00
         0.00000E+00
         0.00000E+00
         0.00000E+00
         0.00000E+00
         0.00000E+00
         0.00000E+00
         0.00000E+00
         0.00000E+00
         0.00000E+00
         0.00000E+00
         0.00000E+00
         0.00000E+00
         0.00000E+00
         0.00000E+00
         0.00000E+00
         0.00000E+00
         0.00000E+00
         0.00000E+00
         0.00000E+00
         0.00000E+00
         0.00000E+00
         0.00000E+00
         0.00000E+00
         0.00000E+00
         0.00000E+00
         0.00000E+00
         0.00000E+00
         0.00000E+00
         0.00000E+00
         0.00000E+00
         0.00000E+00
         0.00000E+00
         0.00000E+00
         0.00000E+00
         0.00000E+00
         0.00000E+00
         0.00000E+00
         0.00000E+00
         0.00000E+00
         0.00000E+00
  
SCALARS                 acceleration_y  double 1
LOOKUP_TABLE default
         0.00000E+00
         0.00000E+00
         0.00000E+00
         0.00000E+00
         0.00000E+00
         0.00000E+00
         0.00000E+00
         0.00000E+00
         0.00000E+00
         0.00000E+00
         0.00000E+00
         0.00000E+00
         0.00000E+00
         0.00000E+00
         0.00000E+00
         0.00000E+00
         0.00000E+00
         0.00000E+00
         0.00000E+00
         0.00000E+00
         0.00000E+00
         0.00000E+00
         0.00000E+00
         0.00000E+00
         0.00000E+00
         0.00000E+00
         0.00000E+00
         0.00000E+00
         0.00000E+00
         0.00000E+00
         0.00000E+00
         0.00000E+00
         0.00000E+00
         0.00000E+00
         0.00000E+00
         0.00000E+00
         0.00000E+00
         0.00000E+00
         0.00000E+00
         0.00000E+00
         0.00000E+00
         0.00000E+00
         0.00000E+00
         0.00000E+00
         0.00000E+00
         0.00000E+00
         0.00000E+00
         0.00000E+00
         0.00000E+00
         0.00000E+00
         0.00000E+00
         0.00000E+00
         0.00000E+00
         0.00000E+00
         0.00000E+00
         0.00000E+00
         0.00000E+00
         0.00000E+00
         0.00000E+00
         0.00000E+00
         0.00000E+00
         0.00000E+00
         0.00000E+00
         0.00000E+00
         0.00000E+00
         0.00000E+00
         0.00000E+00
         0.00000E+00
         0.00000E+00
         0.00000E+00
         0.00000E+00
         0.00000E+00
         0.00000E+00
         0.00000E+00
         0.00000E+00
         0.00000E+00
         0.00000E+00
         0.00000E+00
         0.00000E+00
         0.00000E+00
         0.00000E+00
         0.00000E+00
         0.00000E+00
         0.00000E+00
         0.00000E+00
         0.00000E+00
         0.00000E+00
         0.00000E+00
         0.00000E+00
         0.00000E+00
         0.00000E+00
         0.00000E+00
         0.00000E+00
         0.00000E+00
         0.00000E+00
         0.00000E+00
         0.00000E+00
         0.00000E+00
         0.00000E+00
         0.00000E+00
         0.00000E+00
         0.00000E+00
         0.00000E+00
         0.00000E+00
         0.00000E+00
         0.00000E+00
         0.00000E+00
         0.00000E+00
         0.00000E+00
         0.00000E+00
         0.00000E+00
         0.00000E+00
         0.00000E+00
         0.00000E+00
         0.00000E+00
         0.00000E+00
         0.00000E+00
         0.00000E+00
         0.00000E+00
         0.00000E+00
         0.00000E+00
         0.00000E+00
         0.00000E+00
         0.00000E+00
         0.00000E+00
         0.00000E+00
         0.00000E+00
         0.00000E+00
         0.00000E+00
         0.00000E+00
         0.00000E+00
         0.00000E+00
         0.00000E+00
         0.00000E+00
         0.00000E+00
         0.00000E+00
         0.00000E+00
         0.00000E+00
         0.00000E+00
         0.00000E+00
         0.00000E+00
         0.00000E+00
         0.00000E+00
         0.00000E+00
         0.00000E+00
         0.00000E+00
         0.00000E+00
         0.00000E+00
         0.00000E+00
         0.00000E+00
         0.00000E+00
         0.00000E+00
         0.00000E+00
         0.00000E+00
         0.00000E+00
         0.00000E+00
         0.00000E+00
         0.00000E+00
         0.00000E+00
         0.00000E+00
         0.00000E+00
         0.00000E+00
         0.00000E+00
         0.00000E+00
         0.00000E+00
         0.00000E+00
         0.00000E+00
         0.00000E+00
         0.00000E+00
         0.00000E+00
         0.00000E+00
         0.00000E+00
         0.00000E+00
         0.00000E+00
         0.00000E+00
         0.00000E+00
         0.00000E+00
         0.00000E+00
         0.00000E+00
         0.00000E+00
         0.00000E+00
         0.00000E+00
         0.00000E+00
         0.00000E+00
         0.00000E+00
         0.00000E+00
         0.00000E+00
         0.00000E+00
         0.00000E+00
         0.00000E+00
         0.00000E+00
         0.00000E+00
         0.00000E+00
         0.00000E+00
         0.00000E+00
         0.00000E+00
         0.00000E+00
         0.00000E+00
         0.00000E+00
         0.00000E+00
         0.00000E+00
         0.00000E+00
         0.00000E+00
         0.00000E+00
         0.00000E+00
         0.00000E+00
         0.00000E+00
         0.00000E+00
         0.00000E+00
         0.00000E+00
         0.00000E+00
         0.00000E+00
         0.00000E+00
         0.00000E+00
         0.00000E+00
         0.00000E+00
         0.00000E+00
         0.00000E+00
         0.00000E+00
         0.00000E+00
         0.00000E+00
         0.00000E+00
         0.00000E+00
         0.00000E+00
         0.00000E+00
         0.00000E+00
         0.00000E+00
         0.00000E+00
         0.00000E+00
         0.00000E+00
         0.00000E+00
         0.00000E+00
         0.00000E+00
         0.00000E+00
         0.00000E+00
         0.00000E+00
         0.00000E+00
         0.00000E+00
         0.00000E+00
         0.00000E+00
         0.00000E+00
         0.00000E+00
         0.00000E+00
         0.00000E+00
         0.00000E+00
         0.00000E+00
         0.00000E+00
         0.00000E+00
         0.00000E+00
         0.00000E+00
         0.00000E+00
         0.00000E+00
         0.00000E+00
         0.00000E+00
         0.00000E+00
         0.00000E+00
         0.00000E+00
         0.00000E+00
         0.00000E+00
         0.00000E+00
         0.00000E+00
         0.00000E+00
         0.00000E+00
         0.00000E+00
         0.00000E+00
         0.00000E+00
         0.00000E+00
         0.00000E+00
         0.00000E+00
         0.00000E+00
         0.00000E+00
         0.00000E+00
         0.00000E+00
         0.00000E+00
         0.00000E+00
         0.00000E+00
         0.00000E+00
         0.00000E+00
         0.00000E+00
         0.00000E+00
         0.00000E+00
         0.00000E+00
         0.00000E+00
         0.00000E+00
         0.00000E+00
         0.00000E+00
         0.00000E+00
         0.00000E+00
         0.00000E+00
         0.00000E+00
         0.00000E+00
         0.00000E+00
         0.00000E+00
         0.00000E+00
         0.00000E+00
         0.00000E+00
         0.00000E+00
         0.00000E+00
         0.00000E+00
         0.00000E+00
         0.00000E+00
         0.00000E+00
         0.00000E+00
         0.00000E+00
         0.00000E+00
         0.00000E+00
         0.00000E+00
         0.00000E+00
         0.00000E+00
         0.00000E+00
         0.00000E+00
         0.00000E+00
         0.00000E+00
         0.00000E+00
         0.00000E+00
         0.00000E+00
         0.00000E+00
         0.00000E+00
         0.00000E+00
         0.00000E+00
         0.00000E+00
         0.00000E+00
         0.00000E+00
         0.00000E+00
         0.00000E+00
         0.00000E+00
         0.00000E+00
         0.00000E+00
         0.00000E+00
         0.00000E+00
         0.00000E+00
         0.00000E+00
         0.00000E+00
         0.00000E+00
         0.00000E+00
         0.00000E+00
         0.00000E+00
         0.00000E+00
         0.00000E+00
         0.00000E+00
         0.00000E+00
         0.00000E+00
         0.00000E+00
         0.00000E+00
         0.00000E+00
         0.00000E+00
         0.00000E+00
         0.00000E+00
         0.00000E+00
         0.00000E+00
         0.00000E+00
         0.00000E+00
         0.00000E+00
         0.00000E+00
         0.00000E+00
         0.00000E+00
         0.00000E+00
         0.00000E+00
         0.00000E+00
         0.00000E+00
         0.00000E+00
         0.00000E+00
         0.00000E+00
         0.00000E+00
         0.00000E+00
         0.00000E+00
         0.00000E+00
         0.00000E+00
         0.00000E+00
         0.00000E+00
         0.00000E+00
         0.00000E+00
         0.00000E+00
         0.00000E+00
         0.00000E+00
         0.00000E+00
         0.00000E+00
         0.00000E+00
         0.00000E+00
         0.00000E+00
         0.00000E+00
         0.00000E+00
         0.00000E+00
         0.00000E+00
         0.00000E+00
         0.00000E+00
         0.00000E+00
         0.00000E+00
         0.00000E+00
         0.00000E+00
         0.00000E+00
         0.00000E+00
         0.00000E+00
         0.00000E+00
         0.00000E+00
         0.00000E+00
         0.00000E+00
         0.00000E+00
         0.00000E+00
         0.00000E+00
         0.00000E+00
         0.00000E+00
         0.00000E+00
         0.00000E+00
         0.00000E+00
         0.00000E+00
         0.00000E+00
         0.00000E+00
         0.00000E+00
         0.00000E+00
         0.00000E+00
         0.00000E+00
         0.00000E+00
         0.00000E+00
         0.00000E+00
         0.00000E+00
         0.00000E+00
         0.00000E+00
         0.00000E+00
         0.00000E+00
         0.00000E+00
         0.00000E+00
         0.00000E+00
         0.00000E+00
         0.00000E+00
         0.00000E+00
         0.00000E+00
         0.00000E+00
         0.00000E+00
         0.00000E+00
         0.00000E+00
         0.00000E+00
         0.00000E+00
         0.00000E+00
         0.00000E+00
         0.00000E+00
         0.00000E+00
         0.00000E+00
         0.00000E+00
         0.00000E+00
         0.00000E+00
         0.00000E+00
         0.00000E+00
         0.00000E+00
         0.00000E+00
         0.00000E+00
         0.00000E+00
         0.00000E+00
         0.00000E+00
         0.00000E+00
         0.00000E+00
         0.00000E+00
         0.00000E+00
         0.00000E+00
         0.00000E+00
         0.00000E+00
         0.00000E+00
         0.00000E+00
         0.00000E+00
         0.00000E+00
         0.00000E+00
         0.00000E+00
         0.00000E+00
         0.00000E+00
         0.00000E+00
         0.00000E+00
         0.00000E+00
         0.00000E+00
         0.00000E+00
         0.00000E+00
         0.00000E+00
         0.00000E+00
         0.00000E+00
         0.00000E+00
         0.00000E+00
         0.00000E+00
         0.00000E+00
         0.00000E+00
         0.00000E+00
         0.00000E+00
         0.00000E+00
         0.00000E+00
         0.00000E+00
         0.00000E+00
         0.00000E+00
         0.00000E+00
         0.00000E+00
         0.00000E+00
         0.00000E+00
         0.00000E+00
         0.00000E+00
         0.00000E+00
         0.00000E+00
         0.00000E+00
         0.00000E+00
         0.00000E+00
         0.00000E+00
         0.00000E+00
         0.00000E+00
         0.00000E+00
         0.00000E+00
         0.00000E+00
         0.00000E+00
         0.00000E+00
         0.00000E+00
         0.00000E+00
         0.00000E+00
         0.00000E+00
         0.00000E+00
         0.00000E+00
         0.00000E+00
         0.00000E+00
         0.00000E+00
         0.00000E+00
         0.00000E+00
         0.00000E+00
         0.00000E+00
         0.00000E+00
         0.00000E+00
         0.00000E+00
         0.00000E+00
         0.00000E+00
         0.00000E+00
         0.00000E+00
         0.00000E+00
         0.00000E+00
         0.00000E+00
         0.00000E+00
         0.00000E+00
         0.00000E+00
         0.00000E+00
         0.00000E+00
         0.00000E+00
         0.00000E+00
         0.00000E+00
         0.00000E+00
         0.00000E+00
         0.00000E+00
         0.00000E+00
         0.00000E+00
         0.00000E+00
         0.00000E+00
         0.00000E+00
         0.00000E+00
         0.00000E+00
         0.00000E+00
         0.00000E+00
         0.00000E+00
         0.00000E+00
         0.00000E+00
         0.00000E+00
         0.00000E+00
         0.00000E+00
         0.00000E+00
         0.00000E+00
         0.00000E+00
         0.00000E+00
         0.00000E+00
         0.00000E+00
         0.00000E+00
         0.00000E+00
         0.00000E+00
         0.00000E+00
         0.00000E+00
         0.00000E+00
         0.00000E+00
         0.00000E+00
         0.00000E+00
         0.00000E+00
         0.00000E+00
         0.00000E+00
         0.00000E+00
         0.00000E+00
         0.00000E+00
         0.00000E+00
         0.00000E+00
         0.00000E+00
         0.00000E+00
         0.00000E+00
         0.00000E+00
         0.00000E+00
         0.00000E+00
         0.00000E+00
         0.00000E+00
         0.00000E+00
         0.00000E+00
         0.00000E+00
         0.00000E+00
         0.00000E+00
         0.00000E+00
         0.00000E+00
         0.00000E+00
         0.00000E+00
         0.00000E+00
         0.00000E+00
         0.00000E+00
         0.00000E+00
         0.00000E+00
         0.00000E+00
         0.00000E+00
         0.00000E+00
         0.00000E+00
         0.00000E+00
         0.00000E+00
         0.00000E+00
         0.00000E+00
         0.00000E+00
         0.00000E+00
         0.00000E+00
         0.00000E+00
         0.00000E+00
         0.00000E+00
         0.00000E+00
         0.00000E+00
         0.00000E+00
         0.00000E+00
         0.00000E+00
         0.00000E+00
         0.00000E+00
         0.00000E+00
         0.00000E+00
         0.00000E+00
         0.00000E+00
         0.00000E+00
         0.00000E+00
         0.00000E+00
         0.00000E+00
         0.00000E+00
         0.00000E+00
         0.00000E+00
         0.00000E+00
         0.00000E+00
         0.00000E+00
         0.00000E+00
         0.00000E+00
         0.00000E+00
         0.00000E+00
         0.00000E+00
         0.00000E+00
         0.00000E+00
         0.00000E+00
         0.00000E+00
         0.00000E+00
         0.00000E+00
         0.00000E+00
         0.00000E+00
         0.00000E+00
         0.00000E+00
         0.00000E+00
         0.00000E+00
         0.00000E+00
         0.00000E+00
         0.00000E+00
         0.00000E+00
         0.00000E+00
         0.00000E+00
         0.00000E+00
         0.00000E+00
         0.00000E+00
         0.00000E+00
         0.00000E+00
         0.00000E+00
         0.00000E+00
         0.00000E+00
         0.00000E+00
         0.00000E+00
         0.00000E+00
         0.00000E+00
         0.00000E+00
         0.00000E+00
         0.00000E+00
         0.00000E+00
         0.00000E+00
         0.00000E+00
         0.00000E+00
         0.00000E+00
         0.00000E+00
         0.00000E+00
         0.00000E+00
         0.00000E+00
         0.00000E+00
         0.00000E+00
         0.00000E+00
         0.00000E+00
         0.00000E+00
         0.00000E+00
         0.00000E+00
         0.00000E+00
         0.00000E+00
         0.00000E+00
         0.00000E+00
         0.00000E+00
         0.00000E+00
         0.00000E+00
         0.00000E+00
         0.00000E+00
         0.00000E+00
         0.00000E+00
         0.00000E+00
         0.00000E+00
         0.00000E+00
         0.00000E+00
         0.00000E+00
         0.00000E+00
         0.00000E+00
         0.00000E+00
         0.00000E+00
         0.00000E+00
         0.00000E+00
         0.00000E+00
         0.00000E+00
         0.00000E+00
         0.00000E+00
         0.00000E+00
         0.00000E+00
         0.00000E+00
         0.00000E+00
         0.00000E+00
         0.00000E+00
         0.00000E+00
         0.00000E+00
         0.00000E+00
         0.00000E+00
         0.00000E+00
         0.00000E+00
         0.00000E+00
         0.00000E+00
         0.00000E+00
         0.00000E+00
         0.00000E+00
         0.00000E+00
         0.00000E+00
         0.00000E+00
         0.00000E+00
         0.00000E+00
         0.00000E+00
         0.00000E+00
         0.00000E+00
         0.00000E+00
         0.00000E+00
         0.00000E+00
         0.00000E+00
         0.00000E+00
         0.00000E+00
         0.00000E+00
         0.00000E+00
         0.00000E+00
         0.00000E+00
         0.00000E+00
         0.00000E+00
         0.00000E+00
         0.00000E+00
         0.00000E+00
         0.00000E+00
         0.00000E+00
         0.00000E+00
         0.00000E+00
         0.00000E+00
         0.00000E+00
         0.00000E+00
         0.00000E+00
         0.00000E+00
         0.00000E+00
         0.00000E+00
         0.00000E+00
         0.00000E+00
         0.00000E+00
         0.00000E+00
         0.00000E+00
         0.00000E+00
         0.00000E+00
         0.00000E+00
         0.00000E+00
         0.00000E+00
         0.00000E+00
         0.00000E+00
         0.00000E+00
         0.00000E+00
         0.00000E+00
         0.00000E+00
         0.00000E+00
         0.00000E+00
         0.00000E+00
         0.00000E+00
         0.00000E+00
         0.00000E+00
         0.00000E+00
         0.00000E+00
         0.00000E+00
         0.00000E+00
         0.00000E+00
         0.00000E+00
         0.00000E+00
         0.00000E+00
         0.00000E+00
         0.00000E+00
         0.00000E+00
         0.00000E+00
         0.00000E+00
         0.00000E+00
         0.00000E+00
         0.00000E+00
         0.00000E+00
         0.00000E+00
         0.00000E+00
         0.00000E+00
         0.00000E+00
         0.00000E+00
         0.00000E+00
         0.00000E+00
         0.00000E+00
         0.00000E+00
         0.00000E+00
         0.00000E+00
         0.00000E+00
         0.00000E+00
         0.00000E+00
         0.00000E+00
         0.00000E+00
         0.00000E+00
         0.00000E+00
         0.00000E+00
         0.00000E+00
         0.00000E+00
         0.00000E+00
         0.00000E+00
         0.00000E+00
         0.00000E+00
         0.00000E+00
         0.00000E+00
         0.00000E+00
         0.00000E+00
         0.00000E+00
         0.00000E+00
         0.00000E+00
         0.00000E+00
         0.00000E+00
         0.00000E+00
         0.00000E+00
         0.00000E+00
         0.00000E+00
         0.00000E+00
         0.00000E+00
         0.00000E+00
         0.00000E+00
         0.00000E+00
         0.00000E+00
         0.00000E+00
         0.00000E+00
         0.00000E+00
         0.00000E+00
         0.00000E+00
         0.00000E+00
         0.00000E+00
         0.00000E+00
         0.00000E+00
         0.00000E+00
         0.00000E+00
         0.00000E+00
         0.00000E+00
         0.00000E+00
         0.00000E+00
         0.00000E+00
         0.00000E+00
         0.00000E+00
         0.00000E+00
         0.00000E+00
         0.00000E+00
         0.00000E+00
         0.00000E+00
         0.00000E+00
         0.00000E+00
         0.00000E+00
         0.00000E+00
         0.00000E+00
         0.00000E+00
         0.00000E+00
         0.00000E+00
         0.00000E+00
         0.00000E+00
         0.00000E+00
         0.00000E+00
         0.00000E+00
         0.00000E+00
         0.00000E+00
         0.00000E+00
         0.00000E+00
         0.00000E+00
         0.00000E+00
         0.00000E+00
         0.00000E+00
         0.00000E+00
         0.00000E+00
         0.00000E+00
         0.00000E+00
         0.00000E+00
         0.00000E+00
         0.00000E+00
         0.00000E+00
         0.00000E+00
         0.00000E+00
         0.00000E+00
         0.00000E+00
         0.00000E+00
         0.00000E+00
         0.00000E+00
         0.00000E+00
         0.00000E+00
         0.00000E+00
         0.00000E+00
         0.00000E+00
         0.00000E+00
         0.00000E+00
         0.00000E+00
         0.00000E+00
         0.00000E+00
         0.00000E+00
         0.00000E+00
         0.00000E+00
         0.00000E+00
         0.00000E+00
         0.00000E+00
         0.00000E+00
         0.00000E+00
         0.00000E+00
         0.00000E+00
         0.00000E+00
         0.00000E+00
         0.00000E+00
         0.00000E+00
         0.00000E+00
         0.00000E+00
         0.00000E+00
         0.00000E+00
         0.00000E+00
         0.00000E+00
         0.00000E+00
         0.00000E+00
         0.00000E+00
         0.00000E+00
         0.00000E+00
         0.00000E+00
         0.00000E+00
         0.00000E+00
         0.00000E+00
         0.00000E+00
         0.00000E+00
         0.00000E+00
         0.00000E+00
         0.00000E+00
         0.00000E+00
         0.00000E+00
         0.00000E+00
         0.00000E+00
         0.00000E+00
         0.00000E+00
         0.00000E+00
         0.00000E+00
         0.00000E+00
         0.00000E+00
         0.00000E+00
         0.00000E+00
         0.00000E+00
         0.00000E+00
         0.00000E+00
         0.00000E+00
         0.00000E+00
         0.00000E+00
         0.00000E+00
         0.00000E+00
         0.00000E+00
         0.00000E+00
         0.00000E+00
         0.00000E+00
         0.00000E+00
         0.00000E+00
         0.00000E+00
         0.00000E+00
         0.00000E+00
         0.00000E+00
         0.00000E+00
         0.00000E+00
         0.00000E+00
         0.00000E+00
         0.00000E+00
         0.00000E+00
         0.00000E+00
         0.00000E+00
         0.00000E+00
         0.00000E+00
         0.00000E+00
         0.00000E+00
         0.00000E+00
         0.00000E+00
         0.00000E+00
         0.00000E+00
         0.00000E+00
         0.00000E+00
         0.00000E+00
         0.00000E+00
         0.00000E+00
         0.00000E+00
         0.00000E+00
         0.00000E+00
         0.00000E+00
         0.00000E+00
         0.00000E+00
         0.00000E+00
         0.00000E+00
         0.00000E+00
         0.00000E+00
         0.00000E+00
         0.00000E+00
         0.00000E+00
         0.00000E+00
         0.00000E+00
         0.00000E+00
         0.00000E+00
         0.00000E+00
         0.00000E+00
         0.00000E+00
         0.00000E+00
         0.00000E+00
         0.00000E+00
         0.00000E+00
         0.00000E+00
         0.00000E+00
         0.00000E+00
         0.00000E+00
         0.00000E+00
         0.00000E+00
         0.00000E+00
         0.00000E+00
         0.00000E+00
         0.00000E+00
         0.00000E+00
         0.00000E+00
         0.00000E+00
         0.00000E+00
         0.00000E+00
         0.00000E+00
         0.00000E+00
         0.00000E+00
         0.00000E+00
         0.00000E+00
         0.00000E+00
         0.00000E+00
         0.00000E+00
         0.00000E+00
         0.00000E+00
         0.00000E+00
         0.00000E+00
         0.00000E+00
         0.00000E+00
         0.00000E+00
         0.00000E+00
         0.00000E+00
         0.00000E+00
         0.00000E+00
         0.00000E+00
         0.00000E+00
         0.00000E+00
         0.00000E+00
         0.00000E+00
         0.00000E+00
         0.00000E+00
         0.00000E+00
         0.00000E+00
         0.00000E+00
         0.00000E+00
         0.00000E+00
         0.00000E+00
         0.00000E+00
         0.00000E+00
         0.00000E+00
         0.00000E+00
         0.00000E+00
         0.00000E+00
         0.00000E+00
         0.00000E+00
         0.00000E+00
         0.00000E+00
         0.00000E+00
         0.00000E+00
         0.00000E+00
         0.00000E+00
         0.00000E+00
         0.00000E+00
         0.00000E+00
         0.00000E+00
         0.00000E+00
         0.00000E+00
         0.00000E+00
         0.00000E+00
         0.00000E+00
         0.00000E+00
         0.00000E+00
         0.00000E+00
         0.00000E+00
         0.00000E+00
         0.00000E+00
         0.00000E+00
         0.00000E+00
         0.00000E+00
         0.00000E+00
         0.00000E+00
         0.00000E+00
         0.00000E+00
         0.00000E+00
         0.00000E+00
         0.00000E+00
         0.00000E+00
         0.00000E+00
         0.00000E+00
         0.00000E+00
         0.00000E+00
         0.00000E+00
         0.00000E+00
         0.00000E+00
         0.00000E+00
         0.00000E+00
         0.00000E+00
         0.00000E+00
         0.00000E+00
         0.00000E+00
         0.00000E+00
         0.00000E+00
         0.00000E+00
         0.00000E+00
         0.00000E+00
         0.00000E+00
         0.00000E+00
         0.00000E+00
         0.00000E+00
         0.00000E+00
         0.00000E+00
         0.00000E+00
         0.00000E+00
         0.00000E+00
         0.00000E+00
         0.00000E+00
         0.00000E+00
         0.00000E+00
         0.00000E+00
         0.00000E+00
         0.00000E+00
         0.00000E+00
         0.00000E+00
         0.00000E+00
         0.00000E+00
         0.00000E+00
         0.00000E+00
         0.00000E+00
         0.00000E+00
         0.00000E+00
         0.00000E+00
         0.00000E+00
         0.00000E+00
         0.00000E+00
         0.00000E+00
         0.00000E+00
         0.00000E+00
         0.00000E+00
         0.00000E+00
         0.00000E+00
         0.00000E+00
         0.00000E+00
         0.00000E+00
         0.00000E+00
         0.00000E+00
         0.00000E+00
         0.00000E+00
         0.00000E+00
         0.00000E+00
         0.00000E+00
         0.00000E+00
         0.00000E+00
         0.00000E+00
         0.00000E+00
         0.00000E+00
         0.00000E+00
         0.00000E+00
         0.00000E+00
         0.00000E+00
         0.00000E+00
         0.00000E+00
         0.00000E+00
         0.00000E+00
         0.00000E+00
         0.00000E+00
         0.00000E+00
         0.00000E+00
         0.00000E+00
         0.00000E+00
         0.00000E+00
         0.00000E+00
         0.00000E+00
         0.00000E+00
         0.00000E+00
         0.00000E+00
         0.00000E+00
         0.00000E+00
         0.00000E+00
         0.00000E+00
         0.00000E+00
         0.00000E+00
         0.00000E+00
         0.00000E+00
         0.00000E+00
         0.00000E+00
         0.00000E+00
         0.00000E+00
         0.00000E+00
         0.00000E+00
         0.00000E+00
         0.00000E+00
         0.00000E+00
         0.00000E+00
         0.00000E+00
         0.00000E+00
         0.00000E+00
         0.00000E+00
         0.00000E+00
         0.00000E+00
         0.00000E+00
         0.00000E+00
         0.00000E+00
         0.00000E+00
         0.00000E+00
         0.00000E+00
         0.00000E+00
         0.00000E+00
         0.00000E+00
         0.00000E+00
         0.00000E+00
         0.00000E+00
         0.00000E+00
         0.00000E+00
         0.00000E+00
         0.00000E+00
         0.00000E+00
         0.00000E+00
         0.00000E+00
         0.00000E+00
         0.00000E+00
         0.00000E+00
         0.00000E+00
         0.00000E+00
         0.00000E+00
         0.00000E+00
         0.00000E+00
         0.00000E+00
         0.00000E+00
         0.00000E+00
         0.00000E+00
         0.00000E+00
         0.00000E+00
         0.00000E+00
         0.00000E+00
         0.00000E+00
         0.00000E+00
         0.00000E+00
         0.00000E+00
         0.00000E+00
         0.00000E+00
         0.00000E+00
         0.00000E+00
         0.00000E+00
         0.00000E+00
         0.00000E+00
         0.00000E+00
         0.00000E+00
         0.00000E+00
         0.00000E+00
         0.00000E+00
         0.00000E+00
         0.00000E+00
         0.00000E+00
         0.00000E+00
         0.00000E+00
         0.00000E+00
         0.00000E+00
         0.00000E+00
         0.00000E+00
         0.00000E+00
         0.00000E+00
         0.00000E+00
         0.00000E+00
         0.00000E+00
         0.00000E+00
         0.00000E+00
         0.00000E+00
         0.00000E+00
         0.00000E+00
         0.00000E+00
         0.00000E+00
         0.00000E+00
         0.00000E+00
         0.00000E+00
         0.00000E+00
         0.00000E+00
         0.00000E+00
         0.00000E+00
         0.00000E+00
         0.00000E+00
         0.00000E+00
         0.00000E+00
         0.00000E+00
         0.00000E+00
         0.00000E+00
         0.00000E+00
         0.00000E+00
         0.00000E+00
         0.00000E+00
         0.00000E+00
         0.00000E+00
         0.00000E+00
         0.00000E+00
         0.00000E+00
         0.00000E+00
         0.00000E+00
         0.00000E+00
         0.00000E+00
         0.00000E+00
         0.00000E+00
         0.00000E+00
         0.00000E+00
         0.00000E+00
         0.00000E+00
         0.00000E+00
         0.00000E+00
         0.00000E+00
         0.00000E+00
         0.00000E+00
         0.00000E+00
         0.00000E+00
         0.00000E+00
         0.00000E+00
         0.00000E+00
         0.00000E+00
         0.00000E+00
         0.00000E+00
         0.00000E+00
         0.00000E+00
         0.00000E+00
         0.00000E+00
         0.00000E+00
         0.00000E+00
         0.00000E+00
         0.00000E+00
         0.00000E+00
         0.00000E+00
         0.00000E+00
         0.00000E+00
         0.00000E+00
         0.00000E+00
         0.00000E+00
         0.00000E+00
         0.00000E+00
         0.00000E+00
         0.00000E+00
         0.00000E+00
         0.00000E+00
         0.00000E+00
         0.00000E+00
         0.00000E+00
         0.00000E+00
         0.00000E+00
         0.00000E+00
         0.00000E+00
         0.00000E+00
         0.00000E+00
         0.00000E+00
         0.00000E+00
         0.00000E+00
         0.00000E+00
         0.00000E+00
         0.00000E+00
         0.00000E+00
         0.00000E+00
         0.00000E+00
         0.00000E+00
         0.00000E+00
         0.00000E+00
         0.00000E+00
         0.00000E+00
         0.00000E+00
         0.00000E+00
         0.00000E+00
         0.00000E+00
         0.00000E+00
         0.00000E+00
         0.00000E+00
         0.00000E+00
         0.00000E+00
         0.00000E+00
         0.00000E+00
         0.00000E+00
         0.00000E+00
         0.00000E+00
         0.00000E+00
         0.00000E+00
         0.00000E+00
         0.00000E+00
         0.00000E+00
         0.00000E+00
         0.00000E+00
         0.00000E+00
         0.00000E+00
         0.00000E+00
         0.00000E+00
         0.00000E+00
         0.00000E+00
         0.00000E+00
         0.00000E+00
         0.00000E+00
         0.00000E+00
         0.00000E+00
         0.00000E+00
         0.00000E+00
         0.00000E+00
         0.00000E+00
         0.00000E+00
         0.00000E+00
         0.00000E+00
         0.00000E+00
         0.00000E+00
         0.00000E+00
         0.00000E+00
         0.00000E+00
         0.00000E+00
         0.00000E+00
         0.00000E+00
         0.00000E+00
         0.00000E+00
         0.00000E+00
         0.00000E+00
         0.00000E+00
         0.00000E+00
         0.00000E+00
         0.00000E+00
         0.00000E+00
         0.00000E+00
         0.00000E+00
         0.00000E+00
         0.00000E+00
         0.00000E+00
         0.00000E+00
         0.00000E+00
         0.00000E+00
         0.00000E+00
         0.00000E+00
         0.00000E+00
         0.00000E+00
         0.00000E+00
         0.00000E+00
         0.00000E+00
         0.00000E+00
         0.00000E+00
         0.00000E+00
         0.00000E+00
         0.00000E+00
         0.00000E+00
         0.00000E+00
         0.00000E+00
         0.00000E+00
         0.00000E+00
         0.00000E+00
         0.00000E+00
         0.00000E+00
         0.00000E+00
         0.00000E+00
         0.00000E+00
         0.00000E+00
         0.00000E+00
         0.00000E+00
         0.00000E+00
         0.00000E+00
         0.00000E+00
         0.00000E+00
         0.00000E+00
         0.00000E+00
         0.00000E+00
         0.00000E+00
         0.00000E+00
         0.00000E+00
         0.00000E+00
         0.00000E+00
         0.00000E+00
         0.00000E+00
         0.00000E+00
         0.00000E+00
         0.00000E+00
         0.00000E+00
         0.00000E+00
         0.00000E+00
         0.00000E+00
         0.00000E+00
         0.00000E+00
         0.00000E+00
         0.00000E+00
         0.00000E+00
         0.00000E+00
         0.00000E+00
         0.00000E+00
         0.00000E+00
         0.00000E+00
         0.00000E+00
         0.00000E+00
         0.00000E+00
         0.00000E+00
         0.00000E+00
         0.00000E+00
         0.00000E+00
         0.00000E+00
         0.00000E+00
         0.00000E+00
         0.00000E+00
         0.00000E+00
         0.00000E+00
         0.00000E+00
         0.00000E+00
         0.00000E+00
         0.00000E+00
         0.00000E+00
         0.00000E+00
         0.00000E+00
         0.00000E+00
         0.00000E+00
         0.00000E+00
         0.00000E+00
         0.00000E+00
         0.00000E+00
         0.00000E+00
         0.00000E+00
         0.00000E+00
         0.00000E+00
         0.00000E+00
         0.00000E+00
         0.00000E+00
         0.00000E+00
         0.00000E+00
         0.00000E+00
         0.00000E+00
         0.00000E+00
         0.00000E+00
         0.00000E+00
         0.00000E+00
         0.00000E+00
         0.00000E+00
         0.00000E+00
         0.00000E+00
         0.00000E+00
         0.00000E+00
         0.00000E+00
         0.00000E+00
         0.00000E+00
         0.00000E+00
         0.00000E+00
         0.00000E+00
         0.00000E+00
         0.00000E+00
         0.00000E+00
         0.00000E+00
         0.00000E+00
         0.00000E+00
         0.00000E+00
         0.00000E+00
         0.00000E+00
         0.00000E+00
         0.00000E+00
         0.00000E+00
         0.00000E+00
         0.00000E+00
         0.00000E+00
         0.00000E+00
         0.00000E+00
         0.00000E+00
         0.00000E+00
         0.00000E+00
         0.00000E+00
         0.00000E+00
         0.00000E+00
         0.00000E+00
         0.00000E+00
         0.00000E+00
         0.00000E+00
         0.00000E+00
         0.00000E+00
         0.00000E+00
         0.00000E+00
         0.00000E+00
         0.00000E+00
         0.00000E+00
         0.00000E+00
         0.00000E+00
         0.00000E+00
         0.00000E+00
         0.00000E+00
         0.00000E+00
         0.00000E+00
         0.00000E+00
         0.00000E+00
         0.00000E+00
         0.00000E+00
         0.00000E+00
         0.00000E+00
         0.00000E+00
         0.00000E+00
         0.00000E+00
         0.00000E+00
         0.00000E+00
         0.00000E+00
         0.00000E+00
         0.00000E+00
         0.00000E+00
         0.00000E+00
         0.00000E+00
         0.00000E+00
         0.00000E+00
         0.00000E+00
         0.00000E+00
         0.00000E+00
         0.00000E+00
         0.00000E+00
         0.00000E+00
         0.00000E+00
         0.00000E+00
         0.00000E+00
         0.00000E+00
         0.00000E+00
         0.00000E+00
         0.00000E+00
         0.00000E+00
         0.00000E+00
         0.00000E+00
         0.00000E+00
         0.00000E+00
         0.00000E+00
         0.00000E+00
         0.00000E+00
         0.00000E+00
         0.00000E+00
         0.00000E+00
         0.00000E+00
         0.00000E+00
         0.00000E+00
         0.00000E+00
         0.00000E+00
         0.00000E+00
         0.00000E+00
         0.00000E+00
         0.00000E+00
         0.00000E+00
         0.00000E+00
         0.00000E+00
         0.00000E+00
         0.00000E+00
         0.00000E+00
         0.00000E+00
         0.00000E+00
         0.00000E+00
         0.00000E+00
         0.00000E+00
         0.00000E+00
         0.00000E+00
         0.00000E+00
         0.00000E+00
         0.00000E+00
         0.00000E+00
         0.00000E+00
         0.00000E+00
         0.00000E+00
         0.00000E+00
         0.00000E+00
         0.00000E+00
         0.00000E+00
         0.00000E+00
         0.00000E+00
         0.00000E+00
         0.00000E+00
         0.00000E+00
         0.00000E+00
         0.00000E+00
         0.00000E+00
         0.00000E+00
         0.00000E+00
         0.00000E+00
         0.00000E+00
         0.00000E+00
         0.00000E+00
         0.00000E+00
         0.00000E+00
         0.00000E+00
         0.00000E+00
         0.00000E+00
         0.00000E+00
         0.00000E+00
         0.00000E+00
         0.00000E+00
         0.00000E+00
         0.00000E+00
         0.00000E+00
         0.00000E+00
         0.00000E+00
         0.00000E+00
         0.00000E+00
         0.00000E+00
         0.00000E+00
         0.00000E+00
         0.00000E+00
         0.00000E+00
         0.00000E+00
         0.00000E+00
         0.00000E+00
         0.00000E+00
         0.00000E+00
         0.00000E+00
         0.00000E+00
         0.00000E+00
         0.00000E+00
         0.00000E+00
         0.00000E+00
         0.00000E+00
         0.00000E+00
         0.00000E+00
         0.00000E+00
         0.00000E+00
         0.00000E+00
         0.00000E+00
         0.00000E+00
         0.00000E+00
         0.00000E+00
         0.00000E+00
         0.00000E+00
         0.00000E+00
         0.00000E+00
         0.00000E+00
         0.00000E+00
         0.00000E+00
         0.00000E+00
         0.00000E+00
         0.00000E+00
         0.00000E+00
         0.00000E+00
         0.00000E+00
         0.00000E+00
         0.00000E+00
         0.00000E+00
         0.00000E+00
         0.00000E+00
         0.00000E+00
         0.00000E+00
         0.00000E+00
         0.00000E+00
         0.00000E+00
         0.00000E+00
         0.00000E+00
         0.00000E+00
         0.00000E+00
         0.00000E+00
         0.00000E+00
         0.00000E+00
         0.00000E+00
         0.00000E+00
         0.00000E+00
         0.00000E+00
         0.00000E+00
         0.00000E+00
         0.00000E+00
         0.00000E+00
         0.00000E+00
         0.00000E+00
         0.00000E+00
         0.00000E+00
         0.00000E+00
         0.00000E+00
         0.00000E+00
         0.00000E+00
         0.00000E+00
         0.00000E+00
         0.00000E+00
         0.00000E+00
         0.00000E+00
         0.00000E+00
         0.00000E+00
         0.00000E+00
         0.00000E+00
         0.00000E+00
         0.00000E+00
         0.00000E+00
         0.00000E+00
         0.00000E+00
         0.00000E+00
         0.00000E+00
         0.00000E+00
         0.00000E+00
         0.00000E+00
         0.00000E+00
         0.00000E+00
         0.00000E+00
         0.00000E+00
         0.00000E+00
         0.00000E+00
         0.00000E+00
         0.00000E+00
         0.00000E+00
         0.00000E+00
         0.00000E+00
         0.00000E+00
         0.00000E+00
         0.00000E+00
         0.00000E+00
         0.00000E+00
         0.00000E+00
         0.00000E+00
         0.00000E+00
         0.00000E+00
         0.00000E+00
         0.00000E+00
         0.00000E+00
         0.00000E+00
         0.00000E+00
         0.00000E+00
         0.00000E+00
         0.00000E+00
         0.00000E+00
         0.00000E+00
         0.00000E+00
         0.00000E+00
         0.00000E+00
         0.00000E+00
         0.00000E+00
         0.00000E+00
         0.00000E+00
         0.00000E+00
         0.00000E+00
         0.00000E+00
         0.00000E+00
         0.00000E+00
         0.00000E+00
         0.00000E+00
         0.00000E+00
         0.00000E+00
         0.00000E+00
         0.00000E+00
         0.00000E+00
         0.00000E+00
         0.00000E+00
         0.00000E+00
         0.00000E+00
         0.00000E+00
         0.00000E+00
         0.00000E+00
         0.00000E+00
         0.00000E+00
         0.00000E+00
         0.00000E+00
         0.00000E+00
         0.00000E+00
         0.00000E+00
         0.00000E+00
         0.00000E+00
         0.00000E+00
         0.00000E+00
         0.00000E+00
         0.00000E+00
         0.00000E+00
         0.00000E+00
         0.00000E+00
         0.00000E+00
         0.00000E+00
         0.00000E+00
         0.00000E+00
         0.00000E+00
         0.00000E+00
         0.00000E+00
         0.00000E+00
         0.00000E+00
         0.00000E+00
         0.00000E+00
         0.00000E+00
         0.00000E+00
         0.00000E+00
         0.00000E+00
         0.00000E+00
         0.00000E+00
         0.00000E+00
         0.00000E+00
         0.00000E+00
         0.00000E+00
         0.00000E+00
         0.00000E+00
         0.00000E+00
         0.00000E+00
         0.00000E+00
         0.00000E+00
         0.00000E+00
         0.00000E+00
         0.00000E+00
         0.00000E+00
         0.00000E+00
         0.00000E+00
         0.00000E+00
         0.00000E+00
         0.00000E+00
         0.00000E+00
         0.00000E+00
         0.00000E+00
         0.00000E+00
         0.00000E+00
         0.00000E+00
         0.00000E+00
         0.00000E+00
         0.00000E+00
         0.00000E+00
         0.00000E+00
         0.00000E+00
         0.00000E+00
         0.00000E+00
         0.00000E+00
         0.00000E+00
         0.00000E+00
         0.00000E+00
         0.00000E+00
         0.00000E+00
         0.00000E+00
         0.00000E+00
         0.00000E+00
         0.00000E+00
         0.00000E+00
         0.00000E+00
         0.00000E+00
         0.00000E+00
         0.00000E+00
         0.00000E+00
         0.00000E+00
         0.00000E+00
         0.00000E+00
         0.00000E+00
         0.00000E+00
         0.00000E+00
         0.00000E+00
         0.00000E+00
         0.00000E+00
         0.00000E+00
         0.00000E+00
         0.00000E+00
         0.00000E+00
         0.00000E+00
  
SCALARS                 acceleration_z  double 1
LOOKUP_TABLE default
         0.00000E+00
         0.00000E+00
         0.00000E+00
         0.00000E+00
         0.00000E+00
         0.00000E+00
         0.00000E+00
         0.00000E+00
         0.00000E+00
         0.00000E+00
         0.00000E+00
         0.00000E+00
         0.00000E+00
         0.00000E+00
         0.00000E+00
         0.00000E+00
         0.00000E+00
         0.00000E+00
         0.00000E+00
         0.00000E+00
         0.00000E+00
         0.00000E+00
         0.00000E+00
         0.00000E+00
         0.00000E+00
         0.00000E+00
         0.00000E+00
         0.00000E+00
         0.00000E+00
         0.00000E+00
         0.00000E+00
         0.00000E+00
         0.00000E+00
         0.00000E+00
         0.00000E+00
         0.00000E+00
         0.00000E+00
         0.00000E+00
         0.00000E+00
         0.00000E+00
         0.00000E+00
         0.00000E+00
         0.00000E+00
         0.00000E+00
         0.00000E+00
         0.00000E+00
         0.00000E+00
         0.00000E+00
         0.00000E+00
         0.00000E+00
         0.00000E+00
         0.00000E+00
         0.00000E+00
         0.00000E+00
         0.00000E+00
         0.00000E+00
         0.00000E+00
         0.00000E+00
         0.00000E+00
         0.00000E+00
         0.00000E+00
         0.00000E+00
         0.00000E+00
         0.00000E+00
         0.00000E+00
         0.00000E+00
         0.00000E+00
         0.00000E+00
         0.00000E+00
         0.00000E+00
         0.00000E+00
         0.00000E+00
         0.00000E+00
         0.00000E+00
         0.00000E+00
         0.00000E+00
         0.00000E+00
         0.00000E+00
         0.00000E+00
         0.00000E+00
         0.00000E+00
         0.00000E+00
         0.00000E+00
         0.00000E+00
         0.00000E+00
         0.00000E+00
         0.00000E+00
         0.00000E+00
         0.00000E+00
         0.00000E+00
         0.00000E+00
         0.00000E+00
         0.00000E+00
         0.00000E+00
         0.00000E+00
         0.00000E+00
         0.00000E+00
         0.00000E+00
         0.00000E+00
         0.00000E+00
         0.00000E+00
         0.00000E+00
         0.00000E+00
         0.00000E+00
         0.00000E+00
         0.00000E+00
         0.00000E+00
         0.00000E+00
         0.00000E+00
         0.00000E+00
         0.00000E+00
         0.00000E+00
         0.00000E+00
         0.00000E+00
         0.00000E+00
         0.00000E+00
         0.00000E+00
         0.00000E+00
         0.00000E+00
         0.00000E+00
         0.00000E+00
         0.00000E+00
         0.00000E+00
         0.00000E+00
         0.00000E+00
         0.00000E+00
         0.00000E+00
         0.00000E+00
         0.00000E+00
         0.00000E+00
         0.00000E+00
         0.00000E+00
         0.00000E+00
         0.00000E+00
         0.00000E+00
         0.00000E+00
         0.00000E+00
         0.00000E+00
         0.00000E+00
         0.00000E+00
         0.00000E+00
         0.00000E+00
         0.00000E+00
         0.00000E+00
         0.00000E+00
         0.00000E+00
         0.00000E+00
         0.00000E+00
         0.00000E+00
         0.00000E+00
         0.00000E+00
         0.00000E+00
         0.00000E+00
         0.00000E+00
         0.00000E+00
         0.00000E+00
         0.00000E+00
         0.00000E+00
         0.00000E+00
         0.00000E+00
         0.00000E+00
         0.00000E+00
         0.00000E+00
         0.00000E+00
         0.00000E+00
         0.00000E+00
         0.00000E+00
         0.00000E+00
         0.00000E+00
         0.00000E+00
         0.00000E+00
         0.00000E+00
         0.00000E+00
         0.00000E+00
         0.00000E+00
         0.00000E+00
         0.00000E+00
         0.00000E+00
         0.00000E+00
         0.00000E+00
         0.00000E+00
         0.00000E+00
         0.00000E+00
         0.00000E+00
         0.00000E+00
         0.00000E+00
         0.00000E+00
         0.00000E+00
         0.00000E+00
         0.00000E+00
         0.00000E+00
         0.00000E+00
         0.00000E+00
         0.00000E+00
         0.00000E+00
         0.00000E+00
         0.00000E+00
         0.00000E+00
         0.00000E+00
         0.00000E+00
         0.00000E+00
         0.00000E+00
         0.00000E+00
         0.00000E+00
         0.00000E+00
         0.00000E+00
         0.00000E+00
         0.00000E+00
         0.00000E+00
         0.00000E+00
         0.00000E+00
         0.00000E+00
         0.00000E+00
         0.00000E+00
         0.00000E+00
         0.00000E+00
         0.00000E+00
         0.00000E+00
         0.00000E+00
         0.00000E+00
         0.00000E+00
         0.00000E+00
         0.00000E+00
         0.00000E+00
         0.00000E+00
         0.00000E+00
         0.00000E+00
         0.00000E+00
         0.00000E+00
         0.00000E+00
         0.00000E+00
         0.00000E+00
         0.00000E+00
         0.00000E+00
         0.00000E+00
         0.00000E+00
         0.00000E+00
         0.00000E+00
         0.00000E+00
         0.00000E+00
         0.00000E+00
         0.00000E+00
         0.00000E+00
         0.00000E+00
         0.00000E+00
         0.00000E+00
         0.00000E+00
         0.00000E+00
         0.00000E+00
         0.00000E+00
         0.00000E+00
         0.00000E+00
         0.00000E+00
         0.00000E+00
         0.00000E+00
         0.00000E+00
         0.00000E+00
         0.00000E+00
         0.00000E+00
         0.00000E+00
         0.00000E+00
         0.00000E+00
         0.00000E+00
         0.00000E+00
         0.00000E+00
         0.00000E+00
         0.00000E+00
         0.00000E+00
         0.00000E+00
         0.00000E+00
         0.00000E+00
         0.00000E+00
         0.00000E+00
         0.00000E+00
         0.00000E+00
         0.00000E+00
         0.00000E+00
         0.00000E+00
         0.00000E+00
         0.00000E+00
         0.00000E+00
         0.00000E+00
         0.00000E+00
         0.00000E+00
         0.00000E+00
         0.00000E+00
         0.00000E+00
         0.00000E+00
         0.00000E+00
         0.00000E+00
         0.00000E+00
         0.00000E+00
         0.00000E+00
         0.00000E+00
         0.00000E+00
         0.00000E+00
         0.00000E+00
         0.00000E+00
         0.00000E+00
         0.00000E+00
         0.00000E+00
         0.00000E+00
         0.00000E+00
         0.00000E+00
         0.00000E+00
         0.00000E+00
         0.00000E+00
         0.00000E+00
         0.00000E+00
         0.00000E+00
         0.00000E+00
         0.00000E+00
         0.00000E+00
         0.00000E+00
         0.00000E+00
         0.00000E+00
         0.00000E+00
         0.00000E+00
         0.00000E+00
         0.00000E+00
         0.00000E+00
         0.00000E+00
         0.00000E+00
         0.00000E+00
         0.00000E+00
         0.00000E+00
         0.00000E+00
         0.00000E+00
         0.00000E+00
         0.00000E+00
         0.00000E+00
         0.00000E+00
         0.00000E+00
         0.00000E+00
         0.00000E+00
         0.00000E+00
         0.00000E+00
         0.00000E+00
         0.00000E+00
         0.00000E+00
         0.00000E+00
         0.00000E+00
         0.00000E+00
         0.00000E+00
         0.00000E+00
         0.00000E+00
         0.00000E+00
         0.00000E+00
         0.00000E+00
         0.00000E+00
         0.00000E+00
         0.00000E+00
         0.00000E+00
         0.00000E+00
         0.00000E+00
         0.00000E+00
         0.00000E+00
         0.00000E+00
         0.00000E+00
         0.00000E+00
         0.00000E+00
         0.00000E+00
         0.00000E+00
         0.00000E+00
         0.00000E+00
         0.00000E+00
         0.00000E+00
         0.00000E+00
         0.00000E+00
         0.00000E+00
         0.00000E+00
         0.00000E+00
         0.00000E+00
         0.00000E+00
         0.00000E+00
         0.00000E+00
         0.00000E+00
         0.00000E+00
         0.00000E+00
         0.00000E+00
         0.00000E+00
         0.00000E+00
         0.00000E+00
         0.00000E+00
         0.00000E+00
         0.00000E+00
         0.00000E+00
         0.00000E+00
         0.00000E+00
         0.00000E+00
         0.00000E+00
         0.00000E+00
         0.00000E+00
         0.00000E+00
         0.00000E+00
         0.00000E+00
         0.00000E+00
         0.00000E+00
         0.00000E+00
         0.00000E+00
         0.00000E+00
         0.00000E+00
         0.00000E+00
         0.00000E+00
         0.00000E+00
         0.00000E+00
         0.00000E+00
         0.00000E+00
         0.00000E+00
         0.00000E+00
         0.00000E+00
         0.00000E+00
         0.00000E+00
         0.00000E+00
         0.00000E+00
         0.00000E+00
         0.00000E+00
         0.00000E+00
         0.00000E+00
         0.00000E+00
         0.00000E+00
         0.00000E+00
         0.00000E+00
         0.00000E+00
         0.00000E+00
         0.00000E+00
         0.00000E+00
         0.00000E+00
         0.00000E+00
         0.00000E+00
         0.00000E+00
         0.00000E+00
         0.00000E+00
         0.00000E+00
         0.00000E+00
         0.00000E+00
         0.00000E+00
         0.00000E+00
         0.00000E+00
         0.00000E+00
         0.00000E+00
         0.00000E+00
         0.00000E+00
         0.00000E+00
         0.00000E+00
         0.00000E+00
         0.00000E+00
         0.00000E+00
         0.00000E+00
         0.00000E+00
         0.00000E+00
         0.00000E+00
         0.00000E+00
         0.00000E+00
         0.00000E+00
         0.00000E+00
         0.00000E+00
         0.00000E+00
         0.00000E+00
         0.00000E+00
         0.00000E+00
         0.00000E+00
         0.00000E+00
         0.00000E+00
         0.00000E+00
         0.00000E+00
         0.00000E+00
         0.00000E+00
         0.00000E+00
         0.00000E+00
         0.00000E+00
         0.00000E+00
         0.00000E+00
         0.00000E+00
         0.00000E+00
         0.00000E+00
         0.00000E+00
         0.00000E+00
         0.00000E+00
         0.00000E+00
         0.00000E+00
         0.00000E+00
         0.00000E+00
         0.00000E+00
         0.00000E+00
         0.00000E+00
         0.00000E+00
         0.00000E+00
         0.00000E+00
         0.00000E+00
         0.00000E+00
         0.00000E+00
         0.00000E+00
         0.00000E+00
         0.00000E+00
         0.00000E+00
         0.00000E+00
         0.00000E+00
         0.00000E+00
         0.00000E+00
         0.00000E+00
         0.00000E+00
         0.00000E+00
         0.00000E+00
         0.00000E+00
         0.00000E+00
         0.00000E+00
         0.00000E+00
         0.00000E+00
         0.00000E+00
         0.00000E+00
         0.00000E+00
         0.00000E+00
         0.00000E+00
         0.00000E+00
         0.00000E+00
         0.00000E+00
         0.00000E+00
         0.00000E+00
         0.00000E+00
         0.00000E+00
         0.00000E+00
         0.00000E+00
         0.00000E+00
         0.00000E+00
         0.00000E+00
         0.00000E+00
         0.00000E+00
         0.00000E+00
         0.00000E+00
         0.00000E+00
         0.00000E+00
         0.00000E+00
         0.00000E+00
         0.00000E+00
         0.00000E+00
         0.00000E+00
         0.00000E+00
         0.00000E+00
         0.00000E+00
         0.00000E+00
         0.00000E+00
         0.00000E+00
         0.00000E+00
         0.00000E+00
         0.00000E+00
         0.00000E+00
         0.00000E+00
         0.00000E+00
         0.00000E+00
         0.00000E+00
         0.00000E+00
         0.00000E+00
         0.00000E+00
         0.00000E+00
         0.00000E+00
         0.00000E+00
         0.00000E+00
         0.00000E+00
         0.00000E+00
         0.00000E+00
         0.00000E+00
         0.00000E+00
         0.00000E+00
         0.00000E+00
         0.00000E+00
         0.00000E+00
         0.00000E+00
         0.00000E+00
         0.00000E+00
         0.00000E+00
         0.00000E+00
         0.00000E+00
         0.00000E+00
         0.00000E+00
         0.00000E+00
         0.00000E+00
         0.00000E+00
         0.00000E+00
         0.00000E+00
         0.00000E+00
         0.00000E+00
         0.00000E+00
         0.00000E+00
         0.00000E+00
         0.00000E+00
         0.00000E+00
         0.00000E+00
         0.00000E+00
         0.00000E+00
         0.00000E+00
         0.00000E+00
         0.00000E+00
         0.00000E+00
         0.00000E+00
         0.00000E+00
         0.00000E+00
         0.00000E+00
         0.00000E+00
         0.00000E+00
         0.00000E+00
         0.00000E+00
         0.00000E+00
         0.00000E+00
         0.00000E+00
         0.00000E+00
         0.00000E+00
         0.00000E+00
         0.00000E+00
         0.00000E+00
         0.00000E+00
         0.00000E+00
         0.00000E+00
         0.00000E+00
         0.00000E+00
         0.00000E+00
         0.00000E+00
         0.00000E+00
         0.00000E+00
         0.00000E+00
         0.00000E+00
         0.00000E+00
         0.00000E+00
         0.00000E+00
         0.00000E+00
         0.00000E+00
         0.00000E+00
         0.00000E+00
         0.00000E+00
         0.00000E+00
         0.00000E+00
         0.00000E+00
         0.00000E+00
         0.00000E+00
         0.00000E+00
         0.00000E+00
         0.00000E+00
         0.00000E+00
         0.00000E+00
         0.00000E+00
         0.00000E+00
         0.00000E+00
         0.00000E+00
         0.00000E+00
         0.00000E+00
         0.00000E+00
         0.00000E+00
         0.00000E+00
         0.00000E+00
         0.00000E+00
         0.00000E+00
         0.00000E+00
         0.00000E+00
         0.00000E+00
         0.00000E+00
         0.00000E+00
         0.00000E+00
         0.00000E+00
         0.00000E+00
         0.00000E+00
         0.00000E+00
         0.00000E+00
         0.00000E+00
         0.00000E+00
         0.00000E+00
         0.00000E+00
         0.00000E+00
         0.00000E+00
         0.00000E+00
         0.00000E+00
         0.00000E+00
         0.00000E+00
         0.00000E+00
         0.00000E+00
         0.00000E+00
         0.00000E+00
         0.00000E+00
         0.00000E+00
         0.00000E+00
         0.00000E+00
         0.00000E+00
         0.00000E+00
         0.00000E+00
         0.00000E+00
         0.00000E+00
         0.00000E+00
         0.00000E+00
         0.00000E+00
         0.00000E+00
         0.00000E+00
         0.00000E+00
         0.00000E+00
         0.00000E+00
         0.00000E+00
         0.00000E+00
         0.00000E+00
         0.00000E+00
         0.00000E+00
         0.00000E+00
         0.00000E+00
         0.00000E+00
         0.00000E+00
         0.00000E+00
         0.00000E+00
         0.00000E+00
         0.00000E+00
         0.00000E+00
         0.00000E+00
         0.00000E+00
         0.00000E+00
         0.00000E+00
         0.00000E+00
         0.00000E+00
         0.00000E+00
         0.00000E+00
         0.00000E+00
         0.00000E+00
         0.00000E+00
         0.00000E+00
         0.00000E+00
         0.00000E+00
         0.00000E+00
         0.00000E+00
         0.00000E+00
         0.00000E+00
         0.00000E+00
         0.00000E+00
         0.00000E+00
         0.00000E+00
         0.00000E+00
         0.00000E+00
         0.00000E+00
         0.00000E+00
         0.00000E+00
         0.00000E+00
         0.00000E+00
         0.00000E+00
         0.00000E+00
         0.00000E+00
         0.00000E+00
         0.00000E+00
         0.00000E+00
         0.00000E+00
         0.00000E+00
         0.00000E+00
         0.00000E+00
         0.00000E+00
         0.00000E+00
         0.00000E+00
         0.00000E+00
         0.00000E+00
         0.00000E+00
         0.00000E+00
         0.00000E+00
         0.00000E+00
         0.00000E+00
         0.00000E+00
         0.00000E+00
         0.00000E+00
         0.00000E+00
         0.00000E+00
         0.00000E+00
         0.00000E+00
         0.00000E+00
         0.00000E+00
         0.00000E+00
         0.00000E+00
         0.00000E+00
         0.00000E+00
         0.00000E+00
         0.00000E+00
         0.00000E+00
         0.00000E+00
         0.00000E+00
         0.00000E+00
         0.00000E+00
         0.00000E+00
         0.00000E+00
         0.00000E+00
         0.00000E+00
         0.00000E+00
         0.00000E+00
         0.00000E+00
         0.00000E+00
         0.00000E+00
         0.00000E+00
         0.00000E+00
         0.00000E+00
         0.00000E+00
         0.00000E+00
         0.00000E+00
         0.00000E+00
         0.00000E+00
         0.00000E+00
         0.00000E+00
         0.00000E+00
         0.00000E+00
         0.00000E+00
         0.00000E+00
         0.00000E+00
         0.00000E+00
         0.00000E+00
         0.00000E+00
         0.00000E+00
         0.00000E+00
         0.00000E+00
         0.00000E+00
         0.00000E+00
         0.00000E+00
         0.00000E+00
         0.00000E+00
         0.00000E+00
         0.00000E+00
         0.00000E+00
         0.00000E+00
         0.00000E+00
         0.00000E+00
         0.00000E+00
         0.00000E+00
         0.00000E+00
         0.00000E+00
         0.00000E+00
         0.00000E+00
         0.00000E+00
         0.00000E+00
         0.00000E+00
         0.00000E+00
         0.00000E+00
         0.00000E+00
         0.00000E+00
         0.00000E+00
         0.00000E+00
         0.00000E+00
         0.00000E+00
         0.00000E+00
         0.00000E+00
         0.00000E+00
         0.00000E+00
         0.00000E+00
         0.00000E+00
         0.00000E+00
         0.00000E+00
         0.00000E+00
         0.00000E+00
         0.00000E+00
         0.00000E+00
         0.00000E+00
         0.00000E+00
         0.00000E+00
         0.00000E+00
         0.00000E+00
         0.00000E+00
         0.00000E+00
         0.00000E+00
         0.00000E+00
         0.00000E+00
         0.00000E+00
         0.00000E+00
         0.00000E+00
         0.00000E+00
         0.00000E+00
         0.00000E+00
         0.00000E+00
         0.00000E+00
         0.00000E+00
         0.00000E+00
         0.00000E+00
         0.00000E+00
         0.00000E+00
         0.00000E+00
         0.00000E+00
         0.00000E+00
         0.00000E+00
         0.00000E+00
         0.00000E+00
         0.00000E+00
         0.00000E+00
         0.00000E+00
         0.00000E+00
         0.00000E+00
         0.00000E+00
         0.00000E+00
         0.00000E+00
         0.00000E+00
         0.00000E+00
         0.00000E+00
         0.00000E+00
         0.00000E+00
         0.00000E+00
         0.00000E+00
         0.00000E+00
         0.00000E+00
         0.00000E+00
         0.00000E+00
         0.00000E+00
         0.00000E+00
         0.00000E+00
         0.00000E+00
         0.00000E+00
         0.00000E+00
         0.00000E+00
         0.00000E+00
         0.00000E+00
         0.00000E+00
         0.00000E+00
         0.00000E+00
         0.00000E+00
         0.00000E+00
         0.00000E+00
         0.00000E+00
         0.00000E+00
         0.00000E+00
         0.00000E+00
         0.00000E+00
         0.00000E+00
         0.00000E+00
         0.00000E+00
         0.00000E+00
         0.00000E+00
         0.00000E+00
         0.00000E+00
         0.00000E+00
         0.00000E+00
         0.00000E+00
         0.00000E+00
         0.00000E+00
         0.00000E+00
         0.00000E+00
         0.00000E+00
         0.00000E+00
         0.00000E+00
         0.00000E+00
         0.00000E+00
         0.00000E+00
         0.00000E+00
         0.00000E+00
         0.00000E+00
         0.00000E+00
         0.00000E+00
         0.00000E+00
         0.00000E+00
         0.00000E+00
         0.00000E+00
         0.00000E+00
         0.00000E+00
         0.00000E+00
         0.00000E+00
         0.00000E+00
         0.00000E+00
         0.00000E+00
         0.00000E+00
         0.00000E+00
         0.00000E+00
         0.00000E+00
         0.00000E+00
         0.00000E+00
         0.00000E+00
         0.00000E+00
         0.00000E+00
         0.00000E+00
         0.00000E+00
         0.00000E+00
         0.00000E+00
         0.00000E+00
         0.00000E+00
         0.00000E+00
         0.00000E+00
         0.00000E+00
         0.00000E+00
         0.00000E+00
         0.00000E+00
         0.00000E+00
         0.00000E+00
         0.00000E+00
         0.00000E+00
         0.00000E+00
         0.00000E+00
         0.00000E+00
         0.00000E+00
         0.00000E+00
         0.00000E+00
         0.00000E+00
         0.00000E+00
         0.00000E+00
         0.00000E+00
         0.00000E+00
         0.00000E+00
         0.00000E+00
         0.00000E+00
         0.00000E+00
         0.00000E+00
         0.00000E+00
         0.00000E+00
         0.00000E+00
         0.00000E+00
         0.00000E+00
         0.00000E+00
         0.00000E+00
         0.00000E+00
         0.00000E+00
         0.00000E+00
         0.00000E+00
         0.00000E+00
         0.00000E+00
         0.00000E+00
         0.00000E+00
         0.00000E+00
         0.00000E+00
         0.00000E+00
         0.00000E+00
         0.00000E+00
         0.00000E+00
         0.00000E+00
         0.00000E+00
         0.00000E+00
         0.00000E+00
         0.00000E+00
         0.00000E+00
         0.00000E+00
         0.00000E+00
         0.00000E+00
         0.00000E+00
         0.00000E+00
         0.00000E+00
         0.00000E+00
         0.00000E+00
         0.00000E+00
         0.00000E+00
         0.00000E+00
         0.00000E+00
         0.00000E+00
         0.00000E+00
         0.00000E+00
         0.00000E+00
         0.00000E+00
         0.00000E+00
         0.00000E+00
         0.00000E+00
         0.00000E+00
         0.00000E+00
         0.00000E+00
         0.00000E+00
         0.00000E+00
         0.00000E+00
         0.00000E+00
         0.00000E+00
         0.00000E+00
         0.00000E+00
         0.00000E+00
         0.00000E+00
         0.00000E+00
         0.00000E+00
         0.00000E+00
         0.00000E+00
         0.00000E+00
         0.00000E+00
         0.00000E+00
         0.00000E+00
         0.00000E+00
         0.00000E+00
         0.00000E+00
         0.00000E+00
         0.00000E+00
         0.00000E+00
         0.00000E+00
         0.00000E+00
         0.00000E+00
         0.00000E+00
         0.00000E+00
         0.00000E+00
         0.00000E+00
         0.00000E+00
         0.00000E+00
         0.00000E+00
         0.00000E+00
         0.00000E+00
         0.00000E+00
         0.00000E+00
         0.00000E+00
         0.00000E+00
         0.00000E+00
         0.00000E+00
         0.00000E+00
         0.00000E+00
         0.00000E+00
         0.00000E+00
         0.00000E+00
         0.00000E+00
         0.00000E+00
         0.00000E+00
         0.00000E+00
         0.00000E+00
         0.00000E+00
         0.00000E+00
         0.00000E+00
         0.00000E+00
         0.00000E+00
         0.00000E+00
         0.00000E+00
         0.00000E+00
         0.00000E+00
         0.00000E+00
         0.00000E+00
         0.00000E+00
         0.00000E+00
         0.00000E+00
         0.00000E+00
         0.00000E+00
         0.00000E+00
         0.00000E+00
         0.00000E+00
         0.00000E+00
         0.00000E+00
         0.00000E+00
         0.00000E+00
         0.00000E+00
         0.00000E+00
         0.00000E+00
         0.00000E+00
         0.00000E+00
         0.00000E+00
         0.00000E+00
         0.00000E+00
         0.00000E+00
         0.00000E+00
         0.00000E+00
         0.00000E+00
         0.00000E+00
         0.00000E+00
         0.00000E+00
         0.00000E+00
         0.00000E+00
         0.00000E+00
         0.00000E+00
         0.00000E+00
         0.00000E+00
         0.00000E+00
         0.00000E+00
         0.00000E+00
         0.00000E+00
         0.00000E+00
         0.00000E+00
         0.00000E+00
         0.00000E+00
         0.00000E+00
         0.00000E+00
         0.00000E+00
         0.00000E+00
         0.00000E+00
         0.00000E+00
         0.00000E+00
         0.00000E+00
         0.00000E+00
         0.00000E+00
         0.00000E+00
         0.00000E+00
         0.00000E+00
         0.00000E+00
         0.00000E+00
         0.00000E+00
         0.00000E+00
         0.00000E+00
         0.00000E+00
         0.00000E+00
         0.00000E+00
         0.00000E+00
         0.00000E+00
         0.00000E+00
         0.00000E+00
         0.00000E+00
         0.00000E+00
         0.00000E+00
         0.00000E+00
         0.00000E+00
         0.00000E+00
         0.00000E+00
         0.00000E+00
         0.00000E+00
         0.00000E+00
         0.00000E+00
         0.00000E+00
         0.00000E+00
         0.00000E+00
         0.00000E+00
         0.00000E+00
         0.00000E+00
         0.00000E+00
         0.00000E+00
         0.00000E+00
         0.00000E+00
         0.00000E+00
         0.00000E+00
         0.00000E+00
         0.00000E+00
         0.00000E+00
         0.00000E+00
         0.00000E+00
         0.00000E+00
         0.00000E+00
         0.00000E+00
         0.00000E+00
         0.00000E+00
         0.00000E+00
         0.00000E+00
         0.00000E+00
         0.00000E+00
         0.00000E+00
         0.00000E+00
         0.00000E+00
         0.00000E+00
         0.00000E+00
         0.00000E+00
         0.00000E+00
         0.00000E+00
         0.00000E+00
         0.00000E+00
         0.00000E+00
         0.00000E+00
         0.00000E+00
         0.00000E+00
         0.00000E+00
         0.00000E+00
         0.00000E+00
         0.00000E+00
         0.00000E+00
         0.00000E+00
         0.00000E+00
         0.00000E+00
         0.00000E+00
         0.00000E+00
         0.00000E+00
         0.00000E+00
         0.00000E+00
         0.00000E+00
         0.00000E+00
         0.00000E+00
         0.00000E+00
         0.00000E+00
         0.00000E+00
         0.00000E+00
         0.00000E+00
         0.00000E+00
         0.00000E+00
         0.00000E+00
         0.00000E+00
         0.00000E+00
         0.00000E+00
         0.00000E+00
         0.00000E+00
         0.00000E+00
         0.00000E+00
         0.00000E+00
         0.00000E+00
         0.00000E+00
         0.00000E+00
         0.00000E+00
         0.00000E+00
         0.00000E+00
         0.00000E+00
         0.00000E+00
         0.00000E+00
         0.00000E+00
         0.00000E+00
         0.00000E+00
         0.00000E+00
         0.00000E+00
         0.00000E+00
         0.00000E+00
         0.00000E+00
         0.00000E+00
         0.00000E+00
         0.00000E+00
         0.00000E+00
         0.00000E+00
         0.00000E+00
         0.00000E+00
         0.00000E+00
         0.00000E+00
         0.00000E+00
         0.00000E+00
         0.00000E+00
         0.00000E+00
         0.00000E+00
         0.00000E+00
         0.00000E+00
         0.00000E+00
         0.00000E+00
         0.00000E+00
         0.00000E+00
         0.00000E+00
         0.00000E+00
         0.00000E+00
         0.00000E+00
         0.00000E+00
         0.00000E+00
         0.00000E+00
         0.00000E+00
         0.00000E+00
         0.00000E+00
         0.00000E+00
         0.00000E+00
         0.00000E+00
         0.00000E+00
         0.00000E+00
         0.00000E+00
         0.00000E+00
         0.00000E+00
         0.00000E+00
         0.00000E+00
         0.00000E+00
         0.00000E+00
         0.00000E+00
         0.00000E+00
         0.00000E+00
         0.00000E+00
         0.00000E+00
         0.00000E+00
         0.00000E+00
         0.00000E+00
         0.00000E+00
         0.00000E+00
         0.00000E+00
         0.00000E+00
         0.00000E+00
         0.00000E+00
         0.00000E+00
         0.00000E+00
         0.00000E+00
         0.00000E+00
         0.00000E+00
         0.00000E+00
         0.00000E+00
         0.00000E+00
         0.00000E+00
         0.00000E+00
         0.00000E+00
         0.00000E+00
         0.00000E+00
         0.00000E+00
         0.00000E+00
         0.00000E+00
         0.00000E+00
         0.00000E+00
         0.00000E+00
         0.00000E+00
         0.00000E+00
         0.00000E+00
         0.00000E+00
         0.00000E+00
         0.00000E+00
         0.00000E+00
         0.00000E+00
         0.00000E+00
         0.00000E+00
         0.00000E+00
         0.00000E+00
         0.00000E+00
         0.00000E+00
         0.00000E+00
         0.00000E+00
         0.00000E+00
         0.00000E+00
         0.00000E+00
         0.00000E+00
         0.00000E+00
         0.00000E+00
         0.00000E+00
         0.00000E+00
         0.00000E+00
         0.00000E+00
         0.00000E+00
         0.00000E+00
         0.00000E+00
         0.00000E+00
         0.00000E+00
         0.00000E+00
         0.00000E+00
         0.00000E+00
         0.00000E+00
         0.00000E+00
         0.00000E+00
         0.00000E+00
         0.00000E+00
         0.00000E+00
         0.00000E+00
         0.00000E+00
         0.00000E+00
         0.00000E+00
         0.00000E+00
         0.00000E+00
         0.00000E+00
         0.00000E+00
         0.00000E+00
         0.00000E+00
         0.00000E+00
         0.00000E+00
         0.00000E+00
         0.00000E+00
         0.00000E+00
         0.00000E+00
         0.00000E+00
         0.00000E+00
         0.00000E+00
         0.00000E+00
         0.00000E+00
         0.00000E+00
         0.00000E+00
         0.00000E+00
         0.00000E+00
         0.00000E+00
         0.00000E+00
         0.00000E+00
         0.00000E+00
         0.00000E+00
         0.00000E+00
         0.00000E+00
         0.00000E+00
         0.00000E+00
         0.00000E+00
         0.00000E+00
         0.00000E+00
         0.00000E+00
         0.00000E+00
         0.00000E+00
         0.00000E+00
         0.00000E+00
         0.00000E+00
         0.00000E+00
         0.00000E+00
         0.00000E+00
         0.00000E+00
         0.00000E+00
         0.00000E+00
         0.00000E+00
         0.00000E+00
         0.00000E+00
         0.00000E+00
         0.00000E+00
         0.00000E+00
         0.00000E+00
         0.00000E+00
         0.00000E+00
         0.00000E+00
         0.00000E+00
         0.00000E+00
         0.00000E+00
         0.00000E+00
         0.00000E+00
         0.00000E+00
         0.00000E+00
         0.00000E+00
         0.00000E+00
         0.00000E+00
         0.00000E+00
         0.00000E+00
         0.00000E+00
         0.00000E+00
         0.00000E+00
         0.00000E+00
         0.00000E+00
         0.00000E+00
         0.00000E+00
         0.00000E+00
         0.00000E+00
         0.00000E+00
         0.00000E+00
         0.00000E+00
         0.00000E+00
         0.00000E+00
         0.00000E+00
         0.00000E+00
         0.00000E+00
         0.00000E+00
         0.00000E+00
         0.00000E+00
         0.00000E+00
         0.00000E+00
         0.00000E+00
         0.00000E+00
         0.00000E+00
         0.00000E+00
         0.00000E+00
         0.00000E+00
         0.00000E+00
         0.00000E+00
         0.00000E+00
         0.00000E+00
         0.00000E+00
         0.00000E+00
         0.00000E+00
         0.00000E+00
         0.00000E+00
         0.00000E+00
         0.00000E+00
         0.00000E+00
         0.00000E+00
         0.00000E+00
         0.00000E+00
         0.00000E+00
         0.00000E+00
         0.00000E+00
         0.00000E+00
         0.00000E+00
         0.00000E+00
         0.00000E+00
         0.00000E+00
         0.00000E+00
         0.00000E+00
         0.00000E+00
         0.00000E+00
         0.00000E+00
         0.00000E+00
         0.00000E+00
         0.00000E+00
         0.00000E+00
         0.00000E+00
         0.00000E+00
         0.00000E+00
         0.00000E+00
         0.00000E+00
         0.00000E+00
         0.00000E+00
         0.00000E+00
         0.00000E+00
         0.00000E+00
         0.00000E+00
         0.00000E+00
         0.00000E+00
         0.00000E+00
         0.00000E+00
         0.00000E+00
         0.00000E+00
         0.00000E+00
         0.00000E+00
         0.00000E+00
         0.00000E+00
         0.00000E+00
         0.00000E+00
         0.00000E+00
         0.00000E+00
         0.00000E+00
         0.00000E+00
         0.00000E+00
         0.00000E+00
         0.00000E+00
         0.00000E+00
         0.00000E+00
         0.00000E+00
         0.00000E+00
         0.00000E+00
         0.00000E+00
         0.00000E+00
         0.00000E+00
         0.00000E+00
         0.00000E+00
         0.00000E+00
         0.00000E+00
         0.00000E+00
         0.00000E+00
         0.00000E+00
         0.00000E+00
         0.00000E+00
         0.00000E+00
         0.00000E+00
         0.00000E+00
         0.00000E+00
         0.00000E+00
         0.00000E+00
         0.00000E+00
         0.00000E+00
         0.00000E+00
         0.00000E+00
         0.00000E+00
         0.00000E+00
         0.00000E+00
         0.00000E+00
         0.00000E+00
         0.00000E+00
         0.00000E+00
         0.00000E+00
         0.00000E+00
         0.00000E+00
         0.00000E+00
         0.00000E+00
         0.00000E+00
         0.00000E+00
         0.00000E+00
         0.00000E+00
         0.00000E+00
         0.00000E+00
         0.00000E+00
         0.00000E+00
         0.00000E+00
         0.00000E+00
         0.00000E+00
         0.00000E+00
         0.00000E+00
         0.00000E+00
         0.00000E+00
         0.00000E+00
         0.00000E+00
         0.00000E+00
         0.00000E+00
         0.00000E+00
         0.00000E+00
         0.00000E+00
         0.00000E+00
         0.00000E+00
         0.00000E+00
         0.00000E+00
         0.00000E+00
         0.00000E+00
         0.00000E+00
         0.00000E+00
         0.00000E+00
         0.00000E+00
         0.00000E+00
         0.00000E+00
         0.00000E+00
         0.00000E+00
         0.00000E+00
         0.00000E+00
         0.00000E+00
         0.00000E+00
         0.00000E+00
         0.00000E+00
         0.00000E+00
         0.00000E+00
         0.00000E+00
         0.00000E+00
         0.00000E+00
         0.00000E+00
         0.00000E+00
         0.00000E+00
         0.00000E+00
         0.00000E+00
         0.00000E+00
         0.00000E+00
         0.00000E+00
         0.00000E+00
         0.00000E+00
         0.00000E+00
         0.00000E+00
         0.00000E+00
         0.00000E+00
         0.00000E+00
         0.00000E+00
         0.00000E+00
         0.00000E+00
         0.00000E+00
         0.00000E+00
         0.00000E+00
         0.00000E+00
         0.00000E+00
         0.00000E+00
         0.00000E+00
         0.00000E+00
         0.00000E+00
         0.00000E+00
         0.00000E+00
         0.00000E+00
         0.00000E+00
         0.00000E+00
         0.00000E+00
         0.00000E+00
         0.00000E+00
         0.00000E+00
         0.00000E+00
         0.00000E+00
         0.00000E+00
         0.00000E+00
         0.00000E+00
         0.00000E+00
         0.00000E+00
         0.00000E+00
         0.00000E+00
         0.00000E+00
         0.00000E+00
         0.00000E+00
         0.00000E+00
         0.00000E+00
         0.00000E+00
         0.00000E+00
         0.00000E+00
         0.00000E+00
         0.00000E+00
         0.00000E+00
         0.00000E+00
         0.00000E+00
         0.00000E+00
         0.00000E+00
         0.00000E+00
         0.00000E+00
         0.00000E+00
         0.00000E+00
         0.00000E+00
         0.00000E+00
         0.00000E+00
         0.00000E+00
         0.00000E+00
         0.00000E+00
         0.00000E+00
         0.00000E+00
         0.00000E+00
         0.00000E+00
         0.00000E+00
         0.00000E+00
         0.00000E+00
         0.00000E+00
         0.00000E+00
         0.00000E+00
         0.00000E+00
         0.00000E+00
         0.00000E+00
         0.00000E+00
         0.00000E+00
         0.00000E+00
         0.00000E+00
         0.00000E+00
         0.00000E+00
         0.00000E+00
         0.00000E+00
         0.00000E+00
         0.00000E+00
         0.00000E+00
         0.00000E+00
         0.00000E+00
         0.00000E+00
         0.00000E+00
         0.00000E+00
         0.00000E+00
         0.00000E+00
         0.00000E+00
         0.00000E+00
         0.00000E+00
         0.00000E+00
         0.00000E+00
         0.00000E+00
         0.00000E+00
         0.00000E+00
         0.00000E+00
         0.00000E+00
         0.00000E+00
         0.00000E+00
         0.00000E+00
         0.00000E+00
         0.00000E+00
         0.00000E+00
         0.00000E+00
         0.00000E+00
         0.00000E+00
         0.00000E+00
         0.00000E+00
         0.00000E+00
         0.00000E+00
         0.00000E+00
         0.00000E+00
         0.00000E+00
         0.00000E+00
         0.00000E+00
         0.00000E+00
         0.00000E+00
         0.00000E+00
         0.00000E+00
         0.00000E+00
         0.00000E+00
         0.00000E+00
         0.00000E+00
         0.00000E+00
         0.00000E+00
         0.00000E+00
         0.00000E+00
         0.00000E+00
         0.00000E+00
         0.00000E+00
         0.00000E+00
         0.00000E+00
         0.00000E+00
         0.00000E+00
         0.00000E+00
         0.00000E+00
         0.00000E+00
         0.00000E+00
         0.00000E+00
         0.00000E+00
         0.00000E+00
         0.00000E+00
         0.00000E+00
         0.00000E+00
         0.00000E+00
         0.00000E+00
         0.00000E+00
         0.00000E+00
         0.00000E+00
         0.00000E+00
         0.00000E+00
         0.00000E+00
         0.00000E+00
         0.00000E+00
         0.00000E+00
         0.00000E+00
         0.00000E+00
         0.00000E+00
         0.00000E+00
         0.00000E+00
         0.00000E+00
         0.00000E+00
         0.00000E+00
         0.00000E+00
         0.00000E+00
         0.00000E+00
         0.00000E+00
         0.00000E+00
         0.00000E+00
         0.00000E+00
         0.00000E+00
         0.00000E+00
         0.00000E+00
         0.00000E+00
         0.00000E+00
         0.00000E+00
         0.00000E+00
         0.00000E+00
         0.00000E+00
         0.00000E+00
         0.00000E+00
         0.00000E+00
         0.00000E+00
         0.00000E+00
         0.00000E+00
         0.00000E+00
         0.00000E+00
         0.00000E+00
         0.00000E+00
         0.00000E+00
         0.00000E+00
         0.00000E+00
         0.00000E+00
         0.00000E+00
         0.00000E+00
         0.00000E+00
         0.00000E+00
         0.00000E+00
         0.00000E+00
         0.00000E+00
         0.00000E+00
         0.00000E+00
         0.00000E+00
         0.00000E+00
         0.00000E+00
         0.00000E+00
         0.00000E+00
         0.00000E+00
         0.00000E+00
         0.00000E+00
         0.00000E+00
         0.00000E+00
         0.00000E+00
         0.00000E+00
         0.00000E+00
         0.00000E+00
         0.00000E+00
         0.00000E+00
         0.00000E+00
         0.00000E+00
         0.00000E+00
         0.00000E+00
         0.00000E+00
         0.00000E+00
         0.00000E+00
         0.00000E+00
         0.00000E+00
         0.00000E+00
         0.00000E+00
         0.00000E+00
         0.00000E+00
         0.00000E+00
         0.00000E+00
         0.00000E+00
         0.00000E+00
         0.00000E+00
         0.00000E+00
         0.00000E+00
         0.00000E+00
         0.00000E+00
         0.00000E+00
         0.00000E+00
         0.00000E+00
         0.00000E+00
         0.00000E+00
         0.00000E+00
         0.00000E+00
         0.00000E+00
         0.00000E+00
         0.00000E+00
         0.00000E+00
         0.00000E+00
         0.00000E+00
         0.00000E+00
         0.00000E+00
         0.00000E+00
         0.00000E+00
         0.00000E+00
         0.00000E+00
         0.00000E+00
         0.00000E+00
         0.00000E+00
         0.00000E+00
         0.00000E+00
         0.00000E+00
         0.00000E+00
         0.00000E+00
         0.00000E+00
         0.00000E+00
         0.00000E+00
         0.00000E+00
         0.00000E+00
         0.00000E+00
         0.00000E+00
         0.00000E+00
         0.00000E+00
         0.00000E+00
         0.00000E+00
         0.00000E+00
         0.00000E+00
         0.00000E+00
         0.00000E+00
         0.00000E+00
         0.00000E+00
         0.00000E+00
         0.00000E+00
         0.00000E+00
         0.00000E+00
         0.00000E+00
         0.00000E+00
         0.00000E+00
         0.00000E+00
         0.00000E+00
         0.00000E+00
         0.00000E+00
         0.00000E+00
         0.00000E+00
         0.00000E+00
         0.00000E+00
         0.00000E+00
         0.00000E+00
         0.00000E+00
         0.00000E+00
         0.00000E+00
         0.00000E+00
  
SCALARS                         fint_x  double 1
LOOKUP_TABLE default
         0.00000E+00
         0.00000E+00
         0.00000E+00
         0.00000E+00
         0.00000E+00
         0.00000E+00
         0.00000E+00
         0.00000E+00
         0.00000E+00
         0.00000E+00
         0.00000E+00
         0.00000E+00
         0.00000E+00
         0.00000E+00
         0.00000E+00
         0.00000E+00
         0.00000E+00
         0.00000E+00
         0.00000E+00
         0.00000E+00
         0.00000E+00
         0.00000E+00
         0.00000E+00
         0.00000E+00
         0.00000E+00
         0.00000E+00
         0.00000E+00
         0.00000E+00
         0.00000E+00
         0.00000E+00
         0.00000E+00
         0.00000E+00
         0.00000E+00
         0.00000E+00
         0.00000E+00
         0.00000E+00
         0.00000E+00
         0.00000E+00
         0.00000E+00
         0.00000E+00
         0.00000E+00
         0.00000E+00
         0.00000E+00
         0.00000E+00
         0.00000E+00
         0.00000E+00
         0.00000E+00
         0.00000E+00
         0.00000E+00
         0.00000E+00
         0.00000E+00
         0.00000E+00
         0.00000E+00
         0.00000E+00
         0.00000E+00
         0.00000E+00
         0.00000E+00
         0.00000E+00
         0.00000E+00
         0.00000E+00
         0.00000E+00
         0.00000E+00
         0.00000E+00
         0.00000E+00
         0.00000E+00
         0.00000E+00
         0.00000E+00
         0.00000E+00
         0.00000E+00
         0.00000E+00
         0.00000E+00
         0.00000E+00
         0.00000E+00
         0.00000E+00
         0.00000E+00
         0.00000E+00
         0.00000E+00
         0.00000E+00
         0.00000E+00
         0.00000E+00
         0.00000E+00
         0.00000E+00
         0.00000E+00
         0.00000E+00
         0.00000E+00
         0.00000E+00
         0.00000E+00
         0.00000E+00
         0.00000E+00
         0.00000E+00
         0.00000E+00
         0.00000E+00
         0.00000E+00
         0.00000E+00
         0.00000E+00
         0.00000E+00
         0.00000E+00
         0.00000E+00
         0.00000E+00
         0.00000E+00
         0.00000E+00
         0.00000E+00
         0.00000E+00
         0.00000E+00
         0.00000E+00
         0.00000E+00
         0.00000E+00
         0.00000E+00
         0.00000E+00
         0.00000E+00
         0.00000E+00
         0.00000E+00
         0.00000E+00
         0.00000E+00
         0.00000E+00
         0.00000E+00
         0.00000E+00
         0.00000E+00
         0.00000E+00
         0.00000E+00
         0.00000E+00
         0.00000E+00
         0.00000E+00
         0.00000E+00
         0.00000E+00
         0.00000E+00
         0.00000E+00
         0.00000E+00
         0.00000E+00
         0.00000E+00
         0.00000E+00
         0.00000E+00
         0.00000E+00
         0.00000E+00
         0.00000E+00
         0.00000E+00
         0.00000E+00
         0.00000E+00
         0.00000E+00
         0.00000E+00
         0.00000E+00
         0.00000E+00
         0.00000E+00
         0.00000E+00
         0.00000E+00
         0.00000E+00
         0.00000E+00
         0.00000E+00
         0.00000E+00
         0.00000E+00
         0.00000E+00
         0.00000E+00
         0.00000E+00
         0.00000E+00
         0.00000E+00
         0.00000E+00
         0.00000E+00
         0.00000E+00
         0.00000E+00
         0.00000E+00
         0.00000E+00
         0.00000E+00
         0.00000E+00
         0.00000E+00
         0.00000E+00
         0.00000E+00
         0.00000E+00
         0.00000E+00
         0.00000E+00
         0.00000E+00
         0.00000E+00
         0.00000E+00
         0.00000E+00
         0.00000E+00
         0.00000E+00
         0.00000E+00
         0.00000E+00
         0.00000E+00
         0.00000E+00
         0.00000E+00
         0.00000E+00
         0.00000E+00
         0.00000E+00
         0.00000E+00
         0.00000E+00
         0.00000E+00
         0.00000E+00
         0.00000E+00
         0.00000E+00
         0.00000E+00
         0.00000E+00
         0.00000E+00
         0.00000E+00
         0.00000E+00
         0.00000E+00
         0.00000E+00
         0.00000E+00
         0.00000E+00
         0.00000E+00
         0.00000E+00
         0.00000E+00
         0.00000E+00
         0.00000E+00
         0.00000E+00
         0.00000E+00
         0.00000E+00
         0.00000E+00
         0.00000E+00
         0.00000E+00
         0.00000E+00
         0.00000E+00
         0.00000E+00
         0.00000E+00
         0.00000E+00
         0.00000E+00
         0.00000E+00
         0.00000E+00
         0.00000E+00
         0.00000E+00
         0.00000E+00
         0.00000E+00
         0.00000E+00
         0.00000E+00
         0.00000E+00
         0.00000E+00
         0.00000E+00
         0.00000E+00
         0.00000E+00
         0.00000E+00
         0.00000E+00
         0.00000E+00
         0.00000E+00
         0.00000E+00
         0.00000E+00
         0.00000E+00
         0.00000E+00
         0.00000E+00
         0.00000E+00
         0.00000E+00
         0.00000E+00
         0.00000E+00
         0.00000E+00
         0.00000E+00
         0.00000E+00
         0.00000E+00
         0.00000E+00
         0.00000E+00
         0.00000E+00
         0.00000E+00
         0.00000E+00
         0.00000E+00
         0.00000E+00
         0.00000E+00
         0.00000E+00
         0.00000E+00
         0.00000E+00
         0.00000E+00
         0.00000E+00
         0.00000E+00
         0.00000E+00
         0.00000E+00
         0.00000E+00
         0.00000E+00
         0.00000E+00
         0.00000E+00
         0.00000E+00
         0.00000E+00
         0.00000E+00
         0.00000E+00
         0.00000E+00
         0.00000E+00
         0.00000E+00
         0.00000E+00
         0.00000E+00
         0.00000E+00
         0.00000E+00
         0.00000E+00
         0.00000E+00
         0.00000E+00
         0.00000E+00
         0.00000E+00
         0.00000E+00
         0.00000E+00
         0.00000E+00
         0.00000E+00
         0.00000E+00
         0.00000E+00
         0.00000E+00
         0.00000E+00
         0.00000E+00
         0.00000E+00
         0.00000E+00
         0.00000E+00
         0.00000E+00
         0.00000E+00
         0.00000E+00
         0.00000E+00
         0.00000E+00
         0.00000E+00
         0.00000E+00
         0.00000E+00
         0.00000E+00
         0.00000E+00
         0.00000E+00
         0.00000E+00
         0.00000E+00
         0.00000E+00
         0.00000E+00
         0.00000E+00
         0.00000E+00
         0.00000E+00
         0.00000E+00
         0.00000E+00
         0.00000E+00
         0.00000E+00
         0.00000E+00
         0.00000E+00
         0.00000E+00
         0.00000E+00
         0.00000E+00
         0.00000E+00
         0.00000E+00
         0.00000E+00
         0.00000E+00
         0.00000E+00
         0.00000E+00
         0.00000E+00
         0.00000E+00
         0.00000E+00
         0.00000E+00
         0.00000E+00
         0.00000E+00
         0.00000E+00
         0.00000E+00
         0.00000E+00
         0.00000E+00
         0.00000E+00
         0.00000E+00
         0.00000E+00
         0.00000E+00
         0.00000E+00
         0.00000E+00
         0.00000E+00
         0.00000E+00
         0.00000E+00
         0.00000E+00
         0.00000E+00
         0.00000E+00
         0.00000E+00
         0.00000E+00
         0.00000E+00
         0.00000E+00
         0.00000E+00
         0.00000E+00
         0.00000E+00
         0.00000E+00
         0.00000E+00
         0.00000E+00
         0.00000E+00
         0.00000E+00
         0.00000E+00
         0.00000E+00
         0.00000E+00
         0.00000E+00
         0.00000E+00
         0.00000E+00
         0.00000E+00
         0.00000E+00
         0.00000E+00
         0.00000E+00
         0.00000E+00
         0.00000E+00
         0.00000E+00
         0.00000E+00
         0.00000E+00
         0.00000E+00
         0.00000E+00
         0.00000E+00
         0.00000E+00
         0.00000E+00
         0.00000E+00
         0.00000E+00
         0.00000E+00
         0.00000E+00
         0.00000E+00
         0.00000E+00
         0.00000E+00
         0.00000E+00
         0.00000E+00
         0.00000E+00
         0.00000E+00
         0.00000E+00
         0.00000E+00
         0.00000E+00
         0.00000E+00
         0.00000E+00
         0.00000E+00
         0.00000E+00
         0.00000E+00
         0.00000E+00
         0.00000E+00
         0.00000E+00
         0.00000E+00
         0.00000E+00
         0.00000E+00
         0.00000E+00
         0.00000E+00
         0.00000E+00
         0.00000E+00
         0.00000E+00
         0.00000E+00
         0.00000E+00
         0.00000E+00
         0.00000E+00
         0.00000E+00
         0.00000E+00
         0.00000E+00
         0.00000E+00
         0.00000E+00
         0.00000E+00
         0.00000E+00
         0.00000E+00
         0.00000E+00
         0.00000E+00
         0.00000E+00
         0.00000E+00
         0.00000E+00
         0.00000E+00
         0.00000E+00
         0.00000E+00
         0.00000E+00
         0.00000E+00
         0.00000E+00
         0.00000E+00
         0.00000E+00
         0.00000E+00
         0.00000E+00
         0.00000E+00
         0.00000E+00
         0.00000E+00
         0.00000E+00
         0.00000E+00
         0.00000E+00
         0.00000E+00
         0.00000E+00
         0.00000E+00
         0.00000E+00
         0.00000E+00
         0.00000E+00
         0.00000E+00
         0.00000E+00
         0.00000E+00
         0.00000E+00
         0.00000E+00
         0.00000E+00
         0.00000E+00
         0.00000E+00
         0.00000E+00
         0.00000E+00
         0.00000E+00
         0.00000E+00
         0.00000E+00
         0.00000E+00
         0.00000E+00
         0.00000E+00
         0.00000E+00
         0.00000E+00
         0.00000E+00
         0.00000E+00
         0.00000E+00
         0.00000E+00
         0.00000E+00
         0.00000E+00
         0.00000E+00
         0.00000E+00
         0.00000E+00
         0.00000E+00
         0.00000E+00
         0.00000E+00
         0.00000E+00
         0.00000E+00
         0.00000E+00
         0.00000E+00
         0.00000E+00
         0.00000E+00
         0.00000E+00
         0.00000E+00
         0.00000E+00
         0.00000E+00
         0.00000E+00
         0.00000E+00
         0.00000E+00
         0.00000E+00
         0.00000E+00
         0.00000E+00
         0.00000E+00
         0.00000E+00
         0.00000E+00
         0.00000E+00
         0.00000E+00
         0.00000E+00
         0.00000E+00
         0.00000E+00
         0.00000E+00
         0.00000E+00
         0.00000E+00
         0.00000E+00
         0.00000E+00
         0.00000E+00
         0.00000E+00
         0.00000E+00
         0.00000E+00
         0.00000E+00
         0.00000E+00
         0.00000E+00
         0.00000E+00
         0.00000E+00
         0.00000E+00
         0.00000E+00
         0.00000E+00
         0.00000E+00
         0.00000E+00
         0.00000E+00
         0.00000E+00
         0.00000E+00
         0.00000E+00
         0.00000E+00
         0.00000E+00
         0.00000E+00
         0.00000E+00
         0.00000E+00
         0.00000E+00
         0.00000E+00
         0.00000E+00
         0.00000E+00
         0.00000E+00
         0.00000E+00
         0.00000E+00
         0.00000E+00
         0.00000E+00
         0.00000E+00
         0.00000E+00
         0.00000E+00
         0.00000E+00
         0.00000E+00
         0.00000E+00
         0.00000E+00
         0.00000E+00
         0.00000E+00
         0.00000E+00
         0.00000E+00
         0.00000E+00
         0.00000E+00
         0.00000E+00
         0.00000E+00
         0.00000E+00
         0.00000E+00
         0.00000E+00
         0.00000E+00
         0.00000E+00
         0.00000E+00
         0.00000E+00
         0.00000E+00
         0.00000E+00
         0.00000E+00
         0.00000E+00
         0.00000E+00
         0.00000E+00
         0.00000E+00
         0.00000E+00
         0.00000E+00
         0.00000E+00
         0.00000E+00
         0.00000E+00
         0.00000E+00
         0.00000E+00
         0.00000E+00
         0.00000E+00
         0.00000E+00
         0.00000E+00
         0.00000E+00
         0.00000E+00
         0.00000E+00
         0.00000E+00
         0.00000E+00
         0.00000E+00
         0.00000E+00
         0.00000E+00
         0.00000E+00
         0.00000E+00
         0.00000E+00
         0.00000E+00
         0.00000E+00
         0.00000E+00
         0.00000E+00
         0.00000E+00
         0.00000E+00
         0.00000E+00
         0.00000E+00
         0.00000E+00
         0.00000E+00
         0.00000E+00
         0.00000E+00
         0.00000E+00
         0.00000E+00
         0.00000E+00
         0.00000E+00
         0.00000E+00
         0.00000E+00
         0.00000E+00
         0.00000E+00
         0.00000E+00
         0.00000E+00
         0.00000E+00
         0.00000E+00
         0.00000E+00
         0.00000E+00
         0.00000E+00
         0.00000E+00
         0.00000E+00
         0.00000E+00
         0.00000E+00
         0.00000E+00
         0.00000E+00
         0.00000E+00
         0.00000E+00
         0.00000E+00
         0.00000E+00
         0.00000E+00
         0.00000E+00
         0.00000E+00
         0.00000E+00
         0.00000E+00
         0.00000E+00
         0.00000E+00
         0.00000E+00
         0.00000E+00
         0.00000E+00
         0.00000E+00
         0.00000E+00
         0.00000E+00
         0.00000E+00
         0.00000E+00
         0.00000E+00
         0.00000E+00
         0.00000E+00
         0.00000E+00
         0.00000E+00
         0.00000E+00
         0.00000E+00
         0.00000E+00
         0.00000E+00
         0.00000E+00
         0.00000E+00
         0.00000E+00
         0.00000E+00
         0.00000E+00
         0.00000E+00
         0.00000E+00
         0.00000E+00
         0.00000E+00
         0.00000E+00
         0.00000E+00
         0.00000E+00
         0.00000E+00
         0.00000E+00
         0.00000E+00
         0.00000E+00
         0.00000E+00
         0.00000E+00
         0.00000E+00
         0.00000E+00
         0.00000E+00
         0.00000E+00
         0.00000E+00
         0.00000E+00
         0.00000E+00
         0.00000E+00
         0.00000E+00
         0.00000E+00
         0.00000E+00
         0.00000E+00
         0.00000E+00
         0.00000E+00
         0.00000E+00
         0.00000E+00
         0.00000E+00
         0.00000E+00
         0.00000E+00
         0.00000E+00
         0.00000E+00
         0.00000E+00
         0.00000E+00
         0.00000E+00
         0.00000E+00
         0.00000E+00
         0.00000E+00
         0.00000E+00
         0.00000E+00
         0.00000E+00
         0.00000E+00
         0.00000E+00
         0.00000E+00
         0.00000E+00
         0.00000E+00
         0.00000E+00
         0.00000E+00
         0.00000E+00
         0.00000E+00
         0.00000E+00
         0.00000E+00
         0.00000E+00
         0.00000E+00
         0.00000E+00
         0.00000E+00
         0.00000E+00
         0.00000E+00
         0.00000E+00
         0.00000E+00
         0.00000E+00
         0.00000E+00
         0.00000E+00
         0.00000E+00
         0.00000E+00
         0.00000E+00
         0.00000E+00
         0.00000E+00
         0.00000E+00
         0.00000E+00
         0.00000E+00
         0.00000E+00
         0.00000E+00
         0.00000E+00
         0.00000E+00
         0.00000E+00
         0.00000E+00
         0.00000E+00
         0.00000E+00
         0.00000E+00
         0.00000E+00
         0.00000E+00
         0.00000E+00
         0.00000E+00
         0.00000E+00
         0.00000E+00
         0.00000E+00
         0.00000E+00
         0.00000E+00
         0.00000E+00
         0.00000E+00
         0.00000E+00
         0.00000E+00
         0.00000E+00
         0.00000E+00
         0.00000E+00
         0.00000E+00
         0.00000E+00
         0.00000E+00
         0.00000E+00
         0.00000E+00
         0.00000E+00
         0.00000E+00
         0.00000E+00
         0.00000E+00
         0.00000E+00
         0.00000E+00
         0.00000E+00
         0.00000E+00
         0.00000E+00
         0.00000E+00
         0.00000E+00
         0.00000E+00
         0.00000E+00
         0.00000E+00
         0.00000E+00
         0.00000E+00
         0.00000E+00
         0.00000E+00
         0.00000E+00
         0.00000E+00
         0.00000E+00
         0.00000E+00
         0.00000E+00
         0.00000E+00
         0.00000E+00
         0.00000E+00
         0.00000E+00
         0.00000E+00
         0.00000E+00
         0.00000E+00
         0.00000E+00
         0.00000E+00
         0.00000E+00
         0.00000E+00
         0.00000E+00
         0.00000E+00
         0.00000E+00
         0.00000E+00
         0.00000E+00
         0.00000E+00
         0.00000E+00
         0.00000E+00
         0.00000E+00
         0.00000E+00
         0.00000E+00
         0.00000E+00
         0.00000E+00
         0.00000E+00
         0.00000E+00
         0.00000E+00
         0.00000E+00
         0.00000E+00
         0.00000E+00
         0.00000E+00
         0.00000E+00
         0.00000E+00
         0.00000E+00
         0.00000E+00
         0.00000E+00
         0.00000E+00
         0.00000E+00
         0.00000E+00
         0.00000E+00
         0.00000E+00
         0.00000E+00
         0.00000E+00
         0.00000E+00
         0.00000E+00
         0.00000E+00
         0.00000E+00
         0.00000E+00
         0.00000E+00
         0.00000E+00
         0.00000E+00
         0.00000E+00
         0.00000E+00
         0.00000E+00
         0.00000E+00
         0.00000E+00
         0.00000E+00
         0.00000E+00
         0.00000E+00
         0.00000E+00
         0.00000E+00
         0.00000E+00
         0.00000E+00
         0.00000E+00
         0.00000E+00
         0.00000E+00
         0.00000E+00
         0.00000E+00
         0.00000E+00
         0.00000E+00
         0.00000E+00
         0.00000E+00
         0.00000E+00
         0.00000E+00
         0.00000E+00
         0.00000E+00
         0.00000E+00
         0.00000E+00
         0.00000E+00
         0.00000E+00
         0.00000E+00
         0.00000E+00
         0.00000E+00
         0.00000E+00
         0.00000E+00
         0.00000E+00
         0.00000E+00
         0.00000E+00
         0.00000E+00
         0.00000E+00
         0.00000E+00
         0.00000E+00
         0.00000E+00
         0.00000E+00
         0.00000E+00
         0.00000E+00
         0.00000E+00
         0.00000E+00
         0.00000E+00
         0.00000E+00
         0.00000E+00
         0.00000E+00
         0.00000E+00
         0.00000E+00
         0.00000E+00
         0.00000E+00
         0.00000E+00
         0.00000E+00
         0.00000E+00
         0.00000E+00
         0.00000E+00
         0.00000E+00
         0.00000E+00
         0.00000E+00
         0.00000E+00
         0.00000E+00
         0.00000E+00
         0.00000E+00
         0.00000E+00
         0.00000E+00
         0.00000E+00
         0.00000E+00
         0.00000E+00
         0.00000E+00
         0.00000E+00
         0.00000E+00
         0.00000E+00
         0.00000E+00
         0.00000E+00
         0.00000E+00
         0.00000E+00
         0.00000E+00
         0.00000E+00
         0.00000E+00
         0.00000E+00
         0.00000E+00
         0.00000E+00
         0.00000E+00
         0.00000E+00
         0.00000E+00
         0.00000E+00
         0.00000E+00
         0.00000E+00
         0.00000E+00
         0.00000E+00
         0.00000E+00
         0.00000E+00
         0.00000E+00
         0.00000E+00
         0.00000E+00
         0.00000E+00
         0.00000E+00
         0.00000E+00
         0.00000E+00
         0.00000E+00
         0.00000E+00
         0.00000E+00
         0.00000E+00
         0.00000E+00
         0.00000E+00
         0.00000E+00
         0.00000E+00
         0.00000E+00
         0.00000E+00
         0.00000E+00
         0.00000E+00
         0.00000E+00
         0.00000E+00
         0.00000E+00
         0.00000E+00
         0.00000E+00
         0.00000E+00
         0.00000E+00
         0.00000E+00
         0.00000E+00
         0.00000E+00
         0.00000E+00
         0.00000E+00
         0.00000E+00
         0.00000E+00
         0.00000E+00
         0.00000E+00
         0.00000E+00
         0.00000E+00
         0.00000E+00
         0.00000E+00
         0.00000E+00
         0.00000E+00
         0.00000E+00
         0.00000E+00
         0.00000E+00
         0.00000E+00
         0.00000E+00
         0.00000E+00
         0.00000E+00
         0.00000E+00
         0.00000E+00
         0.00000E+00
         0.00000E+00
         0.00000E+00
         0.00000E+00
         0.00000E+00
         0.00000E+00
         0.00000E+00
         0.00000E+00
         0.00000E+00
         0.00000E+00
         0.00000E+00
         0.00000E+00
         0.00000E+00
         0.00000E+00
         0.00000E+00
         0.00000E+00
         0.00000E+00
         0.00000E+00
         0.00000E+00
         0.00000E+00
         0.00000E+00
         0.00000E+00
         0.00000E+00
         0.00000E+00
         0.00000E+00
         0.00000E+00
         0.00000E+00
         0.00000E+00
         0.00000E+00
         0.00000E+00
         0.00000E+00
         0.00000E+00
         0.00000E+00
         0.00000E+00
         0.00000E+00
         0.00000E+00
         0.00000E+00
         0.00000E+00
         0.00000E+00
         0.00000E+00
         0.00000E+00
         0.00000E+00
         0.00000E+00
         0.00000E+00
         0.00000E+00
         0.00000E+00
         0.00000E+00
         0.00000E+00
         0.00000E+00
         0.00000E+00
         0.00000E+00
         0.00000E+00
         0.00000E+00
         0.00000E+00
         0.00000E+00
         0.00000E+00
         0.00000E+00
         0.00000E+00
         0.00000E+00
         0.00000E+00
         0.00000E+00
         0.00000E+00
         0.00000E+00
         0.00000E+00
         0.00000E+00
         0.00000E+00
         0.00000E+00
         0.00000E+00
         0.00000E+00
         0.00000E+00
         0.00000E+00
         0.00000E+00
         0.00000E+00
         0.00000E+00
         0.00000E+00
         0.00000E+00
         0.00000E+00
         0.00000E+00
         0.00000E+00
         0.00000E+00
         0.00000E+00
         0.00000E+00
         0.00000E+00
         0.00000E+00
         0.00000E+00
         0.00000E+00
         0.00000E+00
         0.00000E+00
         0.00000E+00
         0.00000E+00
         0.00000E+00
         0.00000E+00
         0.00000E+00
         0.00000E+00
         0.00000E+00
         0.00000E+00
         0.00000E+00
         0.00000E+00
         0.00000E+00
         0.00000E+00
         0.00000E+00
         0.00000E+00
         0.00000E+00
         0.00000E+00
         0.00000E+00
         0.00000E+00
         0.00000E+00
         0.00000E+00
         0.00000E+00
         0.00000E+00
         0.00000E+00
         0.00000E+00
         0.00000E+00
         0.00000E+00
         0.00000E+00
         0.00000E+00
         0.00000E+00
         0.00000E+00
         0.00000E+00
         0.00000E+00
         0.00000E+00
         0.00000E+00
         0.00000E+00
         0.00000E+00
         0.00000E+00
         0.00000E+00
         0.00000E+00
         0.00000E+00
         0.00000E+00
         0.00000E+00
         0.00000E+00
         0.00000E+00
         0.00000E+00
         0.00000E+00
         0.00000E+00
         0.00000E+00
         0.00000E+00
         0.00000E+00
         0.00000E+00
         0.00000E+00
         0.00000E+00
         0.00000E+00
         0.00000E+00
         0.00000E+00
         0.00000E+00
         0.00000E+00
         0.00000E+00
         0.00000E+00
         0.00000E+00
         0.00000E+00
         0.00000E+00
         0.00000E+00
         0.00000E+00
         0.00000E+00
         0.00000E+00
         0.00000E+00
         0.00000E+00
         0.00000E+00
         0.00000E+00
         0.00000E+00
         0.00000E+00
         0.00000E+00
         0.00000E+00
         0.00000E+00
         0.00000E+00
         0.00000E+00
         0.00000E+00
         0.00000E+00
         0.00000E+00
         0.00000E+00
         0.00000E+00
         0.00000E+00
         0.00000E+00
         0.00000E+00
         0.00000E+00
         0.00000E+00
         0.00000E+00
         0.00000E+00
         0.00000E+00
         0.00000E+00
         0.00000E+00
         0.00000E+00
         0.00000E+00
         0.00000E+00
         0.00000E+00
         0.00000E+00
         0.00000E+00
         0.00000E+00
         0.00000E+00
         0.00000E+00
         0.00000E+00
         0.00000E+00
         0.00000E+00
         0.00000E+00
         0.00000E+00
         0.00000E+00
         0.00000E+00
         0.00000E+00
         0.00000E+00
         0.00000E+00
         0.00000E+00
         0.00000E+00
         0.00000E+00
         0.00000E+00
         0.00000E+00
         0.00000E+00
         0.00000E+00
         0.00000E+00
         0.00000E+00
         0.00000E+00
         0.00000E+00
         0.00000E+00
         0.00000E+00
         0.00000E+00
         0.00000E+00
         0.00000E+00
         0.00000E+00
         0.00000E+00
         0.00000E+00
         0.00000E+00
         0.00000E+00
         0.00000E+00
         0.00000E+00
         0.00000E+00
         0.00000E+00
         0.00000E+00
         0.00000E+00
         0.00000E+00
         0.00000E+00
         0.00000E+00
         0.00000E+00
         0.00000E+00
         0.00000E+00
         0.00000E+00
         0.00000E+00
         0.00000E+00
         0.00000E+00
         0.00000E+00
         0.00000E+00
         0.00000E+00
         0.00000E+00
         0.00000E+00
         0.00000E+00
         0.00000E+00
         0.00000E+00
         0.00000E+00
         0.00000E+00
         0.00000E+00
         0.00000E+00
         0.00000E+00
         0.00000E+00
         0.00000E+00
         0.00000E+00
         0.00000E+00
         0.00000E+00
         0.00000E+00
         0.00000E+00
         0.00000E+00
         0.00000E+00
         0.00000E+00
         0.00000E+00
         0.00000E+00
         0.00000E+00
         0.00000E+00
         0.00000E+00
         0.00000E+00
         0.00000E+00
         0.00000E+00
         0.00000E+00
         0.00000E+00
         0.00000E+00
         0.00000E+00
         0.00000E+00
         0.00000E+00
         0.00000E+00
         0.00000E+00
         0.00000E+00
         0.00000E+00
         0.00000E+00
         0.00000E+00
         0.00000E+00
         0.00000E+00
         0.00000E+00
         0.00000E+00
         0.00000E+00
         0.00000E+00
         0.00000E+00
         0.00000E+00
         0.00000E+00
         0.00000E+00
         0.00000E+00
         0.00000E+00
         0.00000E+00
         0.00000E+00
         0.00000E+00
         0.00000E+00
         0.00000E+00
         0.00000E+00
         0.00000E+00
         0.00000E+00
         0.00000E+00
         0.00000E+00
         0.00000E+00
         0.00000E+00
         0.00000E+00
         0.00000E+00
         0.00000E+00
         0.00000E+00
         0.00000E+00
         0.00000E+00
         0.00000E+00
         0.00000E+00
         0.00000E+00
         0.00000E+00
         0.00000E+00
         0.00000E+00
         0.00000E+00
         0.00000E+00
         0.00000E+00
         0.00000E+00
         0.00000E+00
         0.00000E+00
         0.00000E+00
         0.00000E+00
         0.00000E+00
         0.00000E+00
         0.00000E+00
         0.00000E+00
         0.00000E+00
         0.00000E+00
         0.00000E+00
         0.00000E+00
         0.00000E+00
         0.00000E+00
         0.00000E+00
         0.00000E+00
         0.00000E+00
         0.00000E+00
         0.00000E+00
         0.00000E+00
         0.00000E+00
         0.00000E+00
         0.00000E+00
         0.00000E+00
         0.00000E+00
         0.00000E+00
         0.00000E+00
         0.00000E+00
         0.00000E+00
         0.00000E+00
         0.00000E+00
         0.00000E+00
         0.00000E+00
         0.00000E+00
         0.00000E+00
         0.00000E+00
         0.00000E+00
         0.00000E+00
         0.00000E+00
         0.00000E+00
         0.00000E+00
         0.00000E+00
         0.00000E+00
         0.00000E+00
         0.00000E+00
         0.00000E+00
         0.00000E+00
         0.00000E+00
         0.00000E+00
         0.00000E+00
         0.00000E+00
         0.00000E+00
         0.00000E+00
         0.00000E+00
         0.00000E+00
         0.00000E+00
         0.00000E+00
         0.00000E+00
         0.00000E+00
         0.00000E+00
         0.00000E+00
         0.00000E+00
         0.00000E+00
         0.00000E+00
         0.00000E+00
         0.00000E+00
         0.00000E+00
         0.00000E+00
         0.00000E+00
         0.00000E+00
         0.00000E+00
         0.00000E+00
         0.00000E+00
         0.00000E+00
         0.00000E+00
         0.00000E+00
         0.00000E+00
         0.00000E+00
         0.00000E+00
         0.00000E+00
         0.00000E+00
         0.00000E+00
         0.00000E+00
         0.00000E+00
         0.00000E+00
         0.00000E+00
         0.00000E+00
         0.00000E+00
         0.00000E+00
         0.00000E+00
         0.00000E+00
         0.00000E+00
         0.00000E+00
         0.00000E+00
         0.00000E+00
         0.00000E+00
         0.00000E+00
         0.00000E+00
         0.00000E+00
         0.00000E+00
         0.00000E+00
         0.00000E+00
         0.00000E+00
         0.00000E+00
         0.00000E+00
         0.00000E+00
         0.00000E+00
         0.00000E+00
         0.00000E+00
         0.00000E+00
         0.00000E+00
         0.00000E+00
         0.00000E+00
         0.00000E+00
         0.00000E+00
         0.00000E+00
         0.00000E+00
         0.00000E+00
         0.00000E+00
         0.00000E+00
         0.00000E+00
         0.00000E+00
         0.00000E+00
         0.00000E+00
         0.00000E+00
         0.00000E+00
         0.00000E+00
         0.00000E+00
         0.00000E+00
         0.00000E+00
         0.00000E+00
         0.00000E+00
         0.00000E+00
         0.00000E+00
         0.00000E+00
         0.00000E+00
         0.00000E+00
         0.00000E+00
         0.00000E+00
         0.00000E+00
         0.00000E+00
         0.00000E+00
         0.00000E+00
         0.00000E+00
         0.00000E+00
         0.00000E+00
         0.00000E+00
         0.00000E+00
         0.00000E+00
         0.00000E+00
         0.00000E+00
         0.00000E+00
         0.00000E+00
         0.00000E+00
         0.00000E+00
         0.00000E+00
         0.00000E+00
         0.00000E+00
         0.00000E+00
         0.00000E+00
         0.00000E+00
         0.00000E+00
         0.00000E+00
         0.00000E+00
         0.00000E+00
         0.00000E+00
         0.00000E+00
         0.00000E+00
         0.00000E+00
         0.00000E+00
         0.00000E+00
         0.00000E+00
         0.00000E+00
         0.00000E+00
         0.00000E+00
         0.00000E+00
         0.00000E+00
         0.00000E+00
         0.00000E+00
         0.00000E+00
         0.00000E+00
         0.00000E+00
         0.00000E+00
         0.00000E+00
         0.00000E+00
         0.00000E+00
         0.00000E+00
         0.00000E+00
         0.00000E+00
         0.00000E+00
         0.00000E+00
         0.00000E+00
         0.00000E+00
         0.00000E+00
         0.00000E+00
         0.00000E+00
         0.00000E+00
         0.00000E+00
         0.00000E+00
         0.00000E+00
         0.00000E+00
         0.00000E+00
         0.00000E+00
         0.00000E+00
         0.00000E+00
         0.00000E+00
         0.00000E+00
         0.00000E+00
         0.00000E+00
         0.00000E+00
         0.00000E+00
         0.00000E+00
         0.00000E+00
         0.00000E+00
         0.00000E+00
         0.00000E+00
         0.00000E+00
         0.00000E+00
         0.00000E+00
         0.00000E+00
         0.00000E+00
         0.00000E+00
         0.00000E+00
         0.00000E+00
         0.00000E+00
         0.00000E+00
         0.00000E+00
         0.00000E+00
         0.00000E+00
         0.00000E+00
         0.00000E+00
         0.00000E+00
         0.00000E+00
         0.00000E+00
         0.00000E+00
         0.00000E+00
         0.00000E+00
         0.00000E+00
         0.00000E+00
         0.00000E+00
         0.00000E+00
         0.00000E+00
         0.00000E+00
         0.00000E+00
         0.00000E+00
         0.00000E+00
         0.00000E+00
         0.00000E+00
         0.00000E+00
         0.00000E+00
         0.00000E+00
         0.00000E+00
         0.00000E+00
         0.00000E+00
         0.00000E+00
         0.00000E+00
         0.00000E+00
         0.00000E+00
         0.00000E+00
         0.00000E+00
         0.00000E+00
         0.00000E+00
         0.00000E+00
         0.00000E+00
         0.00000E+00
         0.00000E+00
         0.00000E+00
         0.00000E+00
         0.00000E+00
         0.00000E+00
         0.00000E+00
         0.00000E+00
         0.00000E+00
         0.00000E+00
         0.00000E+00
         0.00000E+00
         0.00000E+00
         0.00000E+00
         0.00000E+00
         0.00000E+00
         0.00000E+00
         0.00000E+00
         0.00000E+00
         0.00000E+00
         0.00000E+00
         0.00000E+00
         0.00000E+00
         0.00000E+00
         0.00000E+00
         0.00000E+00
         0.00000E+00
         0.00000E+00
         0.00000E+00
         0.00000E+00
         0.00000E+00
         0.00000E+00
         0.00000E+00
         0.00000E+00
         0.00000E+00
         0.00000E+00
         0.00000E+00
         0.00000E+00
         0.00000E+00
         0.00000E+00
         0.00000E+00
         0.00000E+00
         0.00000E+00
         0.00000E+00
         0.00000E+00
         0.00000E+00
         0.00000E+00
         0.00000E+00
         0.00000E+00
         0.00000E+00
         0.00000E+00
         0.00000E+00
         0.00000E+00
         0.00000E+00
         0.00000E+00
         0.00000E+00
         0.00000E+00
         0.00000E+00
         0.00000E+00
         0.00000E+00
         0.00000E+00
         0.00000E+00
         0.00000E+00
         0.00000E+00
         0.00000E+00
         0.00000E+00
         0.00000E+00
         0.00000E+00
         0.00000E+00
         0.00000E+00
         0.00000E+00
         0.00000E+00
         0.00000E+00
         0.00000E+00
         0.00000E+00
         0.00000E+00
         0.00000E+00
         0.00000E+00
         0.00000E+00
         0.00000E+00
         0.00000E+00
         0.00000E+00
         0.00000E+00
         0.00000E+00
         0.00000E+00
         0.00000E+00
         0.00000E+00
         0.00000E+00
         0.00000E+00
         0.00000E+00
         0.00000E+00
         0.00000E+00
         0.00000E+00
         0.00000E+00
         0.00000E+00
         0.00000E+00
         0.00000E+00
         0.00000E+00
         0.00000E+00
         0.00000E+00
         0.00000E+00
         0.00000E+00
         0.00000E+00
         0.00000E+00
         0.00000E+00
         0.00000E+00
         0.00000E+00
         0.00000E+00
         0.00000E+00
         0.00000E+00
         0.00000E+00
         0.00000E+00
         0.00000E+00
         0.00000E+00
         0.00000E+00
         0.00000E+00
         0.00000E+00
         0.00000E+00
         0.00000E+00
         0.00000E+00
         0.00000E+00
         0.00000E+00
         0.00000E+00
         0.00000E+00
         0.00000E+00
         0.00000E+00
         0.00000E+00
         0.00000E+00
         0.00000E+00
         0.00000E+00
         0.00000E+00
         0.00000E+00
         0.00000E+00
         0.00000E+00
         0.00000E+00
         0.00000E+00
         0.00000E+00
         0.00000E+00
         0.00000E+00
         0.00000E+00
         0.00000E+00
         0.00000E+00
         0.00000E+00
         0.00000E+00
         0.00000E+00
         0.00000E+00
         0.00000E+00
         0.00000E+00
         0.00000E+00
         0.00000E+00
         0.00000E+00
         0.00000E+00
         0.00000E+00
         0.00000E+00
         0.00000E+00
         0.00000E+00
         0.00000E+00
         0.00000E+00
         0.00000E+00
         0.00000E+00
         0.00000E+00
         0.00000E+00
         0.00000E+00
         0.00000E+00
         0.00000E+00
         0.00000E+00
         0.00000E+00
         0.00000E+00
         0.00000E+00
         0.00000E+00
         0.00000E+00
         0.00000E+00
         0.00000E+00
         0.00000E+00
         0.00000E+00
         0.00000E+00
         0.00000E+00
         0.00000E+00
         0.00000E+00
         0.00000E+00
         0.00000E+00
         0.00000E+00
         0.00000E+00
         0.00000E+00
         0.00000E+00
         0.00000E+00
         0.00000E+00
         0.00000E+00
         0.00000E+00
         0.00000E+00
         0.00000E+00
         0.00000E+00
         0.00000E+00
         0.00000E+00
         0.00000E+00
         0.00000E+00
         0.00000E+00
         0.00000E+00
         0.00000E+00
         0.00000E+00
         0.00000E+00
         0.00000E+00
         0.00000E+00
         0.00000E+00
         0.00000E+00
         0.00000E+00
         0.00000E+00
         0.00000E+00
         0.00000E+00
         0.00000E+00
         0.00000E+00
         0.00000E+00
         0.00000E+00
         0.00000E+00
         0.00000E+00
         0.00000E+00
         0.00000E+00
         0.00000E+00
         0.00000E+00
         0.00000E+00
         0.00000E+00
         0.00000E+00
         0.00000E+00
         0.00000E+00
         0.00000E+00
         0.00000E+00
         0.00000E+00
         0.00000E+00
         0.00000E+00
         0.00000E+00
         0.00000E+00
         0.00000E+00
         0.00000E+00
         0.00000E+00
         0.00000E+00
         0.00000E+00
         0.00000E+00
         0.00000E+00
         0.00000E+00
         0.00000E+00
         0.00000E+00
         0.00000E+00
         0.00000E+00
         0.00000E+00
         0.00000E+00
         0.00000E+00
         0.00000E+00
         0.00000E+00
         0.00000E+00
         0.00000E+00
         0.00000E+00
         0.00000E+00
         0.00000E+00
         0.00000E+00
         0.00000E+00
         0.00000E+00
         0.00000E+00
         0.00000E+00
         0.00000E+00
         0.00000E+00
         0.00000E+00
         0.00000E+00
         0.00000E+00
         0.00000E+00
         0.00000E+00
         0.00000E+00
         0.00000E+00
         0.00000E+00
         0.00000E+00
         0.00000E+00
         0.00000E+00
         0.00000E+00
         0.00000E+00
         0.00000E+00
         0.00000E+00
         0.00000E+00
         0.00000E+00
         0.00000E+00
         0.00000E+00
         0.00000E+00
         0.00000E+00
         0.00000E+00
         0.00000E+00
         0.00000E+00
         0.00000E+00
         0.00000E+00
         0.00000E+00
         0.00000E+00
         0.00000E+00
         0.00000E+00
         0.00000E+00
         0.00000E+00
         0.00000E+00
         0.00000E+00
         0.00000E+00
         0.00000E+00
         0.00000E+00
         0.00000E+00
         0.00000E+00
         0.00000E+00
         0.00000E+00
         0.00000E+00
         0.00000E+00
         0.00000E+00
         0.00000E+00
         0.00000E+00
         0.00000E+00
         0.00000E+00
         0.00000E+00
         0.00000E+00
         0.00000E+00
         0.00000E+00
         0.00000E+00
         0.00000E+00
         0.00000E+00
         0.00000E+00
         0.00000E+00
         0.00000E+00
         0.00000E+00
         0.00000E+00
         0.00000E+00
         0.00000E+00
         0.00000E+00
         0.00000E+00
         0.00000E+00
         0.00000E+00
         0.00000E+00
         0.00000E+00
         0.00000E+00
         0.00000E+00
         0.00000E+00
         0.00000E+00
         0.00000E+00
         0.00000E+00
         0.00000E+00
         0.00000E+00
         0.00000E+00
         0.00000E+00
         0.00000E+00
         0.00000E+00
         0.00000E+00
         0.00000E+00
         0.00000E+00
         0.00000E+00
         0.00000E+00
         0.00000E+00
         0.00000E+00
         0.00000E+00
         0.00000E+00
         0.00000E+00
         0.00000E+00
         0.00000E+00
         0.00000E+00
         0.00000E+00
         0.00000E+00
         0.00000E+00
         0.00000E+00
         0.00000E+00
         0.00000E+00
         0.00000E+00
         0.00000E+00
         0.00000E+00
         0.00000E+00
         0.00000E+00
         0.00000E+00
         0.00000E+00
         0.00000E+00
         0.00000E+00
         0.00000E+00
         0.00000E+00
         0.00000E+00
         0.00000E+00
         0.00000E+00
         0.00000E+00
         0.00000E+00
         0.00000E+00
         0.00000E+00
         0.00000E+00
         0.00000E+00
         0.00000E+00
         0.00000E+00
         0.00000E+00
         0.00000E+00
         0.00000E+00
         0.00000E+00
         0.00000E+00
  
SCALARS                         fint_y  double 1
LOOKUP_TABLE default
         0.00000E+00
         0.00000E+00
         0.00000E+00
         0.00000E+00
         0.00000E+00
         0.00000E+00
         0.00000E+00
         0.00000E+00
         0.00000E+00
         0.00000E+00
         0.00000E+00
         0.00000E+00
         0.00000E+00
         0.00000E+00
         0.00000E+00
         0.00000E+00
         0.00000E+00
         0.00000E+00
         0.00000E+00
         0.00000E+00
         0.00000E+00
         0.00000E+00
         0.00000E+00
         0.00000E+00
         0.00000E+00
         0.00000E+00
         0.00000E+00
         0.00000E+00
         0.00000E+00
         0.00000E+00
         0.00000E+00
         0.00000E+00
         0.00000E+00
         0.00000E+00
         0.00000E+00
         0.00000E+00
         0.00000E+00
         0.00000E+00
         0.00000E+00
         0.00000E+00
         0.00000E+00
         0.00000E+00
         0.00000E+00
         0.00000E+00
         0.00000E+00
         0.00000E+00
         0.00000E+00
         0.00000E+00
         0.00000E+00
         0.00000E+00
         0.00000E+00
         0.00000E+00
         0.00000E+00
         0.00000E+00
         0.00000E+00
         0.00000E+00
         0.00000E+00
         0.00000E+00
         0.00000E+00
         0.00000E+00
         0.00000E+00
         0.00000E+00
         0.00000E+00
         0.00000E+00
         0.00000E+00
         0.00000E+00
         0.00000E+00
         0.00000E+00
         0.00000E+00
         0.00000E+00
         0.00000E+00
         0.00000E+00
         0.00000E+00
         0.00000E+00
         0.00000E+00
         0.00000E+00
         0.00000E+00
         0.00000E+00
         0.00000E+00
         0.00000E+00
         0.00000E+00
         0.00000E+00
         0.00000E+00
         0.00000E+00
         0.00000E+00
         0.00000E+00
         0.00000E+00
         0.00000E+00
         0.00000E+00
         0.00000E+00
         0.00000E+00
         0.00000E+00
         0.00000E+00
         0.00000E+00
         0.00000E+00
         0.00000E+00
         0.00000E+00
         0.00000E+00
         0.00000E+00
         0.00000E+00
         0.00000E+00
         0.00000E+00
         0.00000E+00
         0.00000E+00
         0.00000E+00
         0.00000E+00
         0.00000E+00
         0.00000E+00
         0.00000E+00
         0.00000E+00
         0.00000E+00
         0.00000E+00
         0.00000E+00
         0.00000E+00
         0.00000E+00
         0.00000E+00
         0.00000E+00
         0.00000E+00
         0.00000E+00
         0.00000E+00
         0.00000E+00
         0.00000E+00
         0.00000E+00
         0.00000E+00
         0.00000E+00
         0.00000E+00
         0.00000E+00
         0.00000E+00
         0.00000E+00
         0.00000E+00
         0.00000E+00
         0.00000E+00
         0.00000E+00
         0.00000E+00
         0.00000E+00
         0.00000E+00
         0.00000E+00
         0.00000E+00
         0.00000E+00
         0.00000E+00
         0.00000E+00
         0.00000E+00
         0.00000E+00
         0.00000E+00
         0.00000E+00
         0.00000E+00
         0.00000E+00
         0.00000E+00
         0.00000E+00
         0.00000E+00
         0.00000E+00
         0.00000E+00
         0.00000E+00
         0.00000E+00
         0.00000E+00
         0.00000E+00
         0.00000E+00
         0.00000E+00
         0.00000E+00
         0.00000E+00
         0.00000E+00
         0.00000E+00
         0.00000E+00
         0.00000E+00
         0.00000E+00
         0.00000E+00
         0.00000E+00
         0.00000E+00
         0.00000E+00
         0.00000E+00
         0.00000E+00
         0.00000E+00
         0.00000E+00
         0.00000E+00
         0.00000E+00
         0.00000E+00
         0.00000E+00
         0.00000E+00
         0.00000E+00
         0.00000E+00
         0.00000E+00
         0.00000E+00
         0.00000E+00
         0.00000E+00
         0.00000E+00
         0.00000E+00
         0.00000E+00
         0.00000E+00
         0.00000E+00
         0.00000E+00
         0.00000E+00
         0.00000E+00
         0.00000E+00
         0.00000E+00
         0.00000E+00
         0.00000E+00
         0.00000E+00
         0.00000E+00
         0.00000E+00
         0.00000E+00
         0.00000E+00
         0.00000E+00
         0.00000E+00
         0.00000E+00
         0.00000E+00
         0.00000E+00
         0.00000E+00
         0.00000E+00
         0.00000E+00
         0.00000E+00
         0.00000E+00
         0.00000E+00
         0.00000E+00
         0.00000E+00
         0.00000E+00
         0.00000E+00
         0.00000E+00
         0.00000E+00
         0.00000E+00
         0.00000E+00
         0.00000E+00
         0.00000E+00
         0.00000E+00
         0.00000E+00
         0.00000E+00
         0.00000E+00
         0.00000E+00
         0.00000E+00
         0.00000E+00
         0.00000E+00
         0.00000E+00
         0.00000E+00
         0.00000E+00
         0.00000E+00
         0.00000E+00
         0.00000E+00
         0.00000E+00
         0.00000E+00
         0.00000E+00
         0.00000E+00
         0.00000E+00
         0.00000E+00
         0.00000E+00
         0.00000E+00
         0.00000E+00
         0.00000E+00
         0.00000E+00
         0.00000E+00
         0.00000E+00
         0.00000E+00
         0.00000E+00
         0.00000E+00
         0.00000E+00
         0.00000E+00
         0.00000E+00
         0.00000E+00
         0.00000E+00
         0.00000E+00
         0.00000E+00
         0.00000E+00
         0.00000E+00
         0.00000E+00
         0.00000E+00
         0.00000E+00
         0.00000E+00
         0.00000E+00
         0.00000E+00
         0.00000E+00
         0.00000E+00
         0.00000E+00
         0.00000E+00
         0.00000E+00
         0.00000E+00
         0.00000E+00
         0.00000E+00
         0.00000E+00
         0.00000E+00
         0.00000E+00
         0.00000E+00
         0.00000E+00
         0.00000E+00
         0.00000E+00
         0.00000E+00
         0.00000E+00
         0.00000E+00
         0.00000E+00
         0.00000E+00
         0.00000E+00
         0.00000E+00
         0.00000E+00
         0.00000E+00
         0.00000E+00
         0.00000E+00
         0.00000E+00
         0.00000E+00
         0.00000E+00
         0.00000E+00
         0.00000E+00
         0.00000E+00
         0.00000E+00
         0.00000E+00
         0.00000E+00
         0.00000E+00
         0.00000E+00
         0.00000E+00
         0.00000E+00
         0.00000E+00
         0.00000E+00
         0.00000E+00
         0.00000E+00
         0.00000E+00
         0.00000E+00
         0.00000E+00
         0.00000E+00
         0.00000E+00
         0.00000E+00
         0.00000E+00
         0.00000E+00
         0.00000E+00
         0.00000E+00
         0.00000E+00
         0.00000E+00
         0.00000E+00
         0.00000E+00
         0.00000E+00
         0.00000E+00
         0.00000E+00
         0.00000E+00
         0.00000E+00
         0.00000E+00
         0.00000E+00
         0.00000E+00
         0.00000E+00
         0.00000E+00
         0.00000E+00
         0.00000E+00
         0.00000E+00
         0.00000E+00
         0.00000E+00
         0.00000E+00
         0.00000E+00
         0.00000E+00
         0.00000E+00
         0.00000E+00
         0.00000E+00
         0.00000E+00
         0.00000E+00
         0.00000E+00
         0.00000E+00
         0.00000E+00
         0.00000E+00
         0.00000E+00
         0.00000E+00
         0.00000E+00
         0.00000E+00
         0.00000E+00
         0.00000E+00
         0.00000E+00
         0.00000E+00
         0.00000E+00
         0.00000E+00
         0.00000E+00
         0.00000E+00
         0.00000E+00
         0.00000E+00
         0.00000E+00
         0.00000E+00
         0.00000E+00
         0.00000E+00
         0.00000E+00
         0.00000E+00
         0.00000E+00
         0.00000E+00
         0.00000E+00
         0.00000E+00
         0.00000E+00
         0.00000E+00
         0.00000E+00
         0.00000E+00
         0.00000E+00
         0.00000E+00
         0.00000E+00
         0.00000E+00
         0.00000E+00
         0.00000E+00
         0.00000E+00
         0.00000E+00
         0.00000E+00
         0.00000E+00
         0.00000E+00
         0.00000E+00
         0.00000E+00
         0.00000E+00
         0.00000E+00
         0.00000E+00
         0.00000E+00
         0.00000E+00
         0.00000E+00
         0.00000E+00
         0.00000E+00
         0.00000E+00
         0.00000E+00
         0.00000E+00
         0.00000E+00
         0.00000E+00
         0.00000E+00
         0.00000E+00
         0.00000E+00
         0.00000E+00
         0.00000E+00
         0.00000E+00
         0.00000E+00
         0.00000E+00
         0.00000E+00
         0.00000E+00
         0.00000E+00
         0.00000E+00
         0.00000E+00
         0.00000E+00
         0.00000E+00
         0.00000E+00
         0.00000E+00
         0.00000E+00
         0.00000E+00
         0.00000E+00
         0.00000E+00
         0.00000E+00
         0.00000E+00
         0.00000E+00
         0.00000E+00
         0.00000E+00
         0.00000E+00
         0.00000E+00
         0.00000E+00
         0.00000E+00
         0.00000E+00
         0.00000E+00
         0.00000E+00
         0.00000E+00
         0.00000E+00
         0.00000E+00
         0.00000E+00
         0.00000E+00
         0.00000E+00
         0.00000E+00
         0.00000E+00
         0.00000E+00
         0.00000E+00
         0.00000E+00
         0.00000E+00
         0.00000E+00
         0.00000E+00
         0.00000E+00
         0.00000E+00
         0.00000E+00
         0.00000E+00
         0.00000E+00
         0.00000E+00
         0.00000E+00
         0.00000E+00
         0.00000E+00
         0.00000E+00
         0.00000E+00
         0.00000E+00
         0.00000E+00
         0.00000E+00
         0.00000E+00
         0.00000E+00
         0.00000E+00
         0.00000E+00
         0.00000E+00
         0.00000E+00
         0.00000E+00
         0.00000E+00
         0.00000E+00
         0.00000E+00
         0.00000E+00
         0.00000E+00
         0.00000E+00
         0.00000E+00
         0.00000E+00
         0.00000E+00
         0.00000E+00
         0.00000E+00
         0.00000E+00
         0.00000E+00
         0.00000E+00
         0.00000E+00
         0.00000E+00
         0.00000E+00
         0.00000E+00
         0.00000E+00
         0.00000E+00
         0.00000E+00
         0.00000E+00
         0.00000E+00
         0.00000E+00
         0.00000E+00
         0.00000E+00
         0.00000E+00
         0.00000E+00
         0.00000E+00
         0.00000E+00
         0.00000E+00
         0.00000E+00
         0.00000E+00
         0.00000E+00
         0.00000E+00
         0.00000E+00
         0.00000E+00
         0.00000E+00
         0.00000E+00
         0.00000E+00
         0.00000E+00
         0.00000E+00
         0.00000E+00
         0.00000E+00
         0.00000E+00
         0.00000E+00
         0.00000E+00
         0.00000E+00
         0.00000E+00
         0.00000E+00
         0.00000E+00
         0.00000E+00
         0.00000E+00
         0.00000E+00
         0.00000E+00
         0.00000E+00
         0.00000E+00
         0.00000E+00
         0.00000E+00
         0.00000E+00
         0.00000E+00
         0.00000E+00
         0.00000E+00
         0.00000E+00
         0.00000E+00
         0.00000E+00
         0.00000E+00
         0.00000E+00
         0.00000E+00
         0.00000E+00
         0.00000E+00
         0.00000E+00
         0.00000E+00
         0.00000E+00
         0.00000E+00
         0.00000E+00
         0.00000E+00
         0.00000E+00
         0.00000E+00
         0.00000E+00
         0.00000E+00
         0.00000E+00
         0.00000E+00
         0.00000E+00
         0.00000E+00
         0.00000E+00
         0.00000E+00
         0.00000E+00
         0.00000E+00
         0.00000E+00
         0.00000E+00
         0.00000E+00
         0.00000E+00
         0.00000E+00
         0.00000E+00
         0.00000E+00
         0.00000E+00
         0.00000E+00
         0.00000E+00
         0.00000E+00
         0.00000E+00
         0.00000E+00
         0.00000E+00
         0.00000E+00
         0.00000E+00
         0.00000E+00
         0.00000E+00
         0.00000E+00
         0.00000E+00
         0.00000E+00
         0.00000E+00
         0.00000E+00
         0.00000E+00
         0.00000E+00
         0.00000E+00
         0.00000E+00
         0.00000E+00
         0.00000E+00
         0.00000E+00
         0.00000E+00
         0.00000E+00
         0.00000E+00
         0.00000E+00
         0.00000E+00
         0.00000E+00
         0.00000E+00
         0.00000E+00
         0.00000E+00
         0.00000E+00
         0.00000E+00
         0.00000E+00
         0.00000E+00
         0.00000E+00
         0.00000E+00
         0.00000E+00
         0.00000E+00
         0.00000E+00
         0.00000E+00
         0.00000E+00
         0.00000E+00
         0.00000E+00
         0.00000E+00
         0.00000E+00
         0.00000E+00
         0.00000E+00
         0.00000E+00
         0.00000E+00
         0.00000E+00
         0.00000E+00
         0.00000E+00
         0.00000E+00
         0.00000E+00
         0.00000E+00
         0.00000E+00
         0.00000E+00
         0.00000E+00
         0.00000E+00
         0.00000E+00
         0.00000E+00
         0.00000E+00
         0.00000E+00
         0.00000E+00
         0.00000E+00
         0.00000E+00
         0.00000E+00
         0.00000E+00
         0.00000E+00
         0.00000E+00
         0.00000E+00
         0.00000E+00
         0.00000E+00
         0.00000E+00
         0.00000E+00
         0.00000E+00
         0.00000E+00
         0.00000E+00
         0.00000E+00
         0.00000E+00
         0.00000E+00
         0.00000E+00
         0.00000E+00
         0.00000E+00
         0.00000E+00
         0.00000E+00
         0.00000E+00
         0.00000E+00
         0.00000E+00
         0.00000E+00
         0.00000E+00
         0.00000E+00
         0.00000E+00
         0.00000E+00
         0.00000E+00
         0.00000E+00
         0.00000E+00
         0.00000E+00
         0.00000E+00
         0.00000E+00
         0.00000E+00
         0.00000E+00
         0.00000E+00
         0.00000E+00
         0.00000E+00
         0.00000E+00
         0.00000E+00
         0.00000E+00
         0.00000E+00
         0.00000E+00
         0.00000E+00
         0.00000E+00
         0.00000E+00
         0.00000E+00
         0.00000E+00
         0.00000E+00
         0.00000E+00
         0.00000E+00
         0.00000E+00
         0.00000E+00
         0.00000E+00
         0.00000E+00
         0.00000E+00
         0.00000E+00
         0.00000E+00
         0.00000E+00
         0.00000E+00
         0.00000E+00
         0.00000E+00
         0.00000E+00
         0.00000E+00
         0.00000E+00
         0.00000E+00
         0.00000E+00
         0.00000E+00
         0.00000E+00
         0.00000E+00
         0.00000E+00
         0.00000E+00
         0.00000E+00
         0.00000E+00
         0.00000E+00
         0.00000E+00
         0.00000E+00
         0.00000E+00
         0.00000E+00
         0.00000E+00
         0.00000E+00
         0.00000E+00
         0.00000E+00
         0.00000E+00
         0.00000E+00
         0.00000E+00
         0.00000E+00
         0.00000E+00
         0.00000E+00
         0.00000E+00
         0.00000E+00
         0.00000E+00
         0.00000E+00
         0.00000E+00
         0.00000E+00
         0.00000E+00
         0.00000E+00
         0.00000E+00
         0.00000E+00
         0.00000E+00
         0.00000E+00
         0.00000E+00
         0.00000E+00
         0.00000E+00
         0.00000E+00
         0.00000E+00
         0.00000E+00
         0.00000E+00
         0.00000E+00
         0.00000E+00
         0.00000E+00
         0.00000E+00
         0.00000E+00
         0.00000E+00
         0.00000E+00
         0.00000E+00
         0.00000E+00
         0.00000E+00
         0.00000E+00
         0.00000E+00
         0.00000E+00
         0.00000E+00
         0.00000E+00
         0.00000E+00
         0.00000E+00
         0.00000E+00
         0.00000E+00
         0.00000E+00
         0.00000E+00
         0.00000E+00
         0.00000E+00
         0.00000E+00
         0.00000E+00
         0.00000E+00
         0.00000E+00
         0.00000E+00
         0.00000E+00
         0.00000E+00
         0.00000E+00
         0.00000E+00
         0.00000E+00
         0.00000E+00
         0.00000E+00
         0.00000E+00
         0.00000E+00
         0.00000E+00
         0.00000E+00
         0.00000E+00
         0.00000E+00
         0.00000E+00
         0.00000E+00
         0.00000E+00
         0.00000E+00
         0.00000E+00
         0.00000E+00
         0.00000E+00
         0.00000E+00
         0.00000E+00
         0.00000E+00
         0.00000E+00
         0.00000E+00
         0.00000E+00
         0.00000E+00
         0.00000E+00
         0.00000E+00
         0.00000E+00
         0.00000E+00
         0.00000E+00
         0.00000E+00
         0.00000E+00
         0.00000E+00
         0.00000E+00
         0.00000E+00
         0.00000E+00
         0.00000E+00
         0.00000E+00
         0.00000E+00
         0.00000E+00
         0.00000E+00
         0.00000E+00
         0.00000E+00
         0.00000E+00
         0.00000E+00
         0.00000E+00
         0.00000E+00
         0.00000E+00
         0.00000E+00
         0.00000E+00
         0.00000E+00
         0.00000E+00
         0.00000E+00
         0.00000E+00
         0.00000E+00
         0.00000E+00
         0.00000E+00
         0.00000E+00
         0.00000E+00
         0.00000E+00
         0.00000E+00
         0.00000E+00
         0.00000E+00
         0.00000E+00
         0.00000E+00
         0.00000E+00
         0.00000E+00
         0.00000E+00
         0.00000E+00
         0.00000E+00
         0.00000E+00
         0.00000E+00
         0.00000E+00
         0.00000E+00
         0.00000E+00
         0.00000E+00
         0.00000E+00
         0.00000E+00
         0.00000E+00
         0.00000E+00
         0.00000E+00
         0.00000E+00
         0.00000E+00
         0.00000E+00
         0.00000E+00
         0.00000E+00
         0.00000E+00
         0.00000E+00
         0.00000E+00
         0.00000E+00
         0.00000E+00
         0.00000E+00
         0.00000E+00
         0.00000E+00
         0.00000E+00
         0.00000E+00
         0.00000E+00
         0.00000E+00
         0.00000E+00
         0.00000E+00
         0.00000E+00
         0.00000E+00
         0.00000E+00
         0.00000E+00
         0.00000E+00
         0.00000E+00
         0.00000E+00
         0.00000E+00
         0.00000E+00
         0.00000E+00
         0.00000E+00
         0.00000E+00
         0.00000E+00
         0.00000E+00
         0.00000E+00
         0.00000E+00
         0.00000E+00
         0.00000E+00
         0.00000E+00
         0.00000E+00
         0.00000E+00
         0.00000E+00
         0.00000E+00
         0.00000E+00
         0.00000E+00
         0.00000E+00
         0.00000E+00
         0.00000E+00
         0.00000E+00
         0.00000E+00
         0.00000E+00
         0.00000E+00
         0.00000E+00
         0.00000E+00
         0.00000E+00
         0.00000E+00
         0.00000E+00
         0.00000E+00
         0.00000E+00
         0.00000E+00
         0.00000E+00
         0.00000E+00
         0.00000E+00
         0.00000E+00
         0.00000E+00
         0.00000E+00
         0.00000E+00
         0.00000E+00
         0.00000E+00
         0.00000E+00
         0.00000E+00
         0.00000E+00
         0.00000E+00
         0.00000E+00
         0.00000E+00
         0.00000E+00
         0.00000E+00
         0.00000E+00
         0.00000E+00
         0.00000E+00
         0.00000E+00
         0.00000E+00
         0.00000E+00
         0.00000E+00
         0.00000E+00
         0.00000E+00
         0.00000E+00
         0.00000E+00
         0.00000E+00
         0.00000E+00
         0.00000E+00
         0.00000E+00
         0.00000E+00
         0.00000E+00
         0.00000E+00
         0.00000E+00
         0.00000E+00
         0.00000E+00
         0.00000E+00
         0.00000E+00
         0.00000E+00
         0.00000E+00
         0.00000E+00
         0.00000E+00
         0.00000E+00
         0.00000E+00
         0.00000E+00
         0.00000E+00
         0.00000E+00
         0.00000E+00
         0.00000E+00
         0.00000E+00
         0.00000E+00
         0.00000E+00
         0.00000E+00
         0.00000E+00
         0.00000E+00
         0.00000E+00
         0.00000E+00
         0.00000E+00
         0.00000E+00
         0.00000E+00
         0.00000E+00
         0.00000E+00
         0.00000E+00
         0.00000E+00
         0.00000E+00
         0.00000E+00
         0.00000E+00
         0.00000E+00
         0.00000E+00
         0.00000E+00
         0.00000E+00
         0.00000E+00
         0.00000E+00
         0.00000E+00
         0.00000E+00
         0.00000E+00
         0.00000E+00
         0.00000E+00
         0.00000E+00
         0.00000E+00
         0.00000E+00
         0.00000E+00
         0.00000E+00
         0.00000E+00
         0.00000E+00
         0.00000E+00
         0.00000E+00
         0.00000E+00
         0.00000E+00
         0.00000E+00
         0.00000E+00
         0.00000E+00
         0.00000E+00
         0.00000E+00
         0.00000E+00
         0.00000E+00
         0.00000E+00
         0.00000E+00
         0.00000E+00
         0.00000E+00
         0.00000E+00
         0.00000E+00
         0.00000E+00
         0.00000E+00
         0.00000E+00
         0.00000E+00
         0.00000E+00
         0.00000E+00
         0.00000E+00
         0.00000E+00
         0.00000E+00
         0.00000E+00
         0.00000E+00
         0.00000E+00
         0.00000E+00
         0.00000E+00
         0.00000E+00
         0.00000E+00
         0.00000E+00
         0.00000E+00
         0.00000E+00
         0.00000E+00
         0.00000E+00
         0.00000E+00
         0.00000E+00
         0.00000E+00
         0.00000E+00
         0.00000E+00
         0.00000E+00
         0.00000E+00
         0.00000E+00
         0.00000E+00
         0.00000E+00
         0.00000E+00
         0.00000E+00
         0.00000E+00
         0.00000E+00
         0.00000E+00
         0.00000E+00
         0.00000E+00
         0.00000E+00
         0.00000E+00
         0.00000E+00
         0.00000E+00
         0.00000E+00
         0.00000E+00
         0.00000E+00
         0.00000E+00
         0.00000E+00
         0.00000E+00
         0.00000E+00
         0.00000E+00
         0.00000E+00
         0.00000E+00
         0.00000E+00
         0.00000E+00
         0.00000E+00
         0.00000E+00
         0.00000E+00
         0.00000E+00
         0.00000E+00
         0.00000E+00
         0.00000E+00
         0.00000E+00
         0.00000E+00
         0.00000E+00
         0.00000E+00
         0.00000E+00
         0.00000E+00
         0.00000E+00
         0.00000E+00
         0.00000E+00
         0.00000E+00
         0.00000E+00
         0.00000E+00
         0.00000E+00
         0.00000E+00
         0.00000E+00
         0.00000E+00
         0.00000E+00
         0.00000E+00
         0.00000E+00
         0.00000E+00
         0.00000E+00
         0.00000E+00
         0.00000E+00
         0.00000E+00
         0.00000E+00
         0.00000E+00
         0.00000E+00
         0.00000E+00
         0.00000E+00
         0.00000E+00
         0.00000E+00
         0.00000E+00
         0.00000E+00
         0.00000E+00
         0.00000E+00
         0.00000E+00
         0.00000E+00
         0.00000E+00
         0.00000E+00
         0.00000E+00
         0.00000E+00
         0.00000E+00
         0.00000E+00
         0.00000E+00
         0.00000E+00
         0.00000E+00
         0.00000E+00
         0.00000E+00
         0.00000E+00
         0.00000E+00
         0.00000E+00
         0.00000E+00
         0.00000E+00
         0.00000E+00
         0.00000E+00
         0.00000E+00
         0.00000E+00
         0.00000E+00
         0.00000E+00
         0.00000E+00
         0.00000E+00
         0.00000E+00
         0.00000E+00
         0.00000E+00
         0.00000E+00
         0.00000E+00
         0.00000E+00
         0.00000E+00
         0.00000E+00
         0.00000E+00
         0.00000E+00
         0.00000E+00
         0.00000E+00
         0.00000E+00
         0.00000E+00
         0.00000E+00
         0.00000E+00
         0.00000E+00
         0.00000E+00
         0.00000E+00
         0.00000E+00
         0.00000E+00
         0.00000E+00
         0.00000E+00
         0.00000E+00
         0.00000E+00
         0.00000E+00
         0.00000E+00
         0.00000E+00
         0.00000E+00
         0.00000E+00
         0.00000E+00
         0.00000E+00
         0.00000E+00
         0.00000E+00
         0.00000E+00
         0.00000E+00
         0.00000E+00
         0.00000E+00
         0.00000E+00
         0.00000E+00
         0.00000E+00
         0.00000E+00
         0.00000E+00
         0.00000E+00
         0.00000E+00
         0.00000E+00
         0.00000E+00
         0.00000E+00
         0.00000E+00
         0.00000E+00
         0.00000E+00
         0.00000E+00
         0.00000E+00
         0.00000E+00
         0.00000E+00
         0.00000E+00
         0.00000E+00
         0.00000E+00
         0.00000E+00
         0.00000E+00
         0.00000E+00
         0.00000E+00
         0.00000E+00
         0.00000E+00
         0.00000E+00
         0.00000E+00
         0.00000E+00
         0.00000E+00
         0.00000E+00
         0.00000E+00
         0.00000E+00
         0.00000E+00
         0.00000E+00
         0.00000E+00
         0.00000E+00
         0.00000E+00
         0.00000E+00
         0.00000E+00
         0.00000E+00
         0.00000E+00
         0.00000E+00
         0.00000E+00
         0.00000E+00
         0.00000E+00
         0.00000E+00
         0.00000E+00
         0.00000E+00
         0.00000E+00
         0.00000E+00
         0.00000E+00
         0.00000E+00
         0.00000E+00
         0.00000E+00
         0.00000E+00
         0.00000E+00
         0.00000E+00
         0.00000E+00
         0.00000E+00
         0.00000E+00
         0.00000E+00
         0.00000E+00
         0.00000E+00
         0.00000E+00
         0.00000E+00
         0.00000E+00
         0.00000E+00
         0.00000E+00
         0.00000E+00
         0.00000E+00
         0.00000E+00
         0.00000E+00
         0.00000E+00
         0.00000E+00
         0.00000E+00
         0.00000E+00
         0.00000E+00
         0.00000E+00
         0.00000E+00
         0.00000E+00
         0.00000E+00
         0.00000E+00
         0.00000E+00
         0.00000E+00
         0.00000E+00
         0.00000E+00
         0.00000E+00
         0.00000E+00
         0.00000E+00
         0.00000E+00
         0.00000E+00
         0.00000E+00
         0.00000E+00
         0.00000E+00
         0.00000E+00
         0.00000E+00
         0.00000E+00
         0.00000E+00
         0.00000E+00
         0.00000E+00
         0.00000E+00
         0.00000E+00
         0.00000E+00
         0.00000E+00
         0.00000E+00
         0.00000E+00
         0.00000E+00
         0.00000E+00
         0.00000E+00
         0.00000E+00
         0.00000E+00
         0.00000E+00
         0.00000E+00
         0.00000E+00
         0.00000E+00
         0.00000E+00
         0.00000E+00
         0.00000E+00
         0.00000E+00
         0.00000E+00
         0.00000E+00
         0.00000E+00
         0.00000E+00
         0.00000E+00
         0.00000E+00
         0.00000E+00
         0.00000E+00
         0.00000E+00
         0.00000E+00
         0.00000E+00
         0.00000E+00
         0.00000E+00
         0.00000E+00
         0.00000E+00
         0.00000E+00
         0.00000E+00
         0.00000E+00
         0.00000E+00
         0.00000E+00
         0.00000E+00
         0.00000E+00
         0.00000E+00
         0.00000E+00
         0.00000E+00
         0.00000E+00
         0.00000E+00
         0.00000E+00
         0.00000E+00
         0.00000E+00
         0.00000E+00
         0.00000E+00
         0.00000E+00
         0.00000E+00
         0.00000E+00
         0.00000E+00
         0.00000E+00
         0.00000E+00
         0.00000E+00
         0.00000E+00
         0.00000E+00
         0.00000E+00
         0.00000E+00
         0.00000E+00
         0.00000E+00
         0.00000E+00
         0.00000E+00
         0.00000E+00
         0.00000E+00
         0.00000E+00
         0.00000E+00
         0.00000E+00
         0.00000E+00
         0.00000E+00
         0.00000E+00
         0.00000E+00
         0.00000E+00
         0.00000E+00
         0.00000E+00
         0.00000E+00
         0.00000E+00
         0.00000E+00
         0.00000E+00
         0.00000E+00
         0.00000E+00
         0.00000E+00
         0.00000E+00
         0.00000E+00
         0.00000E+00
         0.00000E+00
         0.00000E+00
         0.00000E+00
         0.00000E+00
         0.00000E+00
         0.00000E+00
         0.00000E+00
         0.00000E+00
         0.00000E+00
         0.00000E+00
         0.00000E+00
         0.00000E+00
         0.00000E+00
         0.00000E+00
         0.00000E+00
         0.00000E+00
         0.00000E+00
         0.00000E+00
         0.00000E+00
         0.00000E+00
         0.00000E+00
         0.00000E+00
         0.00000E+00
         0.00000E+00
         0.00000E+00
         0.00000E+00
         0.00000E+00
         0.00000E+00
         0.00000E+00
         0.00000E+00
         0.00000E+00
         0.00000E+00
         0.00000E+00
         0.00000E+00
         0.00000E+00
         0.00000E+00
         0.00000E+00
         0.00000E+00
         0.00000E+00
         0.00000E+00
         0.00000E+00
         0.00000E+00
         0.00000E+00
         0.00000E+00
         0.00000E+00
         0.00000E+00
         0.00000E+00
         0.00000E+00
         0.00000E+00
         0.00000E+00
         0.00000E+00
         0.00000E+00
         0.00000E+00
         0.00000E+00
         0.00000E+00
         0.00000E+00
         0.00000E+00
         0.00000E+00
         0.00000E+00
         0.00000E+00
         0.00000E+00
         0.00000E+00
         0.00000E+00
         0.00000E+00
         0.00000E+00
         0.00000E+00
         0.00000E+00
         0.00000E+00
         0.00000E+00
         0.00000E+00
         0.00000E+00
         0.00000E+00
         0.00000E+00
         0.00000E+00
         0.00000E+00
         0.00000E+00
         0.00000E+00
         0.00000E+00
         0.00000E+00
         0.00000E+00
         0.00000E+00
         0.00000E+00
         0.00000E+00
         0.00000E+00
         0.00000E+00
         0.00000E+00
         0.00000E+00
         0.00000E+00
         0.00000E+00
         0.00000E+00
         0.00000E+00
         0.00000E+00
         0.00000E+00
         0.00000E+00
         0.00000E+00
         0.00000E+00
         0.00000E+00
         0.00000E+00
         0.00000E+00
         0.00000E+00
         0.00000E+00
         0.00000E+00
         0.00000E+00
         0.00000E+00
         0.00000E+00
         0.00000E+00
         0.00000E+00
         0.00000E+00
         0.00000E+00
         0.00000E+00
         0.00000E+00
         0.00000E+00
         0.00000E+00
         0.00000E+00
         0.00000E+00
         0.00000E+00
         0.00000E+00
         0.00000E+00
         0.00000E+00
         0.00000E+00
         0.00000E+00
         0.00000E+00
         0.00000E+00
         0.00000E+00
         0.00000E+00
         0.00000E+00
         0.00000E+00
         0.00000E+00
         0.00000E+00
         0.00000E+00
         0.00000E+00
         0.00000E+00
         0.00000E+00
         0.00000E+00
         0.00000E+00
         0.00000E+00
         0.00000E+00
         0.00000E+00
         0.00000E+00
         0.00000E+00
         0.00000E+00
         0.00000E+00
         0.00000E+00
         0.00000E+00
         0.00000E+00
         0.00000E+00
         0.00000E+00
         0.00000E+00
         0.00000E+00
         0.00000E+00
         0.00000E+00
         0.00000E+00
         0.00000E+00
         0.00000E+00
         0.00000E+00
         0.00000E+00
         0.00000E+00
         0.00000E+00
         0.00000E+00
         0.00000E+00
         0.00000E+00
         0.00000E+00
         0.00000E+00
         0.00000E+00
         0.00000E+00
         0.00000E+00
         0.00000E+00
         0.00000E+00
         0.00000E+00
         0.00000E+00
         0.00000E+00
         0.00000E+00
         0.00000E+00
         0.00000E+00
         0.00000E+00
         0.00000E+00
         0.00000E+00
         0.00000E+00
         0.00000E+00
         0.00000E+00
         0.00000E+00
         0.00000E+00
         0.00000E+00
         0.00000E+00
         0.00000E+00
         0.00000E+00
         0.00000E+00
         0.00000E+00
         0.00000E+00
         0.00000E+00
         0.00000E+00
         0.00000E+00
         0.00000E+00
         0.00000E+00
         0.00000E+00
         0.00000E+00
         0.00000E+00
         0.00000E+00
         0.00000E+00
         0.00000E+00
         0.00000E+00
         0.00000E+00
         0.00000E+00
         0.00000E+00
         0.00000E+00
         0.00000E+00
         0.00000E+00
         0.00000E+00
         0.00000E+00
         0.00000E+00
         0.00000E+00
         0.00000E+00
         0.00000E+00
         0.00000E+00
         0.00000E+00
         0.00000E+00
         0.00000E+00
         0.00000E+00
         0.00000E+00
         0.00000E+00
         0.00000E+00
         0.00000E+00
         0.00000E+00
         0.00000E+00
         0.00000E+00
         0.00000E+00
         0.00000E+00
         0.00000E+00
         0.00000E+00
         0.00000E+00
         0.00000E+00
         0.00000E+00
         0.00000E+00
         0.00000E+00
         0.00000E+00
         0.00000E+00
         0.00000E+00
         0.00000E+00
         0.00000E+00
         0.00000E+00
         0.00000E+00
         0.00000E+00
         0.00000E+00
         0.00000E+00
         0.00000E+00
         0.00000E+00
         0.00000E+00
         0.00000E+00
         0.00000E+00
         0.00000E+00
         0.00000E+00
         0.00000E+00
         0.00000E+00
         0.00000E+00
         0.00000E+00
         0.00000E+00
         0.00000E+00
         0.00000E+00
         0.00000E+00
         0.00000E+00
         0.00000E+00
         0.00000E+00
         0.00000E+00
         0.00000E+00
         0.00000E+00
         0.00000E+00
         0.00000E+00
         0.00000E+00
         0.00000E+00
         0.00000E+00
         0.00000E+00
         0.00000E+00
         0.00000E+00
         0.00000E+00
         0.00000E+00
         0.00000E+00
         0.00000E+00
         0.00000E+00
         0.00000E+00
         0.00000E+00
         0.00000E+00
         0.00000E+00
         0.00000E+00
         0.00000E+00
         0.00000E+00
         0.00000E+00
         0.00000E+00
         0.00000E+00
         0.00000E+00
         0.00000E+00
         0.00000E+00
         0.00000E+00
         0.00000E+00
         0.00000E+00
         0.00000E+00
         0.00000E+00
         0.00000E+00
         0.00000E+00
         0.00000E+00
         0.00000E+00
         0.00000E+00
         0.00000E+00
         0.00000E+00
         0.00000E+00
         0.00000E+00
         0.00000E+00
         0.00000E+00
         0.00000E+00
         0.00000E+00
         0.00000E+00
         0.00000E+00
         0.00000E+00
         0.00000E+00
         0.00000E+00
         0.00000E+00
         0.00000E+00
         0.00000E+00
         0.00000E+00
         0.00000E+00
         0.00000E+00
         0.00000E+00
         0.00000E+00
         0.00000E+00
         0.00000E+00
         0.00000E+00
         0.00000E+00
         0.00000E+00
         0.00000E+00
         0.00000E+00
         0.00000E+00
         0.00000E+00
         0.00000E+00
         0.00000E+00
         0.00000E+00
         0.00000E+00
         0.00000E+00
         0.00000E+00
         0.00000E+00
         0.00000E+00
         0.00000E+00
         0.00000E+00
         0.00000E+00
         0.00000E+00
         0.00000E+00
         0.00000E+00
         0.00000E+00
         0.00000E+00
         0.00000E+00
         0.00000E+00
         0.00000E+00
         0.00000E+00
         0.00000E+00
         0.00000E+00
         0.00000E+00
         0.00000E+00
         0.00000E+00
         0.00000E+00
         0.00000E+00
         0.00000E+00
         0.00000E+00
         0.00000E+00
         0.00000E+00
         0.00000E+00
         0.00000E+00
         0.00000E+00
         0.00000E+00
         0.00000E+00
         0.00000E+00
         0.00000E+00
         0.00000E+00
         0.00000E+00
         0.00000E+00
         0.00000E+00
         0.00000E+00
         0.00000E+00
         0.00000E+00
         0.00000E+00
         0.00000E+00
         0.00000E+00
         0.00000E+00
         0.00000E+00
         0.00000E+00
         0.00000E+00
         0.00000E+00
         0.00000E+00
         0.00000E+00
         0.00000E+00
         0.00000E+00
         0.00000E+00
         0.00000E+00
         0.00000E+00
         0.00000E+00
         0.00000E+00
         0.00000E+00
         0.00000E+00
         0.00000E+00
         0.00000E+00
         0.00000E+00
         0.00000E+00
         0.00000E+00
         0.00000E+00
         0.00000E+00
         0.00000E+00
         0.00000E+00
         0.00000E+00
         0.00000E+00
         0.00000E+00
         0.00000E+00
         0.00000E+00
         0.00000E+00
         0.00000E+00
         0.00000E+00
         0.00000E+00
         0.00000E+00
         0.00000E+00
         0.00000E+00
         0.00000E+00
         0.00000E+00
         0.00000E+00
         0.00000E+00
         0.00000E+00
         0.00000E+00
         0.00000E+00
         0.00000E+00
         0.00000E+00
         0.00000E+00
         0.00000E+00
         0.00000E+00
         0.00000E+00
         0.00000E+00
         0.00000E+00
         0.00000E+00
         0.00000E+00
         0.00000E+00
         0.00000E+00
         0.00000E+00
         0.00000E+00
         0.00000E+00
         0.00000E+00
         0.00000E+00
         0.00000E+00
         0.00000E+00
         0.00000E+00
         0.00000E+00
         0.00000E+00
         0.00000E+00
         0.00000E+00
         0.00000E+00
         0.00000E+00
         0.00000E+00
         0.00000E+00
         0.00000E+00
         0.00000E+00
         0.00000E+00
         0.00000E+00
         0.00000E+00
         0.00000E+00
         0.00000E+00
         0.00000E+00
         0.00000E+00
         0.00000E+00
         0.00000E+00
         0.00000E+00
         0.00000E+00
         0.00000E+00
         0.00000E+00
         0.00000E+00
         0.00000E+00
         0.00000E+00
         0.00000E+00
         0.00000E+00
         0.00000E+00
         0.00000E+00
         0.00000E+00
         0.00000E+00
         0.00000E+00
         0.00000E+00
         0.00000E+00
         0.00000E+00
         0.00000E+00
         0.00000E+00
         0.00000E+00
         0.00000E+00
         0.00000E+00
         0.00000E+00
         0.00000E+00
         0.00000E+00
         0.00000E+00
         0.00000E+00
         0.00000E+00
         0.00000E+00
         0.00000E+00
         0.00000E+00
         0.00000E+00
         0.00000E+00
         0.00000E+00
         0.00000E+00
         0.00000E+00
         0.00000E+00
         0.00000E+00
         0.00000E+00
         0.00000E+00
         0.00000E+00
         0.00000E+00
         0.00000E+00
         0.00000E+00
         0.00000E+00
         0.00000E+00
         0.00000E+00
         0.00000E+00
         0.00000E+00
         0.00000E+00
         0.00000E+00
         0.00000E+00
         0.00000E+00
         0.00000E+00
         0.00000E+00
         0.00000E+00
         0.00000E+00
         0.00000E+00
         0.00000E+00
         0.00000E+00
         0.00000E+00
         0.00000E+00
         0.00000E+00
         0.00000E+00
         0.00000E+00
         0.00000E+00
         0.00000E+00
         0.00000E+00
         0.00000E+00
         0.00000E+00
         0.00000E+00
         0.00000E+00
         0.00000E+00
         0.00000E+00
         0.00000E+00
         0.00000E+00
         0.00000E+00
         0.00000E+00
         0.00000E+00
         0.00000E+00
         0.00000E+00
         0.00000E+00
         0.00000E+00
         0.00000E+00
         0.00000E+00
         0.00000E+00
         0.00000E+00
         0.00000E+00
         0.00000E+00
         0.00000E+00
         0.00000E+00
         0.00000E+00
         0.00000E+00
         0.00000E+00
         0.00000E+00
         0.00000E+00
         0.00000E+00
         0.00000E+00
         0.00000E+00
         0.00000E+00
         0.00000E+00
         0.00000E+00
         0.00000E+00
         0.00000E+00
         0.00000E+00
         0.00000E+00
         0.00000E+00
         0.00000E+00
         0.00000E+00
         0.00000E+00
         0.00000E+00
         0.00000E+00
         0.00000E+00
         0.00000E+00
         0.00000E+00
         0.00000E+00
         0.00000E+00
         0.00000E+00
         0.00000E+00
  
SCALARS                         fint_z  double 1
LOOKUP_TABLE default
         0.00000E+00
         0.00000E+00
         0.00000E+00
         0.00000E+00
         0.00000E+00
         0.00000E+00
         0.00000E+00
         0.00000E+00
         0.00000E+00
         0.00000E+00
         0.00000E+00
         0.00000E+00
         0.00000E+00
         0.00000E+00
         0.00000E+00
         0.00000E+00
         0.00000E+00
         0.00000E+00
         0.00000E+00
         0.00000E+00
         0.00000E+00
         0.00000E+00
         0.00000E+00
         0.00000E+00
         0.00000E+00
         0.00000E+00
         0.00000E+00
         0.00000E+00
         0.00000E+00
         0.00000E+00
         0.00000E+00
         0.00000E+00
         0.00000E+00
         0.00000E+00
         0.00000E+00
         0.00000E+00
         0.00000E+00
         0.00000E+00
         0.00000E+00
         0.00000E+00
         0.00000E+00
         0.00000E+00
         0.00000E+00
         0.00000E+00
         0.00000E+00
         0.00000E+00
         0.00000E+00
         0.00000E+00
         0.00000E+00
         0.00000E+00
         0.00000E+00
         0.00000E+00
         0.00000E+00
         0.00000E+00
         0.00000E+00
         0.00000E+00
         0.00000E+00
         0.00000E+00
         0.00000E+00
         0.00000E+00
         0.00000E+00
         0.00000E+00
         0.00000E+00
         0.00000E+00
         0.00000E+00
         0.00000E+00
         0.00000E+00
         0.00000E+00
         0.00000E+00
         0.00000E+00
         0.00000E+00
         0.00000E+00
         0.00000E+00
         0.00000E+00
         0.00000E+00
         0.00000E+00
         0.00000E+00
         0.00000E+00
         0.00000E+00
         0.00000E+00
         0.00000E+00
         0.00000E+00
         0.00000E+00
         0.00000E+00
         0.00000E+00
         0.00000E+00
         0.00000E+00
         0.00000E+00
         0.00000E+00
         0.00000E+00
         0.00000E+00
         0.00000E+00
         0.00000E+00
         0.00000E+00
         0.00000E+00
         0.00000E+00
         0.00000E+00
         0.00000E+00
         0.00000E+00
         0.00000E+00
         0.00000E+00
         0.00000E+00
         0.00000E+00
         0.00000E+00
         0.00000E+00
         0.00000E+00
         0.00000E+00
         0.00000E+00
         0.00000E+00
         0.00000E+00
         0.00000E+00
         0.00000E+00
         0.00000E+00
         0.00000E+00
         0.00000E+00
         0.00000E+00
         0.00000E+00
         0.00000E+00
         0.00000E+00
         0.00000E+00
         0.00000E+00
         0.00000E+00
         0.00000E+00
         0.00000E+00
         0.00000E+00
         0.00000E+00
         0.00000E+00
         0.00000E+00
         0.00000E+00
         0.00000E+00
         0.00000E+00
         0.00000E+00
         0.00000E+00
         0.00000E+00
         0.00000E+00
         0.00000E+00
         0.00000E+00
         0.00000E+00
         0.00000E+00
         0.00000E+00
         0.00000E+00
         0.00000E+00
         0.00000E+00
         0.00000E+00
         0.00000E+00
         0.00000E+00
         0.00000E+00
         0.00000E+00
         0.00000E+00
         0.00000E+00
         0.00000E+00
         0.00000E+00
         0.00000E+00
         0.00000E+00
         0.00000E+00
         0.00000E+00
         0.00000E+00
         0.00000E+00
         0.00000E+00
         0.00000E+00
         0.00000E+00
         0.00000E+00
         0.00000E+00
         0.00000E+00
         0.00000E+00
         0.00000E+00
         0.00000E+00
         0.00000E+00
         0.00000E+00
         0.00000E+00
         0.00000E+00
         0.00000E+00
         0.00000E+00
         0.00000E+00
         0.00000E+00
         0.00000E+00
         0.00000E+00
         0.00000E+00
         0.00000E+00
         0.00000E+00
         0.00000E+00
         0.00000E+00
         0.00000E+00
         0.00000E+00
         0.00000E+00
         0.00000E+00
         0.00000E+00
         0.00000E+00
         0.00000E+00
         0.00000E+00
         0.00000E+00
         0.00000E+00
         0.00000E+00
         0.00000E+00
         0.00000E+00
         0.00000E+00
         0.00000E+00
         0.00000E+00
         0.00000E+00
         0.00000E+00
         0.00000E+00
         0.00000E+00
         0.00000E+00
         0.00000E+00
         0.00000E+00
         0.00000E+00
         0.00000E+00
         0.00000E+00
         0.00000E+00
         0.00000E+00
         0.00000E+00
         0.00000E+00
         0.00000E+00
         0.00000E+00
         0.00000E+00
         0.00000E+00
         0.00000E+00
         0.00000E+00
         0.00000E+00
         0.00000E+00
         0.00000E+00
         0.00000E+00
         0.00000E+00
         0.00000E+00
         0.00000E+00
         0.00000E+00
         0.00000E+00
         0.00000E+00
         0.00000E+00
         0.00000E+00
         0.00000E+00
         0.00000E+00
         0.00000E+00
         0.00000E+00
         0.00000E+00
         0.00000E+00
         0.00000E+00
         0.00000E+00
         0.00000E+00
         0.00000E+00
         0.00000E+00
         0.00000E+00
         0.00000E+00
         0.00000E+00
         0.00000E+00
         0.00000E+00
         0.00000E+00
         0.00000E+00
         0.00000E+00
         0.00000E+00
         0.00000E+00
         0.00000E+00
         0.00000E+00
         0.00000E+00
         0.00000E+00
         0.00000E+00
         0.00000E+00
         0.00000E+00
         0.00000E+00
         0.00000E+00
         0.00000E+00
         0.00000E+00
         0.00000E+00
         0.00000E+00
         0.00000E+00
         0.00000E+00
         0.00000E+00
         0.00000E+00
         0.00000E+00
         0.00000E+00
         0.00000E+00
         0.00000E+00
         0.00000E+00
         0.00000E+00
         0.00000E+00
         0.00000E+00
         0.00000E+00
         0.00000E+00
         0.00000E+00
         0.00000E+00
         0.00000E+00
         0.00000E+00
         0.00000E+00
         0.00000E+00
         0.00000E+00
         0.00000E+00
         0.00000E+00
         0.00000E+00
         0.00000E+00
         0.00000E+00
         0.00000E+00
         0.00000E+00
         0.00000E+00
         0.00000E+00
         0.00000E+00
         0.00000E+00
         0.00000E+00
         0.00000E+00
         0.00000E+00
         0.00000E+00
         0.00000E+00
         0.00000E+00
         0.00000E+00
         0.00000E+00
         0.00000E+00
         0.00000E+00
         0.00000E+00
         0.00000E+00
         0.00000E+00
         0.00000E+00
         0.00000E+00
         0.00000E+00
         0.00000E+00
         0.00000E+00
         0.00000E+00
         0.00000E+00
         0.00000E+00
         0.00000E+00
         0.00000E+00
         0.00000E+00
         0.00000E+00
         0.00000E+00
         0.00000E+00
         0.00000E+00
         0.00000E+00
         0.00000E+00
         0.00000E+00
         0.00000E+00
         0.00000E+00
         0.00000E+00
         0.00000E+00
         0.00000E+00
         0.00000E+00
         0.00000E+00
         0.00000E+00
         0.00000E+00
         0.00000E+00
         0.00000E+00
         0.00000E+00
         0.00000E+00
         0.00000E+00
         0.00000E+00
         0.00000E+00
         0.00000E+00
         0.00000E+00
         0.00000E+00
         0.00000E+00
         0.00000E+00
         0.00000E+00
         0.00000E+00
         0.00000E+00
         0.00000E+00
         0.00000E+00
         0.00000E+00
         0.00000E+00
         0.00000E+00
         0.00000E+00
         0.00000E+00
         0.00000E+00
         0.00000E+00
         0.00000E+00
         0.00000E+00
         0.00000E+00
         0.00000E+00
         0.00000E+00
         0.00000E+00
         0.00000E+00
         0.00000E+00
         0.00000E+00
         0.00000E+00
         0.00000E+00
         0.00000E+00
         0.00000E+00
         0.00000E+00
         0.00000E+00
         0.00000E+00
         0.00000E+00
         0.00000E+00
         0.00000E+00
         0.00000E+00
         0.00000E+00
         0.00000E+00
         0.00000E+00
         0.00000E+00
         0.00000E+00
         0.00000E+00
         0.00000E+00
         0.00000E+00
         0.00000E+00
         0.00000E+00
         0.00000E+00
         0.00000E+00
         0.00000E+00
         0.00000E+00
         0.00000E+00
         0.00000E+00
         0.00000E+00
         0.00000E+00
         0.00000E+00
         0.00000E+00
         0.00000E+00
         0.00000E+00
         0.00000E+00
         0.00000E+00
         0.00000E+00
         0.00000E+00
         0.00000E+00
         0.00000E+00
         0.00000E+00
         0.00000E+00
         0.00000E+00
         0.00000E+00
         0.00000E+00
         0.00000E+00
         0.00000E+00
         0.00000E+00
         0.00000E+00
         0.00000E+00
         0.00000E+00
         0.00000E+00
         0.00000E+00
         0.00000E+00
         0.00000E+00
         0.00000E+00
         0.00000E+00
         0.00000E+00
         0.00000E+00
         0.00000E+00
         0.00000E+00
         0.00000E+00
         0.00000E+00
         0.00000E+00
         0.00000E+00
         0.00000E+00
         0.00000E+00
         0.00000E+00
         0.00000E+00
         0.00000E+00
         0.00000E+00
         0.00000E+00
         0.00000E+00
         0.00000E+00
         0.00000E+00
         0.00000E+00
         0.00000E+00
         0.00000E+00
         0.00000E+00
         0.00000E+00
         0.00000E+00
         0.00000E+00
         0.00000E+00
         0.00000E+00
         0.00000E+00
         0.00000E+00
         0.00000E+00
         0.00000E+00
         0.00000E+00
         0.00000E+00
         0.00000E+00
         0.00000E+00
         0.00000E+00
         0.00000E+00
         0.00000E+00
         0.00000E+00
         0.00000E+00
         0.00000E+00
         0.00000E+00
         0.00000E+00
         0.00000E+00
         0.00000E+00
         0.00000E+00
         0.00000E+00
         0.00000E+00
         0.00000E+00
         0.00000E+00
         0.00000E+00
         0.00000E+00
         0.00000E+00
         0.00000E+00
         0.00000E+00
         0.00000E+00
         0.00000E+00
         0.00000E+00
         0.00000E+00
         0.00000E+00
         0.00000E+00
         0.00000E+00
         0.00000E+00
         0.00000E+00
         0.00000E+00
         0.00000E+00
         0.00000E+00
         0.00000E+00
         0.00000E+00
         0.00000E+00
         0.00000E+00
         0.00000E+00
         0.00000E+00
         0.00000E+00
         0.00000E+00
         0.00000E+00
         0.00000E+00
         0.00000E+00
         0.00000E+00
         0.00000E+00
         0.00000E+00
         0.00000E+00
         0.00000E+00
         0.00000E+00
         0.00000E+00
         0.00000E+00
         0.00000E+00
         0.00000E+00
         0.00000E+00
         0.00000E+00
         0.00000E+00
         0.00000E+00
         0.00000E+00
         0.00000E+00
         0.00000E+00
         0.00000E+00
         0.00000E+00
         0.00000E+00
         0.00000E+00
         0.00000E+00
         0.00000E+00
         0.00000E+00
         0.00000E+00
         0.00000E+00
         0.00000E+00
         0.00000E+00
         0.00000E+00
         0.00000E+00
         0.00000E+00
         0.00000E+00
         0.00000E+00
         0.00000E+00
         0.00000E+00
         0.00000E+00
         0.00000E+00
         0.00000E+00
         0.00000E+00
         0.00000E+00
         0.00000E+00
         0.00000E+00
         0.00000E+00
         0.00000E+00
         0.00000E+00
         0.00000E+00
         0.00000E+00
         0.00000E+00
         0.00000E+00
         0.00000E+00
         0.00000E+00
         0.00000E+00
         0.00000E+00
         0.00000E+00
         0.00000E+00
         0.00000E+00
         0.00000E+00
         0.00000E+00
         0.00000E+00
         0.00000E+00
         0.00000E+00
         0.00000E+00
         0.00000E+00
         0.00000E+00
         0.00000E+00
         0.00000E+00
         0.00000E+00
         0.00000E+00
         0.00000E+00
         0.00000E+00
         0.00000E+00
         0.00000E+00
         0.00000E+00
         0.00000E+00
         0.00000E+00
         0.00000E+00
         0.00000E+00
         0.00000E+00
         0.00000E+00
         0.00000E+00
         0.00000E+00
         0.00000E+00
         0.00000E+00
         0.00000E+00
         0.00000E+00
         0.00000E+00
         0.00000E+00
         0.00000E+00
         0.00000E+00
         0.00000E+00
         0.00000E+00
         0.00000E+00
         0.00000E+00
         0.00000E+00
         0.00000E+00
         0.00000E+00
         0.00000E+00
         0.00000E+00
         0.00000E+00
         0.00000E+00
         0.00000E+00
         0.00000E+00
         0.00000E+00
         0.00000E+00
         0.00000E+00
         0.00000E+00
         0.00000E+00
         0.00000E+00
         0.00000E+00
         0.00000E+00
         0.00000E+00
         0.00000E+00
         0.00000E+00
         0.00000E+00
         0.00000E+00
         0.00000E+00
         0.00000E+00
         0.00000E+00
         0.00000E+00
         0.00000E+00
         0.00000E+00
         0.00000E+00
         0.00000E+00
         0.00000E+00
         0.00000E+00
         0.00000E+00
         0.00000E+00
         0.00000E+00
         0.00000E+00
         0.00000E+00
         0.00000E+00
         0.00000E+00
         0.00000E+00
         0.00000E+00
         0.00000E+00
         0.00000E+00
         0.00000E+00
         0.00000E+00
         0.00000E+00
         0.00000E+00
         0.00000E+00
         0.00000E+00
         0.00000E+00
         0.00000E+00
         0.00000E+00
         0.00000E+00
         0.00000E+00
         0.00000E+00
         0.00000E+00
         0.00000E+00
         0.00000E+00
         0.00000E+00
         0.00000E+00
         0.00000E+00
         0.00000E+00
         0.00000E+00
         0.00000E+00
         0.00000E+00
         0.00000E+00
         0.00000E+00
         0.00000E+00
         0.00000E+00
         0.00000E+00
         0.00000E+00
         0.00000E+00
         0.00000E+00
         0.00000E+00
         0.00000E+00
         0.00000E+00
         0.00000E+00
         0.00000E+00
         0.00000E+00
         0.00000E+00
         0.00000E+00
         0.00000E+00
         0.00000E+00
         0.00000E+00
         0.00000E+00
         0.00000E+00
         0.00000E+00
         0.00000E+00
         0.00000E+00
         0.00000E+00
         0.00000E+00
         0.00000E+00
         0.00000E+00
         0.00000E+00
         0.00000E+00
         0.00000E+00
         0.00000E+00
         0.00000E+00
         0.00000E+00
         0.00000E+00
         0.00000E+00
         0.00000E+00
         0.00000E+00
         0.00000E+00
         0.00000E+00
         0.00000E+00
         0.00000E+00
         0.00000E+00
         0.00000E+00
         0.00000E+00
         0.00000E+00
         0.00000E+00
         0.00000E+00
         0.00000E+00
         0.00000E+00
         0.00000E+00
         0.00000E+00
         0.00000E+00
         0.00000E+00
         0.00000E+00
         0.00000E+00
         0.00000E+00
         0.00000E+00
         0.00000E+00
         0.00000E+00
         0.00000E+00
         0.00000E+00
         0.00000E+00
         0.00000E+00
         0.00000E+00
         0.00000E+00
         0.00000E+00
         0.00000E+00
         0.00000E+00
         0.00000E+00
         0.00000E+00
         0.00000E+00
         0.00000E+00
         0.00000E+00
         0.00000E+00
         0.00000E+00
         0.00000E+00
         0.00000E+00
         0.00000E+00
         0.00000E+00
         0.00000E+00
         0.00000E+00
         0.00000E+00
         0.00000E+00
         0.00000E+00
         0.00000E+00
         0.00000E+00
         0.00000E+00
         0.00000E+00
         0.00000E+00
         0.00000E+00
         0.00000E+00
         0.00000E+00
         0.00000E+00
         0.00000E+00
         0.00000E+00
         0.00000E+00
         0.00000E+00
         0.00000E+00
         0.00000E+00
         0.00000E+00
         0.00000E+00
         0.00000E+00
         0.00000E+00
         0.00000E+00
         0.00000E+00
         0.00000E+00
         0.00000E+00
         0.00000E+00
         0.00000E+00
         0.00000E+00
         0.00000E+00
         0.00000E+00
         0.00000E+00
         0.00000E+00
         0.00000E+00
         0.00000E+00
         0.00000E+00
         0.00000E+00
         0.00000E+00
         0.00000E+00
         0.00000E+00
         0.00000E+00
         0.00000E+00
         0.00000E+00
         0.00000E+00
         0.00000E+00
         0.00000E+00
         0.00000E+00
         0.00000E+00
         0.00000E+00
         0.00000E+00
         0.00000E+00
         0.00000E+00
         0.00000E+00
         0.00000E+00
         0.00000E+00
         0.00000E+00
         0.00000E+00
         0.00000E+00
         0.00000E+00
         0.00000E+00
         0.00000E+00
         0.00000E+00
         0.00000E+00
         0.00000E+00
         0.00000E+00
         0.00000E+00
         0.00000E+00
         0.00000E+00
         0.00000E+00
         0.00000E+00
         0.00000E+00
         0.00000E+00
         0.00000E+00
         0.00000E+00
         0.00000E+00
         0.00000E+00
         0.00000E+00
         0.00000E+00
         0.00000E+00
         0.00000E+00
         0.00000E+00
         0.00000E+00
         0.00000E+00
         0.00000E+00
         0.00000E+00
         0.00000E+00
         0.00000E+00
         0.00000E+00
         0.00000E+00
         0.00000E+00
         0.00000E+00
         0.00000E+00
         0.00000E+00
         0.00000E+00
         0.00000E+00
         0.00000E+00
         0.00000E+00
         0.00000E+00
         0.00000E+00
         0.00000E+00
         0.00000E+00
         0.00000E+00
         0.00000E+00
         0.00000E+00
         0.00000E+00
         0.00000E+00
         0.00000E+00
         0.00000E+00
         0.00000E+00
         0.00000E+00
         0.00000E+00
         0.00000E+00
         0.00000E+00
         0.00000E+00
         0.00000E+00
         0.00000E+00
         0.00000E+00
         0.00000E+00
         0.00000E+00
         0.00000E+00
         0.00000E+00
         0.00000E+00
         0.00000E+00
         0.00000E+00
         0.00000E+00
         0.00000E+00
         0.00000E+00
         0.00000E+00
         0.00000E+00
         0.00000E+00
         0.00000E+00
         0.00000E+00
         0.00000E+00
         0.00000E+00
         0.00000E+00
         0.00000E+00
         0.00000E+00
         0.00000E+00
         0.00000E+00
         0.00000E+00
         0.00000E+00
         0.00000E+00
         0.00000E+00
         0.00000E+00
         0.00000E+00
         0.00000E+00
         0.00000E+00
         0.00000E+00
         0.00000E+00
         0.00000E+00
         0.00000E+00
         0.00000E+00
         0.00000E+00
         0.00000E+00
         0.00000E+00
         0.00000E+00
         0.00000E+00
         0.00000E+00
         0.00000E+00
         0.00000E+00
         0.00000E+00
         0.00000E+00
         0.00000E+00
         0.00000E+00
         0.00000E+00
         0.00000E+00
         0.00000E+00
         0.00000E+00
         0.00000E+00
         0.00000E+00
         0.00000E+00
         0.00000E+00
         0.00000E+00
         0.00000E+00
         0.00000E+00
         0.00000E+00
         0.00000E+00
         0.00000E+00
         0.00000E+00
         0.00000E+00
         0.00000E+00
         0.00000E+00
         0.00000E+00
         0.00000E+00
         0.00000E+00
         0.00000E+00
         0.00000E+00
         0.00000E+00
         0.00000E+00
         0.00000E+00
         0.00000E+00
         0.00000E+00
         0.00000E+00
         0.00000E+00
         0.00000E+00
         0.00000E+00
         0.00000E+00
         0.00000E+00
         0.00000E+00
         0.00000E+00
         0.00000E+00
         0.00000E+00
         0.00000E+00
         0.00000E+00
         0.00000E+00
         0.00000E+00
         0.00000E+00
         0.00000E+00
         0.00000E+00
         0.00000E+00
         0.00000E+00
         0.00000E+00
         0.00000E+00
         0.00000E+00
         0.00000E+00
         0.00000E+00
         0.00000E+00
         0.00000E+00
         0.00000E+00
         0.00000E+00
         0.00000E+00
         0.00000E+00
         0.00000E+00
         0.00000E+00
         0.00000E+00
         0.00000E+00
         0.00000E+00
         0.00000E+00
         0.00000E+00
         0.00000E+00
         0.00000E+00
         0.00000E+00
         0.00000E+00
         0.00000E+00
         0.00000E+00
         0.00000E+00
         0.00000E+00
         0.00000E+00
         0.00000E+00
         0.00000E+00
         0.00000E+00
         0.00000E+00
         0.00000E+00
         0.00000E+00
         0.00000E+00
         0.00000E+00
         0.00000E+00
         0.00000E+00
         0.00000E+00
         0.00000E+00
         0.00000E+00
         0.00000E+00
         0.00000E+00
         0.00000E+00
         0.00000E+00
         0.00000E+00
         0.00000E+00
         0.00000E+00
         0.00000E+00
         0.00000E+00
         0.00000E+00
         0.00000E+00
         0.00000E+00
         0.00000E+00
         0.00000E+00
         0.00000E+00
         0.00000E+00
         0.00000E+00
         0.00000E+00
         0.00000E+00
         0.00000E+00
         0.00000E+00
         0.00000E+00
         0.00000E+00
         0.00000E+00
         0.00000E+00
         0.00000E+00
         0.00000E+00
         0.00000E+00
         0.00000E+00
         0.00000E+00
         0.00000E+00
         0.00000E+00
         0.00000E+00
         0.00000E+00
         0.00000E+00
         0.00000E+00
         0.00000E+00
         0.00000E+00
         0.00000E+00
         0.00000E+00
         0.00000E+00
         0.00000E+00
         0.00000E+00
         0.00000E+00
         0.00000E+00
         0.00000E+00
         0.00000E+00
         0.00000E+00
         0.00000E+00
         0.00000E+00
         0.00000E+00
         0.00000E+00
         0.00000E+00
         0.00000E+00
         0.00000E+00
         0.00000E+00
         0.00000E+00
         0.00000E+00
         0.00000E+00
         0.00000E+00
         0.00000E+00
         0.00000E+00
         0.00000E+00
         0.00000E+00
         0.00000E+00
         0.00000E+00
         0.00000E+00
         0.00000E+00
         0.00000E+00
         0.00000E+00
         0.00000E+00
         0.00000E+00
         0.00000E+00
         0.00000E+00
         0.00000E+00
         0.00000E+00
         0.00000E+00
         0.00000E+00
         0.00000E+00
         0.00000E+00
         0.00000E+00
         0.00000E+00
         0.00000E+00
         0.00000E+00
         0.00000E+00
         0.00000E+00
         0.00000E+00
         0.00000E+00
         0.00000E+00
         0.00000E+00
         0.00000E+00
         0.00000E+00
         0.00000E+00
         0.00000E+00
         0.00000E+00
         0.00000E+00
         0.00000E+00
         0.00000E+00
         0.00000E+00
         0.00000E+00
         0.00000E+00
         0.00000E+00
         0.00000E+00
         0.00000E+00
         0.00000E+00
         0.00000E+00
         0.00000E+00
         0.00000E+00
         0.00000E+00
         0.00000E+00
         0.00000E+00
         0.00000E+00
         0.00000E+00
         0.00000E+00
         0.00000E+00
         0.00000E+00
         0.00000E+00
         0.00000E+00
         0.00000E+00
         0.00000E+00
         0.00000E+00
         0.00000E+00
         0.00000E+00
         0.00000E+00
         0.00000E+00
         0.00000E+00
         0.00000E+00
         0.00000E+00
         0.00000E+00
         0.00000E+00
         0.00000E+00
         0.00000E+00
         0.00000E+00
         0.00000E+00
         0.00000E+00
         0.00000E+00
         0.00000E+00
         0.00000E+00
         0.00000E+00
         0.00000E+00
         0.00000E+00
         0.00000E+00
         0.00000E+00
         0.00000E+00
         0.00000E+00
         0.00000E+00
         0.00000E+00
         0.00000E+00
         0.00000E+00
         0.00000E+00
         0.00000E+00
         0.00000E+00
         0.00000E+00
         0.00000E+00
         0.00000E+00
         0.00000E+00
         0.00000E+00
         0.00000E+00
         0.00000E+00
         0.00000E+00
         0.00000E+00
         0.00000E+00
         0.00000E+00
         0.00000E+00
         0.00000E+00
         0.00000E+00
         0.00000E+00
         0.00000E+00
         0.00000E+00
         0.00000E+00
         0.00000E+00
         0.00000E+00
         0.00000E+00
         0.00000E+00
         0.00000E+00
         0.00000E+00
         0.00000E+00
         0.00000E+00
         0.00000E+00
         0.00000E+00
         0.00000E+00
         0.00000E+00
         0.00000E+00
         0.00000E+00
         0.00000E+00
         0.00000E+00
         0.00000E+00
         0.00000E+00
         0.00000E+00
         0.00000E+00
         0.00000E+00
         0.00000E+00
         0.00000E+00
         0.00000E+00
         0.00000E+00
         0.00000E+00
         0.00000E+00
         0.00000E+00
         0.00000E+00
         0.00000E+00
         0.00000E+00
         0.00000E+00
         0.00000E+00
         0.00000E+00
         0.00000E+00
         0.00000E+00
         0.00000E+00
         0.00000E+00
         0.00000E+00
         0.00000E+00
         0.00000E+00
         0.00000E+00
         0.00000E+00
         0.00000E+00
         0.00000E+00
         0.00000E+00
         0.00000E+00
         0.00000E+00
         0.00000E+00
         0.00000E+00
         0.00000E+00
         0.00000E+00
         0.00000E+00
         0.00000E+00
         0.00000E+00
         0.00000E+00
         0.00000E+00
         0.00000E+00
         0.00000E+00
         0.00000E+00
         0.00000E+00
         0.00000E+00
         0.00000E+00
         0.00000E+00
         0.00000E+00
         0.00000E+00
         0.00000E+00
         0.00000E+00
         0.00000E+00
         0.00000E+00
         0.00000E+00
         0.00000E+00
         0.00000E+00
         0.00000E+00
         0.00000E+00
         0.00000E+00
         0.00000E+00
         0.00000E+00
         0.00000E+00
         0.00000E+00
         0.00000E+00
         0.00000E+00
         0.00000E+00
         0.00000E+00
         0.00000E+00
         0.00000E+00
         0.00000E+00
         0.00000E+00
         0.00000E+00
         0.00000E+00
         0.00000E+00
         0.00000E+00
         0.00000E+00
         0.00000E+00
         0.00000E+00
         0.00000E+00
         0.00000E+00
         0.00000E+00
         0.00000E+00
         0.00000E+00
         0.00000E+00
         0.00000E+00
         0.00000E+00
         0.00000E+00
         0.00000E+00
         0.00000E+00
         0.00000E+00
         0.00000E+00
         0.00000E+00
         0.00000E+00
         0.00000E+00
         0.00000E+00
         0.00000E+00
         0.00000E+00
         0.00000E+00
         0.00000E+00
         0.00000E+00
         0.00000E+00
         0.00000E+00
         0.00000E+00
         0.00000E+00
         0.00000E+00
         0.00000E+00
         0.00000E+00
         0.00000E+00
         0.00000E+00
         0.00000E+00
         0.00000E+00
         0.00000E+00
         0.00000E+00
         0.00000E+00
         0.00000E+00
         0.00000E+00
         0.00000E+00
         0.00000E+00
         0.00000E+00
         0.00000E+00
         0.00000E+00
         0.00000E+00
         0.00000E+00
         0.00000E+00
         0.00000E+00
         0.00000E+00
         0.00000E+00
         0.00000E+00
         0.00000E+00
         0.00000E+00
         0.00000E+00
         0.00000E+00
         0.00000E+00
         0.00000E+00
         0.00000E+00
         0.00000E+00
         0.00000E+00
         0.00000E+00
         0.00000E+00
         0.00000E+00
         0.00000E+00
         0.00000E+00
         0.00000E+00
         0.00000E+00
         0.00000E+00
         0.00000E+00
         0.00000E+00
         0.00000E+00
         0.00000E+00
         0.00000E+00
         0.00000E+00
         0.00000E+00
         0.00000E+00
         0.00000E+00
         0.00000E+00
         0.00000E+00
         0.00000E+00
         0.00000E+00
         0.00000E+00
         0.00000E+00
         0.00000E+00
         0.00000E+00
         0.00000E+00
         0.00000E+00
         0.00000E+00
         0.00000E+00
         0.00000E+00
         0.00000E+00
         0.00000E+00
         0.00000E+00
         0.00000E+00
         0.00000E+00
         0.00000E+00
         0.00000E+00
         0.00000E+00
         0.00000E+00
         0.00000E+00
         0.00000E+00
         0.00000E+00
         0.00000E+00
         0.00000E+00
         0.00000E+00
         0.00000E+00
         0.00000E+00
         0.00000E+00
         0.00000E+00
         0.00000E+00
         0.00000E+00
         0.00000E+00
         0.00000E+00
         0.00000E+00
         0.00000E+00
         0.00000E+00
         0.00000E+00
         0.00000E+00
         0.00000E+00
         0.00000E+00
         0.00000E+00
         0.00000E+00
         0.00000E+00
         0.00000E+00
         0.00000E+00
         0.00000E+00
         0.00000E+00
         0.00000E+00
         0.00000E+00
         0.00000E+00
         0.00000E+00
         0.00000E+00
         0.00000E+00
         0.00000E+00
         0.00000E+00
         0.00000E+00
         0.00000E+00
         0.00000E+00
         0.00000E+00
         0.00000E+00
         0.00000E+00
         0.00000E+00
         0.00000E+00
         0.00000E+00
         0.00000E+00
         0.00000E+00
         0.00000E+00
         0.00000E+00
         0.00000E+00
         0.00000E+00
         0.00000E+00
         0.00000E+00
         0.00000E+00
         0.00000E+00
         0.00000E+00
         0.00000E+00
         0.00000E+00
         0.00000E+00
         0.00000E+00
         0.00000E+00
         0.00000E+00
         0.00000E+00
         0.00000E+00
         0.00000E+00
         0.00000E+00
         0.00000E+00
         0.00000E+00
         0.00000E+00
         0.00000E+00
         0.00000E+00
         0.00000E+00
         0.00000E+00
         0.00000E+00
         0.00000E+00
         0.00000E+00
         0.00000E+00
         0.00000E+00
         0.00000E+00
         0.00000E+00
         0.00000E+00
         0.00000E+00
         0.00000E+00
         0.00000E+00
         0.00000E+00
         0.00000E+00
         0.00000E+00
         0.00000E+00
         0.00000E+00
         0.00000E+00
         0.00000E+00
         0.00000E+00
         0.00000E+00
         0.00000E+00
         0.00000E+00
         0.00000E+00
         0.00000E+00
         0.00000E+00
         0.00000E+00
         0.00000E+00
         0.00000E+00
         0.00000E+00
         0.00000E+00
         0.00000E+00
         0.00000E+00
         0.00000E+00
         0.00000E+00
         0.00000E+00
         0.00000E+00
         0.00000E+00
         0.00000E+00
         0.00000E+00
         0.00000E+00
         0.00000E+00
         0.00000E+00
         0.00000E+00
         0.00000E+00
         0.00000E+00
         0.00000E+00
         0.00000E+00
         0.00000E+00
         0.00000E+00
         0.00000E+00
         0.00000E+00
         0.00000E+00
         0.00000E+00
         0.00000E+00
         0.00000E+00
         0.00000E+00
         0.00000E+00
         0.00000E+00
         0.00000E+00
         0.00000E+00
         0.00000E+00
         0.00000E+00
         0.00000E+00
         0.00000E+00
         0.00000E+00
         0.00000E+00
         0.00000E+00
         0.00000E+00
         0.00000E+00
         0.00000E+00
         0.00000E+00
         0.00000E+00
         0.00000E+00
         0.00000E+00
         0.00000E+00
         0.00000E+00
         0.00000E+00
         0.00000E+00
         0.00000E+00
         0.00000E+00
         0.00000E+00
         0.00000E+00
         0.00000E+00
         0.00000E+00
         0.00000E+00
         0.00000E+00
         0.00000E+00
         0.00000E+00
         0.00000E+00
         0.00000E+00
         0.00000E+00
         0.00000E+00
         0.00000E+00
         0.00000E+00
         0.00000E+00
         0.00000E+00
         0.00000E+00
         0.00000E+00
         0.00000E+00
         0.00000E+00
         0.00000E+00
         0.00000E+00
         0.00000E+00
         0.00000E+00
         0.00000E+00
         0.00000E+00
         0.00000E+00
         0.00000E+00
         0.00000E+00
         0.00000E+00
         0.00000E+00
         0.00000E+00
         0.00000E+00
         0.00000E+00
         0.00000E+00
         0.00000E+00
         0.00000E+00
         0.00000E+00
         0.00000E+00
         0.00000E+00
         0.00000E+00
         0.00000E+00
         0.00000E+00
         0.00000E+00
         0.00000E+00
         0.00000E+00
         0.00000E+00
         0.00000E+00
         0.00000E+00
         0.00000E+00
         0.00000E+00
         0.00000E+00
         0.00000E+00
         0.00000E+00
         0.00000E+00
         0.00000E+00
         0.00000E+00
         0.00000E+00
         0.00000E+00
         0.00000E+00
         0.00000E+00
         0.00000E+00
         0.00000E+00
         0.00000E+00
         0.00000E+00
         0.00000E+00
         0.00000E+00
         0.00000E+00
         0.00000E+00
         0.00000E+00
         0.00000E+00
         0.00000E+00
         0.00000E+00
         0.00000E+00
         0.00000E+00
         0.00000E+00
         0.00000E+00
         0.00000E+00
         0.00000E+00
         0.00000E+00
         0.00000E+00
         0.00000E+00
         0.00000E+00
         0.00000E+00
         0.00000E+00
         0.00000E+00
         0.00000E+00
         0.00000E+00
         0.00000E+00
         0.00000E+00
         0.00000E+00
         0.00000E+00
         0.00000E+00
         0.00000E+00
         0.00000E+00
         0.00000E+00
         0.00000E+00
         0.00000E+00
         0.00000E+00
         0.00000E+00
         0.00000E+00
         0.00000E+00
         0.00000E+00
         0.00000E+00
         0.00000E+00
         0.00000E+00
         0.00000E+00
         0.00000E+00
         0.00000E+00
         0.00000E+00
         0.00000E+00
         0.00000E+00
         0.00000E+00
         0.00000E+00
         0.00000E+00
         0.00000E+00
         0.00000E+00
         0.00000E+00
         0.00000E+00
         0.00000E+00
         0.00000E+00
         0.00000E+00
         0.00000E+00
         0.00000E+00
         0.00000E+00
         0.00000E+00
         0.00000E+00
         0.00000E+00
         0.00000E+00
         0.00000E+00
         0.00000E+00
         0.00000E+00
         0.00000E+00
         0.00000E+00
         0.00000E+00
         0.00000E+00
         0.00000E+00
         0.00000E+00
         0.00000E+00
         0.00000E+00
         0.00000E+00
         0.00000E+00
         0.00000E+00
         0.00000E+00
         0.00000E+00
         0.00000E+00
         0.00000E+00
         0.00000E+00
         0.00000E+00
         0.00000E+00
         0.00000E+00
         0.00000E+00
         0.00000E+00
         0.00000E+00
         0.00000E+00
         0.00000E+00
         0.00000E+00
         0.00000E+00
         0.00000E+00
         0.00000E+00
         0.00000E+00
         0.00000E+00
         0.00000E+00
         0.00000E+00
         0.00000E+00
         0.00000E+00
         0.00000E+00
         0.00000E+00
         0.00000E+00
         0.00000E+00
         0.00000E+00
         0.00000E+00
         0.00000E+00
         0.00000E+00
         0.00000E+00
         0.00000E+00
         0.00000E+00
         0.00000E+00
         0.00000E+00
         0.00000E+00
         0.00000E+00
         0.00000E+00
         0.00000E+00
         0.00000E+00
         0.00000E+00
         0.00000E+00
         0.00000E+00
         0.00000E+00
         0.00000E+00
         0.00000E+00
         0.00000E+00
         0.00000E+00
         0.00000E+00
         0.00000E+00
         0.00000E+00
         0.00000E+00
         0.00000E+00
         0.00000E+00
         0.00000E+00
         0.00000E+00
         0.00000E+00
         0.00000E+00
         0.00000E+00
         0.00000E+00
         0.00000E+00
         0.00000E+00
         0.00000E+00
         0.00000E+00
         0.00000E+00
         0.00000E+00
         0.00000E+00
         0.00000E+00
         0.00000E+00
         0.00000E+00
         0.00000E+00
         0.00000E+00
         0.00000E+00
         0.00000E+00
         0.00000E+00
         0.00000E+00
         0.00000E+00
         0.00000E+00
         0.00000E+00
         0.00000E+00
         0.00000E+00
         0.00000E+00
         0.00000E+00
         0.00000E+00
         0.00000E+00
         0.00000E+00
         0.00000E+00
         0.00000E+00
         0.00000E+00
         0.00000E+00
         0.00000E+00
         0.00000E+00
         0.00000E+00
         0.00000E+00
         0.00000E+00
         0.00000E+00
         0.00000E+00
         0.00000E+00
         0.00000E+00
         0.00000E+00
         0.00000E+00
         0.00000E+00
         0.00000E+00
         0.00000E+00
         0.00000E+00
         0.00000E+00
         0.00000E+00
         0.00000E+00
         0.00000E+00
         0.00000E+00
         0.00000E+00
         0.00000E+00
         0.00000E+00
         0.00000E+00
         0.00000E+00
         0.00000E+00
         0.00000E+00
         0.00000E+00
         0.00000E+00
         0.00000E+00
         0.00000E+00
         0.00000E+00
         0.00000E+00
         0.00000E+00
         0.00000E+00
         0.00000E+00
         0.00000E+00
         0.00000E+00
         0.00000E+00
         0.00000E+00
         0.00000E+00
         0.00000E+00
         0.00000E+00
         0.00000E+00
         0.00000E+00
         0.00000E+00
         0.00000E+00
         0.00000E+00
         0.00000E+00
         0.00000E+00
         0.00000E+00
         0.00000E+00
         0.00000E+00
         0.00000E+00
         0.00000E+00
         0.00000E+00
         0.00000E+00
         0.00000E+00
         0.00000E+00
         0.00000E+00
         0.00000E+00
         0.00000E+00
         0.00000E+00
         0.00000E+00
         0.00000E+00
         0.00000E+00
         0.00000E+00
         0.00000E+00
         0.00000E+00
         0.00000E+00
         0.00000E+00
         0.00000E+00
         0.00000E+00
         0.00000E+00
         0.00000E+00
         0.00000E+00
         0.00000E+00
         0.00000E+00
         0.00000E+00
         0.00000E+00
         0.00000E+00
         0.00000E+00
         0.00000E+00
         0.00000E+00
         0.00000E+00
         0.00000E+00
         0.00000E+00
         0.00000E+00
         0.00000E+00
         0.00000E+00
         0.00000E+00
         0.00000E+00
         0.00000E+00
         0.00000E+00
         0.00000E+00
         0.00000E+00
         0.00000E+00
         0.00000E+00
         0.00000E+00
         0.00000E+00
         0.00000E+00
         0.00000E+00
         0.00000E+00
         0.00000E+00
         0.00000E+00
         0.00000E+00
         0.00000E+00
         0.00000E+00
         0.00000E+00
         0.00000E+00
         0.00000E+00
         0.00000E+00
         0.00000E+00
         0.00000E+00
         0.00000E+00
         0.00000E+00
         0.00000E+00
         0.00000E+00
         0.00000E+00
         0.00000E+00
         0.00000E+00
         0.00000E+00
         0.00000E+00
         0.00000E+00
         0.00000E+00
         0.00000E+00
         0.00000E+00
         0.00000E+00
         0.00000E+00
         0.00000E+00
         0.00000E+00
         0.00000E+00
         0.00000E+00
         0.00000E+00
         0.00000E+00
         0.00000E+00
         0.00000E+00
         0.00000E+00
         0.00000E+00
         0.00000E+00
         0.00000E+00
         0.00000E+00
         0.00000E+00
         0.00000E+00
         0.00000E+00
         0.00000E+00
         0.00000E+00
         0.00000E+00
         0.00000E+00
         0.00000E+00
         0.00000E+00
         0.00000E+00
         0.00000E+00
         0.00000E+00
         0.00000E+00
         0.00000E+00
         0.00000E+00
         0.00000E+00
         0.00000E+00
         0.00000E+00
         0.00000E+00
         0.00000E+00
         0.00000E+00
         0.00000E+00
         0.00000E+00
         0.00000E+00
         0.00000E+00
         0.00000E+00
         0.00000E+00
         0.00000E+00
         0.00000E+00
         0.00000E+00
         0.00000E+00
         0.00000E+00
         0.00000E+00
         0.00000E+00
         0.00000E+00
         0.00000E+00
         0.00000E+00
         0.00000E+00
         0.00000E+00
         0.00000E+00
         0.00000E+00
         0.00000E+00
         0.00000E+00
         0.00000E+00
         0.00000E+00
         0.00000E+00
         0.00000E+00
         0.00000E+00
         0.00000E+00
         0.00000E+00
         0.00000E+00
         0.00000E+00
         0.00000E+00
         0.00000E+00
         0.00000E+00
         0.00000E+00
         0.00000E+00
         0.00000E+00
         0.00000E+00
         0.00000E+00
         0.00000E+00
         0.00000E+00
         0.00000E+00
         0.00000E+00
  
SCALARS        characteristic_distance  double 1
LOOKUP_TABLE default
         0.00000E+00
         0.00000E+00
         0.00000E+00
         0.00000E+00
         0.00000E+00
         0.00000E+00
         0.00000E+00
         0.00000E+00
         0.00000E+00
         0.00000E+00
         0.00000E+00
         0.00000E+00
         0.00000E+00
         0.00000E+00
         0.00000E+00
         0.00000E+00
         0.00000E+00
         0.00000E+00
         0.00000E+00
         0.00000E+00
         0.00000E+00
         0.00000E+00
         0.00000E+00
         0.00000E+00
         0.00000E+00
         0.00000E+00
         0.00000E+00
         0.00000E+00
         0.00000E+00
         0.00000E+00
         0.00000E+00
         0.00000E+00
         0.00000E+00
         0.00000E+00
         0.00000E+00
         0.00000E+00
         0.00000E+00
         0.00000E+00
         0.00000E+00
         0.00000E+00
         0.00000E+00
         0.00000E+00
         0.00000E+00
         0.00000E+00
         0.00000E+00
         0.00000E+00
         0.00000E+00
         0.00000E+00
         0.00000E+00
         0.00000E+00
         0.00000E+00
         0.00000E+00
         0.00000E+00
         0.00000E+00
         0.00000E+00
         0.00000E+00
         0.00000E+00
         0.00000E+00
         0.00000E+00
         0.00000E+00
         0.00000E+00
         0.00000E+00
         0.00000E+00
         0.00000E+00
         0.00000E+00
         0.00000E+00
         0.00000E+00
         0.00000E+00
         0.00000E+00
         0.00000E+00
         0.00000E+00
         0.00000E+00
         0.00000E+00
         0.00000E+00
         0.00000E+00
         0.00000E+00
         0.00000E+00
         0.00000E+00
         0.00000E+00
         0.00000E+00
         0.00000E+00
         0.00000E+00
         0.00000E+00
         0.00000E+00
         0.00000E+00
         0.00000E+00
         0.00000E+00
         0.00000E+00
         0.00000E+00
         0.00000E+00
         0.00000E+00
         0.00000E+00
         0.00000E+00
         0.00000E+00
         0.00000E+00
         0.00000E+00
         0.00000E+00
         0.00000E+00
         0.00000E+00
         0.00000E+00
         0.00000E+00
         0.00000E+00
         0.00000E+00
         0.00000E+00
         0.00000E+00
         0.00000E+00
         0.00000E+00
         0.00000E+00
         0.00000E+00
         0.00000E+00
         0.00000E+00
         0.00000E+00
         0.00000E+00
         0.00000E+00
         0.00000E+00
         0.00000E+00
         0.00000E+00
         0.00000E+00
         0.00000E+00
         0.00000E+00
         0.00000E+00
         0.00000E+00
         0.00000E+00
         0.00000E+00
         0.00000E+00
         0.00000E+00
         0.00000E+00
         0.00000E+00
         0.00000E+00
         0.00000E+00
         0.00000E+00
         0.00000E+00
         0.00000E+00
         0.00000E+00
         0.00000E+00
         0.00000E+00
         0.00000E+00
         0.00000E+00
         0.00000E+00
         0.00000E+00
         0.00000E+00
         0.00000E+00
         0.00000E+00
         0.00000E+00
         0.00000E+00
         0.00000E+00
         0.00000E+00
         0.00000E+00
         0.00000E+00
         0.00000E+00
         0.00000E+00
         0.00000E+00
         0.00000E+00
         0.00000E+00
         0.00000E+00
         0.00000E+00
         0.00000E+00
         0.00000E+00
         0.00000E+00
         0.00000E+00
         0.00000E+00
         0.00000E+00
         0.00000E+00
         0.00000E+00
         0.00000E+00
         0.00000E+00
         0.00000E+00
         0.00000E+00
         0.00000E+00
         0.00000E+00
         0.00000E+00
         0.00000E+00
         0.00000E+00
         0.00000E+00
         0.00000E+00
         0.00000E+00
         0.00000E+00
         0.00000E+00
         0.00000E+00
         0.00000E+00
         0.00000E+00
         0.00000E+00
         0.00000E+00
         0.00000E+00
         0.00000E+00
         0.00000E+00
         0.00000E+00
         0.00000E+00
         0.00000E+00
         0.00000E+00
         0.00000E+00
         0.00000E+00
         0.00000E+00
         0.00000E+00
         0.00000E+00
         0.00000E+00
         0.00000E+00
         0.00000E+00
         0.00000E+00
         0.00000E+00
         0.00000E+00
         0.00000E+00
         0.00000E+00
         0.00000E+00
         0.00000E+00
         0.00000E+00
         0.00000E+00
         0.00000E+00
         0.00000E+00
         0.00000E+00
         0.00000E+00
         0.00000E+00
         0.00000E+00
         0.00000E+00
         0.00000E+00
         0.00000E+00
         0.00000E+00
         0.00000E+00
         0.00000E+00
         0.00000E+00
         0.00000E+00
         0.00000E+00
         0.00000E+00
         0.00000E+00
         0.00000E+00
         0.00000E+00
         0.00000E+00
         0.00000E+00
         0.00000E+00
         0.00000E+00
         0.00000E+00
         0.00000E+00
         0.00000E+00
         0.00000E+00
         0.00000E+00
         0.00000E+00
         0.00000E+00
         0.00000E+00
         0.00000E+00
         0.00000E+00
         0.00000E+00
         0.00000E+00
         0.00000E+00
         0.00000E+00
         0.00000E+00
         0.00000E+00
         0.00000E+00
         0.00000E+00
         0.00000E+00
         0.00000E+00
         0.00000E+00
         0.00000E+00
         0.00000E+00
         0.00000E+00
         0.00000E+00
         0.00000E+00
         0.00000E+00
         0.00000E+00
         0.00000E+00
         0.00000E+00
         0.00000E+00
         0.00000E+00
         0.00000E+00
         0.00000E+00
         0.00000E+00
         0.00000E+00
         0.00000E+00
         0.00000E+00
         0.00000E+00
         0.00000E+00
         0.00000E+00
         0.00000E+00
         0.00000E+00
         0.00000E+00
         0.00000E+00
         0.00000E+00
         0.00000E+00
         0.00000E+00
         0.00000E+00
         0.00000E+00
         0.00000E+00
         0.00000E+00
         0.00000E+00
         0.00000E+00
         0.00000E+00
         0.00000E+00
         0.00000E+00
         0.00000E+00
         0.00000E+00
         0.00000E+00
         0.00000E+00
         0.00000E+00
         0.00000E+00
         0.00000E+00
         0.00000E+00
         0.00000E+00
         0.00000E+00
         0.00000E+00
         0.00000E+00
         0.00000E+00
         0.00000E+00
         0.00000E+00
         0.00000E+00
         0.00000E+00
         0.00000E+00
         0.00000E+00
         0.00000E+00
         0.00000E+00
         0.00000E+00
         0.00000E+00
         0.00000E+00
         0.00000E+00
         0.00000E+00
         0.00000E+00
         0.00000E+00
         0.00000E+00
         0.00000E+00
         0.00000E+00
         0.00000E+00
         0.00000E+00
         0.00000E+00
         0.00000E+00
         0.00000E+00
         0.00000E+00
         0.00000E+00
         0.00000E+00
         0.00000E+00
         0.00000E+00
         0.00000E+00
         0.00000E+00
         0.00000E+00
         0.00000E+00
         0.00000E+00
         0.00000E+00
         0.00000E+00
         0.00000E+00
         0.00000E+00
         0.00000E+00
         0.00000E+00
         0.00000E+00
         0.00000E+00
         0.00000E+00
         0.00000E+00
         0.00000E+00
         0.00000E+00
         0.00000E+00
         0.00000E+00
         0.00000E+00
         0.00000E+00
         0.00000E+00
         0.00000E+00
         0.00000E+00
         0.00000E+00
         0.00000E+00
         0.00000E+00
         0.00000E+00
         0.00000E+00
         0.00000E+00
         0.00000E+00
         0.00000E+00
         0.00000E+00
         0.00000E+00
         0.00000E+00
         0.00000E+00
         0.00000E+00
         0.00000E+00
         0.00000E+00
         0.00000E+00
         0.00000E+00
         0.00000E+00
         0.00000E+00
         0.00000E+00
         0.00000E+00
         0.00000E+00
         0.00000E+00
         0.00000E+00
         0.00000E+00
         0.00000E+00
         0.00000E+00
         0.00000E+00
         0.00000E+00
         0.00000E+00
         0.00000E+00
         0.00000E+00
         0.00000E+00
         0.00000E+00
         0.00000E+00
         0.00000E+00
         0.00000E+00
         0.00000E+00
         0.00000E+00
         0.00000E+00
         0.00000E+00
         0.00000E+00
         0.00000E+00
         0.00000E+00
         0.00000E+00
         0.00000E+00
         0.00000E+00
         0.00000E+00
         0.00000E+00
         0.00000E+00
         0.00000E+00
         0.00000E+00
         0.00000E+00
         0.00000E+00
         0.00000E+00
         0.00000E+00
         0.00000E+00
         0.00000E+00
         0.00000E+00
         0.00000E+00
         0.00000E+00
         0.00000E+00
         0.00000E+00
         0.00000E+00
         0.00000E+00
         0.00000E+00
         0.00000E+00
         0.00000E+00
         0.00000E+00
         0.00000E+00
         0.00000E+00
         0.00000E+00
         0.00000E+00
         0.00000E+00
         0.00000E+00
         0.00000E+00
         0.00000E+00
         0.00000E+00
         0.00000E+00
         0.00000E+00
         0.00000E+00
         0.00000E+00
         0.00000E+00
         0.00000E+00
         0.00000E+00
         0.00000E+00
         0.00000E+00
         0.00000E+00
         0.00000E+00
         0.00000E+00
         0.00000E+00
         0.00000E+00
         0.00000E+00
         0.00000E+00
         0.00000E+00
         0.00000E+00
         0.00000E+00
         0.00000E+00
         0.00000E+00
         0.00000E+00
         0.00000E+00
         0.00000E+00
         0.00000E+00
         0.00000E+00
         0.00000E+00
         0.00000E+00
         0.00000E+00
         0.00000E+00
         0.00000E+00
         0.00000E+00
         0.00000E+00
         0.00000E+00
         0.00000E+00
         0.00000E+00
         0.00000E+00
         0.00000E+00
         0.00000E+00
         0.00000E+00
         0.00000E+00
         0.00000E+00
         0.00000E+00
         0.00000E+00
         0.00000E+00
         0.00000E+00
         0.00000E+00
         0.00000E+00
         0.00000E+00
         0.00000E+00
         0.00000E+00
         0.00000E+00
         0.00000E+00
         0.00000E+00
         0.00000E+00
         0.00000E+00
         0.00000E+00
         0.00000E+00
         0.00000E+00
         0.00000E+00
         0.00000E+00
         0.00000E+00
         0.00000E+00
         0.00000E+00
         0.00000E+00
         0.00000E+00
         0.00000E+00
         0.00000E+00
         0.00000E+00
         0.00000E+00
         0.00000E+00
         0.00000E+00
         0.00000E+00
         0.00000E+00
         0.00000E+00
         0.00000E+00
         0.00000E+00
         0.00000E+00
         0.00000E+00
         0.00000E+00
         0.00000E+00
         0.00000E+00
         0.00000E+00
         0.00000E+00
         0.00000E+00
         0.00000E+00
         0.00000E+00
         0.00000E+00
         0.00000E+00
         0.00000E+00
         0.00000E+00
         0.00000E+00
         0.00000E+00
         0.00000E+00
         0.00000E+00
         0.00000E+00
         0.00000E+00
         0.00000E+00
         0.00000E+00
         0.00000E+00
         0.00000E+00
         0.00000E+00
         0.00000E+00
         0.00000E+00
         0.00000E+00
         0.00000E+00
         0.00000E+00
         0.00000E+00
         0.00000E+00
         0.00000E+00
         0.00000E+00
         0.00000E+00
         0.00000E+00
         0.00000E+00
         0.00000E+00
         0.00000E+00
         0.00000E+00
         0.00000E+00
         0.00000E+00
         0.00000E+00
         0.00000E+00
         0.00000E+00
         0.00000E+00
         0.00000E+00
         0.00000E+00
         0.00000E+00
         0.00000E+00
         0.00000E+00
         0.00000E+00
         0.00000E+00
         0.00000E+00
         0.00000E+00
         0.00000E+00
         0.00000E+00
         0.00000E+00
         0.00000E+00
         0.00000E+00
         0.00000E+00
         0.00000E+00
         0.00000E+00
         0.00000E+00
         0.00000E+00
         0.00000E+00
         0.00000E+00
         0.00000E+00
         0.00000E+00
         0.00000E+00
         0.00000E+00
         0.00000E+00
         0.00000E+00
         0.00000E+00
         0.00000E+00
         0.00000E+00
         0.00000E+00
         0.00000E+00
         0.00000E+00
         0.00000E+00
         0.00000E+00
         0.00000E+00
         0.00000E+00
         0.00000E+00
         0.00000E+00
         0.00000E+00
         0.00000E+00
         0.00000E+00
         0.00000E+00
         0.00000E+00
         0.00000E+00
         0.00000E+00
         0.00000E+00
         0.00000E+00
         0.00000E+00
         0.00000E+00
         0.00000E+00
         0.00000E+00
         0.00000E+00
         0.00000E+00
         0.00000E+00
         0.00000E+00
         0.00000E+00
         0.00000E+00
         0.00000E+00
         0.00000E+00
         0.00000E+00
         0.00000E+00
         0.00000E+00
         0.00000E+00
         0.00000E+00
         0.00000E+00
         0.00000E+00
         0.00000E+00
         0.00000E+00
         0.00000E+00
         0.00000E+00
         0.00000E+00
         0.00000E+00
         0.00000E+00
         0.00000E+00
         0.00000E+00
         0.00000E+00
         0.00000E+00
         0.00000E+00
         0.00000E+00
         0.00000E+00
         0.00000E+00
         0.00000E+00
         0.00000E+00
         0.00000E+00
         0.00000E+00
         0.00000E+00
         0.00000E+00
         0.00000E+00
         0.00000E+00
         0.00000E+00
         0.00000E+00
         0.00000E+00
         0.00000E+00
         0.00000E+00
         0.00000E+00
         0.00000E+00
         0.00000E+00
         0.00000E+00
         0.00000E+00
         0.00000E+00
         0.00000E+00
         0.00000E+00
         0.00000E+00
         0.00000E+00
         0.00000E+00
         0.00000E+00
         0.00000E+00
         0.00000E+00
         0.00000E+00
         0.00000E+00
         0.00000E+00
         0.00000E+00
         0.00000E+00
         0.00000E+00
         0.00000E+00
         0.00000E+00
         0.00000E+00
         0.00000E+00
         0.00000E+00
         0.00000E+00
         0.00000E+00
         0.00000E+00
         0.00000E+00
         0.00000E+00
         0.00000E+00
         0.00000E+00
         0.00000E+00
         0.00000E+00
         0.00000E+00
         0.00000E+00
         0.00000E+00
         0.00000E+00
         0.00000E+00
         0.00000E+00
         0.00000E+00
         0.00000E+00
         0.00000E+00
         0.00000E+00
         0.00000E+00
         0.00000E+00
         0.00000E+00
         0.00000E+00
         0.00000E+00
         0.00000E+00
         0.00000E+00
         0.00000E+00
         0.00000E+00
         0.00000E+00
         0.00000E+00
         0.00000E+00
         0.00000E+00
         0.00000E+00
         0.00000E+00
         0.00000E+00
         0.00000E+00
         0.00000E+00
         0.00000E+00
         0.00000E+00
         0.00000E+00
         0.00000E+00
         0.00000E+00
         0.00000E+00
         0.00000E+00
         0.00000E+00
         0.00000E+00
         0.00000E+00
         0.00000E+00
         0.00000E+00
         0.00000E+00
         0.00000E+00
         0.00000E+00
         0.00000E+00
         0.00000E+00
         0.00000E+00
         0.00000E+00
         0.00000E+00
         0.00000E+00
         0.00000E+00
         0.00000E+00
         0.00000E+00
         0.00000E+00
         0.00000E+00
         0.00000E+00
         0.00000E+00
         0.00000E+00
         0.00000E+00
         0.00000E+00
         0.00000E+00
         0.00000E+00
         0.00000E+00
         0.00000E+00
         0.00000E+00
         0.00000E+00
         0.00000E+00
         0.00000E+00
         0.00000E+00
         0.00000E+00
         0.00000E+00
         0.00000E+00
         0.00000E+00
         0.00000E+00
         0.00000E+00
         0.00000E+00
         0.00000E+00
         0.00000E+00
         0.00000E+00
         0.00000E+00
         0.00000E+00
         0.00000E+00
         0.00000E+00
         0.00000E+00
         0.00000E+00
         0.00000E+00
         0.00000E+00
         0.00000E+00
         0.00000E+00
         0.00000E+00
         0.00000E+00
         0.00000E+00
         0.00000E+00
         0.00000E+00
         0.00000E+00
         0.00000E+00
         0.00000E+00
         0.00000E+00
         0.00000E+00
         0.00000E+00
         0.00000E+00
         0.00000E+00
         0.00000E+00
         0.00000E+00
         0.00000E+00
         0.00000E+00
         0.00000E+00
         0.00000E+00
         0.00000E+00
         0.00000E+00
         0.00000E+00
         0.00000E+00
         0.00000E+00
         0.00000E+00
         0.00000E+00
         0.00000E+00
         0.00000E+00
         0.00000E+00
         0.00000E+00
         0.00000E+00
         0.00000E+00
         0.00000E+00
         0.00000E+00
         0.00000E+00
         0.00000E+00
         0.00000E+00
         0.00000E+00
         0.00000E+00
         0.00000E+00
         0.00000E+00
         0.00000E+00
         0.00000E+00
         0.00000E+00
         0.00000E+00
         0.00000E+00
         0.00000E+00
         0.00000E+00
         0.00000E+00
         0.00000E+00
         0.00000E+00
         0.00000E+00
         0.00000E+00
         0.00000E+00
         0.00000E+00
         0.00000E+00
         0.00000E+00
         0.00000E+00
         0.00000E+00
         0.00000E+00
         0.00000E+00
         0.00000E+00
         0.00000E+00
         0.00000E+00
         0.00000E+00
         0.00000E+00
         0.00000E+00
         0.00000E+00
         0.00000E+00
         0.00000E+00
         0.00000E+00
         0.00000E+00
         0.00000E+00
         0.00000E+00
         0.00000E+00
         0.00000E+00
         0.00000E+00
         0.00000E+00
         0.00000E+00
         0.00000E+00
         0.00000E+00
         0.00000E+00
         0.00000E+00
         0.00000E+00
         0.00000E+00
         0.00000E+00
         0.00000E+00
         0.00000E+00
         0.00000E+00
         0.00000E+00
         0.00000E+00
         0.00000E+00
         0.00000E+00
         0.00000E+00
         0.00000E+00
         0.00000E+00
         0.00000E+00
         0.00000E+00
         0.00000E+00
         0.00000E+00
         0.00000E+00
         0.00000E+00
         0.00000E+00
         0.00000E+00
         0.00000E+00
         0.00000E+00
         0.00000E+00
         0.00000E+00
         0.00000E+00
         0.00000E+00
         0.00000E+00
         0.00000E+00
         0.00000E+00
         0.00000E+00
         0.00000E+00
         0.00000E+00
         0.00000E+00
         0.00000E+00
         0.00000E+00
         0.00000E+00
         0.00000E+00
         0.00000E+00
         0.00000E+00
         0.00000E+00
         0.00000E+00
         0.00000E+00
         0.00000E+00
         0.00000E+00
         0.00000E+00
         0.00000E+00
         0.00000E+00
         0.00000E+00
         0.00000E+00
         0.00000E+00
         0.00000E+00
         0.00000E+00
         0.00000E+00
         0.00000E+00
         0.00000E+00
         0.00000E+00
         0.00000E+00
         0.00000E+00
         0.00000E+00
         0.00000E+00
         0.00000E+00
         0.00000E+00
         0.00000E+00
         0.00000E+00
         0.00000E+00
         0.00000E+00
         0.00000E+00
         0.00000E+00
         0.00000E+00
         0.00000E+00
         0.00000E+00
         0.00000E+00
         0.00000E+00
         0.00000E+00
         0.00000E+00
         0.00000E+00
         0.00000E+00
         0.00000E+00
         0.00000E+00
         0.00000E+00
         0.00000E+00
         0.00000E+00
         0.00000E+00
         0.00000E+00
         0.00000E+00
         0.00000E+00
         0.00000E+00
         0.00000E+00
         0.00000E+00
         0.00000E+00
         0.00000E+00
         0.00000E+00
         0.00000E+00
         0.00000E+00
         0.00000E+00
         0.00000E+00
         0.00000E+00
         0.00000E+00
         0.00000E+00
         0.00000E+00
         0.00000E+00
         0.00000E+00
         0.00000E+00
         0.00000E+00
         0.00000E+00
         0.00000E+00
         0.00000E+00
         0.00000E+00
         0.00000E+00
         0.00000E+00
         0.00000E+00
         0.00000E+00
         0.00000E+00
         0.00000E+00
         0.00000E+00
         0.00000E+00
         0.00000E+00
         0.00000E+00
         0.00000E+00
         0.00000E+00
         0.00000E+00
         0.00000E+00
         0.00000E+00
         0.00000E+00
         0.00000E+00
         0.00000E+00
         0.00000E+00
         0.00000E+00
         0.00000E+00
         0.00000E+00
         0.00000E+00
         0.00000E+00
         0.00000E+00
         0.00000E+00
         0.00000E+00
         0.00000E+00
         0.00000E+00
         0.00000E+00
         0.00000E+00
         0.00000E+00
         0.00000E+00
         0.00000E+00
         0.00000E+00
         0.00000E+00
         0.00000E+00
         0.00000E+00
         0.00000E+00
         0.00000E+00
         0.00000E+00
         0.00000E+00
         0.00000E+00
         0.00000E+00
         0.00000E+00
         0.00000E+00
         0.00000E+00
         0.00000E+00
         0.00000E+00
         0.00000E+00
         0.00000E+00
         0.00000E+00
         0.00000E+00
         0.00000E+00
         0.00000E+00
         0.00000E+00
         0.00000E+00
         0.00000E+00
         0.00000E+00
         0.00000E+00
         0.00000E+00
         0.00000E+00
         0.00000E+00
         0.00000E+00
         0.00000E+00
         0.00000E+00
         0.00000E+00
         0.00000E+00
         0.00000E+00
         0.00000E+00
         0.00000E+00
         0.00000E+00
         0.00000E+00
         0.00000E+00
         0.00000E+00
         0.00000E+00
         0.00000E+00
         0.00000E+00
         0.00000E+00
         0.00000E+00
         0.00000E+00
         0.00000E+00
         0.00000E+00
         0.00000E+00
         0.00000E+00
         0.00000E+00
         0.00000E+00
         0.00000E+00
         0.00000E+00
         0.00000E+00
         0.00000E+00
         0.00000E+00
         0.00000E+00
         0.00000E+00
         0.00000E+00
         0.00000E+00
         0.00000E+00
         0.00000E+00
         0.00000E+00
         0.00000E+00
         0.00000E+00
         0.00000E+00
         0.00000E+00
         0.00000E+00
         0.00000E+00
         0.00000E+00
         0.00000E+00
         0.00000E+00
         0.00000E+00
         0.00000E+00
         0.00000E+00
         0.00000E+00
         0.00000E+00
         0.00000E+00
         0.00000E+00
         0.00000E+00
         0.00000E+00
         0.00000E+00
         0.00000E+00
         0.00000E+00
         0.00000E+00
         0.00000E+00
         0.00000E+00
         0.00000E+00
         0.00000E+00
         0.00000E+00
         0.00000E+00
         0.00000E+00
         0.00000E+00
         0.00000E+00
         0.00000E+00
         0.00000E+00
         0.00000E+00
         0.00000E+00
         0.00000E+00
         0.00000E+00
         0.00000E+00
         0.00000E+00
         0.00000E+00
         0.00000E+00
         0.00000E+00
         0.00000E+00
         0.00000E+00
         0.00000E+00
         0.00000E+00
         0.00000E+00
         0.00000E+00
         0.00000E+00
         0.00000E+00
         0.00000E+00
         0.00000E+00
         0.00000E+00
         0.00000E+00
         0.00000E+00
         0.00000E+00
         0.00000E+00
         0.00000E+00
         0.00000E+00
         0.00000E+00
         0.00000E+00
         0.00000E+00
         0.00000E+00
         0.00000E+00
         0.00000E+00
         0.00000E+00
         0.00000E+00
         0.00000E+00
         0.00000E+00
         0.00000E+00
         0.00000E+00
         0.00000E+00
         0.00000E+00
         0.00000E+00
         0.00000E+00
         0.00000E+00
         0.00000E+00
         0.00000E+00
         0.00000E+00
         0.00000E+00
         0.00000E+00
         0.00000E+00
         0.00000E+00
         0.00000E+00
         0.00000E+00
         0.00000E+00
         0.00000E+00
         0.00000E+00
         0.00000E+00
         0.00000E+00
         0.00000E+00
         0.00000E+00
         0.00000E+00
         0.00000E+00
         0.00000E+00
         0.00000E+00
         0.00000E+00
         0.00000E+00
         0.00000E+00
         0.00000E+00
         0.00000E+00
         0.00000E+00
         0.00000E+00
         0.00000E+00
         0.00000E+00
         0.00000E+00
         0.00000E+00
         0.00000E+00
         0.00000E+00
         0.00000E+00
         0.00000E+00
         0.00000E+00
         0.00000E+00
         0.00000E+00
         0.00000E+00
         0.00000E+00
         0.00000E+00
         0.00000E+00
         0.00000E+00
         0.00000E+00
         0.00000E+00
         0.00000E+00
         0.00000E+00
         0.00000E+00
         0.00000E+00
         0.00000E+00
         0.00000E+00
         0.00000E+00
         0.00000E+00
         0.00000E+00
         0.00000E+00
         0.00000E+00
         0.00000E+00
         0.00000E+00
         0.00000E+00
         0.00000E+00
         0.00000E+00
         0.00000E+00
         0.00000E+00
         0.00000E+00
         0.00000E+00
         0.00000E+00
         0.00000E+00
         0.00000E+00
         0.00000E+00
         0.00000E+00
         0.00000E+00
         0.00000E+00
         0.00000E+00
         0.00000E+00
         0.00000E+00
         0.00000E+00
         0.00000E+00
         0.00000E+00
         0.00000E+00
         0.00000E+00
         0.00000E+00
         0.00000E+00
         0.00000E+00
         0.00000E+00
         0.00000E+00
         0.00000E+00
         0.00000E+00
         0.00000E+00
         0.00000E+00
         0.00000E+00
         0.00000E+00
         0.00000E+00
         0.00000E+00
         0.00000E+00
         0.00000E+00
         0.00000E+00
         0.00000E+00
         0.00000E+00
         0.00000E+00
         0.00000E+00
         0.00000E+00
         0.00000E+00
         0.00000E+00
         0.00000E+00
         0.00000E+00
         0.00000E+00
         0.00000E+00
         0.00000E+00
         0.00000E+00
         0.00000E+00
         0.00000E+00
         0.00000E+00
         0.00000E+00
         0.00000E+00
         0.00000E+00
         0.00000E+00
         0.00000E+00
         0.00000E+00
         0.00000E+00
         0.00000E+00
         0.00000E+00
         0.00000E+00
         0.00000E+00
         0.00000E+00
         0.00000E+00
         0.00000E+00
         0.00000E+00
         0.00000E+00
         0.00000E+00
         0.00000E+00
         0.00000E+00
         0.00000E+00
         0.00000E+00
         0.00000E+00
         0.00000E+00
         0.00000E+00
         0.00000E+00
         0.00000E+00
         0.00000E+00
         0.00000E+00
         0.00000E+00
         0.00000E+00
         0.00000E+00
         0.00000E+00
         0.00000E+00
         0.00000E+00
         0.00000E+00
         0.00000E+00
         0.00000E+00
         0.00000E+00
         0.00000E+00
         0.00000E+00
         0.00000E+00
         0.00000E+00
         0.00000E+00
         0.00000E+00
         0.00000E+00
         0.00000E+00
         0.00000E+00
         0.00000E+00
         0.00000E+00
         0.00000E+00
         0.00000E+00
         0.00000E+00
         0.00000E+00
         0.00000E+00
         0.00000E+00
         0.00000E+00
         0.00000E+00
         0.00000E+00
         0.00000E+00
         0.00000E+00
         0.00000E+00
         0.00000E+00
         0.00000E+00
         0.00000E+00
         0.00000E+00
         0.00000E+00
         0.00000E+00
         0.00000E+00
         0.00000E+00
         0.00000E+00
         0.00000E+00
         0.00000E+00
         0.00000E+00
         0.00000E+00
         0.00000E+00
         0.00000E+00
         0.00000E+00
         0.00000E+00
         0.00000E+00
         0.00000E+00
         0.00000E+00
         0.00000E+00
         0.00000E+00
         0.00000E+00
         0.00000E+00
         0.00000E+00
         0.00000E+00
         0.00000E+00
         0.00000E+00
         0.00000E+00
         0.00000E+00
         0.00000E+00
         0.00000E+00
         0.00000E+00
         0.00000E+00
         0.00000E+00
         0.00000E+00
         0.00000E+00
         0.00000E+00
         0.00000E+00
         0.00000E+00
         0.00000E+00
         0.00000E+00
         0.00000E+00
         0.00000E+00
         0.00000E+00
         0.00000E+00
         0.00000E+00
         0.00000E+00
         0.00000E+00
         0.00000E+00
         0.00000E+00
         0.00000E+00
         0.00000E+00
         0.00000E+00
         0.00000E+00
         0.00000E+00
         0.00000E+00
         0.00000E+00
         0.00000E+00
         0.00000E+00
         0.00000E+00
         0.00000E+00
         0.00000E+00
         0.00000E+00
         0.00000E+00
         0.00000E+00
         0.00000E+00
         0.00000E+00
         0.00000E+00
         0.00000E+00
         0.00000E+00
         0.00000E+00
         0.00000E+00
         0.00000E+00
         0.00000E+00
         0.00000E+00
         0.00000E+00
         0.00000E+00
         0.00000E+00
         0.00000E+00
         0.00000E+00
         0.00000E+00
         0.00000E+00
         0.00000E+00
         0.00000E+00
         0.00000E+00
         0.00000E+00
         0.00000E+00
         0.00000E+00
         0.00000E+00
         0.00000E+00
         0.00000E+00
         0.00000E+00
         0.00000E+00
         0.00000E+00
         0.00000E+00
         0.00000E+00
         0.00000E+00
         0.00000E+00
         0.00000E+00
         0.00000E+00
         0.00000E+00
         0.00000E+00
         0.00000E+00
         0.00000E+00
         0.00000E+00
         0.00000E+00
         0.00000E+00
         0.00000E+00
         0.00000E+00
         0.00000E+00
         0.00000E+00
         0.00000E+00
         0.00000E+00
         0.00000E+00
         0.00000E+00
         0.00000E+00
         0.00000E+00
         0.00000E+00
         0.00000E+00
         0.00000E+00
         0.00000E+00
         0.00000E+00
         0.00000E+00
         0.00000E+00
         0.00000E+00
         0.00000E+00
         0.00000E+00
         0.00000E+00
         0.00000E+00
         0.00000E+00
         0.00000E+00
         0.00000E+00
         0.00000E+00
         0.00000E+00
         0.00000E+00
         0.00000E+00
         0.00000E+00
         0.00000E+00
         0.00000E+00
         0.00000E+00
         0.00000E+00
         0.00000E+00
         0.00000E+00
         0.00000E+00
         0.00000E+00
         0.00000E+00
         0.00000E+00
         0.00000E+00
         0.00000E+00
         0.00000E+00
         0.00000E+00
         0.00000E+00
         0.00000E+00
         0.00000E+00
         0.00000E+00
         0.00000E+00
         0.00000E+00
         0.00000E+00
         0.00000E+00
         0.00000E+00
         0.00000E+00
         0.00000E+00
         0.00000E+00
         0.00000E+00
         0.00000E+00
         0.00000E+00
         0.00000E+00
         0.00000E+00
         0.00000E+00
         0.00000E+00
         0.00000E+00
         0.00000E+00
         0.00000E+00
         0.00000E+00
         0.00000E+00
         0.00000E+00
         0.00000E+00
         0.00000E+00
         0.00000E+00
         0.00000E+00
         0.00000E+00
         0.00000E+00
         0.00000E+00
         0.00000E+00
         0.00000E+00
         0.00000E+00
         0.00000E+00
         0.00000E+00
         0.00000E+00
         0.00000E+00
         0.00000E+00
         0.00000E+00
         0.00000E+00
         0.00000E+00
         0.00000E+00
         0.00000E+00
         0.00000E+00
         0.00000E+00
         0.00000E+00
         0.00000E+00
         0.00000E+00
         0.00000E+00
         0.00000E+00
         0.00000E+00
         0.00000E+00
         0.00000E+00
         0.00000E+00
         0.00000E+00
         0.00000E+00
         0.00000E+00
         0.00000E+00
         0.00000E+00
         0.00000E+00
         0.00000E+00
         0.00000E+00
         0.00000E+00
         0.00000E+00
         0.00000E+00
         0.00000E+00
         0.00000E+00
         0.00000E+00
         0.00000E+00
         0.00000E+00
         0.00000E+00
         0.00000E+00
         0.00000E+00
         0.00000E+00
         0.00000E+00
         0.00000E+00
         0.00000E+00
         0.00000E+00
         0.00000E+00
         0.00000E+00
         0.00000E+00
         0.00000E+00
         0.00000E+00
         0.00000E+00
         0.00000E+00
         0.00000E+00
         0.00000E+00
         0.00000E+00
         0.00000E+00
         0.00000E+00
         0.00000E+00
         0.00000E+00
         0.00000E+00
         0.00000E+00
         0.00000E+00
         0.00000E+00
         0.00000E+00
         0.00000E+00
         0.00000E+00
         0.00000E+00
         0.00000E+00
         0.00000E+00
         0.00000E+00
         0.00000E+00
         0.00000E+00
         0.00000E+00
         0.00000E+00
         0.00000E+00
         0.00000E+00
         0.00000E+00
         0.00000E+00
         0.00000E+00
         0.00000E+00
         0.00000E+00
         0.00000E+00
         0.00000E+00
         0.00000E+00
         0.00000E+00
         0.00000E+00
         0.00000E+00
         0.00000E+00
         0.00000E+00
         0.00000E+00
         0.00000E+00
         0.00000E+00
         0.00000E+00
         0.00000E+00
         0.00000E+00
         0.00000E+00
         0.00000E+00
         0.00000E+00
         0.00000E+00
         0.00000E+00
         0.00000E+00
         0.00000E+00
         0.00000E+00
         0.00000E+00
         0.00000E+00
         0.00000E+00
         0.00000E+00
         0.00000E+00
         0.00000E+00
         0.00000E+00
         0.00000E+00
         0.00000E+00
         0.00000E+00
         0.00000E+00
         0.00000E+00
         0.00000E+00
         0.00000E+00
         0.00000E+00
         0.00000E+00
         0.00000E+00
         0.00000E+00
         0.00000E+00
         0.00000E+00
         0.00000E+00
         0.00000E+00
         0.00000E+00
         0.00000E+00
         0.00000E+00
         0.00000E+00
         0.00000E+00
         0.00000E+00
         0.00000E+00
         0.00000E+00
         0.00000E+00
         0.00000E+00
         0.00000E+00
         0.00000E+00
         0.00000E+00
         0.00000E+00
         0.00000E+00
         0.00000E+00
         0.00000E+00
         0.00000E+00
         0.00000E+00
         0.00000E+00
         0.00000E+00
         0.00000E+00
         0.00000E+00
         0.00000E+00
         0.00000E+00
         0.00000E+00
         0.00000E+00
         0.00000E+00
         0.00000E+00
         0.00000E+00
         0.00000E+00
         0.00000E+00
         0.00000E+00
         0.00000E+00
         0.00000E+00
         0.00000E+00
         0.00000E+00
         0.00000E+00
         0.00000E+00
         0.00000E+00
         0.00000E+00
         0.00000E+00
         0.00000E+00
         0.00000E+00
         0.00000E+00
         0.00000E+00
         0.00000E+00
         0.00000E+00
         0.00000E+00
         0.00000E+00
         0.00000E+00
         0.00000E+00
         0.00000E+00
         0.00000E+00
         0.00000E+00
         0.00000E+00
         0.00000E+00
         0.00000E+00
         0.00000E+00
         0.00000E+00
         0.00000E+00
         0.00000E+00
         0.00000E+00
         0.00000E+00
         0.00000E+00
         0.00000E+00
         0.00000E+00
         0.00000E+00
         0.00000E+00
         0.00000E+00
         0.00000E+00
         0.00000E+00
         0.00000E+00
         0.00000E+00
         0.00000E+00
         0.00000E+00
         0.00000E+00
         0.00000E+00
         0.00000E+00
         0.00000E+00
         0.00000E+00
         0.00000E+00
         0.00000E+00
         0.00000E+00
         0.00000E+00
         0.00000E+00
         0.00000E+00
         0.00000E+00
         0.00000E+00
         0.00000E+00
         0.00000E+00
         0.00000E+00
         0.00000E+00
         0.00000E+00
         0.00000E+00
         0.00000E+00
         0.00000E+00
         0.00000E+00
         0.00000E+00
         0.00000E+00
         0.00000E+00
         0.00000E+00
         0.00000E+00
         0.00000E+00
         0.00000E+00
         0.00000E+00
         0.00000E+00
         0.00000E+00
         0.00000E+00
         0.00000E+00
         0.00000E+00
         0.00000E+00
         0.00000E+00
         0.00000E+00
         0.00000E+00
         0.00000E+00
         0.00000E+00
         0.00000E+00
         0.00000E+00
         0.00000E+00
         0.00000E+00
         0.00000E+00
         0.00000E+00
         0.00000E+00
         0.00000E+00
         0.00000E+00
         0.00000E+00
         0.00000E+00
         0.00000E+00
         0.00000E+00
         0.00000E+00
         0.00000E+00
         0.00000E+00
         0.00000E+00
         0.00000E+00
         0.00000E+00
         0.00000E+00
         0.00000E+00
         0.00000E+00
         0.00000E+00
         0.00000E+00
         0.00000E+00
         0.00000E+00
         0.00000E+00
         0.00000E+00
         0.00000E+00
         0.00000E+00
         0.00000E+00
         0.00000E+00
         0.00000E+00
         0.00000E+00
         0.00000E+00
         0.00000E+00
         0.00000E+00
         0.00000E+00
         0.00000E+00
         0.00000E+00
         0.00000E+00
         0.00000E+00
         0.00000E+00
         0.00000E+00
         0.00000E+00
         0.00000E+00
         0.00000E+00
         0.00000E+00
         0.00000E+00
         0.00000E+00
         0.00000E+00
         0.00000E+00
         0.00000E+00
         0.00000E+00
         0.00000E+00
         0.00000E+00
         0.00000E+00
         0.00000E+00
         0.00000E+00
         0.00000E+00
         0.00000E+00
         0.00000E+00
         0.00000E+00
         0.00000E+00
         0.00000E+00
         0.00000E+00
         0.00000E+00
         0.00000E+00
         0.00000E+00
         0.00000E+00
         0.00000E+00
         0.00000E+00
         0.00000E+00
         0.00000E+00
         0.00000E+00
         0.00000E+00
         0.00000E+00
         0.00000E+00
         0.00000E+00
         0.00000E+00
         0.00000E+00
         0.00000E+00
         0.00000E+00
         0.00000E+00
         0.00000E+00
         0.00000E+00
         0.00000E+00
         0.00000E+00
         0.00000E+00
         0.00000E+00
         0.00000E+00
         0.00000E+00
         0.00000E+00
         0.00000E+00
         0.00000E+00
         0.00000E+00
         0.00000E+00
         0.00000E+00
         0.00000E+00
         0.00000E+00
         0.00000E+00
         0.00000E+00
         0.00000E+00
         0.00000E+00
         0.00000E+00
         0.00000E+00
         0.00000E+00
         0.00000E+00
         0.00000E+00
         0.00000E+00
         0.00000E+00
         0.00000E+00
         0.00000E+00
         0.00000E+00
         0.00000E+00
         0.00000E+00
         0.00000E+00
         0.00000E+00
         0.00000E+00
         0.00000E+00
         0.00000E+00
         0.00000E+00
         0.00000E+00
         0.00000E+00
         0.00000E+00
         0.00000E+00
         0.00000E+00
         0.00000E+00
         0.00000E+00
         0.00000E+00
         0.00000E+00
         0.00000E+00
         0.00000E+00
         0.00000E+00
         0.00000E+00
         0.00000E+00
         0.00000E+00
         0.00000E+00
         0.00000E+00
         0.00000E+00
         0.00000E+00
         0.00000E+00
         0.00000E+00
         0.00000E+00
         0.00000E+00
         0.00000E+00
         0.00000E+00
         0.00000E+00
         0.00000E+00
         0.00000E+00
         0.00000E+00
         0.00000E+00
         0.00000E+00
         0.00000E+00
         0.00000E+00
         0.00000E+00
         0.00000E+00
         0.00000E+00
         0.00000E+00
         0.00000E+00
         0.00000E+00
         0.00000E+00
         0.00000E+00
         0.00000E+00
         0.00000E+00
         0.00000E+00
         0.00000E+00
         0.00000E+00
         0.00000E+00
         0.00000E+00
         0.00000E+00
         0.00000E+00
         0.00000E+00
         0.00000E+00
         0.00000E+00
         0.00000E+00
         0.00000E+00
         0.00000E+00
         0.00000E+00
         0.00000E+00
         0.00000E+00
         0.00000E+00
         0.00000E+00
         0.00000E+00
         0.00000E+00
         0.00000E+00
         0.00000E+00
         0.00000E+00
         0.00000E+00
         0.00000E+00
         0.00000E+00
         0.00000E+00
         0.00000E+00
         0.00000E+00
         0.00000E+00
         0.00000E+00
         0.00000E+00
         0.00000E+00
         0.00000E+00
         0.00000E+00
         0.00000E+00
         0.00000E+00
         0.00000E+00
         0.00000E+00
         0.00000E+00
         0.00000E+00
         0.00000E+00
         0.00000E+00
         0.00000E+00
         0.00000E+00
         0.00000E+00
  
SCALARS                   max_wave_vel  double 1
LOOKUP_TABLE default
         0.00000E+00
         0.00000E+00
         0.00000E+00
         0.00000E+00
         0.00000E+00
         0.00000E+00
         0.00000E+00
         0.00000E+00
         0.00000E+00
         0.00000E+00
         0.00000E+00
         0.00000E+00
         0.00000E+00
         0.00000E+00
         0.00000E+00
         0.00000E+00
         0.00000E+00
         0.00000E+00
         0.00000E+00
         0.00000E+00
         0.00000E+00
         0.00000E+00
         0.00000E+00
         0.00000E+00
         0.00000E+00
         0.00000E+00
         0.00000E+00
         0.00000E+00
         0.00000E+00
         0.00000E+00
         0.00000E+00
         0.00000E+00
         0.00000E+00
         0.00000E+00
         0.00000E+00
         0.00000E+00
         0.00000E+00
         0.00000E+00
         0.00000E+00
         0.00000E+00
         0.00000E+00
         0.00000E+00
         0.00000E+00
         0.00000E+00
         0.00000E+00
         0.00000E+00
         0.00000E+00
         0.00000E+00
         0.00000E+00
         0.00000E+00
         0.00000E+00
         0.00000E+00
         0.00000E+00
         0.00000E+00
         0.00000E+00
         0.00000E+00
         0.00000E+00
         0.00000E+00
         0.00000E+00
         0.00000E+00
         0.00000E+00
         0.00000E+00
         0.00000E+00
         0.00000E+00
         0.00000E+00
         0.00000E+00
         0.00000E+00
         0.00000E+00
         0.00000E+00
         0.00000E+00
         0.00000E+00
         0.00000E+00
         0.00000E+00
         0.00000E+00
         0.00000E+00
         0.00000E+00
         0.00000E+00
         0.00000E+00
         0.00000E+00
         0.00000E+00
         0.00000E+00
         0.00000E+00
         0.00000E+00
         0.00000E+00
         0.00000E+00
         0.00000E+00
         0.00000E+00
         0.00000E+00
         0.00000E+00
         0.00000E+00
         0.00000E+00
         0.00000E+00
         0.00000E+00
         0.00000E+00
         0.00000E+00
         0.00000E+00
         0.00000E+00
         0.00000E+00
         0.00000E+00
         0.00000E+00
         0.00000E+00
         0.00000E+00
         0.00000E+00
         0.00000E+00
         0.00000E+00
         0.00000E+00
         0.00000E+00
         0.00000E+00
         0.00000E+00
         0.00000E+00
         0.00000E+00
         0.00000E+00
         0.00000E+00
         0.00000E+00
         0.00000E+00
         0.00000E+00
         0.00000E+00
         0.00000E+00
         0.00000E+00
         0.00000E+00
         0.00000E+00
         0.00000E+00
         0.00000E+00
         0.00000E+00
         0.00000E+00
         0.00000E+00
         0.00000E+00
         0.00000E+00
         0.00000E+00
         0.00000E+00
         0.00000E+00
         0.00000E+00
         0.00000E+00
         0.00000E+00
         0.00000E+00
         0.00000E+00
         0.00000E+00
         0.00000E+00
         0.00000E+00
         0.00000E+00
         0.00000E+00
         0.00000E+00
         0.00000E+00
         0.00000E+00
         0.00000E+00
         0.00000E+00
         0.00000E+00
         0.00000E+00
         0.00000E+00
         0.00000E+00
         0.00000E+00
         0.00000E+00
         0.00000E+00
         0.00000E+00
         0.00000E+00
         0.00000E+00
         0.00000E+00
         0.00000E+00
         0.00000E+00
         0.00000E+00
         0.00000E+00
         0.00000E+00
         0.00000E+00
         0.00000E+00
         0.00000E+00
         0.00000E+00
         0.00000E+00
         0.00000E+00
         0.00000E+00
         0.00000E+00
         0.00000E+00
         0.00000E+00
         0.00000E+00
         0.00000E+00
         0.00000E+00
         0.00000E+00
         0.00000E+00
         0.00000E+00
         0.00000E+00
         0.00000E+00
         0.00000E+00
         0.00000E+00
         0.00000E+00
         0.00000E+00
         0.00000E+00
         0.00000E+00
         0.00000E+00
         0.00000E+00
         0.00000E+00
         0.00000E+00
         0.00000E+00
         0.00000E+00
         0.00000E+00
         0.00000E+00
         0.00000E+00
         0.00000E+00
         0.00000E+00
         0.00000E+00
         0.00000E+00
         0.00000E+00
         0.00000E+00
         0.00000E+00
         0.00000E+00
         0.00000E+00
         0.00000E+00
         0.00000E+00
         0.00000E+00
         0.00000E+00
         0.00000E+00
         0.00000E+00
         0.00000E+00
         0.00000E+00
         0.00000E+00
         0.00000E+00
         0.00000E+00
         0.00000E+00
         0.00000E+00
         0.00000E+00
         0.00000E+00
         0.00000E+00
         0.00000E+00
         0.00000E+00
         0.00000E+00
         0.00000E+00
         0.00000E+00
         0.00000E+00
         0.00000E+00
         0.00000E+00
         0.00000E+00
         0.00000E+00
         0.00000E+00
         0.00000E+00
         0.00000E+00
         0.00000E+00
         0.00000E+00
         0.00000E+00
         0.00000E+00
         0.00000E+00
         0.00000E+00
         0.00000E+00
         0.00000E+00
         0.00000E+00
         0.00000E+00
         0.00000E+00
         0.00000E+00
         0.00000E+00
         0.00000E+00
         0.00000E+00
         0.00000E+00
         0.00000E+00
         0.00000E+00
         0.00000E+00
         0.00000E+00
         0.00000E+00
         0.00000E+00
         0.00000E+00
         0.00000E+00
         0.00000E+00
         0.00000E+00
         0.00000E+00
         0.00000E+00
         0.00000E+00
         0.00000E+00
         0.00000E+00
         0.00000E+00
         0.00000E+00
         0.00000E+00
         0.00000E+00
         0.00000E+00
         0.00000E+00
         0.00000E+00
         0.00000E+00
         0.00000E+00
         0.00000E+00
         0.00000E+00
         0.00000E+00
         0.00000E+00
         0.00000E+00
         0.00000E+00
         0.00000E+00
         0.00000E+00
         0.00000E+00
         0.00000E+00
         0.00000E+00
         0.00000E+00
         0.00000E+00
         0.00000E+00
         0.00000E+00
         0.00000E+00
         0.00000E+00
         0.00000E+00
         0.00000E+00
         0.00000E+00
         0.00000E+00
         0.00000E+00
         0.00000E+00
         0.00000E+00
         0.00000E+00
         0.00000E+00
         0.00000E+00
         0.00000E+00
         0.00000E+00
         0.00000E+00
         0.00000E+00
         0.00000E+00
         0.00000E+00
         0.00000E+00
         0.00000E+00
         0.00000E+00
         0.00000E+00
         0.00000E+00
         0.00000E+00
         0.00000E+00
         0.00000E+00
         0.00000E+00
         0.00000E+00
         0.00000E+00
         0.00000E+00
         0.00000E+00
         0.00000E+00
         0.00000E+00
         0.00000E+00
         0.00000E+00
         0.00000E+00
         0.00000E+00
         0.00000E+00
         0.00000E+00
         0.00000E+00
         0.00000E+00
         0.00000E+00
         0.00000E+00
         0.00000E+00
         0.00000E+00
         0.00000E+00
         0.00000E+00
         0.00000E+00
         0.00000E+00
         0.00000E+00
         0.00000E+00
         0.00000E+00
         0.00000E+00
         0.00000E+00
         0.00000E+00
         0.00000E+00
         0.00000E+00
         0.00000E+00
         0.00000E+00
         0.00000E+00
         0.00000E+00
         0.00000E+00
         0.00000E+00
         0.00000E+00
         0.00000E+00
         0.00000E+00
         0.00000E+00
         0.00000E+00
         0.00000E+00
         0.00000E+00
         0.00000E+00
         0.00000E+00
         0.00000E+00
         0.00000E+00
         0.00000E+00
         0.00000E+00
         0.00000E+00
         0.00000E+00
         0.00000E+00
         0.00000E+00
         0.00000E+00
         0.00000E+00
         0.00000E+00
         0.00000E+00
         0.00000E+00
         0.00000E+00
         0.00000E+00
         0.00000E+00
         0.00000E+00
         0.00000E+00
         0.00000E+00
         0.00000E+00
         0.00000E+00
         0.00000E+00
         0.00000E+00
         0.00000E+00
         0.00000E+00
         0.00000E+00
         0.00000E+00
         0.00000E+00
         0.00000E+00
         0.00000E+00
         0.00000E+00
         0.00000E+00
         0.00000E+00
         0.00000E+00
         0.00000E+00
         0.00000E+00
         0.00000E+00
         0.00000E+00
         0.00000E+00
         0.00000E+00
         0.00000E+00
         0.00000E+00
         0.00000E+00
         0.00000E+00
         0.00000E+00
         0.00000E+00
         0.00000E+00
         0.00000E+00
         0.00000E+00
         0.00000E+00
         0.00000E+00
         0.00000E+00
         0.00000E+00
         0.00000E+00
         0.00000E+00
         0.00000E+00
         0.00000E+00
         0.00000E+00
         0.00000E+00
         0.00000E+00
         0.00000E+00
         0.00000E+00
         0.00000E+00
         0.00000E+00
         0.00000E+00
         0.00000E+00
         0.00000E+00
         0.00000E+00
         0.00000E+00
         0.00000E+00
         0.00000E+00
         0.00000E+00
         0.00000E+00
         0.00000E+00
         0.00000E+00
         0.00000E+00
         0.00000E+00
         0.00000E+00
         0.00000E+00
         0.00000E+00
         0.00000E+00
         0.00000E+00
         0.00000E+00
         0.00000E+00
         0.00000E+00
         0.00000E+00
         0.00000E+00
         0.00000E+00
         0.00000E+00
         0.00000E+00
         0.00000E+00
         0.00000E+00
         0.00000E+00
         0.00000E+00
         0.00000E+00
         0.00000E+00
         0.00000E+00
         0.00000E+00
         0.00000E+00
         0.00000E+00
         0.00000E+00
         0.00000E+00
         0.00000E+00
         0.00000E+00
         0.00000E+00
         0.00000E+00
         0.00000E+00
         0.00000E+00
         0.00000E+00
         0.00000E+00
         0.00000E+00
         0.00000E+00
         0.00000E+00
         0.00000E+00
         0.00000E+00
         0.00000E+00
         0.00000E+00
         0.00000E+00
         0.00000E+00
         0.00000E+00
         0.00000E+00
         0.00000E+00
         0.00000E+00
         0.00000E+00
         0.00000E+00
         0.00000E+00
         0.00000E+00
         0.00000E+00
         0.00000E+00
         0.00000E+00
         0.00000E+00
         0.00000E+00
         0.00000E+00
         0.00000E+00
         0.00000E+00
         0.00000E+00
         0.00000E+00
         0.00000E+00
         0.00000E+00
         0.00000E+00
         0.00000E+00
         0.00000E+00
         0.00000E+00
         0.00000E+00
         0.00000E+00
         0.00000E+00
         0.00000E+00
         0.00000E+00
         0.00000E+00
         0.00000E+00
         0.00000E+00
         0.00000E+00
         0.00000E+00
         0.00000E+00
         0.00000E+00
         0.00000E+00
         0.00000E+00
         0.00000E+00
         0.00000E+00
         0.00000E+00
         0.00000E+00
         0.00000E+00
         0.00000E+00
         0.00000E+00
         0.00000E+00
         0.00000E+00
         0.00000E+00
         0.00000E+00
         0.00000E+00
         0.00000E+00
         0.00000E+00
         0.00000E+00
         0.00000E+00
         0.00000E+00
         0.00000E+00
         0.00000E+00
         0.00000E+00
         0.00000E+00
         0.00000E+00
         0.00000E+00
         0.00000E+00
         0.00000E+00
         0.00000E+00
         0.00000E+00
         0.00000E+00
         0.00000E+00
         0.00000E+00
         0.00000E+00
         0.00000E+00
         0.00000E+00
         0.00000E+00
         0.00000E+00
         0.00000E+00
         0.00000E+00
         0.00000E+00
         0.00000E+00
         0.00000E+00
         0.00000E+00
         0.00000E+00
         0.00000E+00
         0.00000E+00
         0.00000E+00
         0.00000E+00
         0.00000E+00
         0.00000E+00
         0.00000E+00
         0.00000E+00
         0.00000E+00
         0.00000E+00
         0.00000E+00
         0.00000E+00
         0.00000E+00
         0.00000E+00
         0.00000E+00
         0.00000E+00
         0.00000E+00
         0.00000E+00
         0.00000E+00
         0.00000E+00
         0.00000E+00
         0.00000E+00
         0.00000E+00
         0.00000E+00
         0.00000E+00
         0.00000E+00
         0.00000E+00
         0.00000E+00
         0.00000E+00
         0.00000E+00
         0.00000E+00
         0.00000E+00
         0.00000E+00
         0.00000E+00
         0.00000E+00
         0.00000E+00
         0.00000E+00
         0.00000E+00
         0.00000E+00
         0.00000E+00
         0.00000E+00
         0.00000E+00
         0.00000E+00
         0.00000E+00
         0.00000E+00
         0.00000E+00
         0.00000E+00
         0.00000E+00
         0.00000E+00
         0.00000E+00
         0.00000E+00
         0.00000E+00
         0.00000E+00
         0.00000E+00
         0.00000E+00
         0.00000E+00
         0.00000E+00
         0.00000E+00
         0.00000E+00
         0.00000E+00
         0.00000E+00
         0.00000E+00
         0.00000E+00
         0.00000E+00
         0.00000E+00
         0.00000E+00
         0.00000E+00
         0.00000E+00
         0.00000E+00
         0.00000E+00
         0.00000E+00
         0.00000E+00
         0.00000E+00
         0.00000E+00
         0.00000E+00
         0.00000E+00
         0.00000E+00
         0.00000E+00
         0.00000E+00
         0.00000E+00
         0.00000E+00
         0.00000E+00
         0.00000E+00
         0.00000E+00
         0.00000E+00
         0.00000E+00
         0.00000E+00
         0.00000E+00
         0.00000E+00
         0.00000E+00
         0.00000E+00
         0.00000E+00
         0.00000E+00
         0.00000E+00
         0.00000E+00
         0.00000E+00
         0.00000E+00
         0.00000E+00
         0.00000E+00
         0.00000E+00
         0.00000E+00
         0.00000E+00
         0.00000E+00
         0.00000E+00
         0.00000E+00
         0.00000E+00
         0.00000E+00
         0.00000E+00
         0.00000E+00
         0.00000E+00
         0.00000E+00
         0.00000E+00
         0.00000E+00
         0.00000E+00
         0.00000E+00
         0.00000E+00
         0.00000E+00
         0.00000E+00
         0.00000E+00
         0.00000E+00
         0.00000E+00
         0.00000E+00
         0.00000E+00
         0.00000E+00
         0.00000E+00
         0.00000E+00
         0.00000E+00
         0.00000E+00
         0.00000E+00
         0.00000E+00
         0.00000E+00
         0.00000E+00
         0.00000E+00
         0.00000E+00
         0.00000E+00
         0.00000E+00
         0.00000E+00
         0.00000E+00
         0.00000E+00
         0.00000E+00
         0.00000E+00
         0.00000E+00
         0.00000E+00
         0.00000E+00
         0.00000E+00
         0.00000E+00
         0.00000E+00
         0.00000E+00
         0.00000E+00
         0.00000E+00
         0.00000E+00
         0.00000E+00
         0.00000E+00
         0.00000E+00
         0.00000E+00
         0.00000E+00
         0.00000E+00
         0.00000E+00
         0.00000E+00
         0.00000E+00
         0.00000E+00
         0.00000E+00
         0.00000E+00
         0.00000E+00
         0.00000E+00
         0.00000E+00
         0.00000E+00
         0.00000E+00
         0.00000E+00
         0.00000E+00
         0.00000E+00
         0.00000E+00
         0.00000E+00
         0.00000E+00
         0.00000E+00
         0.00000E+00
         0.00000E+00
         0.00000E+00
         0.00000E+00
         0.00000E+00
         0.00000E+00
         0.00000E+00
         0.00000E+00
         0.00000E+00
         0.00000E+00
         0.00000E+00
         0.00000E+00
         0.00000E+00
         0.00000E+00
         0.00000E+00
         0.00000E+00
         0.00000E+00
         0.00000E+00
         0.00000E+00
         0.00000E+00
         0.00000E+00
         0.00000E+00
         0.00000E+00
         0.00000E+00
         0.00000E+00
         0.00000E+00
         0.00000E+00
         0.00000E+00
         0.00000E+00
         0.00000E+00
         0.00000E+00
         0.00000E+00
         0.00000E+00
         0.00000E+00
         0.00000E+00
         0.00000E+00
         0.00000E+00
         0.00000E+00
         0.00000E+00
         0.00000E+00
         0.00000E+00
         0.00000E+00
         0.00000E+00
         0.00000E+00
         0.00000E+00
         0.00000E+00
         0.00000E+00
         0.00000E+00
         0.00000E+00
         0.00000E+00
         0.00000E+00
         0.00000E+00
         0.00000E+00
         0.00000E+00
         0.00000E+00
         0.00000E+00
         0.00000E+00
         0.00000E+00
         0.00000E+00
         0.00000E+00
         0.00000E+00
         0.00000E+00
         0.00000E+00
         0.00000E+00
         0.00000E+00
         0.00000E+00
         0.00000E+00
         0.00000E+00
         0.00000E+00
         0.00000E+00
         0.00000E+00
         0.00000E+00
         0.00000E+00
         0.00000E+00
         0.00000E+00
         0.00000E+00
         0.00000E+00
         0.00000E+00
         0.00000E+00
         0.00000E+00
         0.00000E+00
         0.00000E+00
         0.00000E+00
         0.00000E+00
         0.00000E+00
         0.00000E+00
         0.00000E+00
         0.00000E+00
         0.00000E+00
         0.00000E+00
         0.00000E+00
         0.00000E+00
         0.00000E+00
         0.00000E+00
         0.00000E+00
         0.00000E+00
         0.00000E+00
         0.00000E+00
         0.00000E+00
         0.00000E+00
         0.00000E+00
         0.00000E+00
         0.00000E+00
         0.00000E+00
         0.00000E+00
         0.00000E+00
         0.00000E+00
         0.00000E+00
         0.00000E+00
         0.00000E+00
         0.00000E+00
         0.00000E+00
         0.00000E+00
         0.00000E+00
         0.00000E+00
         0.00000E+00
         0.00000E+00
         0.00000E+00
         0.00000E+00
         0.00000E+00
         0.00000E+00
         0.00000E+00
         0.00000E+00
         0.00000E+00
         0.00000E+00
         0.00000E+00
         0.00000E+00
         0.00000E+00
         0.00000E+00
         0.00000E+00
         0.00000E+00
         0.00000E+00
         0.00000E+00
         0.00000E+00
         0.00000E+00
         0.00000E+00
         0.00000E+00
         0.00000E+00
         0.00000E+00
         0.00000E+00
         0.00000E+00
         0.00000E+00
         0.00000E+00
         0.00000E+00
         0.00000E+00
         0.00000E+00
         0.00000E+00
         0.00000E+00
         0.00000E+00
         0.00000E+00
         0.00000E+00
         0.00000E+00
         0.00000E+00
         0.00000E+00
         0.00000E+00
         0.00000E+00
         0.00000E+00
         0.00000E+00
         0.00000E+00
         0.00000E+00
         0.00000E+00
         0.00000E+00
         0.00000E+00
         0.00000E+00
         0.00000E+00
         0.00000E+00
         0.00000E+00
         0.00000E+00
         0.00000E+00
         0.00000E+00
         0.00000E+00
         0.00000E+00
         0.00000E+00
         0.00000E+00
         0.00000E+00
         0.00000E+00
         0.00000E+00
         0.00000E+00
         0.00000E+00
         0.00000E+00
         0.00000E+00
         0.00000E+00
         0.00000E+00
         0.00000E+00
         0.00000E+00
         0.00000E+00
         0.00000E+00
         0.00000E+00
         0.00000E+00
         0.00000E+00
         0.00000E+00
         0.00000E+00
         0.00000E+00
         0.00000E+00
         0.00000E+00
         0.00000E+00
         0.00000E+00
         0.00000E+00
         0.00000E+00
         0.00000E+00
         0.00000E+00
         0.00000E+00
         0.00000E+00
         0.00000E+00
         0.00000E+00
         0.00000E+00
         0.00000E+00
         0.00000E+00
         0.00000E+00
         0.00000E+00
         0.00000E+00
         0.00000E+00
         0.00000E+00
         0.00000E+00
         0.00000E+00
         0.00000E+00
         0.00000E+00
         0.00000E+00
         0.00000E+00
         0.00000E+00
         0.00000E+00
         0.00000E+00
         0.00000E+00
         0.00000E+00
         0.00000E+00
         0.00000E+00
         0.00000E+00
         0.00000E+00
         0.00000E+00
         0.00000E+00
         0.00000E+00
         0.00000E+00
         0.00000E+00
         0.00000E+00
         0.00000E+00
         0.00000E+00
         0.00000E+00
         0.00000E+00
         0.00000E+00
         0.00000E+00
         0.00000E+00
         0.00000E+00
         0.00000E+00
         0.00000E+00
         0.00000E+00
         0.00000E+00
         0.00000E+00
         0.00000E+00
         0.00000E+00
         0.00000E+00
         0.00000E+00
         0.00000E+00
         0.00000E+00
         0.00000E+00
         0.00000E+00
         0.00000E+00
         0.00000E+00
         0.00000E+00
         0.00000E+00
         0.00000E+00
         0.00000E+00
         0.00000E+00
         0.00000E+00
         0.00000E+00
         0.00000E+00
         0.00000E+00
         0.00000E+00
         0.00000E+00
         0.00000E+00
         0.00000E+00
         0.00000E+00
         0.00000E+00
         0.00000E+00
         0.00000E+00
         0.00000E+00
         0.00000E+00
         0.00000E+00
         0.00000E+00
         0.00000E+00
         0.00000E+00
         0.00000E+00
         0.00000E+00
         0.00000E+00
         0.00000E+00
         0.00000E+00
         0.00000E+00
         0.00000E+00
         0.00000E+00
         0.00000E+00
         0.00000E+00
         0.00000E+00
         0.00000E+00
         0.00000E+00
         0.00000E+00
         0.00000E+00
         0.00000E+00
         0.00000E+00
         0.00000E+00
         0.00000E+00
         0.00000E+00
         0.00000E+00
         0.00000E+00
         0.00000E+00
         0.00000E+00
         0.00000E+00
         0.00000E+00
         0.00000E+00
         0.00000E+00
         0.00000E+00
         0.00000E+00
         0.00000E+00
         0.00000E+00
         0.00000E+00
         0.00000E+00
         0.00000E+00
         0.00000E+00
         0.00000E+00
         0.00000E+00
         0.00000E+00
         0.00000E+00
         0.00000E+00
         0.00000E+00
         0.00000E+00
         0.00000E+00
         0.00000E+00
         0.00000E+00
         0.00000E+00
         0.00000E+00
         0.00000E+00
         0.00000E+00
         0.00000E+00
         0.00000E+00
         0.00000E+00
         0.00000E+00
         0.00000E+00
         0.00000E+00
         0.00000E+00
         0.00000E+00
         0.00000E+00
         0.00000E+00
         0.00000E+00
         0.00000E+00
         0.00000E+00
         0.00000E+00
         0.00000E+00
         0.00000E+00
         0.00000E+00
         0.00000E+00
         0.00000E+00
         0.00000E+00
         0.00000E+00
         0.00000E+00
         0.00000E+00
         0.00000E+00
         0.00000E+00
         0.00000E+00
         0.00000E+00
         0.00000E+00
         0.00000E+00
         0.00000E+00
         0.00000E+00
         0.00000E+00
         0.00000E+00
         0.00000E+00
         0.00000E+00
         0.00000E+00
         0.00000E+00
         0.00000E+00
         0.00000E+00
         0.00000E+00
         0.00000E+00
         0.00000E+00
         0.00000E+00
         0.00000E+00
         0.00000E+00
         0.00000E+00
         0.00000E+00
         0.00000E+00
         0.00000E+00
         0.00000E+00
         0.00000E+00
         0.00000E+00
         0.00000E+00
         0.00000E+00
         0.00000E+00
         0.00000E+00
         0.00000E+00
         0.00000E+00
         0.00000E+00
         0.00000E+00
         0.00000E+00
         0.00000E+00
         0.00000E+00
         0.00000E+00
         0.00000E+00
         0.00000E+00
         0.00000E+00
         0.00000E+00
         0.00000E+00
         0.00000E+00
         0.00000E+00
         0.00000E+00
         0.00000E+00
         0.00000E+00
         0.00000E+00
         0.00000E+00
         0.00000E+00
         0.00000E+00
         0.00000E+00
         0.00000E+00
         0.00000E+00
         0.00000E+00
         0.00000E+00
         0.00000E+00
         0.00000E+00
         0.00000E+00
         0.00000E+00
         0.00000E+00
         0.00000E+00
         0.00000E+00
         0.00000E+00
         0.00000E+00
         0.00000E+00
         0.00000E+00
         0.00000E+00
         0.00000E+00
         0.00000E+00
         0.00000E+00
         0.00000E+00
         0.00000E+00
         0.00000E+00
         0.00000E+00
         0.00000E+00
         0.00000E+00
         0.00000E+00
         0.00000E+00
         0.00000E+00
         0.00000E+00
         0.00000E+00
         0.00000E+00
         0.00000E+00
         0.00000E+00
         0.00000E+00
         0.00000E+00
         0.00000E+00
         0.00000E+00
         0.00000E+00
         0.00000E+00
         0.00000E+00
         0.00000E+00
         0.00000E+00
         0.00000E+00
         0.00000E+00
         0.00000E+00
         0.00000E+00
         0.00000E+00
         0.00000E+00
         0.00000E+00
         0.00000E+00
         0.00000E+00
         0.00000E+00
         0.00000E+00
         0.00000E+00
         0.00000E+00
         0.00000E+00
         0.00000E+00
         0.00000E+00
         0.00000E+00
         0.00000E+00
         0.00000E+00
         0.00000E+00
         0.00000E+00
         0.00000E+00
         0.00000E+00
         0.00000E+00
         0.00000E+00
         0.00000E+00
         0.00000E+00
         0.00000E+00
         0.00000E+00
         0.00000E+00
         0.00000E+00
         0.00000E+00
         0.00000E+00
         0.00000E+00
         0.00000E+00
         0.00000E+00
         0.00000E+00
         0.00000E+00
         0.00000E+00
         0.00000E+00
         0.00000E+00
         0.00000E+00
         0.00000E+00
         0.00000E+00
         0.00000E+00
         0.00000E+00
         0.00000E+00
         0.00000E+00
         0.00000E+00
         0.00000E+00
         0.00000E+00
         0.00000E+00
         0.00000E+00
         0.00000E+00
         0.00000E+00
         0.00000E+00
         0.00000E+00
         0.00000E+00
         0.00000E+00
         0.00000E+00
         0.00000E+00
         0.00000E+00
         0.00000E+00
         0.00000E+00
         0.00000E+00
         0.00000E+00
         0.00000E+00
         0.00000E+00
         0.00000E+00
         0.00000E+00
         0.00000E+00
         0.00000E+00
         0.00000E+00
         0.00000E+00
         0.00000E+00
         0.00000E+00
         0.00000E+00
         0.00000E+00
         0.00000E+00
         0.00000E+00
         0.00000E+00
         0.00000E+00
         0.00000E+00
         0.00000E+00
         0.00000E+00
         0.00000E+00
         0.00000E+00
         0.00000E+00
         0.00000E+00
         0.00000E+00
         0.00000E+00
         0.00000E+00
         0.00000E+00
         0.00000E+00
         0.00000E+00
         0.00000E+00
         0.00000E+00
         0.00000E+00
         0.00000E+00
         0.00000E+00
         0.00000E+00
         0.00000E+00
         0.00000E+00
         0.00000E+00
         0.00000E+00
         0.00000E+00
         0.00000E+00
         0.00000E+00
         0.00000E+00
         0.00000E+00
         0.00000E+00
         0.00000E+00
         0.00000E+00
         0.00000E+00
         0.00000E+00
         0.00000E+00
         0.00000E+00
         0.00000E+00
         0.00000E+00
         0.00000E+00
         0.00000E+00
         0.00000E+00
         0.00000E+00
         0.00000E+00
         0.00000E+00
         0.00000E+00
         0.00000E+00
         0.00000E+00
         0.00000E+00
         0.00000E+00
         0.00000E+00
         0.00000E+00
         0.00000E+00
         0.00000E+00
         0.00000E+00
         0.00000E+00
         0.00000E+00
         0.00000E+00
         0.00000E+00
         0.00000E+00
         0.00000E+00
         0.00000E+00
         0.00000E+00
         0.00000E+00
         0.00000E+00
         0.00000E+00
         0.00000E+00
         0.00000E+00
         0.00000E+00
         0.00000E+00
         0.00000E+00
         0.00000E+00
         0.00000E+00
         0.00000E+00
         0.00000E+00
         0.00000E+00
         0.00000E+00
         0.00000E+00
         0.00000E+00
         0.00000E+00
         0.00000E+00
         0.00000E+00
         0.00000E+00
         0.00000E+00
         0.00000E+00
         0.00000E+00
         0.00000E+00
         0.00000E+00
         0.00000E+00
         0.00000E+00
         0.00000E+00
         0.00000E+00
         0.00000E+00
         0.00000E+00
         0.00000E+00
         0.00000E+00
         0.00000E+00
         0.00000E+00
         0.00000E+00
         0.00000E+00
         0.00000E+00
         0.00000E+00
         0.00000E+00
         0.00000E+00
         0.00000E+00
         0.00000E+00
         0.00000E+00
         0.00000E+00
         0.00000E+00
         0.00000E+00
         0.00000E+00
         0.00000E+00
         0.00000E+00
         0.00000E+00
         0.00000E+00
         0.00000E+00
         0.00000E+00
         0.00000E+00
         0.00000E+00
         0.00000E+00
         0.00000E+00
         0.00000E+00
         0.00000E+00
         0.00000E+00
         0.00000E+00
         0.00000E+00
         0.00000E+00
         0.00000E+00
         0.00000E+00
         0.00000E+00
         0.00000E+00
         0.00000E+00
         0.00000E+00
         0.00000E+00
         0.00000E+00
         0.00000E+00
         0.00000E+00
         0.00000E+00
         0.00000E+00
         0.00000E+00
         0.00000E+00
         0.00000E+00
         0.00000E+00
         0.00000E+00
         0.00000E+00
         0.00000E+00
         0.00000E+00
         0.00000E+00
         0.00000E+00
         0.00000E+00
         0.00000E+00
         0.00000E+00
         0.00000E+00
         0.00000E+00
         0.00000E+00
         0.00000E+00
         0.00000E+00
         0.00000E+00
         0.00000E+00
         0.00000E+00
         0.00000E+00
         0.00000E+00
         0.00000E+00
         0.00000E+00
         0.00000E+00
         0.00000E+00
         0.00000E+00
         0.00000E+00
         0.00000E+00
         0.00000E+00
         0.00000E+00
         0.00000E+00
         0.00000E+00
         0.00000E+00
         0.00000E+00
         0.00000E+00
         0.00000E+00
         0.00000E+00
         0.00000E+00
         0.00000E+00
         0.00000E+00
         0.00000E+00
         0.00000E+00
         0.00000E+00
         0.00000E+00
         0.00000E+00
         0.00000E+00
         0.00000E+00
         0.00000E+00
         0.00000E+00
         0.00000E+00
         0.00000E+00
         0.00000E+00
         0.00000E+00
         0.00000E+00
         0.00000E+00
         0.00000E+00
         0.00000E+00
         0.00000E+00
         0.00000E+00
         0.00000E+00
         0.00000E+00
         0.00000E+00
         0.00000E+00
         0.00000E+00
         0.00000E+00
         0.00000E+00
         0.00000E+00
         0.00000E+00
         0.00000E+00
         0.00000E+00
         0.00000E+00
         0.00000E+00
         0.00000E+00
         0.00000E+00
         0.00000E+00
         0.00000E+00
         0.00000E+00
         0.00000E+00
         0.00000E+00
         0.00000E+00
         0.00000E+00
         0.00000E+00
         0.00000E+00
         0.00000E+00
         0.00000E+00
         0.00000E+00
         0.00000E+00
         0.00000E+00
         0.00000E+00
         0.00000E+00
         0.00000E+00
         0.00000E+00
         0.00000E+00
         0.00000E+00
         0.00000E+00
         0.00000E+00
         0.00000E+00
         0.00000E+00
         0.00000E+00
         0.00000E+00
         0.00000E+00
         0.00000E+00
         0.00000E+00
         0.00000E+00
         0.00000E+00
         0.00000E+00
         0.00000E+00
         0.00000E+00
         0.00000E+00
         0.00000E+00
         0.00000E+00
         0.00000E+00
         0.00000E+00
         0.00000E+00
         0.00000E+00
         0.00000E+00
         0.00000E+00
         0.00000E+00
         0.00000E+00
         0.00000E+00
         0.00000E+00
         0.00000E+00
         0.00000E+00
         0.00000E+00
         0.00000E+00
         0.00000E+00
         0.00000E+00
         0.00000E+00
         0.00000E+00
         0.00000E+00
         0.00000E+00
         0.00000E+00
         0.00000E+00
         0.00000E+00
         0.00000E+00
         0.00000E+00
         0.00000E+00
         0.00000E+00
         0.00000E+00
         0.00000E+00
         0.00000E+00
         0.00000E+00
         0.00000E+00
         0.00000E+00
         0.00000E+00
         0.00000E+00
         0.00000E+00
         0.00000E+00
         0.00000E+00
         0.00000E+00
         0.00000E+00
         0.00000E+00
         0.00000E+00
         0.00000E+00
         0.00000E+00
         0.00000E+00
         0.00000E+00
         0.00000E+00
         0.00000E+00
         0.00000E+00
         0.00000E+00
         0.00000E+00
         0.00000E+00
         0.00000E+00
         0.00000E+00
         0.00000E+00
         0.00000E+00
         0.00000E+00
         0.00000E+00
         0.00000E+00
         0.00000E+00
         0.00000E+00
         0.00000E+00
         0.00000E+00
         0.00000E+00
         0.00000E+00
         0.00000E+00
         0.00000E+00
         0.00000E+00
         0.00000E+00
         0.00000E+00
         0.00000E+00
         0.00000E+00
         0.00000E+00
         0.00000E+00
         0.00000E+00
         0.00000E+00
         0.00000E+00
         0.00000E+00
         0.00000E+00
         0.00000E+00
         0.00000E+00
         0.00000E+00
         0.00000E+00
         0.00000E+00
         0.00000E+00
         0.00000E+00
         0.00000E+00
         0.00000E+00
         0.00000E+00
         0.00000E+00
         0.00000E+00
         0.00000E+00
         0.00000E+00
         0.00000E+00
         0.00000E+00
         0.00000E+00
         0.00000E+00
         0.00000E+00
         0.00000E+00
         0.00000E+00
         0.00000E+00
         0.00000E+00
         0.00000E+00
         0.00000E+00
         0.00000E+00
         0.00000E+00
         0.00000E+00
         0.00000E+00
         0.00000E+00
         0.00000E+00
         0.00000E+00
         0.00000E+00
         0.00000E+00
         0.00000E+00
         0.00000E+00
         0.00000E+00
         0.00000E+00
         0.00000E+00
         0.00000E+00
         0.00000E+00
         0.00000E+00
         0.00000E+00
         0.00000E+00
         0.00000E+00
         0.00000E+00
         0.00000E+00
         0.00000E+00
         0.00000E+00
         0.00000E+00
         0.00000E+00
         0.00000E+00
         0.00000E+00
         0.00000E+00
         0.00000E+00
         0.00000E+00
         0.00000E+00
         0.00000E+00
         0.00000E+00
         0.00000E+00
         0.00000E+00
         0.00000E+00
         0.00000E+00
         0.00000E+00
         0.00000E+00
         0.00000E+00
         0.00000E+00
         0.00000E+00
         0.00000E+00
         0.00000E+00
         0.00000E+00
         0.00000E+00
         0.00000E+00
         0.00000E+00
         0.00000E+00
         0.00000E+00
         0.00000E+00
         0.00000E+00
         0.00000E+00
         0.00000E+00
         0.00000E+00
         0.00000E+00
         0.00000E+00
         0.00000E+00
         0.00000E+00
         0.00000E+00
         0.00000E+00
         0.00000E+00
         0.00000E+00
         0.00000E+00
         0.00000E+00
         0.00000E+00
         0.00000E+00
         0.00000E+00
         0.00000E+00
         0.00000E+00
         0.00000E+00
         0.00000E+00
         0.00000E+00
         0.00000E+00
         0.00000E+00
         0.00000E+00
         0.00000E+00
         0.00000E+00
         0.00000E+00
         0.00000E+00
         0.00000E+00
         0.00000E+00
         0.00000E+00
         0.00000E+00
         0.00000E+00
         0.00000E+00
         0.00000E+00
         0.00000E+00
         0.00000E+00
         0.00000E+00
         0.00000E+00
         0.00000E+00
         0.00000E+00
         0.00000E+00
         0.00000E+00
         0.00000E+00
         0.00000E+00
         0.00000E+00
         0.00000E+00
         0.00000E+00
         0.00000E+00
         0.00000E+00
         0.00000E+00
         0.00000E+00
         0.00000E+00
         0.00000E+00
         0.00000E+00
         0.00000E+00
         0.00000E+00
         0.00000E+00
         0.00000E+00
         0.00000E+00
         0.00000E+00
         0.00000E+00
         0.00000E+00
         0.00000E+00
         0.00000E+00
         0.00000E+00
         0.00000E+00
         0.00000E+00
         0.00000E+00
         0.00000E+00
         0.00000E+00
         0.00000E+00
         0.00000E+00
         0.00000E+00
         0.00000E+00
         0.00000E+00
         0.00000E+00
         0.00000E+00
         0.00000E+00
         0.00000E+00
         0.00000E+00
         0.00000E+00
         0.00000E+00
         0.00000E+00
         0.00000E+00
         0.00000E+00
         0.00000E+00
         0.00000E+00
         0.00000E+00
         0.00000E+00
         0.00000E+00
         0.00000E+00
         0.00000E+00
         0.00000E+00
         0.00000E+00
         0.00000E+00
         0.00000E+00
         0.00000E+00
         0.00000E+00
         0.00000E+00
         0.00000E+00
         0.00000E+00
         0.00000E+00
         0.00000E+00
         0.00000E+00
         0.00000E+00
         0.00000E+00
         0.00000E+00
         0.00000E+00
         0.00000E+00
         0.00000E+00
         0.00000E+00
         0.00000E+00
         0.00000E+00
         0.00000E+00
         0.00000E+00
         0.00000E+00
         0.00000E+00
         0.00000E+00
         0.00000E+00
         0.00000E+00
         0.00000E+00
         0.00000E+00
         0.00000E+00
         0.00000E+00
         0.00000E+00
         0.00000E+00
         0.00000E+00
         0.00000E+00
         0.00000E+00
         0.00000E+00
         0.00000E+00
         0.00000E+00
         0.00000E+00
         0.00000E+00
         0.00000E+00
         0.00000E+00
         0.00000E+00
         0.00000E+00
         0.00000E+00
         0.00000E+00
         0.00000E+00
         0.00000E+00
         0.00000E+00
         0.00000E+00
         0.00000E+00
         0.00000E+00
         0.00000E+00
         0.00000E+00
         0.00000E+00
         0.00000E+00
         0.00000E+00
         0.00000E+00
         0.00000E+00
         0.00000E+00
         0.00000E+00
         0.00000E+00
         0.00000E+00
         0.00000E+00
         0.00000E+00
         0.00000E+00
         0.00000E+00
         0.00000E+00
         0.00000E+00
         0.00000E+00
         0.00000E+00
         0.00000E+00
         0.00000E+00
         0.00000E+00
         0.00000E+00
         0.00000E+00
         0.00000E+00
         0.00000E+00
         0.00000E+00
         0.00000E+00
         0.00000E+00
         0.00000E+00
         0.00000E+00
         0.00000E+00
         0.00000E+00
         0.00000E+00
         0.00000E+00
         0.00000E+00
         0.00000E+00
         0.00000E+00
         0.00000E+00
         0.00000E+00
         0.00000E+00
         0.00000E+00
         0.00000E+00
         0.00000E+00
         0.00000E+00
         0.00000E+00
         0.00000E+00
         0.00000E+00
         0.00000E+00
         0.00000E+00
         0.00000E+00
         0.00000E+00
         0.00000E+00
         0.00000E+00
         0.00000E+00
         0.00000E+00
         0.00000E+00
         0.00000E+00
         0.00000E+00
         0.00000E+00
         0.00000E+00
         0.00000E+00
         0.00000E+00
         0.00000E+00
         0.00000E+00
         0.00000E+00
         0.00000E+00
         0.00000E+00
         0.00000E+00
         0.00000E+00
         0.00000E+00
         0.00000E+00
         0.00000E+00
         0.00000E+00
         0.00000E+00
         0.00000E+00
         0.00000E+00
         0.00000E+00
         0.00000E+00
         0.00000E+00
         0.00000E+00
         0.00000E+00
         0.00000E+00
         0.00000E+00
         0.00000E+00
         0.00000E+00
         0.00000E+00
         0.00000E+00
         0.00000E+00
         0.00000E+00
         0.00000E+00
         0.00000E+00
         0.00000E+00
         0.00000E+00
         0.00000E+00
         0.00000E+00
         0.00000E+00
         0.00000E+00
         0.00000E+00
         0.00000E+00
         0.00000E+00
         0.00000E+00
         0.00000E+00
         0.00000E+00
         0.00000E+00
         0.00000E+00
         0.00000E+00
         0.00000E+00
         0.00000E+00
         0.00000E+00
         0.00000E+00
         0.00000E+00
         0.00000E+00
         0.00000E+00
         0.00000E+00
         0.00000E+00
         0.00000E+00
         0.00000E+00
         0.00000E+00
         0.00000E+00
         0.00000E+00
         0.00000E+00
         0.00000E+00
         0.00000E+00
         0.00000E+00
         0.00000E+00
         0.00000E+00
         0.00000E+00
         0.00000E+00
  
SCALARS                      eps_shear  double 1
LOOKUP_TABLE default
         0.00000E+00
         0.00000E+00
         0.00000E+00
         0.00000E+00
         0.00000E+00
         0.00000E+00
         0.00000E+00
         0.00000E+00
         0.00000E+00
         0.00000E+00
         0.00000E+00
         0.00000E+00
         0.00000E+00
         0.00000E+00
         0.00000E+00
         0.00000E+00
         0.00000E+00
         0.00000E+00
         0.00000E+00
         0.00000E+00
         0.00000E+00
         0.00000E+00
         0.00000E+00
         0.00000E+00
         0.00000E+00
         0.00000E+00
         0.00000E+00
         0.00000E+00
         0.00000E+00
         0.00000E+00
         0.00000E+00
         0.00000E+00
         0.00000E+00
         0.00000E+00
         0.00000E+00
         0.00000E+00
         0.00000E+00
         0.00000E+00
         0.00000E+00
         0.00000E+00
         0.00000E+00
         0.00000E+00
         0.00000E+00
         0.00000E+00
         0.00000E+00
         0.00000E+00
         0.00000E+00
         0.00000E+00
         0.00000E+00
         0.00000E+00
         0.00000E+00
         0.00000E+00
         0.00000E+00
         0.00000E+00
         0.00000E+00
         0.00000E+00
         0.00000E+00
         0.00000E+00
         0.00000E+00
         0.00000E+00
         0.00000E+00
         0.00000E+00
         0.00000E+00
         0.00000E+00
         0.00000E+00
         0.00000E+00
         0.00000E+00
         0.00000E+00
         0.00000E+00
         0.00000E+00
         0.00000E+00
         0.00000E+00
         0.00000E+00
         0.00000E+00
         0.00000E+00
         0.00000E+00
         0.00000E+00
         0.00000E+00
         0.00000E+00
         0.00000E+00
         0.00000E+00
         0.00000E+00
         0.00000E+00
         0.00000E+00
         0.00000E+00
         0.00000E+00
         0.00000E+00
         0.00000E+00
         0.00000E+00
         0.00000E+00
         0.00000E+00
         0.00000E+00
         0.00000E+00
         0.00000E+00
         0.00000E+00
         0.00000E+00
         0.00000E+00
         0.00000E+00
         0.00000E+00
         0.00000E+00
         0.00000E+00
         0.00000E+00
         0.00000E+00
         0.00000E+00
         0.00000E+00
         0.00000E+00
         0.00000E+00
         0.00000E+00
         0.00000E+00
         0.00000E+00
         0.00000E+00
         0.00000E+00
         0.00000E+00
         0.00000E+00
         0.00000E+00
         0.00000E+00
         0.00000E+00
         0.00000E+00
         0.00000E+00
         0.00000E+00
         0.00000E+00
         0.00000E+00
         0.00000E+00
         0.00000E+00
         0.00000E+00
         0.00000E+00
         0.00000E+00
         0.00000E+00
         0.00000E+00
         0.00000E+00
         0.00000E+00
         0.00000E+00
         0.00000E+00
         0.00000E+00
         0.00000E+00
         0.00000E+00
         0.00000E+00
         0.00000E+00
         0.00000E+00
         0.00000E+00
         0.00000E+00
         0.00000E+00
         0.00000E+00
         0.00000E+00
         0.00000E+00
         0.00000E+00
         0.00000E+00
         0.00000E+00
         0.00000E+00
         0.00000E+00
         0.00000E+00
         0.00000E+00
         0.00000E+00
         0.00000E+00
         0.00000E+00
         0.00000E+00
         0.00000E+00
         0.00000E+00
         0.00000E+00
         0.00000E+00
         0.00000E+00
         0.00000E+00
         0.00000E+00
         0.00000E+00
         0.00000E+00
         0.00000E+00
         0.00000E+00
         0.00000E+00
         0.00000E+00
         0.00000E+00
         0.00000E+00
         0.00000E+00
         0.00000E+00
         0.00000E+00
         0.00000E+00
         0.00000E+00
         0.00000E+00
         0.00000E+00
         0.00000E+00
         0.00000E+00
         0.00000E+00
         0.00000E+00
         0.00000E+00
         0.00000E+00
         0.00000E+00
         0.00000E+00
         0.00000E+00
         0.00000E+00
         0.00000E+00
         0.00000E+00
         0.00000E+00
         0.00000E+00
         0.00000E+00
         0.00000E+00
         0.00000E+00
         0.00000E+00
         0.00000E+00
         0.00000E+00
         0.00000E+00
         0.00000E+00
         0.00000E+00
         0.00000E+00
         0.00000E+00
         0.00000E+00
         0.00000E+00
         0.00000E+00
         0.00000E+00
         0.00000E+00
         0.00000E+00
         0.00000E+00
         0.00000E+00
         0.00000E+00
         0.00000E+00
         0.00000E+00
         0.00000E+00
         0.00000E+00
         0.00000E+00
         0.00000E+00
         0.00000E+00
         0.00000E+00
         0.00000E+00
         0.00000E+00
         0.00000E+00
         0.00000E+00
         0.00000E+00
         0.00000E+00
         0.00000E+00
         0.00000E+00
         0.00000E+00
         0.00000E+00
         0.00000E+00
         0.00000E+00
         0.00000E+00
         0.00000E+00
         0.00000E+00
         0.00000E+00
         0.00000E+00
         0.00000E+00
         0.00000E+00
         0.00000E+00
         0.00000E+00
         0.00000E+00
         0.00000E+00
         0.00000E+00
         0.00000E+00
         0.00000E+00
         0.00000E+00
         0.00000E+00
         0.00000E+00
         0.00000E+00
         0.00000E+00
         0.00000E+00
         0.00000E+00
         0.00000E+00
         0.00000E+00
         0.00000E+00
         0.00000E+00
         0.00000E+00
         0.00000E+00
         0.00000E+00
         0.00000E+00
         0.00000E+00
         0.00000E+00
         0.00000E+00
         0.00000E+00
         0.00000E+00
         0.00000E+00
         0.00000E+00
         0.00000E+00
         0.00000E+00
         0.00000E+00
         0.00000E+00
         0.00000E+00
         0.00000E+00
         0.00000E+00
         0.00000E+00
         0.00000E+00
         0.00000E+00
         0.00000E+00
         0.00000E+00
         0.00000E+00
         0.00000E+00
         0.00000E+00
         0.00000E+00
         0.00000E+00
         0.00000E+00
         0.00000E+00
         0.00000E+00
         0.00000E+00
         0.00000E+00
         0.00000E+00
         0.00000E+00
         0.00000E+00
         0.00000E+00
         0.00000E+00
         0.00000E+00
         0.00000E+00
         0.00000E+00
         0.00000E+00
         0.00000E+00
         0.00000E+00
         0.00000E+00
         0.00000E+00
         0.00000E+00
         0.00000E+00
         0.00000E+00
         0.00000E+00
         0.00000E+00
         0.00000E+00
         0.00000E+00
         0.00000E+00
         0.00000E+00
         0.00000E+00
         0.00000E+00
         0.00000E+00
         0.00000E+00
         0.00000E+00
         0.00000E+00
         0.00000E+00
         0.00000E+00
         0.00000E+00
         0.00000E+00
         0.00000E+00
         0.00000E+00
         0.00000E+00
         0.00000E+00
         0.00000E+00
         0.00000E+00
         0.00000E+00
         0.00000E+00
         0.00000E+00
         0.00000E+00
         0.00000E+00
         0.00000E+00
         0.00000E+00
         0.00000E+00
         0.00000E+00
         0.00000E+00
         0.00000E+00
         0.00000E+00
         0.00000E+00
         0.00000E+00
         0.00000E+00
         0.00000E+00
         0.00000E+00
         0.00000E+00
         0.00000E+00
         0.00000E+00
         0.00000E+00
         0.00000E+00
         0.00000E+00
         0.00000E+00
         0.00000E+00
         0.00000E+00
         0.00000E+00
         0.00000E+00
         0.00000E+00
         0.00000E+00
         0.00000E+00
         0.00000E+00
         0.00000E+00
         0.00000E+00
         0.00000E+00
         0.00000E+00
         0.00000E+00
         0.00000E+00
         0.00000E+00
         0.00000E+00
         0.00000E+00
         0.00000E+00
         0.00000E+00
         0.00000E+00
         0.00000E+00
         0.00000E+00
         0.00000E+00
         0.00000E+00
         0.00000E+00
         0.00000E+00
         0.00000E+00
         0.00000E+00
         0.00000E+00
         0.00000E+00
         0.00000E+00
         0.00000E+00
         0.00000E+00
         0.00000E+00
         0.00000E+00
         0.00000E+00
         0.00000E+00
         0.00000E+00
         0.00000E+00
         0.00000E+00
         0.00000E+00
         0.00000E+00
         0.00000E+00
         0.00000E+00
         0.00000E+00
         0.00000E+00
         0.00000E+00
         0.00000E+00
         0.00000E+00
         0.00000E+00
         0.00000E+00
         0.00000E+00
         0.00000E+00
         0.00000E+00
         0.00000E+00
         0.00000E+00
         0.00000E+00
         0.00000E+00
         0.00000E+00
         0.00000E+00
         0.00000E+00
         0.00000E+00
         0.00000E+00
         0.00000E+00
         0.00000E+00
         0.00000E+00
         0.00000E+00
         0.00000E+00
         0.00000E+00
         0.00000E+00
         0.00000E+00
         0.00000E+00
         0.00000E+00
         0.00000E+00
         0.00000E+00
         0.00000E+00
         0.00000E+00
         0.00000E+00
         0.00000E+00
         0.00000E+00
         0.00000E+00
         0.00000E+00
         0.00000E+00
         0.00000E+00
         0.00000E+00
         0.00000E+00
         0.00000E+00
         0.00000E+00
         0.00000E+00
         0.00000E+00
         0.00000E+00
         0.00000E+00
         0.00000E+00
         0.00000E+00
         0.00000E+00
         0.00000E+00
         0.00000E+00
         0.00000E+00
         0.00000E+00
         0.00000E+00
         0.00000E+00
         0.00000E+00
         0.00000E+00
         0.00000E+00
         0.00000E+00
         0.00000E+00
         0.00000E+00
         0.00000E+00
         0.00000E+00
         0.00000E+00
         0.00000E+00
         0.00000E+00
         0.00000E+00
         0.00000E+00
         0.00000E+00
         0.00000E+00
         0.00000E+00
         0.00000E+00
         0.00000E+00
         0.00000E+00
         0.00000E+00
         0.00000E+00
         0.00000E+00
         0.00000E+00
         0.00000E+00
         0.00000E+00
         0.00000E+00
         0.00000E+00
         0.00000E+00
         0.00000E+00
         0.00000E+00
         0.00000E+00
         0.00000E+00
         0.00000E+00
         0.00000E+00
         0.00000E+00
         0.00000E+00
         0.00000E+00
         0.00000E+00
         0.00000E+00
         0.00000E+00
         0.00000E+00
         0.00000E+00
         0.00000E+00
         0.00000E+00
         0.00000E+00
         0.00000E+00
         0.00000E+00
         0.00000E+00
         0.00000E+00
         0.00000E+00
         0.00000E+00
         0.00000E+00
         0.00000E+00
         0.00000E+00
         0.00000E+00
         0.00000E+00
         0.00000E+00
         0.00000E+00
         0.00000E+00
         0.00000E+00
         0.00000E+00
         0.00000E+00
         0.00000E+00
         0.00000E+00
         0.00000E+00
         0.00000E+00
         0.00000E+00
         0.00000E+00
         0.00000E+00
         0.00000E+00
         0.00000E+00
         0.00000E+00
         0.00000E+00
         0.00000E+00
         0.00000E+00
         0.00000E+00
         0.00000E+00
         0.00000E+00
         0.00000E+00
         0.00000E+00
         0.00000E+00
         0.00000E+00
         0.00000E+00
         0.00000E+00
         0.00000E+00
         0.00000E+00
         0.00000E+00
         0.00000E+00
         0.00000E+00
         0.00000E+00
         0.00000E+00
         0.00000E+00
         0.00000E+00
         0.00000E+00
         0.00000E+00
         0.00000E+00
         0.00000E+00
         0.00000E+00
         0.00000E+00
         0.00000E+00
         0.00000E+00
         0.00000E+00
         0.00000E+00
         0.00000E+00
         0.00000E+00
         0.00000E+00
         0.00000E+00
         0.00000E+00
         0.00000E+00
         0.00000E+00
         0.00000E+00
         0.00000E+00
         0.00000E+00
         0.00000E+00
         0.00000E+00
         0.00000E+00
         0.00000E+00
         0.00000E+00
         0.00000E+00
         0.00000E+00
         0.00000E+00
         0.00000E+00
         0.00000E+00
         0.00000E+00
         0.00000E+00
         0.00000E+00
         0.00000E+00
         0.00000E+00
         0.00000E+00
         0.00000E+00
         0.00000E+00
         0.00000E+00
         0.00000E+00
         0.00000E+00
         0.00000E+00
         0.00000E+00
         0.00000E+00
         0.00000E+00
         0.00000E+00
         0.00000E+00
         0.00000E+00
         0.00000E+00
         0.00000E+00
         0.00000E+00
         0.00000E+00
         0.00000E+00
         0.00000E+00
         0.00000E+00
         0.00000E+00
         0.00000E+00
         0.00000E+00
         0.00000E+00
         0.00000E+00
         0.00000E+00
         0.00000E+00
         0.00000E+00
         0.00000E+00
         0.00000E+00
         0.00000E+00
         0.00000E+00
         0.00000E+00
         0.00000E+00
         0.00000E+00
         0.00000E+00
         0.00000E+00
         0.00000E+00
         0.00000E+00
         0.00000E+00
         0.00000E+00
         0.00000E+00
         0.00000E+00
         0.00000E+00
         0.00000E+00
         0.00000E+00
         0.00000E+00
         0.00000E+00
         0.00000E+00
         0.00000E+00
         0.00000E+00
         0.00000E+00
         0.00000E+00
         0.00000E+00
         0.00000E+00
         0.00000E+00
         0.00000E+00
         0.00000E+00
         0.00000E+00
         0.00000E+00
         0.00000E+00
         0.00000E+00
         0.00000E+00
         0.00000E+00
         0.00000E+00
         0.00000E+00
         0.00000E+00
         0.00000E+00
         0.00000E+00
         0.00000E+00
         0.00000E+00
         0.00000E+00
         0.00000E+00
         0.00000E+00
         0.00000E+00
         0.00000E+00
         0.00000E+00
         0.00000E+00
         0.00000E+00
         0.00000E+00
         0.00000E+00
         0.00000E+00
         0.00000E+00
         0.00000E+00
         0.00000E+00
         0.00000E+00
         0.00000E+00
         0.00000E+00
         0.00000E+00
         0.00000E+00
         0.00000E+00
         0.00000E+00
         0.00000E+00
         0.00000E+00
         0.00000E+00
         0.00000E+00
         0.00000E+00
         0.00000E+00
         0.00000E+00
         0.00000E+00
         0.00000E+00
         0.00000E+00
         0.00000E+00
         0.00000E+00
         0.00000E+00
         0.00000E+00
         0.00000E+00
         0.00000E+00
         0.00000E+00
         0.00000E+00
         0.00000E+00
         0.00000E+00
         0.00000E+00
         0.00000E+00
         0.00000E+00
         0.00000E+00
         0.00000E+00
         0.00000E+00
         0.00000E+00
         0.00000E+00
         0.00000E+00
         0.00000E+00
         0.00000E+00
         0.00000E+00
         0.00000E+00
         0.00000E+00
         0.00000E+00
         0.00000E+00
         0.00000E+00
         0.00000E+00
         0.00000E+00
         0.00000E+00
         0.00000E+00
         0.00000E+00
         0.00000E+00
         0.00000E+00
         0.00000E+00
         0.00000E+00
         0.00000E+00
         0.00000E+00
         0.00000E+00
         0.00000E+00
         0.00000E+00
         0.00000E+00
         0.00000E+00
         0.00000E+00
         0.00000E+00
         0.00000E+00
         0.00000E+00
         0.00000E+00
         0.00000E+00
         0.00000E+00
         0.00000E+00
         0.00000E+00
         0.00000E+00
         0.00000E+00
         0.00000E+00
         0.00000E+00
         0.00000E+00
         0.00000E+00
         0.00000E+00
         0.00000E+00
         0.00000E+00
         0.00000E+00
         0.00000E+00
         0.00000E+00
         0.00000E+00
         0.00000E+00
         0.00000E+00
         0.00000E+00
         0.00000E+00
         0.00000E+00
         0.00000E+00
         0.00000E+00
         0.00000E+00
         0.00000E+00
         0.00000E+00
         0.00000E+00
         0.00000E+00
         0.00000E+00
         0.00000E+00
         0.00000E+00
         0.00000E+00
         0.00000E+00
         0.00000E+00
         0.00000E+00
         0.00000E+00
         0.00000E+00
         0.00000E+00
         0.00000E+00
         0.00000E+00
         0.00000E+00
         0.00000E+00
         0.00000E+00
         0.00000E+00
         0.00000E+00
         0.00000E+00
         0.00000E+00
         0.00000E+00
         0.00000E+00
         0.00000E+00
         0.00000E+00
         0.00000E+00
         0.00000E+00
         0.00000E+00
         0.00000E+00
         0.00000E+00
         0.00000E+00
         0.00000E+00
         0.00000E+00
         0.00000E+00
         0.00000E+00
         0.00000E+00
         0.00000E+00
         0.00000E+00
         0.00000E+00
         0.00000E+00
         0.00000E+00
         0.00000E+00
         0.00000E+00
         0.00000E+00
         0.00000E+00
         0.00000E+00
         0.00000E+00
         0.00000E+00
         0.00000E+00
         0.00000E+00
         0.00000E+00
         0.00000E+00
         0.00000E+00
         0.00000E+00
         0.00000E+00
         0.00000E+00
         0.00000E+00
         0.00000E+00
         0.00000E+00
         0.00000E+00
         0.00000E+00
         0.00000E+00
         0.00000E+00
         0.00000E+00
         0.00000E+00
         0.00000E+00
         0.00000E+00
         0.00000E+00
         0.00000E+00
         0.00000E+00
         0.00000E+00
         0.00000E+00
         0.00000E+00
         0.00000E+00
         0.00000E+00
         0.00000E+00
         0.00000E+00
         0.00000E+00
         0.00000E+00
         0.00000E+00
         0.00000E+00
         0.00000E+00
         0.00000E+00
         0.00000E+00
         0.00000E+00
         0.00000E+00
         0.00000E+00
         0.00000E+00
         0.00000E+00
         0.00000E+00
         0.00000E+00
         0.00000E+00
         0.00000E+00
         0.00000E+00
         0.00000E+00
         0.00000E+00
         0.00000E+00
         0.00000E+00
         0.00000E+00
         0.00000E+00
         0.00000E+00
         0.00000E+00
         0.00000E+00
         0.00000E+00
         0.00000E+00
         0.00000E+00
         0.00000E+00
         0.00000E+00
         0.00000E+00
         0.00000E+00
         0.00000E+00
         0.00000E+00
         0.00000E+00
         0.00000E+00
         0.00000E+00
         0.00000E+00
         0.00000E+00
         0.00000E+00
         0.00000E+00
         0.00000E+00
         0.00000E+00
         0.00000E+00
         0.00000E+00
         0.00000E+00
         0.00000E+00
         0.00000E+00
         0.00000E+00
         0.00000E+00
         0.00000E+00
         0.00000E+00
         0.00000E+00
         0.00000E+00
         0.00000E+00
         0.00000E+00
         0.00000E+00
         0.00000E+00
         0.00000E+00
         0.00000E+00
         0.00000E+00
         0.00000E+00
         0.00000E+00
         0.00000E+00
         0.00000E+00
         0.00000E+00
         0.00000E+00
         0.00000E+00
         0.00000E+00
         0.00000E+00
         0.00000E+00
         0.00000E+00
         0.00000E+00
         0.00000E+00
         0.00000E+00
         0.00000E+00
         0.00000E+00
         0.00000E+00
         0.00000E+00
         0.00000E+00
         0.00000E+00
         0.00000E+00
         0.00000E+00
         0.00000E+00
         0.00000E+00
         0.00000E+00
         0.00000E+00
         0.00000E+00
         0.00000E+00
         0.00000E+00
         0.00000E+00
         0.00000E+00
         0.00000E+00
         0.00000E+00
         0.00000E+00
         0.00000E+00
         0.00000E+00
         0.00000E+00
         0.00000E+00
         0.00000E+00
         0.00000E+00
         0.00000E+00
         0.00000E+00
         0.00000E+00
         0.00000E+00
         0.00000E+00
         0.00000E+00
         0.00000E+00
         0.00000E+00
         0.00000E+00
         0.00000E+00
         0.00000E+00
         0.00000E+00
         0.00000E+00
         0.00000E+00
         0.00000E+00
         0.00000E+00
         0.00000E+00
         0.00000E+00
         0.00000E+00
         0.00000E+00
         0.00000E+00
         0.00000E+00
         0.00000E+00
         0.00000E+00
         0.00000E+00
         0.00000E+00
         0.00000E+00
         0.00000E+00
         0.00000E+00
         0.00000E+00
         0.00000E+00
         0.00000E+00
         0.00000E+00
         0.00000E+00
         0.00000E+00
         0.00000E+00
         0.00000E+00
         0.00000E+00
         0.00000E+00
         0.00000E+00
         0.00000E+00
         0.00000E+00
         0.00000E+00
         0.00000E+00
         0.00000E+00
         0.00000E+00
         0.00000E+00
         0.00000E+00
         0.00000E+00
         0.00000E+00
         0.00000E+00
         0.00000E+00
         0.00000E+00
         0.00000E+00
         0.00000E+00
         0.00000E+00
         0.00000E+00
         0.00000E+00
         0.00000E+00
         0.00000E+00
         0.00000E+00
         0.00000E+00
         0.00000E+00
         0.00000E+00
         0.00000E+00
         0.00000E+00
         0.00000E+00
         0.00000E+00
         0.00000E+00
         0.00000E+00
         0.00000E+00
         0.00000E+00
         0.00000E+00
         0.00000E+00
         0.00000E+00
         0.00000E+00
         0.00000E+00
         0.00000E+00
         0.00000E+00
         0.00000E+00
         0.00000E+00
         0.00000E+00
         0.00000E+00
         0.00000E+00
         0.00000E+00
         0.00000E+00
         0.00000E+00
         0.00000E+00
         0.00000E+00
         0.00000E+00
         0.00000E+00
         0.00000E+00
         0.00000E+00
         0.00000E+00
         0.00000E+00
         0.00000E+00
         0.00000E+00
         0.00000E+00
         0.00000E+00
         0.00000E+00
         0.00000E+00
         0.00000E+00
         0.00000E+00
         0.00000E+00
         0.00000E+00
         0.00000E+00
         0.00000E+00
         0.00000E+00
         0.00000E+00
         0.00000E+00
         0.00000E+00
         0.00000E+00
         0.00000E+00
         0.00000E+00
         0.00000E+00
         0.00000E+00
         0.00000E+00
         0.00000E+00
         0.00000E+00
         0.00000E+00
         0.00000E+00
         0.00000E+00
         0.00000E+00
         0.00000E+00
         0.00000E+00
         0.00000E+00
         0.00000E+00
         0.00000E+00
         0.00000E+00
         0.00000E+00
         0.00000E+00
         0.00000E+00
         0.00000E+00
         0.00000E+00
         0.00000E+00
         0.00000E+00
         0.00000E+00
         0.00000E+00
         0.00000E+00
         0.00000E+00
         0.00000E+00
         0.00000E+00
         0.00000E+00
         0.00000E+00
         0.00000E+00
         0.00000E+00
         0.00000E+00
         0.00000E+00
         0.00000E+00
         0.00000E+00
         0.00000E+00
         0.00000E+00
         0.00000E+00
         0.00000E+00
         0.00000E+00
         0.00000E+00
         0.00000E+00
         0.00000E+00
         0.00000E+00
         0.00000E+00
         0.00000E+00
         0.00000E+00
         0.00000E+00
         0.00000E+00
         0.00000E+00
         0.00000E+00
         0.00000E+00
         0.00000E+00
         0.00000E+00
         0.00000E+00
         0.00000E+00
         0.00000E+00
         0.00000E+00
         0.00000E+00
         0.00000E+00
         0.00000E+00
         0.00000E+00
         0.00000E+00
         0.00000E+00
         0.00000E+00
         0.00000E+00
         0.00000E+00
         0.00000E+00
         0.00000E+00
         0.00000E+00
         0.00000E+00
         0.00000E+00
         0.00000E+00
         0.00000E+00
         0.00000E+00
         0.00000E+00
         0.00000E+00
         0.00000E+00
         0.00000E+00
         0.00000E+00
         0.00000E+00
         0.00000E+00
         0.00000E+00
         0.00000E+00
         0.00000E+00
         0.00000E+00
         0.00000E+00
         0.00000E+00
         0.00000E+00
         0.00000E+00
         0.00000E+00
         0.00000E+00
         0.00000E+00
         0.00000E+00
         0.00000E+00
         0.00000E+00
         0.00000E+00
         0.00000E+00
         0.00000E+00
         0.00000E+00
         0.00000E+00
         0.00000E+00
         0.00000E+00
         0.00000E+00
         0.00000E+00
         0.00000E+00
         0.00000E+00
         0.00000E+00
         0.00000E+00
         0.00000E+00
         0.00000E+00
         0.00000E+00
         0.00000E+00
         0.00000E+00
         0.00000E+00
         0.00000E+00
         0.00000E+00
         0.00000E+00
         0.00000E+00
         0.00000E+00
         0.00000E+00
         0.00000E+00
         0.00000E+00
         0.00000E+00
         0.00000E+00
         0.00000E+00
         0.00000E+00
         0.00000E+00
         0.00000E+00
         0.00000E+00
         0.00000E+00
         0.00000E+00
         0.00000E+00
         0.00000E+00
         0.00000E+00
         0.00000E+00
         0.00000E+00
         0.00000E+00
         0.00000E+00
         0.00000E+00
         0.00000E+00
         0.00000E+00
         0.00000E+00
         0.00000E+00
         0.00000E+00
         0.00000E+00
         0.00000E+00
         0.00000E+00
         0.00000E+00
         0.00000E+00
         0.00000E+00
         0.00000E+00
         0.00000E+00
         0.00000E+00
         0.00000E+00
         0.00000E+00
         0.00000E+00
         0.00000E+00
         0.00000E+00
         0.00000E+00
         0.00000E+00
         0.00000E+00
         0.00000E+00
         0.00000E+00
         0.00000E+00
         0.00000E+00
         0.00000E+00
         0.00000E+00
         0.00000E+00
         0.00000E+00
         0.00000E+00
         0.00000E+00
         0.00000E+00
         0.00000E+00
         0.00000E+00
         0.00000E+00
         0.00000E+00
         0.00000E+00
         0.00000E+00
         0.00000E+00
         0.00000E+00
         0.00000E+00
         0.00000E+00
         0.00000E+00
         0.00000E+00
         0.00000E+00
         0.00000E+00
         0.00000E+00
         0.00000E+00
         0.00000E+00
         0.00000E+00
         0.00000E+00
         0.00000E+00
         0.00000E+00
         0.00000E+00
         0.00000E+00
         0.00000E+00
         0.00000E+00
         0.00000E+00
         0.00000E+00
         0.00000E+00
         0.00000E+00
         0.00000E+00
         0.00000E+00
         0.00000E+00
         0.00000E+00
         0.00000E+00
         0.00000E+00
         0.00000E+00
         0.00000E+00
         0.00000E+00
         0.00000E+00
         0.00000E+00
         0.00000E+00
         0.00000E+00
         0.00000E+00
         0.00000E+00
         0.00000E+00
         0.00000E+00
         0.00000E+00
         0.00000E+00
         0.00000E+00
         0.00000E+00
         0.00000E+00
         0.00000E+00
         0.00000E+00
         0.00000E+00
         0.00000E+00
         0.00000E+00
         0.00000E+00
         0.00000E+00
         0.00000E+00
         0.00000E+00
         0.00000E+00
         0.00000E+00
         0.00000E+00
         0.00000E+00
         0.00000E+00
         0.00000E+00
         0.00000E+00
         0.00000E+00
         0.00000E+00
         0.00000E+00
         0.00000E+00
         0.00000E+00
         0.00000E+00
         0.00000E+00
         0.00000E+00
         0.00000E+00
         0.00000E+00
         0.00000E+00
         0.00000E+00
         0.00000E+00
         0.00000E+00
         0.00000E+00
         0.00000E+00
         0.00000E+00
         0.00000E+00
         0.00000E+00
         0.00000E+00
         0.00000E+00
         0.00000E+00
         0.00000E+00
         0.00000E+00
         0.00000E+00
         0.00000E+00
         0.00000E+00
         0.00000E+00
         0.00000E+00
         0.00000E+00
         0.00000E+00
         0.00000E+00
         0.00000E+00
         0.00000E+00
         0.00000E+00
         0.00000E+00
         0.00000E+00
         0.00000E+00
         0.00000E+00
         0.00000E+00
         0.00000E+00
         0.00000E+00
         0.00000E+00
         0.00000E+00
         0.00000E+00
         0.00000E+00
         0.00000E+00
         0.00000E+00
         0.00000E+00
         0.00000E+00
         0.00000E+00
         0.00000E+00
         0.00000E+00
         0.00000E+00
         0.00000E+00
         0.00000E+00
         0.00000E+00
         0.00000E+00
         0.00000E+00
         0.00000E+00
         0.00000E+00
         0.00000E+00
         0.00000E+00
         0.00000E+00
         0.00000E+00
         0.00000E+00
         0.00000E+00
         0.00000E+00
         0.00000E+00
         0.00000E+00
         0.00000E+00
         0.00000E+00
         0.00000E+00
         0.00000E+00
         0.00000E+00
         0.00000E+00
         0.00000E+00
         0.00000E+00
         0.00000E+00
         0.00000E+00
         0.00000E+00
         0.00000E+00
         0.00000E+00
         0.00000E+00
         0.00000E+00
         0.00000E+00
         0.00000E+00
         0.00000E+00
         0.00000E+00
         0.00000E+00
         0.00000E+00
         0.00000E+00
         0.00000E+00
         0.00000E+00
         0.00000E+00
         0.00000E+00
         0.00000E+00
         0.00000E+00
         0.00000E+00
         0.00000E+00
         0.00000E+00
         0.00000E+00
         0.00000E+00
         0.00000E+00
         0.00000E+00
         0.00000E+00
         0.00000E+00
         0.00000E+00
         0.00000E+00
         0.00000E+00
         0.00000E+00
         0.00000E+00
         0.00000E+00
         0.00000E+00
         0.00000E+00
         0.00000E+00
         0.00000E+00
         0.00000E+00
         0.00000E+00
         0.00000E+00
         0.00000E+00
         0.00000E+00
         0.00000E+00
         0.00000E+00
         0.00000E+00
         0.00000E+00
         0.00000E+00
         0.00000E+00
         0.00000E+00
         0.00000E+00
         0.00000E+00
         0.00000E+00
         0.00000E+00
         0.00000E+00
         0.00000E+00
         0.00000E+00
         0.00000E+00
         0.00000E+00
         0.00000E+00
         0.00000E+00
         0.00000E+00
         0.00000E+00
         0.00000E+00
         0.00000E+00
         0.00000E+00
         0.00000E+00
         0.00000E+00
         0.00000E+00
         0.00000E+00
         0.00000E+00
         0.00000E+00
         0.00000E+00
         0.00000E+00
         0.00000E+00
         0.00000E+00
         0.00000E+00
         0.00000E+00
         0.00000E+00
         0.00000E+00
         0.00000E+00
         0.00000E+00
         0.00000E+00
         0.00000E+00
         0.00000E+00
         0.00000E+00
         0.00000E+00
         0.00000E+00
         0.00000E+00
         0.00000E+00
         0.00000E+00
         0.00000E+00
         0.00000E+00
         0.00000E+00
         0.00000E+00
         0.00000E+00
         0.00000E+00
         0.00000E+00
         0.00000E+00
         0.00000E+00
         0.00000E+00
         0.00000E+00
         0.00000E+00
         0.00000E+00
         0.00000E+00
         0.00000E+00
         0.00000E+00
         0.00000E+00
         0.00000E+00
         0.00000E+00
         0.00000E+00
         0.00000E+00
         0.00000E+00
         0.00000E+00
         0.00000E+00
         0.00000E+00
         0.00000E+00
         0.00000E+00
         0.00000E+00
         0.00000E+00
         0.00000E+00
         0.00000E+00
         0.00000E+00
         0.00000E+00
         0.00000E+00
         0.00000E+00
         0.00000E+00
         0.00000E+00
         0.00000E+00
         0.00000E+00
         0.00000E+00
         0.00000E+00
         0.00000E+00
         0.00000E+00
         0.00000E+00
         0.00000E+00
         0.00000E+00
         0.00000E+00
         0.00000E+00
         0.00000E+00
         0.00000E+00
         0.00000E+00
         0.00000E+00
         0.00000E+00
         0.00000E+00
         0.00000E+00
         0.00000E+00
         0.00000E+00
         0.00000E+00
         0.00000E+00
         0.00000E+00
         0.00000E+00
         0.00000E+00
         0.00000E+00
         0.00000E+00
         0.00000E+00
         0.00000E+00
         0.00000E+00
         0.00000E+00
         0.00000E+00
         0.00000E+00
         0.00000E+00
         0.00000E+00
         0.00000E+00
         0.00000E+00
         0.00000E+00
         0.00000E+00
         0.00000E+00
         0.00000E+00
         0.00000E+00
         0.00000E+00
         0.00000E+00
         0.00000E+00
         0.00000E+00
         0.00000E+00
         0.00000E+00
         0.00000E+00
         0.00000E+00
         0.00000E+00
         0.00000E+00
         0.00000E+00
         0.00000E+00
         0.00000E+00
         0.00000E+00
         0.00000E+00
         0.00000E+00
         0.00000E+00
         0.00000E+00
         0.00000E+00
         0.00000E+00
         0.00000E+00
         0.00000E+00
         0.00000E+00
         0.00000E+00
         0.00000E+00
         0.00000E+00
         0.00000E+00
         0.00000E+00
         0.00000E+00
         0.00000E+00
         0.00000E+00
         0.00000E+00
         0.00000E+00
         0.00000E+00
         0.00000E+00
         0.00000E+00
         0.00000E+00
         0.00000E+00
         0.00000E+00
         0.00000E+00
         0.00000E+00
         0.00000E+00
         0.00000E+00
         0.00000E+00
         0.00000E+00
         0.00000E+00
         0.00000E+00
         0.00000E+00
         0.00000E+00
         0.00000E+00
         0.00000E+00
         0.00000E+00
         0.00000E+00
         0.00000E+00
         0.00000E+00
         0.00000E+00
         0.00000E+00
         0.00000E+00
         0.00000E+00
         0.00000E+00
         0.00000E+00
         0.00000E+00
         0.00000E+00
         0.00000E+00
         0.00000E+00
         0.00000E+00
         0.00000E+00
         0.00000E+00
         0.00000E+00
         0.00000E+00
         0.00000E+00
         0.00000E+00
         0.00000E+00
         0.00000E+00
         0.00000E+00
         0.00000E+00
         0.00000E+00
         0.00000E+00
         0.00000E+00
         0.00000E+00
         0.00000E+00
         0.00000E+00
         0.00000E+00
         0.00000E+00
         0.00000E+00
         0.00000E+00
         0.00000E+00
         0.00000E+00
         0.00000E+00
         0.00000E+00
         0.00000E+00
         0.00000E+00
         0.00000E+00
         0.00000E+00
         0.00000E+00
         0.00000E+00
         0.00000E+00
         0.00000E+00
         0.00000E+00
         0.00000E+00
         0.00000E+00
         0.00000E+00
         0.00000E+00
         0.00000E+00
         0.00000E+00
         0.00000E+00
         0.00000E+00
         0.00000E+00
         0.00000E+00
         0.00000E+00
         0.00000E+00
         0.00000E+00
         0.00000E+00
         0.00000E+00
         0.00000E+00
         0.00000E+00
         0.00000E+00
         0.00000E+00
         0.00000E+00
         0.00000E+00
         0.00000E+00
         0.00000E+00
         0.00000E+00
         0.00000E+00
         0.00000E+00
         0.00000E+00
         0.00000E+00
         0.00000E+00
         0.00000E+00
         0.00000E+00
         0.00000E+00
         0.00000E+00
         0.00000E+00
         0.00000E+00
         0.00000E+00
         0.00000E+00
         0.00000E+00
         0.00000E+00
         0.00000E+00
         0.00000E+00
         0.00000E+00
         0.00000E+00
         0.00000E+00
         0.00000E+00
         0.00000E+00
         0.00000E+00
         0.00000E+00
         0.00000E+00
         0.00000E+00
         0.00000E+00
         0.00000E+00
         0.00000E+00
         0.00000E+00
         0.00000E+00
         0.00000E+00
         0.00000E+00
         0.00000E+00
         0.00000E+00
         0.00000E+00
         0.00000E+00
         0.00000E+00
         0.00000E+00
         0.00000E+00
         0.00000E+00
         0.00000E+00
         0.00000E+00
         0.00000E+00
         0.00000E+00
         0.00000E+00
         0.00000E+00
         0.00000E+00
         0.00000E+00
         0.00000E+00
         0.00000E+00
         0.00000E+00
         0.00000E+00
         0.00000E+00
         0.00000E+00
         0.00000E+00
         0.00000E+00
         0.00000E+00
         0.00000E+00
         0.00000E+00
         0.00000E+00
         0.00000E+00
         0.00000E+00
         0.00000E+00
         0.00000E+00
         0.00000E+00
         0.00000E+00
         0.00000E+00
         0.00000E+00
         0.00000E+00
         0.00000E+00
         0.00000E+00
         0.00000E+00
         0.00000E+00
         0.00000E+00
         0.00000E+00
         0.00000E+00
         0.00000E+00
         0.00000E+00
         0.00000E+00
         0.00000E+00
         0.00000E+00
         0.00000E+00
         0.00000E+00
         0.00000E+00
         0.00000E+00
         0.00000E+00
         0.00000E+00
         0.00000E+00
         0.00000E+00
         0.00000E+00
         0.00000E+00
         0.00000E+00
         0.00000E+00
         0.00000E+00
         0.00000E+00
         0.00000E+00
         0.00000E+00
         0.00000E+00
         0.00000E+00
         0.00000E+00
         0.00000E+00
         0.00000E+00
         0.00000E+00
         0.00000E+00
         0.00000E+00
         0.00000E+00
         0.00000E+00
         0.00000E+00
         0.00000E+00
         0.00000E+00
         0.00000E+00
         0.00000E+00
         0.00000E+00
         0.00000E+00
         0.00000E+00
         0.00000E+00
         0.00000E+00
         0.00000E+00
         0.00000E+00
         0.00000E+00
         0.00000E+00
         0.00000E+00
         0.00000E+00
         0.00000E+00
         0.00000E+00
         0.00000E+00
         0.00000E+00
         0.00000E+00
         0.00000E+00
         0.00000E+00
         0.00000E+00
         0.00000E+00
         0.00000E+00
         0.00000E+00
         0.00000E+00
         0.00000E+00
         0.00000E+00
         0.00000E+00
         0.00000E+00
         0.00000E+00
         0.00000E+00
         0.00000E+00
         0.00000E+00
         0.00000E+00
         0.00000E+00
         0.00000E+00
         0.00000E+00
         0.00000E+00
         0.00000E+00
         0.00000E+00
         0.00000E+00
         0.00000E+00
         0.00000E+00
         0.00000E+00
         0.00000E+00
         0.00000E+00
         0.00000E+00
         0.00000E+00
         0.00000E+00
         0.00000E+00
         0.00000E+00
         0.00000E+00
         0.00000E+00
         0.00000E+00
         0.00000E+00
         0.00000E+00
         0.00000E+00
         0.00000E+00
         0.00000E+00
         0.00000E+00
         0.00000E+00
         0.00000E+00
         0.00000E+00
         0.00000E+00
         0.00000E+00
         0.00000E+00
         0.00000E+00
         0.00000E+00
         0.00000E+00
         0.00000E+00
         0.00000E+00
         0.00000E+00
         0.00000E+00
         0.00000E+00
         0.00000E+00
         0.00000E+00
         0.00000E+00
         0.00000E+00
         0.00000E+00
         0.00000E+00
         0.00000E+00
         0.00000E+00
         0.00000E+00
         0.00000E+00
         0.00000E+00
         0.00000E+00
         0.00000E+00
         0.00000E+00
         0.00000E+00
         0.00000E+00
         0.00000E+00
         0.00000E+00
         0.00000E+00
         0.00000E+00
         0.00000E+00
         0.00000E+00
         0.00000E+00
         0.00000E+00
         0.00000E+00
         0.00000E+00
         0.00000E+00
         0.00000E+00
         0.00000E+00
         0.00000E+00
         0.00000E+00
         0.00000E+00
         0.00000E+00
         0.00000E+00
         0.00000E+00
         0.00000E+00
         0.00000E+00
         0.00000E+00
         0.00000E+00
         0.00000E+00
         0.00000E+00
         0.00000E+00
         0.00000E+00
         0.00000E+00
         0.00000E+00
         0.00000E+00
         0.00000E+00
         0.00000E+00
         0.00000E+00
         0.00000E+00
         0.00000E+00
         0.00000E+00
         0.00000E+00
         0.00000E+00
         0.00000E+00
         0.00000E+00
         0.00000E+00
         0.00000E+00
         0.00000E+00
         0.00000E+00
         0.00000E+00
         0.00000E+00
         0.00000E+00
         0.00000E+00
         0.00000E+00
         0.00000E+00
         0.00000E+00
         0.00000E+00
         0.00000E+00
         0.00000E+00
         0.00000E+00
         0.00000E+00
         0.00000E+00
         0.00000E+00
         0.00000E+00
         0.00000E+00
         0.00000E+00
         0.00000E+00
         0.00000E+00
         0.00000E+00
         0.00000E+00
         0.00000E+00
         0.00000E+00
         0.00000E+00
         0.00000E+00
         0.00000E+00
         0.00000E+00
         0.00000E+00
         0.00000E+00
         0.00000E+00
         0.00000E+00
         0.00000E+00
         0.00000E+00
         0.00000E+00
         0.00000E+00
         0.00000E+00
         0.00000E+00
         0.00000E+00
         0.00000E+00
         0.00000E+00
         0.00000E+00
  
SCALARS                        eps_vol  double 1
LOOKUP_TABLE default
         0.00000E+00
         0.00000E+00
         0.00000E+00
         0.00000E+00
         0.00000E+00
         0.00000E+00
         0.00000E+00
         0.00000E+00
         0.00000E+00
         0.00000E+00
         0.00000E+00
         0.00000E+00
         0.00000E+00
         0.00000E+00
         0.00000E+00
         0.00000E+00
         0.00000E+00
         0.00000E+00
         0.00000E+00
         0.00000E+00
         0.00000E+00
         0.00000E+00
         0.00000E+00
         0.00000E+00
         0.00000E+00
         0.00000E+00
         0.00000E+00
         0.00000E+00
         0.00000E+00
         0.00000E+00
         0.00000E+00
         0.00000E+00
         0.00000E+00
         0.00000E+00
         0.00000E+00
         0.00000E+00
         0.00000E+00
         0.00000E+00
         0.00000E+00
         0.00000E+00
         0.00000E+00
         0.00000E+00
         0.00000E+00
         0.00000E+00
         0.00000E+00
         0.00000E+00
         0.00000E+00
         0.00000E+00
         0.00000E+00
         0.00000E+00
         0.00000E+00
         0.00000E+00
         0.00000E+00
         0.00000E+00
         0.00000E+00
         0.00000E+00
         0.00000E+00
         0.00000E+00
         0.00000E+00
         0.00000E+00
         0.00000E+00
         0.00000E+00
         0.00000E+00
         0.00000E+00
         0.00000E+00
         0.00000E+00
         0.00000E+00
         0.00000E+00
         0.00000E+00
         0.00000E+00
         0.00000E+00
         0.00000E+00
         0.00000E+00
         0.00000E+00
         0.00000E+00
         0.00000E+00
         0.00000E+00
         0.00000E+00
         0.00000E+00
         0.00000E+00
         0.00000E+00
         0.00000E+00
         0.00000E+00
         0.00000E+00
         0.00000E+00
         0.00000E+00
         0.00000E+00
         0.00000E+00
         0.00000E+00
         0.00000E+00
         0.00000E+00
         0.00000E+00
         0.00000E+00
         0.00000E+00
         0.00000E+00
         0.00000E+00
         0.00000E+00
         0.00000E+00
         0.00000E+00
         0.00000E+00
         0.00000E+00
         0.00000E+00
         0.00000E+00
         0.00000E+00
         0.00000E+00
         0.00000E+00
         0.00000E+00
         0.00000E+00
         0.00000E+00
         0.00000E+00
         0.00000E+00
         0.00000E+00
         0.00000E+00
         0.00000E+00
         0.00000E+00
         0.00000E+00
         0.00000E+00
         0.00000E+00
         0.00000E+00
         0.00000E+00
         0.00000E+00
         0.00000E+00
         0.00000E+00
         0.00000E+00
         0.00000E+00
         0.00000E+00
         0.00000E+00
         0.00000E+00
         0.00000E+00
         0.00000E+00
         0.00000E+00
         0.00000E+00
         0.00000E+00
         0.00000E+00
         0.00000E+00
         0.00000E+00
         0.00000E+00
         0.00000E+00
         0.00000E+00
         0.00000E+00
         0.00000E+00
         0.00000E+00
         0.00000E+00
         0.00000E+00
         0.00000E+00
         0.00000E+00
         0.00000E+00
         0.00000E+00
         0.00000E+00
         0.00000E+00
         0.00000E+00
         0.00000E+00
         0.00000E+00
         0.00000E+00
         0.00000E+00
         0.00000E+00
         0.00000E+00
         0.00000E+00
         0.00000E+00
         0.00000E+00
         0.00000E+00
         0.00000E+00
         0.00000E+00
         0.00000E+00
         0.00000E+00
         0.00000E+00
         0.00000E+00
         0.00000E+00
         0.00000E+00
         0.00000E+00
         0.00000E+00
         0.00000E+00
         0.00000E+00
         0.00000E+00
         0.00000E+00
         0.00000E+00
         0.00000E+00
         0.00000E+00
         0.00000E+00
         0.00000E+00
         0.00000E+00
         0.00000E+00
         0.00000E+00
         0.00000E+00
         0.00000E+00
         0.00000E+00
         0.00000E+00
         0.00000E+00
         0.00000E+00
         0.00000E+00
         0.00000E+00
         0.00000E+00
         0.00000E+00
         0.00000E+00
         0.00000E+00
         0.00000E+00
         0.00000E+00
         0.00000E+00
         0.00000E+00
         0.00000E+00
         0.00000E+00
         0.00000E+00
         0.00000E+00
         0.00000E+00
         0.00000E+00
         0.00000E+00
         0.00000E+00
         0.00000E+00
         0.00000E+00
         0.00000E+00
         0.00000E+00
         0.00000E+00
         0.00000E+00
         0.00000E+00
         0.00000E+00
         0.00000E+00
         0.00000E+00
         0.00000E+00
         0.00000E+00
         0.00000E+00
         0.00000E+00
         0.00000E+00
         0.00000E+00
         0.00000E+00
         0.00000E+00
         0.00000E+00
         0.00000E+00
         0.00000E+00
         0.00000E+00
         0.00000E+00
         0.00000E+00
         0.00000E+00
         0.00000E+00
         0.00000E+00
         0.00000E+00
         0.00000E+00
         0.00000E+00
         0.00000E+00
         0.00000E+00
         0.00000E+00
         0.00000E+00
         0.00000E+00
         0.00000E+00
         0.00000E+00
         0.00000E+00
         0.00000E+00
         0.00000E+00
         0.00000E+00
         0.00000E+00
         0.00000E+00
         0.00000E+00
         0.00000E+00
         0.00000E+00
         0.00000E+00
         0.00000E+00
         0.00000E+00
         0.00000E+00
         0.00000E+00
         0.00000E+00
         0.00000E+00
         0.00000E+00
         0.00000E+00
         0.00000E+00
         0.00000E+00
         0.00000E+00
         0.00000E+00
         0.00000E+00
         0.00000E+00
         0.00000E+00
         0.00000E+00
         0.00000E+00
         0.00000E+00
         0.00000E+00
         0.00000E+00
         0.00000E+00
         0.00000E+00
         0.00000E+00
         0.00000E+00
         0.00000E+00
         0.00000E+00
         0.00000E+00
         0.00000E+00
         0.00000E+00
         0.00000E+00
         0.00000E+00
         0.00000E+00
         0.00000E+00
         0.00000E+00
         0.00000E+00
         0.00000E+00
         0.00000E+00
         0.00000E+00
         0.00000E+00
         0.00000E+00
         0.00000E+00
         0.00000E+00
         0.00000E+00
         0.00000E+00
         0.00000E+00
         0.00000E+00
         0.00000E+00
         0.00000E+00
         0.00000E+00
         0.00000E+00
         0.00000E+00
         0.00000E+00
         0.00000E+00
         0.00000E+00
         0.00000E+00
         0.00000E+00
         0.00000E+00
         0.00000E+00
         0.00000E+00
         0.00000E+00
         0.00000E+00
         0.00000E+00
         0.00000E+00
         0.00000E+00
         0.00000E+00
         0.00000E+00
         0.00000E+00
         0.00000E+00
         0.00000E+00
         0.00000E+00
         0.00000E+00
         0.00000E+00
         0.00000E+00
         0.00000E+00
         0.00000E+00
         0.00000E+00
         0.00000E+00
         0.00000E+00
         0.00000E+00
         0.00000E+00
         0.00000E+00
         0.00000E+00
         0.00000E+00
         0.00000E+00
         0.00000E+00
         0.00000E+00
         0.00000E+00
         0.00000E+00
         0.00000E+00
         0.00000E+00
         0.00000E+00
         0.00000E+00
         0.00000E+00
         0.00000E+00
         0.00000E+00
         0.00000E+00
         0.00000E+00
         0.00000E+00
         0.00000E+00
         0.00000E+00
         0.00000E+00
         0.00000E+00
         0.00000E+00
         0.00000E+00
         0.00000E+00
         0.00000E+00
         0.00000E+00
         0.00000E+00
         0.00000E+00
         0.00000E+00
         0.00000E+00
         0.00000E+00
         0.00000E+00
         0.00000E+00
         0.00000E+00
         0.00000E+00
         0.00000E+00
         0.00000E+00
         0.00000E+00
         0.00000E+00
         0.00000E+00
         0.00000E+00
         0.00000E+00
         0.00000E+00
         0.00000E+00
         0.00000E+00
         0.00000E+00
         0.00000E+00
         0.00000E+00
         0.00000E+00
         0.00000E+00
         0.00000E+00
         0.00000E+00
         0.00000E+00
         0.00000E+00
         0.00000E+00
         0.00000E+00
         0.00000E+00
         0.00000E+00
         0.00000E+00
         0.00000E+00
         0.00000E+00
         0.00000E+00
         0.00000E+00
         0.00000E+00
         0.00000E+00
         0.00000E+00
         0.00000E+00
         0.00000E+00
         0.00000E+00
         0.00000E+00
         0.00000E+00
         0.00000E+00
         0.00000E+00
         0.00000E+00
         0.00000E+00
         0.00000E+00
         0.00000E+00
         0.00000E+00
         0.00000E+00
         0.00000E+00
         0.00000E+00
         0.00000E+00
         0.00000E+00
         0.00000E+00
         0.00000E+00
         0.00000E+00
         0.00000E+00
         0.00000E+00
         0.00000E+00
         0.00000E+00
         0.00000E+00
         0.00000E+00
         0.00000E+00
         0.00000E+00
         0.00000E+00
         0.00000E+00
         0.00000E+00
         0.00000E+00
         0.00000E+00
         0.00000E+00
         0.00000E+00
         0.00000E+00
         0.00000E+00
         0.00000E+00
         0.00000E+00
         0.00000E+00
         0.00000E+00
         0.00000E+00
         0.00000E+00
         0.00000E+00
         0.00000E+00
         0.00000E+00
         0.00000E+00
         0.00000E+00
         0.00000E+00
         0.00000E+00
         0.00000E+00
         0.00000E+00
         0.00000E+00
         0.00000E+00
         0.00000E+00
         0.00000E+00
         0.00000E+00
         0.00000E+00
         0.00000E+00
         0.00000E+00
         0.00000E+00
         0.00000E+00
         0.00000E+00
         0.00000E+00
         0.00000E+00
         0.00000E+00
         0.00000E+00
         0.00000E+00
         0.00000E+00
         0.00000E+00
         0.00000E+00
         0.00000E+00
         0.00000E+00
         0.00000E+00
         0.00000E+00
         0.00000E+00
         0.00000E+00
         0.00000E+00
         0.00000E+00
         0.00000E+00
         0.00000E+00
         0.00000E+00
         0.00000E+00
         0.00000E+00
         0.00000E+00
         0.00000E+00
         0.00000E+00
         0.00000E+00
         0.00000E+00
         0.00000E+00
         0.00000E+00
         0.00000E+00
         0.00000E+00
         0.00000E+00
         0.00000E+00
         0.00000E+00
         0.00000E+00
         0.00000E+00
         0.00000E+00
         0.00000E+00
         0.00000E+00
         0.00000E+00
         0.00000E+00
         0.00000E+00
         0.00000E+00
         0.00000E+00
         0.00000E+00
         0.00000E+00
         0.00000E+00
         0.00000E+00
         0.00000E+00
         0.00000E+00
         0.00000E+00
         0.00000E+00
         0.00000E+00
         0.00000E+00
         0.00000E+00
         0.00000E+00
         0.00000E+00
         0.00000E+00
         0.00000E+00
         0.00000E+00
         0.00000E+00
         0.00000E+00
         0.00000E+00
         0.00000E+00
         0.00000E+00
         0.00000E+00
         0.00000E+00
         0.00000E+00
         0.00000E+00
         0.00000E+00
         0.00000E+00
         0.00000E+00
         0.00000E+00
         0.00000E+00
         0.00000E+00
         0.00000E+00
         0.00000E+00
         0.00000E+00
         0.00000E+00
         0.00000E+00
         0.00000E+00
         0.00000E+00
         0.00000E+00
         0.00000E+00
         0.00000E+00
         0.00000E+00
         0.00000E+00
         0.00000E+00
         0.00000E+00
         0.00000E+00
         0.00000E+00
         0.00000E+00
         0.00000E+00
         0.00000E+00
         0.00000E+00
         0.00000E+00
         0.00000E+00
         0.00000E+00
         0.00000E+00
         0.00000E+00
         0.00000E+00
         0.00000E+00
         0.00000E+00
         0.00000E+00
         0.00000E+00
         0.00000E+00
         0.00000E+00
         0.00000E+00
         0.00000E+00
         0.00000E+00
         0.00000E+00
         0.00000E+00
         0.00000E+00
         0.00000E+00
         0.00000E+00
         0.00000E+00
         0.00000E+00
         0.00000E+00
         0.00000E+00
         0.00000E+00
         0.00000E+00
         0.00000E+00
         0.00000E+00
         0.00000E+00
         0.00000E+00
         0.00000E+00
         0.00000E+00
         0.00000E+00
         0.00000E+00
         0.00000E+00
         0.00000E+00
         0.00000E+00
         0.00000E+00
         0.00000E+00
         0.00000E+00
         0.00000E+00
         0.00000E+00
         0.00000E+00
         0.00000E+00
         0.00000E+00
         0.00000E+00
         0.00000E+00
         0.00000E+00
         0.00000E+00
         0.00000E+00
         0.00000E+00
         0.00000E+00
         0.00000E+00
         0.00000E+00
         0.00000E+00
         0.00000E+00
         0.00000E+00
         0.00000E+00
         0.00000E+00
         0.00000E+00
         0.00000E+00
         0.00000E+00
         0.00000E+00
         0.00000E+00
         0.00000E+00
         0.00000E+00
         0.00000E+00
         0.00000E+00
         0.00000E+00
         0.00000E+00
         0.00000E+00
         0.00000E+00
         0.00000E+00
         0.00000E+00
         0.00000E+00
         0.00000E+00
         0.00000E+00
         0.00000E+00
         0.00000E+00
         0.00000E+00
         0.00000E+00
         0.00000E+00
         0.00000E+00
         0.00000E+00
         0.00000E+00
         0.00000E+00
         0.00000E+00
         0.00000E+00
         0.00000E+00
         0.00000E+00
         0.00000E+00
         0.00000E+00
         0.00000E+00
         0.00000E+00
         0.00000E+00
         0.00000E+00
         0.00000E+00
         0.00000E+00
         0.00000E+00
         0.00000E+00
         0.00000E+00
         0.00000E+00
         0.00000E+00
         0.00000E+00
         0.00000E+00
         0.00000E+00
         0.00000E+00
         0.00000E+00
         0.00000E+00
         0.00000E+00
         0.00000E+00
         0.00000E+00
         0.00000E+00
         0.00000E+00
         0.00000E+00
         0.00000E+00
         0.00000E+00
         0.00000E+00
         0.00000E+00
         0.00000E+00
         0.00000E+00
         0.00000E+00
         0.00000E+00
         0.00000E+00
         0.00000E+00
         0.00000E+00
         0.00000E+00
         0.00000E+00
         0.00000E+00
         0.00000E+00
         0.00000E+00
         0.00000E+00
         0.00000E+00
         0.00000E+00
         0.00000E+00
         0.00000E+00
         0.00000E+00
         0.00000E+00
         0.00000E+00
         0.00000E+00
         0.00000E+00
         0.00000E+00
         0.00000E+00
         0.00000E+00
         0.00000E+00
         0.00000E+00
         0.00000E+00
         0.00000E+00
         0.00000E+00
         0.00000E+00
         0.00000E+00
         0.00000E+00
         0.00000E+00
         0.00000E+00
         0.00000E+00
         0.00000E+00
         0.00000E+00
         0.00000E+00
         0.00000E+00
         0.00000E+00
         0.00000E+00
         0.00000E+00
         0.00000E+00
         0.00000E+00
         0.00000E+00
         0.00000E+00
         0.00000E+00
         0.00000E+00
         0.00000E+00
         0.00000E+00
         0.00000E+00
         0.00000E+00
         0.00000E+00
         0.00000E+00
         0.00000E+00
         0.00000E+00
         0.00000E+00
         0.00000E+00
         0.00000E+00
         0.00000E+00
         0.00000E+00
         0.00000E+00
         0.00000E+00
         0.00000E+00
         0.00000E+00
         0.00000E+00
         0.00000E+00
         0.00000E+00
         0.00000E+00
         0.00000E+00
         0.00000E+00
         0.00000E+00
         0.00000E+00
         0.00000E+00
         0.00000E+00
         0.00000E+00
         0.00000E+00
         0.00000E+00
         0.00000E+00
         0.00000E+00
         0.00000E+00
         0.00000E+00
         0.00000E+00
         0.00000E+00
         0.00000E+00
         0.00000E+00
         0.00000E+00
         0.00000E+00
         0.00000E+00
         0.00000E+00
         0.00000E+00
         0.00000E+00
         0.00000E+00
         0.00000E+00
         0.00000E+00
         0.00000E+00
         0.00000E+00
         0.00000E+00
         0.00000E+00
         0.00000E+00
         0.00000E+00
         0.00000E+00
         0.00000E+00
         0.00000E+00
         0.00000E+00
         0.00000E+00
         0.00000E+00
         0.00000E+00
         0.00000E+00
         0.00000E+00
         0.00000E+00
         0.00000E+00
         0.00000E+00
         0.00000E+00
         0.00000E+00
         0.00000E+00
         0.00000E+00
         0.00000E+00
         0.00000E+00
         0.00000E+00
         0.00000E+00
         0.00000E+00
         0.00000E+00
         0.00000E+00
         0.00000E+00
         0.00000E+00
         0.00000E+00
         0.00000E+00
         0.00000E+00
         0.00000E+00
         0.00000E+00
         0.00000E+00
         0.00000E+00
         0.00000E+00
         0.00000E+00
         0.00000E+00
         0.00000E+00
         0.00000E+00
         0.00000E+00
         0.00000E+00
         0.00000E+00
         0.00000E+00
         0.00000E+00
         0.00000E+00
         0.00000E+00
         0.00000E+00
         0.00000E+00
         0.00000E+00
         0.00000E+00
         0.00000E+00
         0.00000E+00
         0.00000E+00
         0.00000E+00
         0.00000E+00
         0.00000E+00
         0.00000E+00
         0.00000E+00
         0.00000E+00
         0.00000E+00
         0.00000E+00
         0.00000E+00
         0.00000E+00
         0.00000E+00
         0.00000E+00
         0.00000E+00
         0.00000E+00
         0.00000E+00
         0.00000E+00
         0.00000E+00
         0.00000E+00
         0.00000E+00
         0.00000E+00
         0.00000E+00
         0.00000E+00
         0.00000E+00
         0.00000E+00
         0.00000E+00
         0.00000E+00
         0.00000E+00
         0.00000E+00
         0.00000E+00
         0.00000E+00
         0.00000E+00
         0.00000E+00
         0.00000E+00
         0.00000E+00
         0.00000E+00
         0.00000E+00
         0.00000E+00
         0.00000E+00
         0.00000E+00
         0.00000E+00
         0.00000E+00
         0.00000E+00
         0.00000E+00
         0.00000E+00
         0.00000E+00
         0.00000E+00
         0.00000E+00
         0.00000E+00
         0.00000E+00
         0.00000E+00
         0.00000E+00
         0.00000E+00
         0.00000E+00
         0.00000E+00
         0.00000E+00
         0.00000E+00
         0.00000E+00
         0.00000E+00
         0.00000E+00
         0.00000E+00
         0.00000E+00
         0.00000E+00
         0.00000E+00
         0.00000E+00
         0.00000E+00
         0.00000E+00
         0.00000E+00
         0.00000E+00
         0.00000E+00
         0.00000E+00
         0.00000E+00
         0.00000E+00
         0.00000E+00
         0.00000E+00
         0.00000E+00
         0.00000E+00
         0.00000E+00
         0.00000E+00
         0.00000E+00
         0.00000E+00
         0.00000E+00
         0.00000E+00
         0.00000E+00
         0.00000E+00
         0.00000E+00
         0.00000E+00
         0.00000E+00
         0.00000E+00
         0.00000E+00
         0.00000E+00
         0.00000E+00
         0.00000E+00
         0.00000E+00
         0.00000E+00
         0.00000E+00
         0.00000E+00
         0.00000E+00
         0.00000E+00
         0.00000E+00
         0.00000E+00
         0.00000E+00
         0.00000E+00
         0.00000E+00
         0.00000E+00
         0.00000E+00
         0.00000E+00
         0.00000E+00
         0.00000E+00
         0.00000E+00
         0.00000E+00
         0.00000E+00
         0.00000E+00
         0.00000E+00
         0.00000E+00
         0.00000E+00
         0.00000E+00
         0.00000E+00
         0.00000E+00
         0.00000E+00
         0.00000E+00
         0.00000E+00
         0.00000E+00
         0.00000E+00
         0.00000E+00
         0.00000E+00
         0.00000E+00
         0.00000E+00
         0.00000E+00
         0.00000E+00
         0.00000E+00
         0.00000E+00
         0.00000E+00
         0.00000E+00
         0.00000E+00
         0.00000E+00
         0.00000E+00
         0.00000E+00
         0.00000E+00
         0.00000E+00
         0.00000E+00
         0.00000E+00
         0.00000E+00
         0.00000E+00
         0.00000E+00
         0.00000E+00
         0.00000E+00
         0.00000E+00
         0.00000E+00
         0.00000E+00
         0.00000E+00
         0.00000E+00
         0.00000E+00
         0.00000E+00
         0.00000E+00
         0.00000E+00
         0.00000E+00
         0.00000E+00
         0.00000E+00
         0.00000E+00
         0.00000E+00
         0.00000E+00
         0.00000E+00
         0.00000E+00
         0.00000E+00
         0.00000E+00
         0.00000E+00
         0.00000E+00
         0.00000E+00
         0.00000E+00
         0.00000E+00
         0.00000E+00
         0.00000E+00
         0.00000E+00
         0.00000E+00
         0.00000E+00
         0.00000E+00
         0.00000E+00
         0.00000E+00
         0.00000E+00
         0.00000E+00
         0.00000E+00
         0.00000E+00
         0.00000E+00
         0.00000E+00
         0.00000E+00
         0.00000E+00
         0.00000E+00
         0.00000E+00
         0.00000E+00
         0.00000E+00
         0.00000E+00
         0.00000E+00
         0.00000E+00
         0.00000E+00
         0.00000E+00
         0.00000E+00
         0.00000E+00
         0.00000E+00
         0.00000E+00
         0.00000E+00
         0.00000E+00
         0.00000E+00
         0.00000E+00
         0.00000E+00
         0.00000E+00
         0.00000E+00
         0.00000E+00
         0.00000E+00
         0.00000E+00
         0.00000E+00
         0.00000E+00
         0.00000E+00
         0.00000E+00
         0.00000E+00
         0.00000E+00
         0.00000E+00
         0.00000E+00
         0.00000E+00
         0.00000E+00
         0.00000E+00
         0.00000E+00
         0.00000E+00
         0.00000E+00
         0.00000E+00
         0.00000E+00
         0.00000E+00
         0.00000E+00
         0.00000E+00
         0.00000E+00
         0.00000E+00
         0.00000E+00
         0.00000E+00
         0.00000E+00
         0.00000E+00
         0.00000E+00
         0.00000E+00
         0.00000E+00
         0.00000E+00
         0.00000E+00
         0.00000E+00
         0.00000E+00
         0.00000E+00
         0.00000E+00
         0.00000E+00
         0.00000E+00
         0.00000E+00
         0.00000E+00
         0.00000E+00
         0.00000E+00
         0.00000E+00
         0.00000E+00
         0.00000E+00
         0.00000E+00
         0.00000E+00
         0.00000E+00
         0.00000E+00
         0.00000E+00
         0.00000E+00
         0.00000E+00
         0.00000E+00
         0.00000E+00
         0.00000E+00
         0.00000E+00
         0.00000E+00
         0.00000E+00
         0.00000E+00
         0.00000E+00
         0.00000E+00
         0.00000E+00
         0.00000E+00
         0.00000E+00
         0.00000E+00
         0.00000E+00
         0.00000E+00
         0.00000E+00
         0.00000E+00
         0.00000E+00
         0.00000E+00
         0.00000E+00
         0.00000E+00
         0.00000E+00
         0.00000E+00
         0.00000E+00
         0.00000E+00
         0.00000E+00
         0.00000E+00
         0.00000E+00
         0.00000E+00
         0.00000E+00
         0.00000E+00
         0.00000E+00
         0.00000E+00
         0.00000E+00
         0.00000E+00
         0.00000E+00
         0.00000E+00
         0.00000E+00
         0.00000E+00
         0.00000E+00
         0.00000E+00
         0.00000E+00
         0.00000E+00
         0.00000E+00
         0.00000E+00
         0.00000E+00
         0.00000E+00
         0.00000E+00
         0.00000E+00
         0.00000E+00
         0.00000E+00
         0.00000E+00
         0.00000E+00
         0.00000E+00
         0.00000E+00
         0.00000E+00
         0.00000E+00
         0.00000E+00
         0.00000E+00
         0.00000E+00
         0.00000E+00
         0.00000E+00
         0.00000E+00
         0.00000E+00
         0.00000E+00
         0.00000E+00
         0.00000E+00
         0.00000E+00
         0.00000E+00
         0.00000E+00
         0.00000E+00
         0.00000E+00
         0.00000E+00
         0.00000E+00
         0.00000E+00
         0.00000E+00
         0.00000E+00
         0.00000E+00
         0.00000E+00
         0.00000E+00
         0.00000E+00
         0.00000E+00
         0.00000E+00
         0.00000E+00
         0.00000E+00
         0.00000E+00
         0.00000E+00
         0.00000E+00
         0.00000E+00
         0.00000E+00
         0.00000E+00
         0.00000E+00
         0.00000E+00
         0.00000E+00
         0.00000E+00
         0.00000E+00
         0.00000E+00
         0.00000E+00
         0.00000E+00
         0.00000E+00
         0.00000E+00
         0.00000E+00
         0.00000E+00
         0.00000E+00
         0.00000E+00
         0.00000E+00
         0.00000E+00
         0.00000E+00
         0.00000E+00
         0.00000E+00
         0.00000E+00
         0.00000E+00
         0.00000E+00
         0.00000E+00
         0.00000E+00
         0.00000E+00
         0.00000E+00
         0.00000E+00
         0.00000E+00
         0.00000E+00
         0.00000E+00
         0.00000E+00
         0.00000E+00
         0.00000E+00
         0.00000E+00
         0.00000E+00
         0.00000E+00
         0.00000E+00
         0.00000E+00
         0.00000E+00
         0.00000E+00
         0.00000E+00
         0.00000E+00
         0.00000E+00
         0.00000E+00
         0.00000E+00
         0.00000E+00
         0.00000E+00
         0.00000E+00
         0.00000E+00
         0.00000E+00
         0.00000E+00
         0.00000E+00
         0.00000E+00
         0.00000E+00
         0.00000E+00
         0.00000E+00
         0.00000E+00
         0.00000E+00
         0.00000E+00
         0.00000E+00
         0.00000E+00
         0.00000E+00
         0.00000E+00
         0.00000E+00
         0.00000E+00
         0.00000E+00
         0.00000E+00
         0.00000E+00
         0.00000E+00
         0.00000E+00
         0.00000E+00
         0.00000E+00
         0.00000E+00
         0.00000E+00
         0.00000E+00
         0.00000E+00
         0.00000E+00
         0.00000E+00
         0.00000E+00
         0.00000E+00
         0.00000E+00
         0.00000E+00
         0.00000E+00
         0.00000E+00
         0.00000E+00
         0.00000E+00
         0.00000E+00
         0.00000E+00
         0.00000E+00
         0.00000E+00
         0.00000E+00
         0.00000E+00
         0.00000E+00
         0.00000E+00
         0.00000E+00
         0.00000E+00
         0.00000E+00
         0.00000E+00
         0.00000E+00
         0.00000E+00
         0.00000E+00
         0.00000E+00
         0.00000E+00
         0.00000E+00
         0.00000E+00
         0.00000E+00
         0.00000E+00
         0.00000E+00
         0.00000E+00
         0.00000E+00
         0.00000E+00
         0.00000E+00
         0.00000E+00
         0.00000E+00
         0.00000E+00
         0.00000E+00
         0.00000E+00
         0.00000E+00
         0.00000E+00
         0.00000E+00
         0.00000E+00
         0.00000E+00
         0.00000E+00
         0.00000E+00
         0.00000E+00
         0.00000E+00
         0.00000E+00
         0.00000E+00
         0.00000E+00
         0.00000E+00
         0.00000E+00
         0.00000E+00
         0.00000E+00
         0.00000E+00
         0.00000E+00
         0.00000E+00
         0.00000E+00
         0.00000E+00
         0.00000E+00
         0.00000E+00
         0.00000E+00
         0.00000E+00
         0.00000E+00
         0.00000E+00
         0.00000E+00
         0.00000E+00
         0.00000E+00
         0.00000E+00
         0.00000E+00
         0.00000E+00
         0.00000E+00
         0.00000E+00
         0.00000E+00
         0.00000E+00
         0.00000E+00
         0.00000E+00
         0.00000E+00
         0.00000E+00
         0.00000E+00
         0.00000E+00
         0.00000E+00
         0.00000E+00
         0.00000E+00
         0.00000E+00
         0.00000E+00
         0.00000E+00
         0.00000E+00
         0.00000E+00
         0.00000E+00
         0.00000E+00
         0.00000E+00
         0.00000E+00
         0.00000E+00
         0.00000E+00
         0.00000E+00
         0.00000E+00
         0.00000E+00
         0.00000E+00
         0.00000E+00
         0.00000E+00
         0.00000E+00
         0.00000E+00
         0.00000E+00
         0.00000E+00
         0.00000E+00
         0.00000E+00
         0.00000E+00
         0.00000E+00
         0.00000E+00
         0.00000E+00
         0.00000E+00
         0.00000E+00
         0.00000E+00
         0.00000E+00
         0.00000E+00
         0.00000E+00
         0.00000E+00
         0.00000E+00
         0.00000E+00
         0.00000E+00
         0.00000E+00
         0.00000E+00
         0.00000E+00
         0.00000E+00
         0.00000E+00
         0.00000E+00
         0.00000E+00
         0.00000E+00
         0.00000E+00
         0.00000E+00
         0.00000E+00
         0.00000E+00
         0.00000E+00
         0.00000E+00
         0.00000E+00
         0.00000E+00
         0.00000E+00
         0.00000E+00
         0.00000E+00
         0.00000E+00
         0.00000E+00
         0.00000E+00
         0.00000E+00
         0.00000E+00
         0.00000E+00
         0.00000E+00
         0.00000E+00
         0.00000E+00
         0.00000E+00
         0.00000E+00
         0.00000E+00
         0.00000E+00
         0.00000E+00
         0.00000E+00
         0.00000E+00
         0.00000E+00
         0.00000E+00
         0.00000E+00
         0.00000E+00
         0.00000E+00
         0.00000E+00
         0.00000E+00
         0.00000E+00
         0.00000E+00
         0.00000E+00
         0.00000E+00
         0.00000E+00
         0.00000E+00
         0.00000E+00
         0.00000E+00
         0.00000E+00
         0.00000E+00
         0.00000E+00
         0.00000E+00
         0.00000E+00
         0.00000E+00
         0.00000E+00
         0.00000E+00
         0.00000E+00
         0.00000E+00
         0.00000E+00
         0.00000E+00
         0.00000E+00
         0.00000E+00
         0.00000E+00
         0.00000E+00
         0.00000E+00
         0.00000E+00
         0.00000E+00
         0.00000E+00
         0.00000E+00
         0.00000E+00
         0.00000E+00
         0.00000E+00
         0.00000E+00
         0.00000E+00
         0.00000E+00
         0.00000E+00
         0.00000E+00
         0.00000E+00
         0.00000E+00
         0.00000E+00
         0.00000E+00
         0.00000E+00
         0.00000E+00
         0.00000E+00
         0.00000E+00
         0.00000E+00
         0.00000E+00
         0.00000E+00
         0.00000E+00
         0.00000E+00
         0.00000E+00
         0.00000E+00
         0.00000E+00
         0.00000E+00
         0.00000E+00
         0.00000E+00
         0.00000E+00
         0.00000E+00
         0.00000E+00
         0.00000E+00
         0.00000E+00
         0.00000E+00
         0.00000E+00
         0.00000E+00
         0.00000E+00
         0.00000E+00
         0.00000E+00
         0.00000E+00
         0.00000E+00
         0.00000E+00
         0.00000E+00
         0.00000E+00
         0.00000E+00
         0.00000E+00
         0.00000E+00
         0.00000E+00
         0.00000E+00
         0.00000E+00
         0.00000E+00
         0.00000E+00
         0.00000E+00
         0.00000E+00
         0.00000E+00
         0.00000E+00
         0.00000E+00
         0.00000E+00
         0.00000E+00
         0.00000E+00
         0.00000E+00
         0.00000E+00
         0.00000E+00
         0.00000E+00
         0.00000E+00
         0.00000E+00
         0.00000E+00
         0.00000E+00
         0.00000E+00
         0.00000E+00
         0.00000E+00
         0.00000E+00
         0.00000E+00
         0.00000E+00
         0.00000E+00
         0.00000E+00
         0.00000E+00
         0.00000E+00
         0.00000E+00
         0.00000E+00
         0.00000E+00
         0.00000E+00
         0.00000E+00
         0.00000E+00
         0.00000E+00
         0.00000E+00
         0.00000E+00
         0.00000E+00
         0.00000E+00
         0.00000E+00
         0.00000E+00
         0.00000E+00
         0.00000E+00
         0.00000E+00
         0.00000E+00
         0.00000E+00
         0.00000E+00
         0.00000E+00
         0.00000E+00
         0.00000E+00
         0.00000E+00
         0.00000E+00
         0.00000E+00
         0.00000E+00
         0.00000E+00
         0.00000E+00
         0.00000E+00
         0.00000E+00
         0.00000E+00
         0.00000E+00
         0.00000E+00
         0.00000E+00
         0.00000E+00
         0.00000E+00
         0.00000E+00
         0.00000E+00
         0.00000E+00
         0.00000E+00
         0.00000E+00
         0.00000E+00
         0.00000E+00
         0.00000E+00
         0.00000E+00
         0.00000E+00
         0.00000E+00
         0.00000E+00
         0.00000E+00
         0.00000E+00
         0.00000E+00
         0.00000E+00
         0.00000E+00
         0.00000E+00
         0.00000E+00
         0.00000E+00
         0.00000E+00
         0.00000E+00
         0.00000E+00
         0.00000E+00
         0.00000E+00
         0.00000E+00
         0.00000E+00
         0.00000E+00
         0.00000E+00
         0.00000E+00
         0.00000E+00
         0.00000E+00
         0.00000E+00
         0.00000E+00
         0.00000E+00
         0.00000E+00
         0.00000E+00
         0.00000E+00
         0.00000E+00
         0.00000E+00
         0.00000E+00
         0.00000E+00
         0.00000E+00
         0.00000E+00
         0.00000E+00
         0.00000E+00
         0.00000E+00
         0.00000E+00
         0.00000E+00
         0.00000E+00
         0.00000E+00
         0.00000E+00
         0.00000E+00
         0.00000E+00
         0.00000E+00
         0.00000E+00
         0.00000E+00
         0.00000E+00
         0.00000E+00
         0.00000E+00
         0.00000E+00
         0.00000E+00
         0.00000E+00
         0.00000E+00
         0.00000E+00
         0.00000E+00
         0.00000E+00
         0.00000E+00
         0.00000E+00
         0.00000E+00
         0.00000E+00
         0.00000E+00
         0.00000E+00
         0.00000E+00
         0.00000E+00
         0.00000E+00
         0.00000E+00
         0.00000E+00
         0.00000E+00
         0.00000E+00
         0.00000E+00
         0.00000E+00
         0.00000E+00
         0.00000E+00
         0.00000E+00
         0.00000E+00
         0.00000E+00
         0.00000E+00
         0.00000E+00
         0.00000E+00
         0.00000E+00
         0.00000E+00
         0.00000E+00
         0.00000E+00
         0.00000E+00
         0.00000E+00
         0.00000E+00
         0.00000E+00
         0.00000E+00
         0.00000E+00
         0.00000E+00
         0.00000E+00
         0.00000E+00
         0.00000E+00
         0.00000E+00
         0.00000E+00
         0.00000E+00
         0.00000E+00
         0.00000E+00
         0.00000E+00
         0.00000E+00
         0.00000E+00
         0.00000E+00
         0.00000E+00
         0.00000E+00
         0.00000E+00
         0.00000E+00
         0.00000E+00
         0.00000E+00
         0.00000E+00
         0.00000E+00
         0.00000E+00
         0.00000E+00
         0.00000E+00
         0.00000E+00
         0.00000E+00
         0.00000E+00
         0.00000E+00
         0.00000E+00
         0.00000E+00
         0.00000E+00
         0.00000E+00
         0.00000E+00
         0.00000E+00
         0.00000E+00
         0.00000E+00
         0.00000E+00
         0.00000E+00
         0.00000E+00
         0.00000E+00
         0.00000E+00
         0.00000E+00
         0.00000E+00
         0.00000E+00
         0.00000E+00
         0.00000E+00
         0.00000E+00
         0.00000E+00
         0.00000E+00
         0.00000E+00
         0.00000E+00
         0.00000E+00
         0.00000E+00
         0.00000E+00
         0.00000E+00
         0.00000E+00
         0.00000E+00
         0.00000E+00
         0.00000E+00
         0.00000E+00
         0.00000E+00
         0.00000E+00
         0.00000E+00
         0.00000E+00
         0.00000E+00
         0.00000E+00
         0.00000E+00
         0.00000E+00
         0.00000E+00
         0.00000E+00
         0.00000E+00
         0.00000E+00
         0.00000E+00
         0.00000E+00
         0.00000E+00
         0.00000E+00
         0.00000E+00
         0.00000E+00
         0.00000E+00
         0.00000E+00
         0.00000E+00
         0.00000E+00
         0.00000E+00
         0.00000E+00
         0.00000E+00
         0.00000E+00
         0.00000E+00
         0.00000E+00
         0.00000E+00
         0.00000E+00
         0.00000E+00
         0.00000E+00
         0.00000E+00
         0.00000E+00
         0.00000E+00
         0.00000E+00
         0.00000E+00
         0.00000E+00
         0.00000E+00
         0.00000E+00
         0.00000E+00
         0.00000E+00
         0.00000E+00
         0.00000E+00
         0.00000E+00
         0.00000E+00
         0.00000E+00
         0.00000E+00
         0.00000E+00
         0.00000E+00
         0.00000E+00
         0.00000E+00
         0.00000E+00
         0.00000E+00
         0.00000E+00
         0.00000E+00
         0.00000E+00
         0.00000E+00
         0.00000E+00
         0.00000E+00
         0.00000E+00
         0.00000E+00
         0.00000E+00
         0.00000E+00
         0.00000E+00
         0.00000E+00
         0.00000E+00
         0.00000E+00
         0.00000E+00
         0.00000E+00
         0.00000E+00
         0.00000E+00
         0.00000E+00
         0.00000E+00
         0.00000E+00
         0.00000E+00
         0.00000E+00
         0.00000E+00
         0.00000E+00
         0.00000E+00
         0.00000E+00
         0.00000E+00
         0.00000E+00
         0.00000E+00
         0.00000E+00
         0.00000E+00
         0.00000E+00
         0.00000E+00
         0.00000E+00
         0.00000E+00
         0.00000E+00
         0.00000E+00
         0.00000E+00
         0.00000E+00
         0.00000E+00
         0.00000E+00
         0.00000E+00
         0.00000E+00
         0.00000E+00
         0.00000E+00
         0.00000E+00
         0.00000E+00
         0.00000E+00
         0.00000E+00
         0.00000E+00
         0.00000E+00
         0.00000E+00
         0.00000E+00
         0.00000E+00
         0.00000E+00
         0.00000E+00
         0.00000E+00
         0.00000E+00
         0.00000E+00
         0.00000E+00
         0.00000E+00
         0.00000E+00
         0.00000E+00
         0.00000E+00
         0.00000E+00
         0.00000E+00
         0.00000E+00
         0.00000E+00
         0.00000E+00
         0.00000E+00
         0.00000E+00
         0.00000E+00
         0.00000E+00
         0.00000E+00
         0.00000E+00
         0.00000E+00
         0.00000E+00
         0.00000E+00
         0.00000E+00
         0.00000E+00
         0.00000E+00
         0.00000E+00
         0.00000E+00
         0.00000E+00
         0.00000E+00
         0.00000E+00
         0.00000E+00
         0.00000E+00
         0.00000E+00
         0.00000E+00
         0.00000E+00
         0.00000E+00
         0.00000E+00
         0.00000E+00
         0.00000E+00
         0.00000E+00
         0.00000E+00
         0.00000E+00
         0.00000E+00
         0.00000E+00
         0.00000E+00
         0.00000E+00
         0.00000E+00
         0.00000E+00
         0.00000E+00
         0.00000E+00
         0.00000E+00
         0.00000E+00
         0.00000E+00
         0.00000E+00
         0.00000E+00
         0.00000E+00
         0.00000E+00
         0.00000E+00
         0.00000E+00
         0.00000E+00
         0.00000E+00
         0.00000E+00
         0.00000E+00
         0.00000E+00
         0.00000E+00
         0.00000E+00
         0.00000E+00
         0.00000E+00
         0.00000E+00
         0.00000E+00
         0.00000E+00
         0.00000E+00
         0.00000E+00
         0.00000E+00
         0.00000E+00
         0.00000E+00
         0.00000E+00
         0.00000E+00
         0.00000E+00
         0.00000E+00
         0.00000E+00
         0.00000E+00
         0.00000E+00
         0.00000E+00
         0.00000E+00
         0.00000E+00
         0.00000E+00
         0.00000E+00
         0.00000E+00
         0.00000E+00
         0.00000E+00
         0.00000E+00
         0.00000E+00
         0.00000E+00
         0.00000E+00
         0.00000E+00
         0.00000E+00
         0.00000E+00
         0.00000E+00
         0.00000E+00
         0.00000E+00
         0.00000E+00
         0.00000E+00
         0.00000E+00
         0.00000E+00
         0.00000E+00
         0.00000E+00
         0.00000E+00
         0.00000E+00
         0.00000E+00
         0.00000E+00
         0.00000E+00
         0.00000E+00
         0.00000E+00
         0.00000E+00
  
SCALARS                            eps  double 1
LOOKUP_TABLE default
         0.12051E+02
         0.11904E+02
         0.11997E+02
         0.12164E+02
         0.00000E+00
         0.00000E+00
         0.00000E+00
         0.00000E+00
         0.11900E+02
         0.11949E+02
         0.00000E+00
         0.00000E+00
         0.11691E+02
         0.11683E+02
         0.00000E+00
         0.00000E+00
         0.12140E+02
         0.11694E+02
         0.00000E+00
         0.00000E+00
         0.11530E+02
         0.11403E+02
         0.11606E+02
         0.00000E+00
         0.00000E+00
         0.00000E+00
         0.11408E+02
         0.11222E+02
         0.00000E+00
         0.00000E+00
         0.12132E+02
         0.11938E+02
         0.12319E+02
         0.00000E+00
         0.00000E+00
         0.00000E+00
         0.12020E+02
         0.11773E+02
         0.00000E+00
         0.00000E+00
         0.11922E+02
         0.11732E+02
         0.00000E+00
         0.00000E+00
         0.12083E+02
         0.12155E+02
         0.00000E+00
         0.00000E+00
         0.11578E+02
         0.00000E+00
         0.12141E+02
         0.00000E+00
         0.11354E+02
         0.00000E+00
         0.11296E+02
         0.00000E+00
         0.11297E+02
         0.11504E+02
         0.00000E+00
         0.00000E+00
         0.12128E+02
         0.12054E+02
         0.00000E+00
         0.00000E+00
         0.12174E+02
         0.00000E+00
         0.12086E+02
         0.00000E+00
         0.11855E+02
         0.11830E+02
         0.00000E+00
         0.00000E+00
         0.11777E+02
         0.00000E+00
         0.11156E+02
         0.00000E+00
         0.11123E+02
         0.00000E+00
         0.11140E+02
         0.00000E+00
         0.11231E+02
         0.11324E+02
         0.00000E+00
         0.00000E+00
         0.11512E+02
         0.00000E+00
         0.12080E+02
         0.00000E+00
         0.11992E+02
         0.00000E+00
         0.11920E+02
         0.11879E+02
         0.00000E+00
         0.00000E+00
         0.11928E+02
         0.00000E+00
         0.11963E+02
         0.00000E+00
         0.11931E+02
         0.00000E+00
         0.11921E+02
         0.11952E+02
         0.00000E+00
         0.00000E+00
         0.11750E+02
         0.11835E+02
         0.00000E+00
         0.00000E+00
         0.11735E+02
         0.00000E+00
         0.11833E+02
         0.00000E+00
         0.11737E+02
         0.00000E+00
         0.11526E+02
         0.00000E+00
         0.11321E+02
         0.00000E+00
         0.11198E+02
         0.00000E+00
         0.11186E+02
         0.00000E+00
         0.11189E+02
         0.00000E+00
         0.11323E+02
         0.00000E+00
         0.11574E+02
         0.00000E+00
         0.11848E+02
         0.00000E+00
         0.12007E+02
         0.00000E+00
         0.12165E+02
         0.00000E+00
         0.12269E+02
         0.00000E+00
         0.12266E+02
         0.00000E+00
         0.12010E+02
         0.00000E+00
         0.11832E+02
         0.00000E+00
         0.11773E+02
         0.00000E+00
         0.11869E+02
         0.00000E+00
         0.11918E+02
         0.00000E+00
         0.11833E+02
         0.00000E+00
         0.11833E+02
         0.00000E+00
         0.11897E+02
         0.00000E+00
         0.11980E+02
         0.00000E+00
         0.34638E+00
         0.35150E+00
         0.35078E+00
         0.34427E+00
         0.35687E+00
         0.35022E+00
         0.35849E+00
         0.35406E+00
         0.34526E+00
         0.35062E+00
         0.36351E+00
         0.36521E+00
         0.36101E+00
         0.36064E+00
         0.36344E+00
         0.34457E+00
         0.34573E+00
         0.34252E+00
         0.35207E+00
         0.35022E+00
         0.35296E+00
         0.35120E+00
         0.35449E+00
         0.35355E+00
         0.35039E+00
         0.35060E+00
         0.35610E+00
         0.35558E+00
         0.35989E+00
         0.35347E+00
         0.34514E+00
         0.35157E+00
         0.34518E+00
         0.34933E+00
         0.36631E+00
         0.36049E+00
         0.35788E+00
         0.36102E+00
         0.36140E+00
         0.36669E+00
         0.37080E+00
         0.36119E+00
         0.35287E+00
         0.35392E+00
         0.35814E+00
         0.36611E+00
         0.35924E+00
         0.35247E+00
         0.35291E+00
         0.35814E+00
         0.36386E+00
         0.35626E+00
         0.38203E+00
         0.37433E+00
         0.37569E+00
         0.37399E+00
         0.37460E+00
         0.37897E+00
         0.38330E+00
         0.38451E+00
         0.38381E+00
         0.38435E+00
         0.38620E+00
         0.37486E+00
         0.37054E+00
         0.36891E+00
         0.36649E+00
         0.36471E+00
         0.36489E+00
         0.36821E+00
         0.37949E+00
         0.37681E+00
         0.37273E+00
         0.37266E+00
         0.37336E+00
         0.37709E+00
         0.37160E+00
         0.36966E+00
         0.80928E-02
         0.35979E-02
         0.32156E-02
         0.12246E-02
         0.85277E-02
         0.49139E-02
         0.42651E-03
         0.79065E-02
         0.37688E-02
         0.72656E-02
         0.19299E-02
         0.18841E-01
         0.13513E-01
         0.51553E-02
         0.19891E-01
         0.50106E-02
         0.99590E-03
         0.00000E+00
         0.23480E-02
         0.00000E+00
         0.14111E-01
         0.13037E-01
         0.12610E-01
         0.95074E-03
         0.35666E-02
         0.00000E+00
         0.46852E-02
         0.00000E+00
         0.00000E+00
         0.41349E-02
         0.38209E-02
         0.57363E-03
         0.13742E-02
         0.76996E-03
         0.11969E-01
         0.58740E-02
         0.85431E-02
         0.15610E-01
         0.11253E-01
         0.10249E-01
         0.15928E-01
         0.14132E-01
         0.14248E-01
         0.10295E-01
         0.88486E-02
         0.13297E-01
         0.76044E-02
         0.59891E-02
         0.43839E-02
         0.57490E-02
         0.11435E-01
         0.68435E-02
         0.61653E-01
         0.63215E-01
         0.66245E-01
         0.65738E-01
         0.70321E-01
         0.75777E-01
         0.72564E-01
         0.64114E-01
         0.62386E-01
         0.67025E-01
         0.65615E-01
         0.64671E-01
         0.52831E-01
         0.50045E-01
         0.55332E-01
         0.59525E-01
         0.61910E-01
         0.67948E-01
         0.65219E-01
         0.67085E-01
         0.60041E-01
         0.56824E-01
         0.60842E-01
         0.59396E-01
         0.61227E-01
         0.60681E-01
         0.81013E-02
         0.35994E-02
         0.32192E-02
         0.12308E-02
         0.85225E-02
         0.49092E-02
         0.43719E-03
         0.79172E-02
         0.37808E-02
         0.72964E-02
         0.19298E-02
         0.18840E-01
         0.13520E-01
         0.51358E-02
         0.19915E-01
         0.50171E-02
         0.10074E-02
         0.00000E+00
         0.23512E-02
         0.00000E+00
         0.14113E-01
         0.13035E-01
         0.12609E-01
         0.95063E-03
         0.35955E-02
         0.00000E+00
         0.46878E-02
         0.00000E+00
         0.00000E+00
         0.41477E-02
         0.38275E-02
         0.57243E-03
         0.13666E-02
         0.77349E-03
         0.11976E-01
         0.58714E-02
         0.85404E-02
         0.15639E-01
         0.11286E-01
         0.10268E-01
         0.15941E-01
         0.14141E-01
         0.14250E-01
         0.10294E-01
         0.88461E-02
         0.13296E-01
         0.76045E-02
         0.59886E-02
         0.43731E-02
         0.57367E-02
         0.11427E-01
         0.68280E-02
         0.61629E-01
         0.63199E-01
         0.66245E-01
         0.65738E-01
         0.70309E-01
         0.75751E-01
         0.72532E-01
         0.64096E-01
         0.62369E-01
         0.67003E-01
         0.65603E-01
         0.64673E-01
         0.52825E-01
         0.50042E-01
         0.55339E-01
         0.59540E-01
         0.61927E-01
         0.67963E-01
         0.65215E-01
         0.67081E-01
         0.60034E-01
         0.56820E-01
         0.60820E-01
         0.59355E-01
         0.61191E-01
         0.60647E-01
         0.81099E-02
         0.36010E-02
         0.32228E-02
         0.12371E-02
         0.85170E-02
         0.49047E-02
         0.44792E-03
         0.79280E-02
         0.37928E-02
         0.73270E-02
         0.19298E-02
         0.18840E-01
         0.13527E-01
         0.51163E-02
         0.19939E-01
         0.50238E-02
         0.10191E-02
         0.00000E+00
         0.23545E-02
         0.00000E+00
         0.14114E-01
         0.13034E-01
         0.12608E-01
         0.95045E-03
         0.36241E-02
         0.00000E+00
         0.46903E-02
         0.00000E+00
         0.00000E+00
         0.41601E-02
         0.38343E-02
         0.57124E-03
         0.13590E-02
         0.77698E-03
         0.11983E-01
         0.58691E-02
         0.85376E-02
         0.15668E-01
         0.11318E-01
         0.10287E-01
         0.15954E-01
         0.14150E-01
         0.14252E-01
         0.10295E-01
         0.88442E-02
         0.13295E-01
         0.76046E-02
         0.59879E-02
         0.43625E-02
         0.57244E-02
         0.11419E-01
         0.68127E-02
         0.61605E-01
         0.63183E-01
         0.66244E-01
         0.65739E-01
         0.70297E-01
         0.75724E-01
         0.72500E-01
         0.64078E-01
         0.62352E-01
         0.66982E-01
         0.65591E-01
         0.64676E-01
         0.52820E-01
         0.50040E-01
         0.55346E-01
         0.59556E-01
         0.61944E-01
         0.67978E-01
         0.65211E-01
         0.67076E-01
         0.60027E-01
         0.56816E-01
         0.60797E-01
         0.59314E-01
         0.61154E-01
         0.60613E-01
         0.81185E-02
         0.36026E-02
         0.32265E-02
         0.12433E-02
         0.85116E-02
         0.49001E-02
         0.45875E-03
         0.79385E-02
         0.38047E-02
         0.73569E-02
         0.19298E-02
         0.18839E-01
         0.13534E-01
         0.50969E-02
         0.19963E-01
         0.50311E-02
         0.10312E-02
         0.00000E+00
         0.23580E-02
         0.00000E+00
         0.14116E-01
         0.13034E-01
         0.12609E-01
         0.95004E-03
         0.36522E-02
         0.00000E+00
         0.46925E-02
         0.00000E+00
         0.00000E+00
         0.41714E-02
         0.38414E-02
         0.57033E-03
         0.13514E-02
         0.78051E-03
         0.11989E-01
         0.58666E-02
         0.85348E-02
         0.15698E-01
         0.11351E-01
         0.10307E-01
         0.15968E-01
         0.14160E-01
         0.14255E-01
         0.10296E-01
         0.88428E-02
         0.13295E-01
         0.76055E-02
         0.59874E-02
         0.43519E-02
         0.57121E-02
         0.11411E-01
         0.67972E-02
         0.61582E-01
         0.63167E-01
         0.66244E-01
         0.65739E-01
         0.70284E-01
         0.75697E-01
         0.72469E-01
         0.64060E-01
         0.62336E-01
         0.66961E-01
         0.65579E-01
         0.64679E-01
         0.52816E-01
         0.50039E-01
         0.55354E-01
         0.59574E-01
         0.61964E-01
         0.67995E-01
         0.65207E-01
         0.67072E-01
         0.60020E-01
         0.56812E-01
         0.60775E-01
         0.59272E-01
         0.61118E-01
         0.60579E-01
         0.81270E-02
         0.36041E-02
         0.32301E-02
         0.12496E-02
         0.85065E-02
         0.48955E-02
         0.46948E-03
         0.79491E-02
         0.38166E-02
         0.73861E-02
         0.19299E-02
         0.18838E-01
         0.13540E-01
         0.50774E-02
         0.19987E-01
         0.50390E-02
         0.10438E-02
         0.00000E+00
         0.23615E-02
         0.00000E+00
         0.14119E-01
         0.13033E-01
         0.12609E-01
         0.94942E-03
         0.36796E-02
         0.00000E+00
         0.46944E-02
         0.00000E+00
         0.00000E+00
         0.41815E-02
         0.38488E-02
         0.56952E-03
         0.13437E-02
         0.78402E-03
         0.11996E-01
         0.58641E-02
         0.85322E-02
         0.15728E-01
         0.11385E-01
         0.10328E-01
         0.15983E-01
         0.14170E-01
         0.14259E-01
         0.10299E-01
         0.88422E-02
         0.13296E-01
         0.76068E-02
         0.59873E-02
         0.43414E-02
         0.56997E-02
         0.11403E-01
         0.67817E-02
         0.61558E-01
         0.63151E-01
         0.66244E-01
         0.65740E-01
         0.70272E-01
         0.75670E-01
         0.72437E-01
         0.64042E-01
         0.62319E-01
         0.66939E-01
         0.65568E-01
         0.64684E-01
         0.52814E-01
         0.50037E-01
         0.55363E-01
         0.59594E-01
         0.61985E-01
         0.68012E-01
         0.65204E-01
         0.67068E-01
         0.60013E-01
         0.56808E-01
         0.60753E-01
         0.59231E-01
         0.61082E-01
         0.60544E-01
         0.81350E-02
         0.36052E-02
         0.32336E-02
         0.12558E-02
         0.85011E-02
         0.48909E-02
         0.47995E-03
         0.79588E-02
         0.38285E-02
         0.74146E-02
         0.19305E-02
         0.18838E-01
         0.13547E-01
         0.50580E-02
         0.20011E-01
         0.50471E-02
         0.10564E-02
         0.00000E+00
         0.23651E-02
         0.00000E+00
         0.14122E-01
         0.13033E-01
         0.12611E-01
         0.94879E-03
         0.37063E-02
         0.00000E+00
         0.46962E-02
         0.00000E+00
         0.00000E+00
         0.41913E-02
         0.38559E-02
         0.56846E-03
         0.13361E-02
         0.78754E-03
         0.12003E-01
         0.58620E-02
         0.85299E-02
         0.15758E-01
         0.11419E-01
         0.10349E-01
         0.15998E-01
         0.14180E-01
         0.14264E-01
         0.10302E-01
         0.88426E-02
         0.13297E-01
         0.76083E-02
         0.59874E-02
         0.43313E-02
         0.56877E-02
         0.11395E-01
         0.67667E-02
         0.61534E-01
         0.63136E-01
         0.66243E-01
         0.65740E-01
         0.70260E-01
         0.75643E-01
         0.72405E-01
         0.64024E-01
         0.62302E-01
         0.66918E-01
         0.65557E-01
         0.64688E-01
         0.52812E-01
         0.50036E-01
         0.55372E-01
         0.59615E-01
         0.62008E-01
         0.68030E-01
         0.65200E-01
         0.67064E-01
         0.60006E-01
         0.56805E-01
         0.60731E-01
         0.59190E-01
         0.61045E-01
         0.60510E-01
         0.81424E-02
         0.36054E-02
         0.32369E-02
         0.12621E-02
         0.84961E-02
         0.48865E-02
         0.49003E-03
         0.79672E-02
         0.38406E-02
         0.74418E-02
         0.19318E-02
         0.18838E-01
         0.13554E-01
         0.50388E-02
         0.20035E-01
         0.50552E-02
         0.10689E-02
         0.00000E+00
         0.23688E-02
         0.00000E+00
         0.14125E-01
         0.13033E-01
         0.12613E-01
         0.94830E-03
         0.37323E-02
         0.00000E+00
         0.46983E-02
         0.00000E+00
         0.00000E+00
         0.42011E-02
         0.38626E-02
         0.56667E-03
         0.13284E-02
         0.79091E-03
         0.12010E-01
         0.58603E-02
         0.85279E-02
         0.15788E-01
         0.11454E-01
         0.10370E-01
         0.16013E-01
         0.14191E-01
         0.14268E-01
         0.10306E-01
         0.88434E-02
         0.13300E-01
         0.76106E-02
         0.59886E-02
         0.43227E-02
         0.56763E-02
         0.11388E-01
         0.67516E-02
         0.61511E-01
         0.63120E-01
         0.66243E-01
         0.65741E-01
         0.70248E-01
         0.75616E-01
         0.72372E-01
         0.64006E-01
         0.62286E-01
         0.66896E-01
         0.65546E-01
         0.64693E-01
         0.52810E-01
         0.50035E-01
         0.55380E-01
         0.59636E-01
         0.62031E-01
         0.68047E-01
         0.65196E-01
         0.67060E-01
         0.60000E-01
         0.56802E-01
         0.60709E-01
         0.59149E-01
         0.61009E-01
         0.60476E-01
         0.81495E-02
         0.36054E-02
         0.32402E-02
         0.12684E-02
         0.84912E-02
         0.48818E-02
         0.49980E-03
         0.79748E-02
         0.38530E-02
         0.74685E-02
         0.19335E-02
         0.18838E-01
         0.13562E-01
         0.50196E-02
         0.20059E-01
         0.50634E-02
         0.10812E-02
         0.00000E+00
         0.23725E-02
         0.00000E+00
         0.14128E-01
         0.13033E-01
         0.12615E-01
         0.94777E-03
         0.37578E-02
         0.00000E+00
         0.47004E-02
         0.00000E+00
         0.00000E+00
         0.42108E-02
         0.38691E-02
         0.56447E-03
         0.13207E-02
         0.79429E-03
         0.12018E-01
         0.58590E-02
         0.85263E-02
         0.15818E-01
         0.11489E-01
         0.10392E-01
         0.16028E-01
         0.14201E-01
         0.14273E-01
         0.10310E-01
         0.88445E-02
         0.13302E-01
         0.76133E-02
         0.59899E-02
         0.43147E-02
         0.56650E-02
         0.11381E-01
         0.67369E-02
         0.61487E-01
         0.63104E-01
         0.66242E-01
         0.65741E-01
         0.70235E-01
         0.75589E-01
         0.72340E-01
         0.63987E-01
         0.62269E-01
         0.66875E-01
         0.65535E-01
         0.64697E-01
         0.52808E-01
         0.50034E-01
         0.55389E-01
         0.59657E-01
         0.62053E-01
         0.68063E-01
         0.65191E-01
         0.67055E-01
         0.59995E-01
         0.56799E-01
         0.60687E-01
         0.59108E-01
         0.60973E-01
         0.60442E-01
         0.81566E-02
         0.36054E-02
         0.32434E-02
         0.12747E-02
         0.84862E-02
         0.48772E-02
         0.50958E-03
         0.79824E-02
         0.38653E-02
         0.74951E-02
         0.19351E-02
         0.18838E-01
         0.13570E-01
         0.50006E-02
         0.20084E-01
         0.50716E-02
         0.10935E-02
         0.00000E+00
         0.23761E-02
         0.00000E+00
         0.14131E-01
         0.13033E-01
         0.12616E-01
         0.94739E-03
         0.37833E-02
         0.00000E+00
         0.47026E-02
         0.00000E+00
         0.00000E+00
         0.42206E-02
         0.38755E-02
         0.56233E-03
         0.13130E-02
         0.79764E-03
         0.12025E-01
         0.58573E-02
         0.85247E-02
         0.15848E-01
         0.11523E-01
         0.10413E-01
         0.16044E-01
         0.14212E-01
         0.14277E-01
         0.10314E-01
         0.88459E-02
         0.13305E-01
         0.76158E-02
         0.59914E-02
         0.43069E-02
         0.56539E-02
         0.11374E-01
         0.67220E-02
         0.61463E-01
         0.63088E-01
         0.66241E-01
         0.65741E-01
         0.70223E-01
         0.75562E-01
         0.72308E-01
         0.63969E-01
         0.62253E-01
         0.66853E-01
         0.65523E-01
         0.64702E-01
         0.52806E-01
         0.50033E-01
         0.55398E-01
         0.59678E-01
         0.62076E-01
         0.68080E-01
         0.65186E-01
         0.67051E-01
         0.59989E-01
         0.56796E-01
         0.60665E-01
         0.59067E-01
         0.60937E-01
         0.60408E-01
         0.81636E-02
         0.36053E-02
         0.32466E-02
         0.12811E-02
         0.84812E-02
         0.48726E-02
         0.51941E-03
         0.79901E-02
         0.38776E-02
         0.75217E-02
         0.19370E-02
         0.18838E-01
         0.13577E-01
         0.49816E-02
         0.20108E-01
         0.50797E-02
         0.11059E-02
         0.00000E+00
         0.23797E-02
         0.00000E+00
         0.14134E-01
         0.13033E-01
         0.12618E-01
         0.94699E-03
         0.38088E-02
         0.00000E+00
         0.47049E-02
         0.00000E+00
         0.00000E+00
         0.42304E-02
         0.38819E-02
         0.56011E-03
         0.13054E-02
         0.80103E-03
         0.12032E-01
         0.58561E-02
         0.85231E-02
         0.15879E-01
         0.11558E-01
         0.10435E-01
         0.16059E-01
         0.14223E-01
         0.14282E-01
         0.10317E-01
         0.88471E-02
         0.13307E-01
         0.76185E-02
         0.59929E-02
         0.42989E-02
         0.56426E-02
         0.11367E-01
         0.67071E-02
         0.61440E-01
         0.63073E-01
         0.66240E-01
         0.65742E-01
         0.70211E-01
         0.75535E-01
         0.72275E-01
         0.63951E-01
         0.62236E-01
         0.66831E-01
         0.65512E-01
         0.64706E-01
         0.52804E-01
         0.50032E-01
         0.55407E-01
         0.59700E-01
         0.62098E-01
         0.68097E-01
         0.65182E-01
         0.67047E-01
         0.59983E-01
         0.56794E-01
         0.60642E-01
         0.59026E-01
         0.60901E-01
         0.60374E-01
         0.81705E-02
         0.36052E-02
         0.32499E-02
         0.12874E-02
         0.84764E-02
         0.48682E-02
         0.52935E-03
         0.79977E-02
         0.38900E-02
         0.75483E-02
         0.19390E-02
         0.18838E-01
         0.13585E-01
         0.49626E-02
         0.20133E-01
         0.50878E-02
         0.11183E-02
         0.00000E+00
         0.23834E-02
         0.00000E+00
         0.14137E-01
         0.13033E-01
         0.12620E-01
         0.94664E-03
         0.38342E-02
         0.00000E+00
         0.47072E-02
         0.00000E+00
         0.00000E+00
         0.42401E-02
         0.38883E-02
         0.55795E-03
         0.12979E-02
         0.80439E-03
         0.12040E-01
         0.58546E-02
         0.85216E-02
         0.15909E-01
         0.11593E-01
         0.10456E-01
         0.16074E-01
         0.14233E-01
         0.14286E-01
         0.10321E-01
         0.88483E-02
         0.13310E-01
         0.76212E-02
         0.59944E-02
         0.42910E-02
         0.56314E-02
         0.11360E-01
         0.66923E-02
         0.61416E-01
         0.63057E-01
         0.66239E-01
         0.65742E-01
         0.70199E-01
         0.75508E-01
         0.72243E-01
         0.63933E-01
         0.62220E-01
         0.66809E-01
         0.65501E-01
         0.64711E-01
         0.52801E-01
         0.50031E-01
         0.55416E-01
         0.59721E-01
         0.62121E-01
         0.68113E-01
         0.65177E-01
         0.67042E-01
         0.59977E-01
         0.56791E-01
         0.60620E-01
         0.58985E-01
         0.60865E-01
         0.60340E-01
         0.81775E-02
         0.36052E-02
         0.32531E-02
         0.12938E-02
         0.84714E-02
         0.48636E-02
         0.53920E-03
         0.80053E-02
         0.39024E-02
         0.75749E-02
         0.19410E-02
         0.18838E-01
         0.13592E-01
         0.49437E-02
         0.20157E-01
         0.50960E-02
         0.11307E-02
         0.00000E+00
         0.23870E-02
         0.00000E+00
         0.14140E-01
         0.13033E-01
         0.12621E-01
         0.94632E-03
         0.38596E-02
         0.00000E+00
         0.47095E-02
         0.00000E+00
         0.00000E+00
         0.42498E-02
         0.38947E-02
         0.55579E-03
         0.12903E-02
         0.80781E-03
         0.12048E-01
         0.58531E-02
         0.85199E-02
         0.15940E-01
         0.11628E-01
         0.10477E-01
         0.16090E-01
         0.14244E-01
         0.14291E-01
         0.10325E-01
         0.88495E-02
         0.13313E-01
         0.76237E-02
         0.59960E-02
         0.42831E-02
         0.56203E-02
         0.11353E-01
         0.66774E-02
         0.61392E-01
         0.63041E-01
         0.66238E-01
         0.65742E-01
         0.70187E-01
         0.75481E-01
         0.72211E-01
         0.63914E-01
         0.62203E-01
         0.66787E-01
         0.65489E-01
         0.64715E-01
         0.52799E-01
         0.50030E-01
         0.55425E-01
         0.59742E-01
         0.62144E-01
         0.68130E-01
         0.65172E-01
         0.67038E-01
         0.59972E-01
         0.56788E-01
         0.60597E-01
         0.58944E-01
         0.60829E-01
         0.60306E-01
         0.81845E-02
         0.36051E-02
         0.32563E-02
         0.13002E-02
         0.84664E-02
         0.48590E-02
         0.54907E-03
         0.80129E-02
         0.39148E-02
         0.76014E-02
         0.19431E-02
         0.18838E-01
         0.13600E-01
         0.49248E-02
         0.20182E-01
         0.51041E-02
         0.11431E-02
         0.00000E+00
         0.23906E-02
         0.00000E+00
         0.14143E-01
         0.13033E-01
         0.12623E-01
         0.94600E-03
         0.38849E-02
         0.00000E+00
         0.47117E-02
         0.00000E+00
         0.00000E+00
         0.42595E-02
         0.39011E-02
         0.55359E-03
         0.12827E-02
         0.81118E-03
         0.12055E-01
         0.58519E-02
         0.85184E-02
         0.15970E-01
         0.11663E-01
         0.10499E-01
         0.16105E-01
         0.14254E-01
         0.14296E-01
         0.10329E-01
         0.88509E-02
         0.13315E-01
         0.76265E-02
         0.59975E-02
         0.42753E-02
         0.56092E-02
         0.11346E-01
         0.66625E-02
         0.61368E-01
         0.63025E-01
         0.66237E-01
         0.65743E-01
         0.70175E-01
         0.75454E-01
         0.72178E-01
         0.63896E-01
         0.62187E-01
         0.66765E-01
         0.65478E-01
         0.64720E-01
         0.52797E-01
         0.50029E-01
         0.55434E-01
         0.59763E-01
         0.62166E-01
         0.68147E-01
         0.65168E-01
         0.67034E-01
         0.59966E-01
         0.56785E-01
         0.60575E-01
         0.58903E-01
         0.60793E-01
         0.60272E-01
         0.81915E-02
         0.36051E-02
         0.32595E-02
         0.13065E-02
         0.84616E-02
         0.48544E-02
         0.55906E-03
         0.80205E-02
         0.39271E-02
         0.76279E-02
         0.19452E-02
         0.18839E-01
         0.13608E-01
         0.49059E-02
         0.20206E-01
         0.51122E-02
         0.11555E-02
         0.00000E+00
         0.23943E-02
         0.00000E+00
         0.14146E-01
         0.13033E-01
         0.12625E-01
         0.94567E-03
         0.39103E-02
         0.00000E+00
         0.47139E-02
         0.00000E+00
         0.00000E+00
         0.42691E-02
         0.39075E-02
         0.55145E-03
         0.12752E-02
         0.81458E-03
         0.12063E-01
         0.58505E-02
         0.85168E-02
         0.16001E-01
         0.11698E-01
         0.10520E-01
         0.16121E-01
         0.14265E-01
         0.14300E-01
         0.10333E-01
         0.88521E-02
         0.13318E-01
         0.76292E-02
         0.59989E-02
         0.42673E-02
         0.55980E-02
         0.11339E-01
         0.66479E-02
         0.61344E-01
         0.63010E-01
         0.66236E-01
         0.65743E-01
         0.70162E-01
         0.75427E-01
         0.72145E-01
         0.63877E-01
         0.62170E-01
         0.66743E-01
         0.65467E-01
         0.64724E-01
         0.52795E-01
         0.50028E-01
         0.55443E-01
         0.59784E-01
         0.62189E-01
         0.68163E-01
         0.65163E-01
         0.67029E-01
         0.59961E-01
         0.56782E-01
         0.60553E-01
         0.58862E-01
         0.60757E-01
         0.60238E-01
         0.81984E-02
         0.36051E-02
         0.32628E-02
         0.13130E-02
         0.84567E-02
         0.48498E-02
         0.56899E-03
         0.80281E-02
         0.39396E-02
         0.76543E-02
         0.19475E-02
         0.18839E-01
         0.13615E-01
         0.48869E-02
         0.20231E-01
         0.51203E-02
         0.11680E-02
         0.00000E+00
         0.23979E-02
         0.00000E+00
         0.14149E-01
         0.13033E-01
         0.12626E-01
         0.94535E-03
         0.39356E-02
         0.00000E+00
         0.47161E-02
         0.00000E+00
         0.00000E+00
         0.42788E-02
         0.39139E-02
         0.54924E-03
         0.12678E-02
         0.81796E-03
         0.12070E-01
         0.58493E-02
         0.85152E-02
         0.16031E-01
         0.11733E-01
         0.10541E-01
         0.16136E-01
         0.14275E-01
         0.14305E-01
         0.10336E-01
         0.88533E-02
         0.13321E-01
         0.76317E-02
         0.60005E-02
         0.42594E-02
         0.55867E-02
         0.11332E-01
         0.66329E-02
         0.61321E-01
         0.62994E-01
         0.66235E-01
         0.65743E-01
         0.70150E-01
         0.75400E-01
         0.72112E-01
         0.63859E-01
         0.62154E-01
         0.66720E-01
         0.65455E-01
         0.64729E-01
         0.52793E-01
         0.50027E-01
         0.55452E-01
         0.59805E-01
         0.62212E-01
         0.68180E-01
         0.65159E-01
         0.67025E-01
         0.59955E-01
         0.56780E-01
         0.60530E-01
         0.58821E-01
         0.60721E-01
         0.60204E-01
         0.82053E-02
         0.36049E-02
         0.32659E-02
         0.13194E-02
         0.84517E-02
         0.48454E-02
         0.57892E-03
         0.80357E-02
         0.39521E-02
         0.76808E-02
         0.19498E-02
         0.18839E-01
         0.13623E-01
         0.48681E-02
         0.20255E-01
         0.51284E-02
         0.11805E-02
         0.00000E+00
         0.24015E-02
         0.00000E+00
         0.14152E-01
         0.13033E-01
         0.12628E-01
         0.94507E-03
         0.39609E-02
         0.00000E+00
         0.47183E-02
         0.00000E+00
         0.00000E+00
         0.42885E-02
         0.39203E-02
         0.54712E-03
         0.12604E-02
         0.82141E-03
         0.12078E-01
         0.58479E-02
         0.85137E-02
         0.16062E-01
         0.11767E-01
         0.10562E-01
         0.16151E-01
         0.14286E-01
         0.14309E-01
         0.10340E-01
         0.88548E-02
         0.13323E-01
         0.76344E-02
         0.60020E-02
         0.42516E-02
         0.55756E-02
         0.11325E-01
         0.66181E-02
         0.61297E-01
         0.62978E-01
         0.66234E-01
         0.65744E-01
         0.70138E-01
         0.75372E-01
         0.72079E-01
         0.63840E-01
         0.62137E-01
         0.66698E-01
         0.65444E-01
         0.64733E-01
         0.52790E-01
         0.50026E-01
         0.55461E-01
         0.59826E-01
         0.62234E-01
         0.68196E-01
         0.65154E-01
         0.67020E-01
         0.59949E-01
         0.56777E-01
         0.60508E-01
         0.58780E-01
         0.60686E-01
         0.60170E-01
         0.82121E-02
         0.36048E-02
         0.32692E-02
         0.13258E-02
         0.84469E-02
         0.48408E-02
         0.58897E-03
         0.80432E-02
         0.39646E-02
         0.77072E-02
         0.19521E-02
         0.18839E-01
         0.13631E-01
         0.48492E-02
         0.20280E-01
         0.51366E-02
         0.11931E-02
         0.00000E+00
         0.24051E-02
         0.00000E+00
         0.14155E-01
         0.13033E-01
         0.12630E-01
         0.94485E-03
         0.39861E-02
         0.00000E+00
         0.47204E-02
         0.00000E+00
         0.00000E+00
         0.42979E-02
         0.39267E-02
         0.54503E-03
         0.12530E-02
         0.82489E-03
         0.12085E-01
         0.58465E-02
         0.85120E-02
         0.16092E-01
         0.11802E-01
         0.10583E-01
         0.16166E-01
         0.14296E-01
         0.14313E-01
         0.10344E-01
         0.88560E-02
         0.13326E-01
         0.76372E-02
         0.60036E-02
         0.42438E-02
         0.55644E-02
         0.11318E-01
         0.66034E-02
         0.61273E-01
         0.62963E-01
         0.66233E-01
         0.65744E-01
         0.70126E-01
         0.75345E-01
         0.72046E-01
         0.63822E-01
         0.62121E-01
         0.66675E-01
         0.65433E-01
         0.64739E-01
         0.52789E-01
         0.50025E-01
         0.55470E-01
         0.59847E-01
         0.62257E-01
         0.68213E-01
         0.65150E-01
         0.67016E-01
         0.59944E-01
         0.56774E-01
         0.60485E-01
         0.58739E-01
         0.60650E-01
         0.60136E-01
         0.82190E-02
         0.36048E-02
         0.32724E-02
         0.13323E-02
         0.84420E-02
         0.48363E-02
         0.59893E-03
         0.80507E-02
         0.39771E-02
         0.77334E-02
         0.19546E-02
         0.18839E-01
         0.13638E-01
         0.48302E-02
         0.20304E-01
         0.51447E-02
         0.12056E-02
         0.00000E+00
         0.24088E-02
         0.00000E+00
         0.14158E-01
         0.13033E-01
         0.12632E-01
         0.94450E-03
         0.40113E-02
         0.00000E+00
         0.47217E-02
         0.00000E+00
         0.00000E+00
         0.43069E-02
         0.39331E-02
         0.54282E-03
         0.12457E-02
         0.82834E-03
         0.12093E-01
         0.58453E-02
         0.85105E-02
         0.16123E-01
         0.11837E-01
         0.10603E-01
         0.16180E-01
         0.14305E-01
         0.14317E-01
         0.10348E-01
         0.88573E-02
         0.13329E-01
         0.76397E-02
         0.60052E-02
         0.42359E-02
         0.55532E-02
         0.11312E-01
         0.65886E-02
         0.61249E-01
         0.62947E-01
         0.66231E-01
         0.65744E-01
         0.70114E-01
         0.75318E-01
         0.72013E-01
         0.63804E-01
         0.62104E-01
         0.66651E-01
         0.65422E-01
         0.64745E-01
         0.52788E-01
         0.50025E-01
         0.55479E-01
         0.59868E-01
         0.62280E-01
         0.68229E-01
         0.65145E-01
         0.67012E-01
         0.59938E-01
         0.56771E-01
         0.60463E-01
         0.58699E-01
         0.60614E-01
         0.60102E-01
         0.82259E-02
         0.36047E-02
         0.32756E-02
         0.13388E-02
         0.84371E-02
         0.48317E-02
         0.60892E-03
         0.80581E-02
         0.39897E-02
         0.77594E-02
         0.19570E-02
         0.18840E-01
         0.13646E-01
         0.48111E-02
         0.20329E-01
         0.51528E-02
         0.12182E-02
         0.00000E+00
         0.24125E-02
         0.00000E+00
         0.14161E-01
         0.13032E-01
         0.12633E-01
         0.94426E-03
         0.40363E-02
         0.00000E+00
         0.47226E-02
         0.00000E+00
         0.00000E+00
         0.43155E-02
         0.39395E-02
         0.54069E-03
         0.12383E-02
         0.83177E-03
         0.12101E-01
         0.58439E-02
         0.85090E-02
         0.16154E-01
         0.11872E-01
         0.10623E-01
         0.16194E-01
         0.14314E-01
         0.14321E-01
         0.10352E-01
         0.88588E-02
         0.13332E-01
         0.76425E-02
         0.60067E-02
         0.42282E-02
         0.55419E-02
         0.11304E-01
         0.65736E-02
         0.61225E-01
         0.62932E-01
         0.66230E-01
         0.65744E-01
         0.70101E-01
         0.75291E-01
         0.71980E-01
         0.63785E-01
         0.62088E-01
         0.66626E-01
         0.65411E-01
         0.64754E-01
         0.52788E-01
         0.50024E-01
         0.55488E-01
         0.59888E-01
         0.62302E-01
         0.68246E-01
         0.65141E-01
         0.67007E-01
         0.59932E-01
         0.56768E-01
         0.60440E-01
         0.58658E-01
         0.60578E-01
         0.60068E-01
         0.82329E-02
         0.36047E-02
         0.32790E-02
         0.13453E-02
         0.84324E-02
         0.48273E-02
         0.61901E-03
         0.80656E-02
         0.40023E-02
         0.77853E-02
         0.19596E-02
         0.18840E-01
         0.13654E-01
         0.47920E-02
         0.20353E-01
         0.51609E-02
         0.12308E-02
         0.00000E+00
         0.24162E-02
         0.00000E+00
         0.14164E-01
         0.13032E-01
         0.12635E-01
         0.94406E-03
         0.40613E-02
         0.00000E+00
         0.47233E-02
         0.00000E+00
         0.00000E+00
         0.43239E-02
         0.39460E-02
         0.53860E-03
         0.12312E-02
         0.83531E-03
         0.12109E-01
         0.58427E-02
         0.85072E-02
         0.16185E-01
         0.11907E-01
         0.10642E-01
         0.16207E-01
         0.14322E-01
         0.14324E-01
         0.10355E-01
         0.88599E-02
         0.13334E-01
         0.76452E-02
         0.60084E-02
         0.42204E-02
         0.55308E-02
         0.11298E-01
         0.65590E-02
         0.61201E-01
         0.62916E-01
         0.66229E-01
         0.65745E-01
         0.70090E-01
         0.75263E-01
         0.71947E-01
         0.63767E-01
         0.62071E-01
         0.66601E-01
         0.65400E-01
         0.64763E-01
         0.52789E-01
         0.50023E-01
         0.55497E-01
         0.59909E-01
         0.62325E-01
         0.68262E-01
         0.65136E-01
         0.67003E-01
         0.59927E-01
         0.56765E-01
         0.60417E-01
         0.58617E-01
         0.60543E-01
         0.60034E-01
         0.87683E-02
         0.44556E-02
         0.41561E-02
         0.23367E-02
         0.91447E-02
         0.56722E-02
         0.21415E-02
         0.87422E-02
         0.47470E-02
         0.84934E-02
         0.34236E-02
         0.19487E-01
         0.14296E-01
         0.58708E-02
         0.21031E-01
         0.57878E-02
         0.24156E-02
         0.75761E-03
         0.34664E-02
         0.15295E-02
         0.14704E-01
         0.13603E-01
         0.13165E-01
         0.21642E-02
         0.50356E-02
         0.72390E-03
         0.58005E-02
         0.10547E-02
         0.19969E-02
         0.53190E-02
         0.46675E-02
         0.18349E-02
         0.22417E-02
         0.20203E-02
         0.12819E-01
         0.67037E-02
         0.92129E-02
         0.16884E-01
         0.12680E-01
         0.11431E-01
         0.16865E-01
         0.14954E-01
         0.14897E-01
         0.10916E-01
         0.95164E-02
         0.14007E-01
         0.84148E-02
         0.67779E-02
         0.50893E-02
         0.63482E-02
         0.11967E-01
         0.73172E-02
         0.62110E-01
         0.63805E-01
         0.67157E-01
         0.66636E-01
         0.71011E-01
         0.76240E-01
         0.72924E-01
         0.64737E-01
         0.63052E-01
         0.67612E-01
         0.66383E-01
         0.65687E-01
         0.53570E-01
         0.50746E-01
         0.56236E-01
         0.60680E-01
         0.63110E-01
         0.69139E-01
         0.66075E-01
         0.67948E-01
         0.60765E-01
         0.57566E-01
         0.61239E-01
         0.59413E-01
         0.61334E-01
         0.60826E-01
         0.36878E-01
         0.36010E-01
         0.35350E-01
         0.31573E-01
         0.41935E-01
         0.37842E-01
         0.38066E-01
         0.41366E-01
         0.33793E-01
         0.41183E-01
         0.42260E-01
         0.56202E-01
         0.48567E-01
         0.44395E-01
         0.58991E-01
         0.33701E-01
         0.34594E-01
         0.29585E-01
         0.36099E-01
         0.37388E-01
         0.45623E-01
         0.45722E-01
         0.43086E-01
         0.34270E-01
         0.39878E-01
         0.32632E-01
         0.44243E-01
         0.41987E-01
         0.42412E-01
         0.41372E-01
         0.33459E-01
         0.34019E-01
         0.31795E-01
         0.33206E-01
         0.47552E-01
         0.40859E-01
         0.42338E-01
         0.54746E-01
         0.50827E-01
         0.49534E-01
         0.53923E-01
         0.50471E-01
         0.48269E-01
         0.40736E-01
         0.41215E-01
         0.48244E-01
         0.41980E-01
         0.38881E-01
         0.37358E-01
         0.39258E-01
         0.45426E-01
         0.39826E-01
         0.10704E+00
         0.10738E+00
         0.11172E+00
         0.10997E+00
         0.11570E+00
         0.12360E+00
         0.12181E+00
         0.11395E+00
         0.11250E+00
         0.11782E+00
         0.11517E+00
         0.11136E+00
         0.94940E-01
         0.89944E-01
         0.94875E-01
         0.99202E-01
         0.10188E+00
         0.11093E+00
         0.11082E+00
         0.11297E+00
         0.10296E+00
         0.98680E-01
         0.10354E+00
         0.10160E+00
         0.10285E+00
         0.10198E+00
  
SCALARS                            dam  double 1
LOOKUP_TABLE default
         0.00000E+00
         0.00000E+00
         0.00000E+00
         0.00000E+00
         0.00000E+00
         0.00000E+00
         0.00000E+00
         0.00000E+00
         0.00000E+00
         0.00000E+00
         0.00000E+00
         0.00000E+00
         0.00000E+00
         0.00000E+00
         0.00000E+00
         0.00000E+00
         0.00000E+00
         0.00000E+00
         0.00000E+00
         0.00000E+00
         0.00000E+00
         0.00000E+00
         0.00000E+00
         0.00000E+00
         0.00000E+00
         0.00000E+00
         0.00000E+00
         0.00000E+00
         0.00000E+00
         0.00000E+00
         0.00000E+00
         0.00000E+00
         0.00000E+00
         0.00000E+00
         0.00000E+00
         0.00000E+00
         0.00000E+00
         0.00000E+00
         0.00000E+00
         0.00000E+00
         0.00000E+00
         0.00000E+00
         0.00000E+00
         0.00000E+00
         0.00000E+00
         0.00000E+00
         0.00000E+00
         0.00000E+00
         0.00000E+00
         0.00000E+00
         0.00000E+00
         0.00000E+00
         0.00000E+00
         0.00000E+00
         0.00000E+00
         0.00000E+00
         0.00000E+00
         0.00000E+00
         0.00000E+00
         0.00000E+00
         0.00000E+00
         0.00000E+00
         0.00000E+00
         0.00000E+00
         0.00000E+00
         0.00000E+00
         0.00000E+00
         0.00000E+00
         0.00000E+00
         0.00000E+00
         0.00000E+00
         0.00000E+00
         0.00000E+00
         0.00000E+00
         0.00000E+00
         0.00000E+00
         0.00000E+00
         0.00000E+00
         0.00000E+00
         0.00000E+00
         0.00000E+00
         0.00000E+00
         0.00000E+00
         0.00000E+00
         0.00000E+00
         0.00000E+00
         0.00000E+00
         0.00000E+00
         0.00000E+00
         0.00000E+00
         0.00000E+00
         0.00000E+00
         0.00000E+00
         0.00000E+00
         0.00000E+00
         0.00000E+00
         0.00000E+00
         0.00000E+00
         0.00000E+00
         0.00000E+00
         0.00000E+00
         0.00000E+00
         0.00000E+00
         0.00000E+00
         0.00000E+00
         0.00000E+00
         0.00000E+00
         0.00000E+00
         0.00000E+00
         0.00000E+00
         0.00000E+00
         0.00000E+00
         0.00000E+00
         0.00000E+00
         0.00000E+00
         0.00000E+00
         0.00000E+00
         0.00000E+00
         0.00000E+00
         0.00000E+00
         0.00000E+00
         0.00000E+00
         0.00000E+00
         0.00000E+00
         0.00000E+00
         0.00000E+00
         0.00000E+00
         0.00000E+00
         0.00000E+00
         0.00000E+00
         0.00000E+00
         0.00000E+00
         0.00000E+00
         0.00000E+00
         0.00000E+00
         0.00000E+00
         0.00000E+00
         0.00000E+00
         0.00000E+00
         0.00000E+00
         0.00000E+00
         0.00000E+00
         0.00000E+00
         0.00000E+00
         0.00000E+00
         0.00000E+00
         0.00000E+00
         0.00000E+00
         0.00000E+00
         0.00000E+00
         0.00000E+00
         0.00000E+00
         0.00000E+00
         0.00000E+00
         0.00000E+00
         0.00000E+00
         0.00000E+00
         0.00000E+00
         0.00000E+00
         0.00000E+00
         0.00000E+00
         0.00000E+00
         0.00000E+00
         0.00000E+00
         0.00000E+00
         0.00000E+00
         0.00000E+00
         0.00000E+00
         0.00000E+00
         0.00000E+00
         0.00000E+00
         0.00000E+00
         0.00000E+00
         0.00000E+00
         0.00000E+00
         0.00000E+00
         0.00000E+00
         0.00000E+00
         0.00000E+00
         0.00000E+00
         0.00000E+00
         0.00000E+00
         0.00000E+00
         0.00000E+00
         0.00000E+00
         0.00000E+00
         0.00000E+00
         0.00000E+00
         0.00000E+00
         0.00000E+00
         0.00000E+00
         0.00000E+00
         0.00000E+00
         0.00000E+00
         0.00000E+00
         0.00000E+00
         0.00000E+00
         0.00000E+00
         0.00000E+00
         0.00000E+00
         0.00000E+00
         0.00000E+00
         0.00000E+00
         0.00000E+00
         0.00000E+00
         0.00000E+00
         0.00000E+00
         0.00000E+00
         0.00000E+00
         0.00000E+00
         0.00000E+00
         0.00000E+00
         0.00000E+00
         0.00000E+00
         0.00000E+00
         0.00000E+00
         0.00000E+00
         0.00000E+00
         0.00000E+00
         0.00000E+00
         0.00000E+00
         0.00000E+00
         0.00000E+00
         0.00000E+00
         0.00000E+00
         0.00000E+00
         0.00000E+00
         0.00000E+00
         0.00000E+00
         0.00000E+00
         0.00000E+00
         0.00000E+00
         0.00000E+00
         0.00000E+00
         0.00000E+00
         0.00000E+00
         0.00000E+00
         0.00000E+00
         0.00000E+00
         0.00000E+00
         0.00000E+00
         0.00000E+00
         0.00000E+00
         0.00000E+00
         0.00000E+00
         0.00000E+00
         0.00000E+00
         0.00000E+00
         0.00000E+00
         0.00000E+00
         0.00000E+00
         0.00000E+00
         0.00000E+00
         0.00000E+00
         0.00000E+00
         0.00000E+00
         0.00000E+00
         0.00000E+00
         0.00000E+00
         0.00000E+00
         0.00000E+00
         0.00000E+00
         0.00000E+00
         0.00000E+00
         0.00000E+00
         0.00000E+00
         0.00000E+00
         0.00000E+00
         0.00000E+00
         0.00000E+00
         0.00000E+00
         0.00000E+00
         0.00000E+00
         0.00000E+00
         0.00000E+00
         0.00000E+00
         0.00000E+00
         0.00000E+00
         0.00000E+00
         0.00000E+00
         0.00000E+00
         0.00000E+00
         0.00000E+00
         0.00000E+00
         0.00000E+00
         0.00000E+00
         0.00000E+00
         0.00000E+00
         0.00000E+00
         0.00000E+00
         0.00000E+00
         0.00000E+00
         0.00000E+00
         0.00000E+00
         0.00000E+00
         0.00000E+00
         0.00000E+00
         0.00000E+00
         0.00000E+00
         0.00000E+00
         0.00000E+00
         0.00000E+00
         0.00000E+00
         0.00000E+00
         0.00000E+00
         0.00000E+00
         0.00000E+00
         0.00000E+00
         0.00000E+00
         0.00000E+00
         0.00000E+00
         0.00000E+00
         0.00000E+00
         0.00000E+00
         0.00000E+00
         0.00000E+00
         0.00000E+00
         0.00000E+00
         0.00000E+00
         0.00000E+00
         0.00000E+00
         0.00000E+00
         0.00000E+00
         0.00000E+00
         0.00000E+00
         0.00000E+00
         0.00000E+00
         0.00000E+00
         0.00000E+00
         0.00000E+00
         0.00000E+00
         0.00000E+00
         0.00000E+00
         0.00000E+00
         0.00000E+00
         0.00000E+00
         0.00000E+00
         0.00000E+00
         0.00000E+00
         0.00000E+00
         0.00000E+00
         0.00000E+00
         0.00000E+00
         0.00000E+00
         0.00000E+00
         0.00000E+00
         0.00000E+00
         0.00000E+00
         0.00000E+00
         0.00000E+00
         0.00000E+00
         0.00000E+00
         0.00000E+00
         0.00000E+00
         0.00000E+00
         0.00000E+00
         0.00000E+00
         0.00000E+00
         0.00000E+00
         0.00000E+00
         0.00000E+00
         0.00000E+00
         0.00000E+00
         0.00000E+00
         0.00000E+00
         0.00000E+00
         0.00000E+00
         0.00000E+00
         0.00000E+00
         0.00000E+00
         0.00000E+00
         0.00000E+00
         0.00000E+00
         0.00000E+00
         0.00000E+00
         0.00000E+00
         0.00000E+00
         0.00000E+00
         0.00000E+00
         0.00000E+00
         0.00000E+00
         0.00000E+00
         0.00000E+00
         0.00000E+00
         0.00000E+00
         0.00000E+00
         0.00000E+00
         0.00000E+00
         0.00000E+00
         0.00000E+00
         0.00000E+00
         0.00000E+00
         0.00000E+00
         0.00000E+00
         0.00000E+00
         0.00000E+00
         0.00000E+00
         0.00000E+00
         0.00000E+00
         0.00000E+00
         0.00000E+00
         0.00000E+00
         0.00000E+00
         0.00000E+00
         0.00000E+00
         0.00000E+00
         0.00000E+00
         0.00000E+00
         0.00000E+00
         0.00000E+00
         0.00000E+00
         0.00000E+00
         0.00000E+00
         0.00000E+00
         0.00000E+00
         0.00000E+00
         0.00000E+00
         0.00000E+00
         0.00000E+00
         0.00000E+00
         0.00000E+00
         0.00000E+00
         0.00000E+00
         0.00000E+00
         0.00000E+00
         0.00000E+00
         0.00000E+00
         0.00000E+00
         0.00000E+00
         0.00000E+00
         0.00000E+00
         0.00000E+00
         0.00000E+00
         0.00000E+00
         0.00000E+00
         0.00000E+00
         0.00000E+00
         0.00000E+00
         0.00000E+00
         0.00000E+00
         0.00000E+00
         0.00000E+00
         0.00000E+00
         0.00000E+00
         0.00000E+00
         0.00000E+00
         0.00000E+00
         0.00000E+00
         0.00000E+00
         0.00000E+00
         0.00000E+00
         0.00000E+00
         0.00000E+00
         0.00000E+00
         0.00000E+00
         0.00000E+00
         0.00000E+00
         0.00000E+00
         0.00000E+00
         0.00000E+00
         0.00000E+00
         0.00000E+00
         0.00000E+00
         0.00000E+00
         0.00000E+00
         0.00000E+00
         0.00000E+00
         0.00000E+00
         0.00000E+00
         0.00000E+00
         0.00000E+00
         0.00000E+00
         0.00000E+00
         0.00000E+00
         0.00000E+00
         0.00000E+00
         0.00000E+00
         0.00000E+00
         0.00000E+00
         0.00000E+00
         0.00000E+00
         0.00000E+00
         0.00000E+00
         0.00000E+00
         0.00000E+00
         0.00000E+00
         0.00000E+00
         0.00000E+00
         0.00000E+00
         0.00000E+00
         0.00000E+00
         0.00000E+00
         0.00000E+00
         0.00000E+00
         0.00000E+00
         0.00000E+00
         0.00000E+00
         0.00000E+00
         0.00000E+00
         0.00000E+00
         0.00000E+00
         0.00000E+00
         0.00000E+00
         0.00000E+00
         0.00000E+00
         0.00000E+00
         0.00000E+00
         0.00000E+00
         0.00000E+00
         0.00000E+00
         0.00000E+00
         0.00000E+00
         0.00000E+00
         0.00000E+00
         0.00000E+00
         0.00000E+00
         0.00000E+00
         0.00000E+00
         0.00000E+00
         0.00000E+00
         0.00000E+00
         0.00000E+00
         0.00000E+00
         0.00000E+00
         0.00000E+00
         0.00000E+00
         0.00000E+00
         0.00000E+00
         0.00000E+00
         0.00000E+00
         0.00000E+00
         0.00000E+00
         0.00000E+00
         0.00000E+00
         0.00000E+00
         0.00000E+00
         0.00000E+00
         0.00000E+00
         0.00000E+00
         0.00000E+00
         0.00000E+00
         0.00000E+00
         0.00000E+00
         0.00000E+00
         0.00000E+00
         0.00000E+00
         0.00000E+00
         0.00000E+00
         0.00000E+00
         0.00000E+00
         0.00000E+00
         0.00000E+00
         0.00000E+00
         0.00000E+00
         0.00000E+00
         0.00000E+00
         0.00000E+00
         0.00000E+00
         0.00000E+00
         0.00000E+00
         0.00000E+00
         0.00000E+00
         0.00000E+00
         0.00000E+00
         0.00000E+00
         0.00000E+00
         0.00000E+00
         0.00000E+00
         0.00000E+00
         0.00000E+00
         0.00000E+00
         0.00000E+00
         0.00000E+00
         0.00000E+00
         0.00000E+00
         0.00000E+00
         0.00000E+00
         0.00000E+00
         0.00000E+00
         0.00000E+00
         0.00000E+00
         0.00000E+00
         0.00000E+00
         0.00000E+00
         0.00000E+00
         0.00000E+00
         0.00000E+00
         0.00000E+00
         0.00000E+00
         0.00000E+00
         0.00000E+00
         0.00000E+00
         0.00000E+00
         0.00000E+00
         0.00000E+00
         0.00000E+00
         0.00000E+00
         0.00000E+00
         0.00000E+00
         0.00000E+00
         0.00000E+00
         0.00000E+00
         0.00000E+00
         0.00000E+00
         0.00000E+00
         0.00000E+00
         0.00000E+00
         0.00000E+00
         0.00000E+00
         0.00000E+00
         0.00000E+00
         0.00000E+00
         0.00000E+00
         0.00000E+00
         0.00000E+00
         0.00000E+00
         0.00000E+00
         0.00000E+00
         0.00000E+00
         0.00000E+00
         0.00000E+00
         0.00000E+00
         0.00000E+00
         0.00000E+00
         0.00000E+00
         0.00000E+00
         0.00000E+00
         0.00000E+00
         0.00000E+00
         0.00000E+00
         0.00000E+00
         0.00000E+00
         0.00000E+00
         0.00000E+00
         0.00000E+00
         0.00000E+00
         0.00000E+00
         0.00000E+00
         0.00000E+00
         0.00000E+00
         0.00000E+00
         0.00000E+00
         0.00000E+00
         0.00000E+00
         0.00000E+00
         0.00000E+00
         0.00000E+00
         0.00000E+00
         0.00000E+00
         0.00000E+00
         0.00000E+00
         0.00000E+00
         0.00000E+00
         0.00000E+00
         0.00000E+00
         0.00000E+00
         0.00000E+00
         0.00000E+00
         0.00000E+00
         0.00000E+00
         0.00000E+00
         0.00000E+00
         0.00000E+00
         0.00000E+00
         0.00000E+00
         0.00000E+00
         0.00000E+00
         0.00000E+00
         0.00000E+00
         0.00000E+00
         0.00000E+00
         0.00000E+00
         0.00000E+00
         0.00000E+00
         0.00000E+00
         0.00000E+00
         0.00000E+00
         0.00000E+00
         0.00000E+00
         0.00000E+00
         0.00000E+00
         0.00000E+00
         0.00000E+00
         0.00000E+00
         0.00000E+00
         0.00000E+00
         0.00000E+00
         0.00000E+00
         0.00000E+00
         0.00000E+00
         0.00000E+00
         0.00000E+00
         0.00000E+00
         0.00000E+00
         0.00000E+00
         0.00000E+00
         0.00000E+00
         0.00000E+00
         0.00000E+00
         0.00000E+00
         0.00000E+00
         0.00000E+00
         0.00000E+00
         0.00000E+00
         0.00000E+00
         0.00000E+00
         0.00000E+00
         0.00000E+00
         0.00000E+00
         0.00000E+00
         0.00000E+00
         0.00000E+00
         0.00000E+00
         0.00000E+00
         0.00000E+00
         0.00000E+00
         0.00000E+00
         0.00000E+00
         0.00000E+00
         0.00000E+00
         0.00000E+00
         0.00000E+00
         0.00000E+00
         0.00000E+00
         0.00000E+00
         0.00000E+00
         0.00000E+00
         0.00000E+00
         0.00000E+00
         0.00000E+00
         0.00000E+00
         0.00000E+00
         0.00000E+00
         0.00000E+00
         0.00000E+00
         0.00000E+00
         0.00000E+00
         0.00000E+00
         0.00000E+00
         0.00000E+00
         0.00000E+00
         0.00000E+00
         0.00000E+00
         0.00000E+00
         0.00000E+00
         0.00000E+00
         0.00000E+00
         0.00000E+00
         0.00000E+00
         0.00000E+00
         0.00000E+00
         0.00000E+00
         0.00000E+00
         0.00000E+00
         0.00000E+00
         0.00000E+00
         0.00000E+00
         0.00000E+00
         0.00000E+00
         0.00000E+00
         0.00000E+00
         0.00000E+00
         0.00000E+00
         0.00000E+00
         0.00000E+00
         0.00000E+00
         0.00000E+00
         0.00000E+00
         0.00000E+00
         0.00000E+00
         0.00000E+00
         0.00000E+00
         0.00000E+00
         0.00000E+00
         0.00000E+00
         0.00000E+00
         0.00000E+00
         0.00000E+00
         0.00000E+00
         0.00000E+00
         0.00000E+00
         0.00000E+00
         0.00000E+00
         0.00000E+00
         0.00000E+00
         0.00000E+00
         0.00000E+00
         0.00000E+00
         0.00000E+00
         0.00000E+00
         0.00000E+00
         0.00000E+00
         0.00000E+00
         0.00000E+00
         0.00000E+00
         0.00000E+00
         0.00000E+00
         0.00000E+00
         0.00000E+00
         0.00000E+00
         0.00000E+00
         0.00000E+00
         0.00000E+00
         0.00000E+00
         0.00000E+00
         0.00000E+00
         0.00000E+00
         0.00000E+00
         0.00000E+00
         0.00000E+00
         0.00000E+00
         0.00000E+00
         0.00000E+00
         0.00000E+00
         0.00000E+00
         0.00000E+00
         0.00000E+00
         0.00000E+00
         0.00000E+00
         0.00000E+00
         0.00000E+00
         0.00000E+00
         0.00000E+00
         0.00000E+00
         0.00000E+00
         0.00000E+00
         0.00000E+00
         0.00000E+00
         0.00000E+00
         0.00000E+00
         0.00000E+00
         0.00000E+00
         0.00000E+00
         0.00000E+00
         0.00000E+00
         0.00000E+00
         0.00000E+00
         0.00000E+00
         0.00000E+00
         0.00000E+00
         0.00000E+00
         0.00000E+00
         0.00000E+00
         0.00000E+00
         0.00000E+00
         0.00000E+00
         0.00000E+00
         0.00000E+00
         0.00000E+00
         0.00000E+00
         0.00000E+00
         0.00000E+00
         0.00000E+00
         0.00000E+00
         0.00000E+00
         0.00000E+00
         0.00000E+00
         0.00000E+00
         0.00000E+00
         0.00000E+00
         0.00000E+00
         0.00000E+00
         0.00000E+00
         0.00000E+00
         0.00000E+00
         0.00000E+00
         0.00000E+00
         0.00000E+00
         0.00000E+00
         0.00000E+00
         0.00000E+00
         0.00000E+00
         0.00000E+00
         0.00000E+00
         0.00000E+00
         0.00000E+00
         0.00000E+00
         0.00000E+00
         0.00000E+00
         0.00000E+00
         0.00000E+00
         0.00000E+00
         0.00000E+00
         0.00000E+00
         0.00000E+00
         0.00000E+00
         0.00000E+00
         0.00000E+00
         0.00000E+00
         0.00000E+00
         0.00000E+00
         0.00000E+00
         0.00000E+00
         0.00000E+00
         0.00000E+00
         0.00000E+00
         0.00000E+00
         0.00000E+00
         0.00000E+00
         0.00000E+00
         0.00000E+00
         0.00000E+00
         0.00000E+00
         0.00000E+00
         0.00000E+00
         0.00000E+00
         0.00000E+00
         0.00000E+00
         0.00000E+00
         0.00000E+00
         0.00000E+00
         0.00000E+00
         0.00000E+00
         0.00000E+00
         0.00000E+00
         0.00000E+00
         0.00000E+00
         0.00000E+00
         0.00000E+00
         0.00000E+00
         0.00000E+00
         0.00000E+00
         0.00000E+00
         0.00000E+00
         0.00000E+00
         0.00000E+00
         0.00000E+00
         0.00000E+00
         0.00000E+00
         0.00000E+00
         0.00000E+00
         0.00000E+00
         0.00000E+00
         0.00000E+00
         0.00000E+00
         0.00000E+00
         0.00000E+00
         0.00000E+00
         0.00000E+00
         0.00000E+00
         0.00000E+00
         0.00000E+00
         0.00000E+00
         0.00000E+00
         0.00000E+00
         0.00000E+00
         0.00000E+00
         0.00000E+00
         0.00000E+00
         0.00000E+00
         0.00000E+00
         0.00000E+00
         0.00000E+00
         0.00000E+00
         0.00000E+00
         0.00000E+00
         0.00000E+00
         0.00000E+00
         0.00000E+00
         0.00000E+00
         0.00000E+00
         0.00000E+00
         0.00000E+00
         0.00000E+00
         0.00000E+00
         0.00000E+00
         0.00000E+00
         0.00000E+00
         0.00000E+00
         0.00000E+00
         0.00000E+00
         0.00000E+00
         0.00000E+00
         0.00000E+00
         0.00000E+00
         0.00000E+00
         0.00000E+00
         0.00000E+00
         0.00000E+00
         0.00000E+00
         0.00000E+00
         0.00000E+00
         0.00000E+00
         0.00000E+00
         0.00000E+00
         0.00000E+00
         0.00000E+00
         0.00000E+00
         0.00000E+00
         0.00000E+00
         0.00000E+00
         0.00000E+00
         0.00000E+00
         0.00000E+00
         0.00000E+00
         0.00000E+00
         0.00000E+00
         0.00000E+00
         0.00000E+00
         0.00000E+00
         0.00000E+00
         0.00000E+00
         0.00000E+00
         0.00000E+00
         0.00000E+00
         0.00000E+00
         0.00000E+00
         0.00000E+00
         0.00000E+00
         0.00000E+00
         0.00000E+00
         0.00000E+00
         0.00000E+00
         0.00000E+00
         0.00000E+00
         0.00000E+00
         0.00000E+00
         0.00000E+00
         0.00000E+00
         0.00000E+00
         0.00000E+00
         0.00000E+00
         0.00000E+00
         0.00000E+00
         0.00000E+00
         0.00000E+00
         0.00000E+00
         0.00000E+00
         0.00000E+00
         0.00000E+00
         0.00000E+00
         0.00000E+00
         0.00000E+00
         0.00000E+00
         0.00000E+00
         0.00000E+00
         0.00000E+00
         0.00000E+00
         0.00000E+00
         0.00000E+00
         0.00000E+00
         0.00000E+00
         0.00000E+00
         0.00000E+00
         0.00000E+00
         0.00000E+00
         0.00000E+00
         0.00000E+00
         0.00000E+00
         0.00000E+00
         0.00000E+00
         0.00000E+00
         0.00000E+00
         0.00000E+00
         0.00000E+00
         0.00000E+00
         0.00000E+00
         0.00000E+00
         0.00000E+00
         0.00000E+00
         0.00000E+00
         0.00000E+00
         0.00000E+00
         0.00000E+00
         0.00000E+00
         0.00000E+00
         0.00000E+00
         0.00000E+00
         0.00000E+00
         0.00000E+00
         0.00000E+00
         0.00000E+00
         0.00000E+00
         0.00000E+00
         0.00000E+00
         0.00000E+00
         0.00000E+00
         0.00000E+00
         0.00000E+00
         0.00000E+00
         0.00000E+00
         0.00000E+00
         0.00000E+00
         0.00000E+00
         0.00000E+00
         0.00000E+00
         0.00000E+00
         0.00000E+00
         0.00000E+00
         0.00000E+00
         0.00000E+00
         0.00000E+00
         0.00000E+00
         0.00000E+00
         0.00000E+00
         0.00000E+00
         0.00000E+00
         0.00000E+00
         0.00000E+00
         0.00000E+00
         0.00000E+00
         0.00000E+00
         0.00000E+00
         0.00000E+00
         0.00000E+00
         0.00000E+00
         0.00000E+00
         0.00000E+00
         0.00000E+00
         0.00000E+00
         0.00000E+00
         0.00000E+00
         0.00000E+00
         0.00000E+00
         0.00000E+00
         0.00000E+00
         0.00000E+00
         0.00000E+00
         0.00000E+00
         0.00000E+00
         0.00000E+00
         0.00000E+00
         0.00000E+00
         0.00000E+00
         0.00000E+00
         0.00000E+00
         0.00000E+00
         0.00000E+00
         0.00000E+00
         0.00000E+00
         0.00000E+00
         0.00000E+00
         0.00000E+00
         0.00000E+00
         0.00000E+00
         0.00000E+00
         0.00000E+00
         0.00000E+00
         0.00000E+00
         0.00000E+00
         0.00000E+00
         0.00000E+00
         0.00000E+00
         0.00000E+00
         0.00000E+00
         0.00000E+00
         0.00000E+00
         0.00000E+00
         0.00000E+00
         0.00000E+00
         0.00000E+00
         0.00000E+00
         0.00000E+00
         0.00000E+00
         0.00000E+00
         0.00000E+00
         0.00000E+00
         0.00000E+00
         0.00000E+00
         0.00000E+00
         0.00000E+00
         0.00000E+00
         0.00000E+00
         0.00000E+00
         0.00000E+00
         0.00000E+00
         0.00000E+00
         0.00000E+00
         0.00000E+00
         0.00000E+00
         0.00000E+00
         0.00000E+00
         0.00000E+00
         0.00000E+00
         0.00000E+00
         0.00000E+00
         0.00000E+00
         0.00000E+00
         0.00000E+00
         0.00000E+00
         0.00000E+00
         0.00000E+00
         0.00000E+00
         0.00000E+00
         0.00000E+00
         0.00000E+00
         0.00000E+00
         0.00000E+00
         0.00000E+00
         0.00000E+00
         0.00000E+00
         0.00000E+00
         0.00000E+00
         0.00000E+00
         0.00000E+00
         0.00000E+00
         0.00000E+00
         0.00000E+00
         0.00000E+00
         0.00000E+00
         0.00000E+00
         0.00000E+00
         0.00000E+00
         0.00000E+00
         0.00000E+00
         0.00000E+00
         0.00000E+00
         0.00000E+00
         0.00000E+00
         0.00000E+00
         0.00000E+00
         0.00000E+00
         0.00000E+00
         0.00000E+00
         0.00000E+00
         0.00000E+00
         0.00000E+00
         0.00000E+00
         0.00000E+00
         0.00000E+00
         0.00000E+00
         0.00000E+00
         0.00000E+00
         0.00000E+00
         0.00000E+00
         0.00000E+00
         0.00000E+00
         0.00000E+00
         0.00000E+00
         0.00000E+00
         0.00000E+00
         0.00000E+00
         0.00000E+00
         0.00000E+00
         0.00000E+00
         0.00000E+00
         0.00000E+00
         0.00000E+00
         0.00000E+00
         0.00000E+00
         0.00000E+00
         0.00000E+00
         0.00000E+00
         0.00000E+00
         0.00000E+00
         0.00000E+00
         0.00000E+00
         0.00000E+00
         0.00000E+00
         0.00000E+00
         0.00000E+00
         0.00000E+00
         0.00000E+00
         0.00000E+00
         0.00000E+00
         0.00000E+00
         0.00000E+00
         0.00000E+00
         0.00000E+00
         0.00000E+00
         0.00000E+00
         0.00000E+00
         0.00000E+00
         0.00000E+00
         0.00000E+00
         0.00000E+00
         0.00000E+00
         0.00000E+00
         0.00000E+00
         0.00000E+00
         0.00000E+00
         0.00000E+00
         0.00000E+00
         0.00000E+00
         0.00000E+00
         0.00000E+00
         0.00000E+00
         0.00000E+00
         0.00000E+00
         0.00000E+00
         0.00000E+00
         0.00000E+00
         0.00000E+00
         0.00000E+00
         0.00000E+00
         0.00000E+00
         0.00000E+00
         0.00000E+00
         0.00000E+00
         0.00000E+00
         0.00000E+00
         0.00000E+00
         0.00000E+00
         0.00000E+00
         0.00000E+00
         0.00000E+00
         0.00000E+00
         0.00000E+00
         0.00000E+00
         0.00000E+00
         0.00000E+00
         0.00000E+00
         0.00000E+00
         0.00000E+00
         0.00000E+00
         0.00000E+00
         0.00000E+00
         0.00000E+00
         0.00000E+00
         0.00000E+00
         0.00000E+00
         0.00000E+00
         0.00000E+00
         0.00000E+00
         0.00000E+00
         0.00000E+00
         0.00000E+00
         0.00000E+00
         0.00000E+00
         0.00000E+00
         0.00000E+00
         0.00000E+00
         0.00000E+00
         0.00000E+00
         0.00000E+00
         0.00000E+00
         0.00000E+00
         0.00000E+00
         0.00000E+00
         0.00000E+00
         0.00000E+00
         0.00000E+00
         0.00000E+00
         0.00000E+00
         0.00000E+00
         0.00000E+00
         0.00000E+00
         0.00000E+00
         0.00000E+00
         0.00000E+00
         0.00000E+00
         0.00000E+00
         0.00000E+00
         0.00000E+00
         0.00000E+00
         0.00000E+00
         0.00000E+00
         0.00000E+00
         0.00000E+00
         0.00000E+00
         0.00000E+00
         0.00000E+00
         0.00000E+00
         0.00000E+00
         0.00000E+00
         0.00000E+00
         0.00000E+00
         0.00000E+00
         0.00000E+00
         0.00000E+00
         0.00000E+00
         0.00000E+00
         0.00000E+00
         0.00000E+00
         0.00000E+00
         0.00000E+00
         0.00000E+00
         0.00000E+00
         0.00000E+00
         0.00000E+00
         0.00000E+00
         0.00000E+00
         0.00000E+00
         0.00000E+00
         0.00000E+00
         0.00000E+00
         0.00000E+00
         0.00000E+00
         0.00000E+00
         0.00000E+00
         0.00000E+00
         0.00000E+00
         0.00000E+00
         0.00000E+00
         0.00000E+00
         0.00000E+00
         0.00000E+00
         0.00000E+00
         0.00000E+00
         0.00000E+00
         0.00000E+00
         0.00000E+00
         0.00000E+00
         0.00000E+00
         0.00000E+00
         0.00000E+00
         0.00000E+00
         0.00000E+00
         0.00000E+00
         0.00000E+00
         0.00000E+00
         0.00000E+00
         0.00000E+00
         0.00000E+00
         0.00000E+00
         0.00000E+00
         0.00000E+00
         0.00000E+00
         0.00000E+00
         0.00000E+00
         0.00000E+00
         0.00000E+00
         0.00000E+00
         0.00000E+00
         0.00000E+00
         0.00000E+00
         0.00000E+00
         0.00000E+00
         0.00000E+00
         0.00000E+00
         0.00000E+00
         0.00000E+00
         0.00000E+00
         0.00000E+00
         0.00000E+00
         0.00000E+00
         0.00000E+00
         0.00000E+00
         0.00000E+00
         0.00000E+00
         0.00000E+00
         0.00000E+00
         0.00000E+00
         0.00000E+00
         0.00000E+00
         0.00000E+00
         0.00000E+00
         0.00000E+00
         0.00000E+00
         0.00000E+00
         0.00000E+00
         0.00000E+00
         0.00000E+00
         0.00000E+00
         0.00000E+00
         0.00000E+00
         0.00000E+00
         0.00000E+00
         0.00000E+00
         0.00000E+00
         0.00000E+00
         0.00000E+00
         0.00000E+00
         0.00000E+00
         0.00000E+00
         0.00000E+00
         0.00000E+00
         0.00000E+00
         0.00000E+00
         0.00000E+00
         0.00000E+00
         0.00000E+00
         0.00000E+00
         0.00000E+00
         0.00000E+00
         0.00000E+00
         0.00000E+00
         0.00000E+00
         0.00000E+00
         0.00000E+00
         0.00000E+00
         0.00000E+00
         0.00000E+00
         0.00000E+00
         0.00000E+00
         0.00000E+00
         0.00000E+00
         0.00000E+00
         0.00000E+00
         0.00000E+00
         0.00000E+00
         0.00000E+00
         0.00000E+00
         0.00000E+00
         0.00000E+00
         0.00000E+00
         0.00000E+00
         0.00000E+00
         0.00000E+00
         0.00000E+00
         0.00000E+00
         0.00000E+00
         0.00000E+00
         0.00000E+00
         0.00000E+00
         0.00000E+00
         0.00000E+00
         0.00000E+00
         0.00000E+00
         0.00000E+00
         0.00000E+00
         0.00000E+00
         0.00000E+00
         0.00000E+00
         0.00000E+00
         0.00000E+00
         0.00000E+00
         0.00000E+00
         0.00000E+00
         0.00000E+00
         0.00000E+00
         0.00000E+00
         0.00000E+00
         0.00000E+00
         0.00000E+00
         0.00000E+00
         0.00000E+00
         0.00000E+00
         0.00000E+00
         0.00000E+00
         0.00000E+00
         0.00000E+00
         0.00000E+00
         0.00000E+00
         0.00000E+00
         0.00000E+00
         0.00000E+00
         0.00000E+00
         0.00000E+00
         0.00000E+00
         0.00000E+00
         0.00000E+00
         0.00000E+00
         0.00000E+00
         0.00000E+00
         0.00000E+00
         0.00000E+00
         0.00000E+00
         0.00000E+00
         0.00000E+00
         0.00000E+00
         0.00000E+00
         0.00000E+00
         0.00000E+00
         0.00000E+00
         0.00000E+00
         0.00000E+00
         0.00000E+00
         0.00000E+00
         0.00000E+00
         0.00000E+00
         0.00000E+00
         0.00000E+00
         0.00000E+00
         0.00000E+00
         0.00000E+00
         0.00000E+00
         0.00000E+00
         0.00000E+00
         0.00000E+00
         0.00000E+00
         0.00000E+00
         0.00000E+00
         0.00000E+00
         0.00000E+00
         0.00000E+00
         0.00000E+00
         0.00000E+00
         0.00000E+00
         0.00000E+00
         0.00000E+00
         0.00000E+00
         0.00000E+00
         0.00000E+00
         0.00000E+00
         0.00000E+00
         0.00000E+00
         0.00000E+00
         0.00000E+00
         0.00000E+00
         0.00000E+00
         0.00000E+00
         0.00000E+00
         0.00000E+00
         0.00000E+00
         0.00000E+00
         0.00000E+00
         0.00000E+00
         0.00000E+00
         0.00000E+00
         0.00000E+00
         0.00000E+00
         0.00000E+00
         0.00000E+00
         0.00000E+00
         0.00000E+00
         0.00000E+00
         0.00000E+00
         0.00000E+00
         0.00000E+00
         0.00000E+00
         0.00000E+00
         0.00000E+00
         0.00000E+00
         0.00000E+00
         0.00000E+00
         0.00000E+00
         0.00000E+00
         0.00000E+00
         0.00000E+00
         0.00000E+00
         0.00000E+00
         0.00000E+00
         0.00000E+00
         0.00000E+00
         0.00000E+00
         0.00000E+00
         0.00000E+00
         0.00000E+00
         0.00000E+00
         0.00000E+00
         0.00000E+00
         0.00000E+00
         0.00000E+00
         0.00000E+00
         0.00000E+00
         0.00000E+00
         0.00000E+00
         0.00000E+00
         0.00000E+00
         0.00000E+00
         0.00000E+00
         0.00000E+00
         0.00000E+00
         0.00000E+00
         0.00000E+00
         0.00000E+00
         0.00000E+00
         0.00000E+00
         0.00000E+00
         0.00000E+00
         0.00000E+00
         0.00000E+00
         0.00000E+00
         0.00000E+00
         0.00000E+00
         0.00000E+00
         0.00000E+00
         0.00000E+00
         0.00000E+00
         0.00000E+00
         0.00000E+00
         0.00000E+00
         0.00000E+00
         0.00000E+00
         0.00000E+00
         0.00000E+00
         0.00000E+00
         0.00000E+00
         0.00000E+00
         0.00000E+00
         0.00000E+00
         0.00000E+00
         0.00000E+00
         0.00000E+00
         0.00000E+00
         0.00000E+00
         0.00000E+00
         0.00000E+00
         0.00000E+00
         0.00000E+00
         0.00000E+00
         0.00000E+00
         0.00000E+00
         0.00000E+00
         0.00000E+00
         0.00000E+00
         0.00000E+00
         0.00000E+00
         0.00000E+00
         0.00000E+00
         0.00000E+00
         0.00000E+00
         0.00000E+00
         0.00000E+00
         0.00000E+00
         0.00000E+00
         0.00000E+00
         0.00000E+00
         0.00000E+00
         0.00000E+00
         0.00000E+00
         0.00000E+00
         0.00000E+00
         0.00000E+00
         0.00000E+00
         0.00000E+00
         0.00000E+00
         0.00000E+00
         0.00000E+00
         0.00000E+00
         0.00000E+00
         0.00000E+00
         0.00000E+00
         0.00000E+00
         0.00000E+00
         0.00000E+00
         0.00000E+00
         0.00000E+00
         0.00000E+00
         0.00000E+00
         0.00000E+00
         0.00000E+00
         0.00000E+00
         0.00000E+00
         0.00000E+00
         0.00000E+00
         0.00000E+00
         0.00000E+00
         0.00000E+00
         0.00000E+00
         0.00000E+00
         0.00000E+00
         0.00000E+00
         0.00000E+00
         0.00000E+00
         0.00000E+00
         0.00000E+00
         0.00000E+00
         0.00000E+00
         0.00000E+00
         0.00000E+00
         0.00000E+00
         0.00000E+00
         0.00000E+00
         0.00000E+00
         0.00000E+00
         0.00000E+00
         0.00000E+00
         0.00000E+00
         0.00000E+00
         0.00000E+00
         0.00000E+00
         0.00000E+00
         0.00000E+00
         0.00000E+00
         0.00000E+00
         0.00000E+00
         0.00000E+00
         0.00000E+00
         0.00000E+00
         0.00000E+00
         0.00000E+00
         0.00000E+00
         0.00000E+00
         0.00000E+00
         0.00000E+00
         0.00000E+00
         0.00000E+00
         0.00000E+00
         0.00000E+00
         0.00000E+00
         0.00000E+00
         0.00000E+00
         0.00000E+00
         0.00000E+00
         0.00000E+00
         0.00000E+00
         0.00000E+00
         0.00000E+00
         0.00000E+00
         0.00000E+00
         0.00000E+00
         0.00000E+00
         0.00000E+00
         0.00000E+00
         0.00000E+00
         0.00000E+00
         0.00000E+00
         0.00000E+00
         0.00000E+00
         0.00000E+00
         0.00000E+00
         0.00000E+00
         0.00000E+00
         0.00000E+00
         0.00000E+00
         0.00000E+00
         0.00000E+00
         0.00000E+00
         0.00000E+00
         0.00000E+00
         0.00000E+00
         0.00000E+00
         0.00000E+00
         0.00000E+00
         0.00000E+00
         0.00000E+00
         0.00000E+00
         0.00000E+00
         0.00000E+00
         0.00000E+00
         0.00000E+00
         0.00000E+00
         0.00000E+00
         0.00000E+00
         0.00000E+00
         0.00000E+00
         0.00000E+00
         0.00000E+00
         0.00000E+00
         0.00000E+00
         0.00000E+00
         0.00000E+00
         0.00000E+00
         0.00000E+00
         0.00000E+00
         0.00000E+00
         0.00000E+00
         0.00000E+00
         0.00000E+00
         0.00000E+00
         0.00000E+00
         0.00000E+00
         0.00000E+00
         0.00000E+00
         0.00000E+00
         0.00000E+00
         0.00000E+00
         0.00000E+00
         0.00000E+00
         0.00000E+00
         0.00000E+00
         0.00000E+00
         0.00000E+00
         0.00000E+00
         0.00000E+00
         0.00000E+00
         0.00000E+00
         0.00000E+00
         0.00000E+00
         0.00000E+00
         0.00000E+00
         0.00000E+00
         0.00000E+00
         0.00000E+00
         0.00000E+00
         0.00000E+00
         0.00000E+00
         0.00000E+00
         0.00000E+00
         0.00000E+00
         0.00000E+00
         0.00000E+00
         0.00000E+00
         0.00000E+00
         0.00000E+00
         0.00000E+00
         0.00000E+00
         0.00000E+00
         0.00000E+00
         0.00000E+00
         0.00000E+00
         0.00000E+00
         0.00000E+00
         0.00000E+00
         0.00000E+00
         0.00000E+00
         0.00000E+00
         0.00000E+00
         0.00000E+00
         0.00000E+00
         0.00000E+00
         0.00000E+00
         0.00000E+00
         0.00000E+00
         0.00000E+00
         0.00000E+00
         0.00000E+00
         0.00000E+00
         0.00000E+00
         0.00000E+00
         0.00000E+00
         0.00000E+00
         0.00000E+00
         0.00000E+00
         0.00000E+00
         0.00000E+00
         0.00000E+00
         0.00000E+00
         0.00000E+00
         0.00000E+00
         0.00000E+00
         0.00000E+00
         0.00000E+00
         0.00000E+00
         0.00000E+00
         0.00000E+00
         0.00000E+00
         0.00000E+00
         0.00000E+00
         0.00000E+00
         0.00000E+00
         0.00000E+00
         0.00000E+00
         0.00000E+00
         0.00000E+00
         0.00000E+00
         0.00000E+00
         0.00000E+00
         0.00000E+00
         0.00000E+00
         0.00000E+00
         0.00000E+00
         0.00000E+00
         0.00000E+00
         0.00000E+00
         0.00000E+00
         0.00000E+00
         0.00000E+00
         0.00000E+00
         0.00000E+00
         0.00000E+00
         0.00000E+00
         0.00000E+00
         0.00000E+00
         0.00000E+00
         0.00000E+00
         0.00000E+00
         0.00000E+00
         0.00000E+00
         0.00000E+00
         0.00000E+00
         0.00000E+00
         0.00000E+00
         0.00000E+00
         0.00000E+00
         0.00000E+00
         0.00000E+00
         0.00000E+00
         0.00000E+00
         0.00000E+00
         0.00000E+00
         0.00000E+00
         0.00000E+00
         0.00000E+00
         0.00000E+00
         0.00000E+00
         0.00000E+00
         0.00000E+00
  
SCALARS           initial_coordinate_x  double 1
LOOKUP_TABLE default
         0.10378E-02
         0.17452E-02
         0.23177E-02
         0.16698E-02
         0.10379E-02
         0.17453E-02
         0.23178E-02
         0.16700E-02
         0.30377E-02
         0.27791E-02
         0.30377E-02
         0.27788E-02
         0.12850E-02
         0.65139E-03
         0.12851E-02
         0.65164E-03
         0.12757E-03
        -0.12822E-03
         0.12783E-03
        -0.12804E-03
         0.94500E-03
         0.11327E-02
         0.17490E-02
         0.94533E-03
         0.11330E-02
         0.17494E-02
         0.40588E-03
         0.39779E-03
         0.40594E-03
         0.39781E-03
        -0.76303E-03
        -0.86604E-03
         0.46119E-03
        -0.76268E-03
        -0.86593E-03
         0.46164E-03
        -0.18300E-02
        -0.18440E-02
        -0.18297E-02
        -0.18441E-02
        -0.27238E-02
        -0.28028E-02
        -0.27238E-02
        -0.28031E-02
        -0.25365E-02
        -0.19287E-02
        -0.25363E-02
        -0.19283E-02
        -0.99363E-03
        -0.99377E-03
        -0.14380E-02
        -0.14377E-02
        -0.31574E-03
        -0.31594E-03
        -0.11068E-02
        -0.11071E-02
        -0.18845E-02
        -0.18713E-02
        -0.18846E-02
        -0.18714E-02
        -0.15871E-03
        -0.94089E-03
        -0.15844E-03
        -0.94029E-03
         0.78856E-03
         0.78922E-03
         0.17211E-02
         0.17211E-02
         0.32050E-02
         0.28046E-02
         0.32047E-02
         0.28047E-02
         0.23059E-02
         0.23060E-02
        -0.40614E-03
        -0.40627E-03
        -0.12092E-02
        -0.12092E-02
        -0.19448E-02
        -0.19448E-02
        -0.25029E-02
        -0.26371E-02
        -0.25029E-02
        -0.26372E-02
        -0.27671E-02
        -0.27674E-02
        -0.21123E-02
        -0.21122E-02
        -0.16087E-02
        -0.16087E-02
        -0.11939E-02
        -0.58641E-03
        -0.11937E-02
        -0.58606E-03
         0.20912E-03
         0.20952E-03
         0.10586E-02
         0.10589E-02
         0.18413E-02
         0.18413E-02
         0.24544E-02
         0.26022E-02
         0.24543E-02
         0.26021E-02
         0.37964E-02
         0.39100E-02
         0.37964E-02
         0.39100E-02
         0.34621E-02
         0.34621E-02
         0.29267E-02
         0.29267E-02
         0.22211E-02
         0.22211E-02
         0.13865E-02
         0.13865E-02
         0.47130E-03
         0.47130E-03
        -0.47130E-03
        -0.47130E-03
        -0.13865E-02
        -0.13865E-02
        -0.22211E-02
        -0.22211E-02
        -0.29267E-02
        -0.29267E-02
        -0.34621E-02
        -0.34621E-02
        -0.37964E-02
        -0.37964E-02
        -0.39100E-02
        -0.39100E-02
        -0.37964E-02
        -0.37964E-02
        -0.34621E-02
        -0.34621E-02
        -0.29267E-02
        -0.29267E-02
        -0.22211E-02
        -0.22211E-02
        -0.13865E-02
        -0.13865E-02
        -0.47130E-03
        -0.47130E-03
         0.47130E-03
         0.47130E-03
         0.13865E-02
         0.13865E-02
         0.22211E-02
         0.22211E-02
         0.29267E-02
         0.29267E-02
         0.34621E-02
         0.34621E-02
         0.37964E-02
         0.37964E-02
         0.10376E-02
         0.17450E-02
         0.23175E-02
         0.16696E-02
         0.30377E-02
         0.27795E-02
         0.12849E-02
         0.65115E-03
         0.12731E-03
        -0.12841E-03
         0.94467E-03
         0.11323E-02
         0.17487E-02
         0.40583E-03
         0.39777E-03
        -0.76338E-03
        -0.86615E-03
         0.46074E-03
        -0.18303E-02
        -0.18439E-02
        -0.27238E-02
        -0.28025E-02
        -0.25366E-02
        -0.19292E-02
        -0.99349E-03
        -0.14384E-02
        -0.31554E-03
        -0.11064E-02
        -0.18845E-02
        -0.18712E-02
        -0.15899E-03
        -0.94149E-03
         0.78790E-03
         0.17210E-02
         0.32053E-02
         0.28046E-02
         0.23058E-02
        -0.40600E-03
        -0.12092E-02
        -0.19447E-02
        -0.25028E-02
        -0.26370E-02
        -0.27668E-02
        -0.21125E-02
        -0.16088E-02
        -0.11940E-02
        -0.58676E-03
         0.20871E-03
         0.10583E-02
         0.18413E-02
         0.24545E-02
         0.26022E-02
         0.37964E-02
         0.39100E-02
         0.34621E-02
         0.29267E-02
         0.22211E-02
         0.13865E-02
         0.47130E-03
        -0.47130E-03
        -0.13865E-02
        -0.22211E-02
        -0.29267E-02
        -0.34621E-02
        -0.37964E-02
        -0.39100E-02
        -0.37964E-02
        -0.34621E-02
        -0.29267E-02
        -0.22211E-02
        -0.13865E-02
        -0.47130E-03
         0.47130E-03
         0.13865E-02
         0.22211E-02
         0.29267E-02
         0.34621E-02
         0.37964E-02
         0.10375E-02
         0.17448E-02
         0.23174E-02
         0.16694E-02
         0.30377E-02
         0.27798E-02
         0.12848E-02
         0.65090E-03
         0.12705E-03
        -0.12859E-03
         0.94434E-03
         0.11320E-02
         0.17483E-02
         0.40577E-03
         0.39776E-03
        -0.76374E-03
        -0.86626E-03
         0.46029E-03
        -0.18306E-02
        -0.18438E-02
        -0.27238E-02
        -0.28022E-02
        -0.25368E-02
        -0.19296E-02
        -0.99334E-03
        -0.14387E-02
        -0.31534E-03
        -0.11061E-02
        -0.18844E-02
        -0.18710E-02
        -0.15926E-03
        -0.94209E-03
         0.78724E-03
         0.17210E-02
         0.32056E-02
         0.28046E-02
         0.23057E-02
        -0.40586E-03
        -0.12092E-02
        -0.19447E-02
        -0.25028E-02
        -0.26369E-02
        -0.27665E-02
        -0.21126E-02
        -0.16088E-02
        -0.11941E-02
        -0.58711E-03
         0.20830E-03
         0.10580E-02
         0.18414E-02
         0.24546E-02
         0.26023E-02
         0.37964E-02
         0.39100E-02
         0.34621E-02
         0.29267E-02
         0.22211E-02
         0.13865E-02
         0.47130E-03
        -0.47130E-03
        -0.13865E-02
        -0.22211E-02
        -0.29267E-02
        -0.34621E-02
        -0.37964E-02
        -0.39100E-02
        -0.37964E-02
        -0.34621E-02
        -0.29267E-02
        -0.22211E-02
        -0.13865E-02
        -0.47130E-03
         0.47130E-03
         0.13865E-02
         0.22211E-02
         0.29267E-02
         0.34621E-02
         0.37964E-02
         0.10374E-02
         0.17446E-02
         0.23173E-02
         0.16692E-02
         0.30376E-02
         0.27801E-02
         0.12847E-02
         0.65065E-03
         0.12678E-03
        -0.12878E-03
         0.94401E-03
         0.11316E-02
         0.17479E-02
         0.40572E-03
         0.39774E-03
        -0.76409E-03
        -0.86637E-03
         0.45985E-03
        -0.18309E-02
        -0.18437E-02
        -0.27237E-02
        -0.28020E-02
        -0.25369E-02
        -0.19300E-02
        -0.99320E-03
        -0.14391E-02
        -0.31514E-03
        -0.11057E-02
        -0.18844E-02
        -0.18709E-02
        -0.15954E-03
        -0.94269E-03
         0.78658E-03
         0.17209E-02
         0.32060E-02
         0.28046E-02
         0.23056E-02
        -0.40572E-03
        -0.12092E-02
        -0.19446E-02
        -0.25028E-02
        -0.26368E-02
        -0.27662E-02
        -0.21128E-02
        -0.16088E-02
        -0.11942E-02
        -0.58746E-03
         0.20790E-03
         0.10577E-02
         0.18414E-02
         0.24548E-02
         0.26024E-02
         0.37964E-02
         0.39100E-02
         0.34621E-02
         0.29267E-02
         0.22211E-02
         0.13865E-02
         0.47130E-03
        -0.47130E-03
        -0.13865E-02
        -0.22211E-02
        -0.29267E-02
        -0.34621E-02
        -0.37964E-02
        -0.39100E-02
        -0.37964E-02
        -0.34621E-02
        -0.29267E-02
        -0.22211E-02
        -0.13865E-02
        -0.47130E-03
         0.47130E-03
         0.13865E-02
         0.22211E-02
         0.29267E-02
         0.34621E-02
         0.37964E-02
         0.10373E-02
         0.17445E-02
         0.23172E-02
         0.16689E-02
         0.30376E-02
         0.27805E-02
         0.12846E-02
         0.65041E-03
         0.12652E-03
        -0.12896E-03
         0.94367E-03
         0.11313E-02
         0.17475E-02
         0.40566E-03
         0.39772E-03
        -0.76444E-03
        -0.86648E-03
         0.45940E-03
        -0.18312E-02
        -0.18436E-02
        -0.27237E-02
        -0.28017E-02
        -0.25371E-02
        -0.19305E-02
        -0.99305E-03
        -0.14394E-02
        -0.31494E-03
        -0.11054E-02
        -0.18843E-02
        -0.18708E-02
        -0.15981E-03
        -0.94328E-03
         0.78592E-03
         0.17209E-02
         0.32063E-02
         0.28045E-02
         0.23055E-02
        -0.40558E-03
        -0.12092E-02
        -0.19446E-02
        -0.25027E-02
        -0.26367E-02
        -0.27658E-02
        -0.21129E-02
        -0.16089E-02
        -0.11943E-02
        -0.58781E-03
         0.20749E-03
         0.10574E-02
         0.18415E-02
         0.24549E-02
         0.26025E-02
         0.37964E-02
         0.39100E-02
         0.34621E-02
         0.29267E-02
         0.22211E-02
         0.13865E-02
         0.47130E-03
        -0.47130E-03
        -0.13865E-02
        -0.22211E-02
        -0.29267E-02
        -0.34621E-02
        -0.37964E-02
        -0.39100E-02
        -0.37964E-02
        -0.34621E-02
        -0.29267E-02
        -0.22211E-02
        -0.13865E-02
        -0.47130E-03
         0.47130E-03
         0.13865E-02
         0.22211E-02
         0.29267E-02
         0.34621E-02
         0.37964E-02
         0.10372E-02
         0.17443E-02
         0.23171E-02
         0.16687E-02
         0.30376E-02
         0.27808E-02
         0.12845E-02
         0.65016E-03
         0.12626E-03
        -0.12915E-03
         0.94334E-03
         0.11310E-02
         0.17471E-02
         0.40561E-03
         0.39770E-03
        -0.76480E-03
        -0.86659E-03
         0.45895E-03
        -0.18315E-02
        -0.18435E-02
        -0.27237E-02
        -0.28014E-02
        -0.25372E-02
        -0.19309E-02
        -0.99291E-03
        -0.14398E-02
        -0.31474E-03
        -0.11051E-02
        -0.18843E-02
        -0.18706E-02
        -0.16009E-03
        -0.94388E-03
         0.78526E-03
         0.17208E-02
         0.32066E-02
         0.28045E-02
         0.23053E-02
        -0.40545E-03
        -0.12092E-02
        -0.19446E-02
        -0.25027E-02
        -0.26366E-02
        -0.27655E-02
        -0.21130E-02
        -0.16089E-02
        -0.11944E-02
        -0.58816E-03
         0.20709E-03
         0.10571E-02
         0.18415E-02
         0.24550E-02
         0.26025E-02
         0.37964E-02
         0.39100E-02
         0.34621E-02
         0.29267E-02
         0.22211E-02
         0.13865E-02
         0.47130E-03
        -0.47130E-03
        -0.13865E-02
        -0.22211E-02
        -0.29267E-02
        -0.34621E-02
        -0.37964E-02
        -0.39100E-02
        -0.37964E-02
        -0.34621E-02
        -0.29267E-02
        -0.22211E-02
        -0.13865E-02
        -0.47130E-03
         0.47130E-03
         0.13865E-02
         0.22211E-02
         0.29267E-02
         0.34621E-02
         0.37964E-02
         0.10371E-02
         0.17441E-02
         0.23169E-02
         0.16685E-02
         0.30376E-02
         0.27812E-02
         0.12844E-02
         0.64992E-03
         0.12600E-03
        -0.12933E-03
         0.94301E-03
         0.11306E-02
         0.17467E-02
         0.40556E-03
         0.39769E-03
        -0.76515E-03
        -0.86670E-03
         0.45850E-03
        -0.18318E-02
        -0.18434E-02
        -0.27236E-02
        -0.28011E-02
        -0.25374E-02
        -0.19313E-02
        -0.99277E-03
        -0.14401E-02
        -0.31454E-03
        -0.11047E-02
        -0.18842E-02
        -0.18705E-02
        -0.16036E-03
        -0.94448E-03
         0.78460E-03
         0.17208E-02
         0.32070E-02
         0.28045E-02
         0.23052E-02
        -0.40531E-03
        -0.12092E-02
        -0.19445E-02
        -0.25027E-02
        -0.26366E-02
        -0.27652E-02
        -0.21132E-02
        -0.16090E-02
        -0.11946E-02
        -0.58851E-03
         0.20668E-03
         0.10567E-02
         0.18416E-02
         0.24551E-02
         0.26026E-02
         0.37964E-02
         0.39100E-02
         0.34621E-02
         0.29267E-02
         0.22211E-02
         0.13865E-02
         0.47130E-03
        -0.47130E-03
        -0.13865E-02
        -0.22211E-02
        -0.29267E-02
        -0.34621E-02
        -0.37964E-02
        -0.39100E-02
        -0.37964E-02
        -0.34621E-02
        -0.29267E-02
        -0.22211E-02
        -0.13865E-02
        -0.47130E-03
         0.47130E-03
         0.13865E-02
         0.22211E-02
         0.29267E-02
         0.34621E-02
         0.37964E-02
         0.10370E-02
         0.17439E-02
         0.23168E-02
         0.16683E-02
         0.30375E-02
         0.27815E-02
         0.12843E-02
         0.64967E-03
         0.12573E-03
        -0.12952E-03
         0.94268E-03
         0.11303E-02
         0.17463E-02
         0.40550E-03
         0.39767E-03
        -0.76551E-03
        -0.86680E-03
         0.45806E-03
        -0.18321E-02
        -0.18433E-02
        -0.27236E-02
        -0.28009E-02
        -0.25375E-02
        -0.19317E-02
        -0.99262E-03
        -0.14405E-02
        -0.31434E-03
        -0.11044E-02
        -0.18842E-02
        -0.18704E-02
        -0.16064E-03
        -0.94508E-03
         0.78394E-03
         0.17208E-02
         0.32073E-02
         0.28045E-02
         0.23051E-02
        -0.40517E-03
        -0.12092E-02
        -0.19445E-02
        -0.25026E-02
        -0.26365E-02
        -0.27649E-02
        -0.21133E-02
        -0.16090E-02
        -0.11947E-02
        -0.58886E-03
         0.20627E-03
         0.10564E-02
         0.18416E-02
         0.24553E-02
         0.26027E-02
         0.37964E-02
         0.39100E-02
         0.34621E-02
         0.29267E-02
         0.22211E-02
         0.13865E-02
         0.47130E-03
        -0.47130E-03
        -0.13865E-02
        -0.22211E-02
        -0.29267E-02
        -0.34621E-02
        -0.37964E-02
        -0.39100E-02
        -0.37964E-02
        -0.34621E-02
        -0.29267E-02
        -0.22211E-02
        -0.13865E-02
        -0.47130E-03
         0.47130E-03
         0.13865E-02
         0.22211E-02
         0.29267E-02
         0.34621E-02
         0.37964E-02
         0.10368E-02
         0.17438E-02
         0.23167E-02
         0.16681E-02
         0.30375E-02
         0.27819E-02
         0.12842E-02
         0.64943E-03
         0.12547E-03
        -0.12970E-03
         0.94235E-03
         0.11300E-02
         0.17459E-02
         0.40545E-03
         0.39766E-03
        -0.76586E-03
        -0.86691E-03
         0.45761E-03
        -0.18324E-02
        -0.18432E-02
        -0.27236E-02
        -0.28006E-02
        -0.25377E-02
        -0.19322E-02
        -0.99248E-03
        -0.14408E-02
        -0.31414E-03
        -0.11040E-02
        -0.18841E-02
        -0.18703E-02
        -0.16091E-03
        -0.94568E-03
         0.78328E-03
         0.17207E-02
         0.32076E-02
         0.28044E-02
         0.23050E-02
        -0.40503E-03
        -0.12092E-02
        -0.19445E-02
        -0.25026E-02
        -0.26364E-02
        -0.27646E-02
        -0.21134E-02
        -0.16091E-02
        -0.11948E-02
        -0.58921E-03
         0.20587E-03
         0.10561E-02
         0.18416E-02
         0.24554E-02
         0.26027E-02
         0.37964E-02
         0.39100E-02
         0.34621E-02
         0.29267E-02
         0.22211E-02
         0.13865E-02
         0.47130E-03
        -0.47130E-03
        -0.13865E-02
        -0.22211E-02
        -0.29267E-02
        -0.34621E-02
        -0.37964E-02
        -0.39100E-02
        -0.37964E-02
        -0.34621E-02
        -0.29267E-02
        -0.22211E-02
        -0.13865E-02
        -0.47130E-03
         0.47130E-03
         0.13865E-02
         0.22211E-02
         0.29267E-02
         0.34621E-02
         0.37964E-02
         0.10367E-02
         0.17436E-02
         0.23166E-02
         0.16679E-02
         0.30375E-02
         0.27822E-02
         0.12841E-02
         0.64918E-03
         0.12521E-03
        -0.12989E-03
         0.94202E-03
         0.11296E-02
         0.17455E-02
         0.40539E-03
         0.39764E-03
        -0.76621E-03
        -0.86702E-03
         0.45716E-03
        -0.18326E-02
        -0.18431E-02
        -0.27235E-02
        -0.28003E-02
        -0.25379E-02
        -0.19326E-02
        -0.99233E-03
        -0.14412E-02
        -0.31394E-03
        -0.11037E-02
        -0.18841E-02
        -0.18701E-02
        -0.16119E-03
        -0.94628E-03
         0.78262E-03
         0.17207E-02
         0.32079E-02
         0.28044E-02
         0.23049E-02
        -0.40490E-03
        -0.12093E-02
        -0.19444E-02
        -0.25026E-02
        -0.26363E-02
        -0.27643E-02
        -0.21136E-02
        -0.16091E-02
        -0.11949E-02
        -0.58956E-03
         0.20546E-03
         0.10558E-02
         0.18417E-02
         0.24555E-02
         0.26028E-02
         0.37964E-02
         0.39100E-02
         0.34621E-02
         0.29267E-02
         0.22211E-02
         0.13865E-02
         0.47130E-03
        -0.47130E-03
        -0.13865E-02
        -0.22211E-02
        -0.29267E-02
        -0.34621E-02
        -0.37964E-02
        -0.39100E-02
        -0.37964E-02
        -0.34621E-02
        -0.29267E-02
        -0.22211E-02
        -0.13865E-02
        -0.47130E-03
         0.47130E-03
         0.13865E-02
         0.22211E-02
         0.29267E-02
         0.34621E-02
         0.37964E-02
         0.10366E-02
         0.17434E-02
         0.23164E-02
         0.16677E-02
         0.30375E-02
         0.27825E-02
         0.12840E-02
         0.64894E-03
         0.12495E-03
        -0.13007E-03
         0.94169E-03
         0.11293E-02
         0.17451E-02
         0.40534E-03
         0.39762E-03
        -0.76657E-03
        -0.86713E-03
         0.45671E-03
        -0.18329E-02
        -0.18430E-02
        -0.27235E-02
        -0.28001E-02
        -0.25380E-02
        -0.19330E-02
        -0.99219E-03
        -0.14415E-02
        -0.31374E-03
        -0.11033E-02
        -0.18840E-02
        -0.18700E-02
        -0.16146E-03
        -0.94687E-03
         0.78195E-03
         0.17207E-02
         0.32083E-02
         0.28044E-02
         0.23048E-02
        -0.40476E-03
        -0.12093E-02
        -0.19444E-02
        -0.25026E-02
        -0.26362E-02
        -0.27640E-02
        -0.21137E-02
        -0.16091E-02
        -0.11950E-02
        -0.58991E-03
         0.20505E-03
         0.10555E-02
         0.18417E-02
         0.24556E-02
         0.26029E-02
         0.37964E-02
         0.39100E-02
         0.34621E-02
         0.29267E-02
         0.22211E-02
         0.13865E-02
         0.47130E-03
        -0.47130E-03
        -0.13865E-02
        -0.22211E-02
        -0.29267E-02
        -0.34621E-02
        -0.37964E-02
        -0.39100E-02
        -0.37964E-02
        -0.34621E-02
        -0.29267E-02
        -0.22211E-02
        -0.13865E-02
        -0.47130E-03
         0.47130E-03
         0.13865E-02
         0.22211E-02
         0.29267E-02
         0.34621E-02
         0.37964E-02
         0.10365E-02
         0.17432E-02
         0.23163E-02
         0.16675E-02
         0.30374E-02
         0.27829E-02
         0.12839E-02
         0.64869E-03
         0.12468E-03
        -0.13026E-03
         0.94135E-03
         0.11289E-02
         0.17447E-02
         0.40528E-03
         0.39760E-03
        -0.76692E-03
        -0.86724E-03
         0.45626E-03
        -0.18332E-02
        -0.18430E-02
        -0.27235E-02
        -0.27998E-02
        -0.25382E-02
        -0.19334E-02
        -0.99205E-03
        -0.14419E-02
        -0.31354E-03
        -0.11030E-02
        -0.18840E-02
        -0.18699E-02
        -0.16174E-03
        -0.94747E-03
         0.78129E-03
         0.17206E-02
         0.32086E-02
         0.28044E-02
         0.23047E-02
        -0.40462E-03
        -0.12093E-02
        -0.19444E-02
        -0.25025E-02
        -0.26361E-02
        -0.27637E-02
        -0.21139E-02
        -0.16092E-02
        -0.11951E-02
        -0.59025E-03
         0.20465E-03
         0.10552E-02
         0.18418E-02
         0.24558E-02
         0.26030E-02
         0.37964E-02
         0.39100E-02
         0.34621E-02
         0.29267E-02
         0.22211E-02
         0.13865E-02
         0.47130E-03
        -0.47130E-03
        -0.13865E-02
        -0.22211E-02
        -0.29267E-02
        -0.34621E-02
        -0.37964E-02
        -0.39100E-02
        -0.37964E-02
        -0.34621E-02
        -0.29267E-02
        -0.22211E-02
        -0.13865E-02
        -0.47130E-03
         0.47130E-03
         0.13865E-02
         0.22211E-02
         0.29267E-02
         0.34621E-02
         0.37964E-02
         0.10364E-02
         0.17430E-02
         0.23162E-02
         0.16672E-02
         0.30374E-02
         0.27832E-02
         0.12838E-02
         0.64845E-03
         0.12442E-03
        -0.13044E-03
         0.94102E-03
         0.11286E-02
         0.17443E-02
         0.40523E-03
         0.39759E-03
        -0.76727E-03
        -0.86735E-03
         0.45582E-03
        -0.18335E-02
        -0.18429E-02
        -0.27235E-02
        -0.27995E-02
        -0.25383E-02
        -0.19339E-02
        -0.99190E-03
        -0.14422E-02
        -0.31334E-03
        -0.11026E-02
        -0.18839E-02
        -0.18697E-02
        -0.16201E-03
        -0.94807E-03
         0.78063E-03
         0.17206E-02
         0.32089E-02
         0.28043E-02
         0.23046E-02
        -0.40448E-03
        -0.12093E-02
        -0.19443E-02
        -0.25025E-02
        -0.26360E-02
        -0.27633E-02
        -0.21140E-02
        -0.16092E-02
        -0.11953E-02
        -0.59060E-03
         0.20424E-03
         0.10549E-02
         0.18418E-02
         0.24559E-02
         0.26030E-02
         0.37964E-02
         0.39100E-02
         0.34621E-02
         0.29267E-02
         0.22211E-02
         0.13865E-02
         0.47130E-03
        -0.47130E-03
        -0.13865E-02
        -0.22211E-02
        -0.29267E-02
        -0.34621E-02
        -0.37964E-02
        -0.39100E-02
        -0.37964E-02
        -0.34621E-02
        -0.29267E-02
        -0.22211E-02
        -0.13865E-02
        -0.47130E-03
         0.47130E-03
         0.13865E-02
         0.22211E-02
         0.29267E-02
         0.34621E-02
         0.37964E-02
         0.10363E-02
         0.17429E-02
         0.23161E-02
         0.16670E-02
         0.30374E-02
         0.27836E-02
         0.12837E-02
         0.64820E-03
         0.12416E-03
        -0.13063E-03
         0.94069E-03
         0.11282E-02
         0.17439E-02
         0.40518E-03
         0.39757E-03
        -0.76763E-03
        -0.86746E-03
         0.45537E-03
        -0.18338E-02
        -0.18428E-02
        -0.27234E-02
        -0.27992E-02
        -0.25385E-02
        -0.19343E-02
        -0.99176E-03
        -0.14425E-02
        -0.31314E-03
        -0.11023E-02
        -0.18839E-02
        -0.18696E-02
        -0.16229E-03
        -0.94867E-03
         0.77997E-03
         0.17205E-02
         0.32092E-02
         0.28043E-02
         0.23044E-02
        -0.40434E-03
        -0.12093E-02
        -0.19443E-02
        -0.25025E-02
        -0.26359E-02
        -0.27630E-02
        -0.21141E-02
        -0.16093E-02
        -0.11954E-02
        -0.59095E-03
         0.20384E-03
         0.10546E-02
         0.18419E-02
         0.24560E-02
         0.26031E-02
         0.37964E-02
         0.39100E-02
         0.34621E-02
         0.29267E-02
         0.22211E-02
         0.13865E-02
         0.47130E-03
        -0.47130E-03
        -0.13865E-02
        -0.22211E-02
        -0.29267E-02
        -0.34621E-02
        -0.37964E-02
        -0.39100E-02
        -0.37964E-02
        -0.34621E-02
        -0.29267E-02
        -0.22211E-02
        -0.13865E-02
        -0.47130E-03
         0.47130E-03
         0.13865E-02
         0.22211E-02
         0.29267E-02
         0.34621E-02
         0.37964E-02
         0.10362E-02
         0.17427E-02
         0.23160E-02
         0.16668E-02
         0.30373E-02
         0.27839E-02
         0.12836E-02
         0.64796E-03
         0.12390E-03
        -0.13082E-03
         0.94036E-03
         0.11279E-02
         0.17435E-02
         0.40512E-03
         0.39755E-03
        -0.76798E-03
        -0.86756E-03
         0.45492E-03
        -0.18341E-02
        -0.18427E-02
        -0.27234E-02
        -0.27990E-02
        -0.25386E-02
        -0.19347E-02
        -0.99161E-03
        -0.14429E-02
        -0.31294E-03
        -0.11019E-02
        -0.18838E-02
        -0.18695E-02
        -0.16256E-03
        -0.94927E-03
         0.77931E-03
         0.17205E-02
         0.32096E-02
         0.28043E-02
         0.23043E-02
        -0.40420E-03
        -0.12093E-02
        -0.19443E-02
        -0.25024E-02
        -0.26358E-02
        -0.27627E-02
        -0.21143E-02
        -0.16093E-02
        -0.11955E-02
        -0.59130E-03
         0.20343E-03
         0.10543E-02
         0.18419E-02
         0.24561E-02
         0.26032E-02
         0.37964E-02
         0.39100E-02
         0.34621E-02
         0.29267E-02
         0.22211E-02
         0.13865E-02
         0.47130E-03
        -0.47130E-03
        -0.13865E-02
        -0.22211E-02
        -0.29267E-02
        -0.34621E-02
        -0.37964E-02
        -0.39100E-02
        -0.37964E-02
        -0.34621E-02
        -0.29267E-02
        -0.22211E-02
        -0.13865E-02
        -0.47130E-03
         0.47130E-03
         0.13865E-02
         0.22211E-02
         0.29267E-02
         0.34621E-02
         0.37964E-02
         0.10360E-02
         0.17425E-02
         0.23158E-02
         0.16666E-02
         0.30373E-02
         0.27842E-02
         0.12835E-02
         0.64771E-03
         0.12363E-03
        -0.13100E-03
         0.94003E-03
         0.11276E-02
         0.17432E-02
         0.40507E-03
         0.39754E-03
        -0.76834E-03
        -0.86767E-03
         0.45447E-03
        -0.18344E-02
        -0.18426E-02
        -0.27234E-02
        -0.27987E-02
        -0.25388E-02
        -0.19352E-02
        -0.99147E-03
        -0.14433E-02
        -0.31274E-03
        -0.11016E-02
        -0.18838E-02
        -0.18694E-02
        -0.16284E-03
        -0.94986E-03
         0.77865E-03
         0.17205E-02
         0.32099E-02
         0.28042E-02
         0.23042E-02
        -0.40407E-03
        -0.12093E-02
        -0.19442E-02
        -0.25024E-02
        -0.26358E-02
        -0.27624E-02
        -0.21144E-02
        -0.16094E-02
        -0.11956E-02
        -0.59165E-03
         0.20302E-03
         0.10540E-02
         0.18419E-02
         0.24563E-02
         0.26033E-02
         0.37964E-02
         0.39100E-02
         0.34621E-02
         0.29267E-02
         0.22211E-02
         0.13865E-02
         0.47130E-03
        -0.47130E-03
        -0.13865E-02
        -0.22211E-02
        -0.29267E-02
        -0.34621E-02
        -0.37964E-02
        -0.39100E-02
        -0.37964E-02
        -0.34621E-02
        -0.29267E-02
        -0.22211E-02
        -0.13865E-02
        -0.47130E-03
         0.47130E-03
         0.13865E-02
         0.22211E-02
         0.29267E-02
         0.34621E-02
         0.37964E-02
         0.10359E-02
         0.17423E-02
         0.23157E-02
         0.16664E-02
         0.30373E-02
         0.27846E-02
         0.12834E-02
         0.64747E-03
         0.12337E-03
        -0.13118E-03
         0.93970E-03
         0.11272E-02
         0.17428E-02
         0.40501E-03
         0.39752E-03
        -0.76869E-03
        -0.86778E-03
         0.45402E-03
        -0.18347E-02
        -0.18425E-02
        -0.27234E-02
        -0.27984E-02
        -0.25389E-02
        -0.19356E-02
        -0.99133E-03
        -0.14436E-02
        -0.31254E-03
        -0.11013E-02
        -0.18837E-02
        -0.18692E-02
        -0.16311E-03
        -0.95046E-03
         0.77799E-03
         0.17204E-02
         0.32102E-02
         0.28042E-02
         0.23041E-02
        -0.40393E-03
        -0.12093E-02
        -0.19442E-02
        -0.25024E-02
        -0.26357E-02
        -0.27621E-02
        -0.21146E-02
        -0.16094E-02
        -0.11957E-02
        -0.59200E-03
         0.20262E-03
         0.10536E-02
         0.18420E-02
         0.24564E-02
         0.26033E-02
         0.37964E-02
         0.39100E-02
         0.34621E-02
         0.29267E-02
         0.22211E-02
         0.13865E-02
         0.47130E-03
        -0.47130E-03
        -0.13865E-02
        -0.22211E-02
        -0.29267E-02
        -0.34621E-02
        -0.37964E-02
        -0.39100E-02
        -0.37964E-02
        -0.34621E-02
        -0.29267E-02
        -0.22211E-02
        -0.13865E-02
        -0.47130E-03
         0.47130E-03
         0.13865E-02
         0.22211E-02
         0.29267E-02
         0.34621E-02
         0.37964E-02
         0.10358E-02
         0.17422E-02
         0.23156E-02
         0.16662E-02
         0.30373E-02
         0.27849E-02
         0.12833E-02
         0.64722E-03
         0.12311E-03
        -0.13137E-03
         0.93937E-03
         0.11269E-02
         0.17424E-02
         0.40496E-03
         0.39750E-03
        -0.76904E-03
        -0.86789E-03
         0.45358E-03
        -0.18350E-02
        -0.18424E-02
        -0.27233E-02
        -0.27981E-02
        -0.25391E-02
        -0.19360E-02
        -0.99118E-03
        -0.14440E-02
        -0.31234E-03
        -0.11009E-02
        -0.18836E-02
        -0.18691E-02
        -0.16339E-03
        -0.95106E-03
         0.77733E-03
         0.17204E-02
         0.32105E-02
         0.28042E-02
         0.23040E-02
        -0.40379E-03
        -0.12093E-02
        -0.19441E-02
        -0.25023E-02
        -0.26356E-02
        -0.27618E-02
        -0.21147E-02
        -0.16094E-02
        -0.11958E-02
        -0.59235E-03
         0.20221E-03
         0.10533E-02
         0.18420E-02
         0.24565E-02
         0.26034E-02
         0.37964E-02
         0.39100E-02
         0.34621E-02
         0.29267E-02
         0.22211E-02
         0.13865E-02
         0.47130E-03
        -0.47130E-03
        -0.13865E-02
        -0.22211E-02
        -0.29267E-02
        -0.34621E-02
        -0.37964E-02
        -0.39100E-02
        -0.37964E-02
        -0.34621E-02
        -0.29267E-02
        -0.22211E-02
        -0.13865E-02
        -0.47130E-03
         0.47130E-03
         0.13865E-02
         0.22211E-02
         0.29267E-02
         0.34621E-02
         0.37964E-02
         0.10357E-02
         0.17420E-02
         0.23155E-02
         0.16660E-02
         0.30372E-02
         0.27853E-02
         0.12832E-02
         0.64698E-03
         0.12285E-03
        -0.13155E-03
         0.93903E-03
         0.11266E-02
         0.17420E-02
         0.40490E-03
         0.39749E-03
        -0.76940E-03
        -0.86800E-03
         0.45313E-03
        -0.18353E-02
        -0.18423E-02
        -0.27233E-02
        -0.27979E-02
        -0.25393E-02
        -0.19365E-02
        -0.99104E-03
        -0.14443E-02
        -0.31214E-03
        -0.11006E-02
        -0.18836E-02
        -0.18690E-02
        -0.16366E-03
        -0.95166E-03
         0.77667E-03
         0.17203E-02
         0.32109E-02
         0.28042E-02
         0.23039E-02
        -0.40365E-03
        -0.12093E-02
        -0.19441E-02
        -0.25023E-02
        -0.26355E-02
        -0.27615E-02
        -0.21148E-02
        -0.16095E-02
        -0.11960E-02
        -0.59270E-03
         0.20180E-03
         0.10530E-02
         0.18421E-02
         0.24566E-02
         0.26035E-02
         0.37964E-02
         0.39100E-02
         0.34621E-02
         0.29267E-02
         0.22211E-02
         0.13865E-02
         0.47130E-03
        -0.47130E-03
        -0.13865E-02
        -0.22211E-02
        -0.29267E-02
        -0.34621E-02
        -0.37964E-02
        -0.39100E-02
        -0.37964E-02
        -0.34621E-02
        -0.29267E-02
        -0.22211E-02
        -0.13865E-02
        -0.47130E-03
         0.47130E-03
         0.13865E-02
         0.22211E-02
         0.29267E-02
         0.34621E-02
         0.37964E-02
         0.10356E-02
         0.17418E-02
         0.23153E-02
         0.16657E-02
         0.30372E-02
         0.27856E-02
         0.12830E-02
         0.64673E-03
         0.12259E-03
        -0.13174E-03
         0.93870E-03
         0.11262E-02
         0.17416E-02
         0.40485E-03
         0.39747E-03
        -0.76975E-03
        -0.86811E-03
         0.45268E-03
        -0.18356E-02
        -0.18422E-02
        -0.27233E-02
        -0.27976E-02
        -0.25394E-02
        -0.19369E-02
        -0.99090E-03
        -0.14446E-02
        -0.31194E-03
        -0.11002E-02
        -0.18835E-02
        -0.18689E-02
        -0.16394E-03
        -0.95226E-03
         0.77601E-03
         0.17203E-02
         0.32112E-02
         0.28042E-02
         0.23038E-02
        -0.40352E-03
        -0.12093E-02
        -0.19441E-02
        -0.25023E-02
        -0.26354E-02
        -0.27612E-02
        -0.21150E-02
        -0.16095E-02
        -0.11961E-02
        -0.59305E-03
         0.20140E-03
         0.10527E-02
         0.18421E-02
         0.24568E-02
         0.26036E-02
         0.37964E-02
         0.39100E-02
         0.34621E-02
         0.29267E-02
         0.22211E-02
         0.13865E-02
         0.47130E-03
        -0.47130E-03
        -0.13865E-02
        -0.22211E-02
        -0.29267E-02
        -0.34621E-02
        -0.37964E-02
        -0.39100E-02
        -0.37964E-02
        -0.34621E-02
        -0.29267E-02
        -0.22211E-02
        -0.13865E-02
        -0.47130E-03
         0.47130E-03
         0.13865E-02
         0.22211E-02
         0.29267E-02
         0.34621E-02
         0.37964E-02
         0.10355E-02
         0.17416E-02
         0.23152E-02
         0.16655E-02
         0.30372E-02
         0.27860E-02
         0.12829E-02
         0.64649E-03
         0.12232E-03
        -0.13193E-03
         0.93837E-03
         0.11259E-02
         0.17412E-02
         0.40480E-03
         0.39745E-03
        -0.77011E-03
        -0.86822E-03
         0.45223E-03
        -0.18359E-02
        -0.18421E-02
        -0.27232E-02
        -0.27973E-02
        -0.25396E-02
        -0.19373E-02
        -0.99075E-03
        -0.14450E-02
        -0.31173E-03
        -0.10999E-02
        -0.18835E-02
        -0.18687E-02
        -0.16421E-03
        -0.95285E-03
         0.77535E-03
         0.17202E-02
         0.32115E-02
         0.28041E-02
         0.23037E-02
        -0.40338E-03
        -0.12093E-02
        -0.19440E-02
        -0.25023E-02
        -0.26353E-02
        -0.27609E-02
        -0.21151E-02
        -0.16096E-02
        -0.11962E-02
        -0.59340E-03
         0.20099E-03
         0.10524E-02
         0.18422E-02
         0.24569E-02
         0.26036E-02
         0.37964E-02
         0.39100E-02
         0.34621E-02
         0.29267E-02
         0.22211E-02
         0.13865E-02
         0.47130E-03
        -0.47130E-03
        -0.13865E-02
        -0.22211E-02
        -0.29267E-02
        -0.34621E-02
        -0.37964E-02
        -0.39100E-02
        -0.37964E-02
        -0.34621E-02
        -0.29267E-02
        -0.22211E-02
        -0.13865E-02
        -0.47130E-03
         0.47130E-03
         0.13865E-02
         0.22211E-02
         0.29267E-02
         0.34621E-02
         0.37964E-02
         0.10354E-02
         0.17414E-02
         0.23151E-02
         0.16653E-02
         0.30372E-02
         0.27863E-02
         0.12829E-02
         0.64624E-03
         0.12206E-03
        -0.13211E-03
         0.93804E-03
         0.11255E-02
         0.17408E-02
         0.40474E-03
         0.39744E-03
        -0.77046E-03
        -0.86832E-03
         0.45179E-03
        -0.18362E-02
        -0.18420E-02
        -0.27232E-02
        -0.27970E-02
        -0.25397E-02
        -0.19377E-02
        -0.99061E-03
        -0.14453E-02
        -0.31153E-03
        -0.10995E-02
        -0.18834E-02
        -0.18686E-02
        -0.16449E-03
        -0.95345E-03
         0.77469E-03
         0.17202E-02
         0.32119E-02
         0.28041E-02
         0.23036E-02
        -0.40324E-03
        -0.12093E-02
        -0.19440E-02
        -0.25022E-02
        -0.26352E-02
        -0.27606E-02
        -0.21152E-02
        -0.16096E-02
        -0.11963E-02
        -0.59375E-03
         0.20059E-03
         0.10521E-02
         0.18422E-02
         0.24570E-02
         0.26037E-02
         0.37964E-02
         0.39100E-02
         0.34621E-02
         0.29267E-02
         0.22211E-02
         0.13865E-02
         0.47130E-03
        -0.47130E-03
        -0.13865E-02
        -0.22211E-02
        -0.29267E-02
        -0.34621E-02
        -0.37964E-02
        -0.39100E-02
        -0.37964E-02
        -0.34621E-02
        -0.29267E-02
        -0.22211E-02
        -0.13865E-02
        -0.47130E-03
         0.47130E-03
         0.13865E-02
         0.22211E-02
         0.29267E-02
         0.34621E-02
         0.37964E-02
         0.10352E-02
         0.17413E-02
         0.23150E-02
         0.16651E-02
         0.30371E-02
         0.27866E-02
         0.12827E-02
         0.64600E-03
         0.12180E-03
        -0.13230E-03
         0.93771E-03
         0.11252E-02
         0.17404E-02
         0.40469E-03
         0.39742E-03
        -0.77081E-03
        -0.86843E-03
         0.45134E-03
        -0.18365E-02
        -0.18419E-02
        -0.27232E-02
        -0.27968E-02
        -0.25399E-02
        -0.19382E-02
        -0.99046E-03
        -0.14457E-02
        -0.31133E-03
        -0.10992E-02
        -0.18834E-02
        -0.18685E-02
        -0.16476E-03
        -0.95405E-03
         0.77402E-03
         0.17202E-02
         0.32122E-02
         0.28041E-02
         0.23034E-02
        -0.40310E-03
        -0.12093E-02
        -0.19440E-02
        -0.25022E-02
        -0.26351E-02
        -0.27602E-02
        -0.21154E-02
        -0.16097E-02
        -0.11964E-02
        -0.59409E-03
         0.20018E-03
         0.10518E-02
         0.18422E-02
         0.24571E-02
         0.26038E-02
         0.37964E-02
         0.39100E-02
         0.34621E-02
         0.29267E-02
         0.22211E-02
         0.13865E-02
         0.47130E-03
        -0.47130E-03
        -0.13865E-02
        -0.22211E-02
        -0.29267E-02
        -0.34621E-02
        -0.37964E-02
        -0.39100E-02
        -0.37964E-02
        -0.34621E-02
        -0.29267E-02
        -0.22211E-02
        -0.13865E-02
        -0.47130E-03
         0.47130E-03
         0.13865E-02
         0.22211E-02
         0.29267E-02
         0.34621E-02
         0.37964E-02
         0.10351E-02
         0.17411E-02
         0.23149E-02
         0.16649E-02
         0.30371E-02
         0.27870E-02
         0.12826E-02
         0.64575E-03
         0.12154E-03
        -0.13248E-03
         0.93738E-03
         0.11249E-02
         0.17400E-02
         0.40463E-03
         0.39740E-03
        -0.77117E-03
        -0.86854E-03
         0.45089E-03
        -0.18368E-02
        -0.18418E-02
        -0.27232E-02
        -0.27965E-02
        -0.25400E-02
        -0.19386E-02
        -0.99032E-03
        -0.14460E-02
        -0.31113E-03
        -0.10988E-02
        -0.18833E-02
        -0.18683E-02
        -0.16504E-03
        -0.95465E-03
         0.77336E-03
         0.17201E-02
         0.32125E-02
         0.28041E-02
         0.23033E-02
        -0.40296E-03
        -0.12093E-02
        -0.19439E-02
        -0.25022E-02
        -0.26350E-02
        -0.27599E-02
        -0.21155E-02
        -0.16097E-02
        -0.11965E-02
        -0.59444E-03
         0.19977E-03
         0.10515E-02
         0.18423E-02
         0.24573E-02
         0.26039E-02
         0.37964E-02
         0.39100E-02
         0.34621E-02
         0.29267E-02
         0.22211E-02
         0.13865E-02
         0.47130E-03
        -0.47130E-03
        -0.13865E-02
        -0.22211E-02
        -0.29267E-02
        -0.34621E-02
        -0.37964E-02
        -0.39100E-02
        -0.37964E-02
        -0.34621E-02
        -0.29267E-02
        -0.22211E-02
        -0.13865E-02
        -0.47130E-03
         0.47130E-03
         0.13865E-02
         0.22211E-02
         0.29267E-02
         0.34621E-02
         0.37964E-02
  
SCALARS           initial_coordinate_y  double 1
LOOKUP_TABLE default
         0.67292E-03
         0.12308E-02
         0.59151E-03
        -0.33775E-03
         0.67237E-03
         0.12301E-02
         0.59098E-03
        -0.33851E-03
         0.14882E-03
        -0.67643E-03
         0.14846E-03
        -0.67692E-03
         0.18412E-02
         0.14576E-02
         0.18410E-02
         0.14566E-02
         0.29933E-03
         0.11672E-02
         0.29819E-03
         0.11655E-02
         0.22748E-02
         0.28286E-02
         0.24238E-02
         0.22746E-02
         0.28291E-02
         0.24236E-02
         0.21685E-02
         0.29366E-02
         0.21684E-02
         0.29369E-02
        -0.10033E-02
         0.78969E-04
        -0.70318E-03
        -0.10032E-02
         0.78160E-04
        -0.70391E-03
        -0.71196E-03
         0.82749E-04
        -0.71210E-03
         0.82626E-04
        -0.77865E-03
         0.40713E-04
        -0.77882E-03
         0.40439E-04
        -0.15195E-02
        -0.13230E-02
        -0.15195E-02
        -0.13231E-02
         0.98847E-03
         0.98712E-03
        -0.17325E-02
        -0.17325E-02
         0.20220E-02
         0.20217E-02
         0.18615E-02
         0.18616E-02
         0.17175E-02
         0.90940E-03
         0.17175E-02
         0.90916E-03
        -0.19800E-02
        -0.23489E-02
        -0.19800E-02
        -0.23489E-02
        -0.17074E-02
        -0.17074E-02
        -0.14894E-02
        -0.14892E-02
         0.76036E-03
         0.12477E-02
         0.75936E-03
         0.12473E-02
         0.18665E-02
         0.18664E-02
         0.29038E-02
         0.29049E-02
         0.27207E-02
         0.27212E-02
         0.24642E-02
         0.24645E-02
         0.22359E-02
         0.16503E-02
         0.22359E-02
         0.16503E-02
         0.87493E-03
         0.87466E-03
        -0.21373E-02
        -0.21373E-02
        -0.26931E-02
        -0.26931E-02
        -0.31291E-02
        -0.30382E-02
        -0.31291E-02
        -0.30382E-02
        -0.28748E-02
        -0.28748E-02
        -0.26423E-02
        -0.26420E-02
        -0.23707E-02
        -0.23705E-02
        -0.21445E-02
        -0.15105E-02
        -0.21439E-02
        -0.15106E-02
         0.93572E-03
         0.00000E+00
         0.93572E-03
         0.00000E+00
         0.18171E-02
         0.18171E-02
         0.25928E-02
         0.25928E-02
         0.32179E-02
         0.32179E-02
         0.36559E-02
         0.36559E-02
         0.38815E-02
         0.38815E-02
         0.38815E-02
         0.38815E-02
         0.36559E-02
         0.36559E-02
         0.32179E-02
         0.32179E-02
         0.25928E-02
         0.25928E-02
         0.18171E-02
         0.18171E-02
         0.93572E-03
         0.93572E-03
         0.22152E-17
        -0.47884E-18
        -0.93572E-03
        -0.93572E-03
        -0.18171E-02
        -0.18171E-02
        -0.25928E-02
        -0.25928E-02
        -0.32179E-02
        -0.32179E-02
        -0.36559E-02
        -0.36559E-02
        -0.38815E-02
        -0.38815E-02
        -0.38815E-02
        -0.38815E-02
        -0.36559E-02
        -0.36559E-02
        -0.32179E-02
        -0.32179E-02
        -0.25928E-02
        -0.25928E-02
        -0.18171E-02
        -0.18171E-02
        -0.93572E-03
        -0.93572E-03
         0.67348E-03
         0.12314E-02
         0.59203E-03
        -0.33700E-03
         0.14918E-03
        -0.67594E-03
         0.18414E-02
         0.14586E-02
         0.30048E-03
         0.11690E-02
         0.22749E-02
         0.28282E-02
         0.24239E-02
         0.21685E-02
         0.29364E-02
        -0.10035E-02
         0.79778E-04
        -0.70245E-03
        -0.71182E-03
         0.82873E-04
        -0.77848E-03
         0.40986E-04
        -0.15194E-02
        -0.13228E-02
         0.98983E-03
        -0.17324E-02
         0.20223E-02
         0.18614E-02
         0.17175E-02
         0.90964E-03
        -0.19800E-02
        -0.23489E-02
        -0.17074E-02
        -0.14896E-02
         0.76137E-03
         0.12481E-02
         0.18665E-02
         0.29027E-02
         0.27202E-02
         0.24640E-02
         0.22359E-02
         0.16503E-02
         0.87519E-03
        -0.21373E-02
        -0.26932E-02
        -0.31291E-02
        -0.30382E-02
        -0.28748E-02
        -0.26426E-02
        -0.23709E-02
        -0.21450E-02
        -0.15104E-02
         0.93572E-03
         0.00000E+00
         0.18171E-02
         0.25928E-02
         0.32179E-02
         0.36559E-02
         0.38815E-02
         0.38815E-02
         0.36559E-02
         0.32179E-02
         0.25928E-02
         0.18171E-02
         0.93572E-03
        -0.47884E-18
        -0.93572E-03
        -0.18171E-02
        -0.25928E-02
        -0.32179E-02
        -0.36559E-02
        -0.38815E-02
        -0.38815E-02
        -0.36559E-02
        -0.32179E-02
        -0.25928E-02
        -0.18171E-02
        -0.93572E-03
         0.67403E-03
         0.12321E-02
         0.59255E-03
        -0.33624E-03
         0.14955E-03
        -0.67544E-03
         0.18415E-02
         0.14596E-02
         0.30163E-03
         0.11707E-02
         0.22750E-02
         0.28277E-02
         0.24241E-02
         0.21685E-02
         0.29361E-02
        -0.10036E-02
         0.80588E-04
        -0.70173E-03
        -0.71168E-03
         0.82996E-04
        -0.77831E-03
         0.41259E-04
        -0.15194E-02
        -0.13227E-02
         0.99119E-03
        -0.17324E-02
         0.20226E-02
         0.18613E-02
         0.17175E-02
         0.90988E-03
        -0.19801E-02
        -0.23490E-02
        -0.17074E-02
        -0.14899E-02
         0.76237E-03
         0.12485E-02
         0.18666E-02
         0.29017E-02
         0.27198E-02
         0.24638E-02
         0.22359E-02
         0.16503E-02
         0.87545E-03
        -0.21374E-02
        -0.26932E-02
        -0.31291E-02
        -0.30382E-02
        -0.28748E-02
        -0.26428E-02
        -0.23711E-02
        -0.21456E-02
        -0.15103E-02
         0.93572E-03
         0.00000E+00
         0.18171E-02
         0.25928E-02
         0.32179E-02
         0.36559E-02
         0.38815E-02
         0.38815E-02
         0.36559E-02
         0.32179E-02
         0.25928E-02
         0.18171E-02
         0.93572E-03
         0.39516E-17
        -0.93572E-03
        -0.18171E-02
        -0.25928E-02
        -0.32179E-02
        -0.36559E-02
        -0.38815E-02
        -0.38815E-02
        -0.36559E-02
        -0.32179E-02
        -0.25928E-02
        -0.18171E-02
        -0.93572E-03
         0.67459E-03
         0.12328E-02
         0.59308E-03
        -0.33549E-03
         0.14991E-03
        -0.67495E-03
         0.18417E-02
         0.14606E-02
         0.30278E-03
         0.11725E-02
         0.22752E-02
         0.28273E-02
         0.24242E-02
         0.21686E-02
         0.29359E-02
        -0.10038E-02
         0.81397E-04
        -0.70100E-03
        -0.71154E-03
         0.83120E-04
        -0.77814E-03
         0.41533E-04
        -0.15193E-02
        -0.13227E-02
         0.99254E-03
        -0.17324E-02
         0.20228E-02
         0.18611E-02
         0.17175E-02
         0.91012E-03
        -0.19801E-02
        -0.23490E-02
        -0.17074E-02
        -0.14901E-02
         0.76338E-03
         0.12490E-02
         0.18666E-02
         0.29006E-02
         0.27193E-02
         0.24636E-02
         0.22359E-02
         0.16503E-02
         0.87571E-03
        -0.21374E-02
        -0.26932E-02
        -0.31291E-02
        -0.30382E-02
        -0.28748E-02
        -0.26431E-02
        -0.23713E-02
        -0.21461E-02
        -0.15102E-02
         0.93572E-03
         0.00000E+00
         0.18171E-02
         0.25928E-02
         0.32179E-02
         0.36559E-02
         0.38815E-02
         0.38815E-02
         0.36559E-02
         0.32179E-02
         0.25928E-02
         0.18171E-02
         0.93572E-03
        -0.47884E-18
        -0.93572E-03
        -0.18171E-02
        -0.25928E-02
        -0.32179E-02
        -0.36559E-02
        -0.38815E-02
        -0.38815E-02
        -0.36559E-02
        -0.32179E-02
        -0.25928E-02
        -0.18171E-02
        -0.93572E-03
         0.67514E-03
         0.12334E-02
         0.59360E-03
        -0.33474E-03
         0.15027E-03
        -0.67446E-03
         0.18419E-02
         0.14616E-02
         0.30393E-03
         0.11742E-02
         0.22753E-02
         0.28269E-02
         0.24244E-02
         0.21686E-02
         0.29356E-02
        -0.10039E-02
         0.82206E-04
        -0.70028E-03
        -0.71140E-03
         0.83243E-04
        -0.77797E-03
         0.41806E-04
        -0.15193E-02
        -0.13226E-02
         0.99390E-03
        -0.17323E-02
         0.20231E-02
         0.18610E-02
         0.17175E-02
         0.91036E-03
        -0.19801E-02
        -0.23490E-02
        -0.17074E-02
        -0.14904E-02
         0.76439E-03
         0.12494E-02
         0.18666E-02
         0.28995E-02
         0.27188E-02
         0.24633E-02
         0.22359E-02
         0.16503E-02
         0.87597E-03
        -0.21374E-02
        -0.26932E-02
        -0.31291E-02
        -0.30382E-02
        -0.28748E-02
        -0.26434E-02
        -0.23715E-02
        -0.21467E-02
        -0.15101E-02
         0.93572E-03
         0.00000E+00
         0.18171E-02
         0.25928E-02
         0.32179E-02
         0.36559E-02
         0.38815E-02
         0.38815E-02
         0.36559E-02
         0.32179E-02
         0.25928E-02
         0.18171E-02
         0.93572E-03
        -0.47884E-18
        -0.93572E-03
        -0.18171E-02
        -0.25928E-02
        -0.32179E-02
        -0.36559E-02
        -0.38815E-02
        -0.38815E-02
        -0.36559E-02
        -0.32179E-02
        -0.25928E-02
        -0.18171E-02
        -0.93572E-03
         0.67570E-03
         0.12341E-02
         0.59412E-03
        -0.33398E-03
         0.15064E-03
        -0.67396E-03
         0.18421E-02
         0.14626E-02
         0.30507E-03
         0.11760E-02
         0.22754E-02
         0.28264E-02
         0.24245E-02
         0.21686E-02
         0.29353E-02
        -0.10040E-02
         0.83015E-04
        -0.69955E-03
        -0.71126E-03
         0.83367E-04
        -0.77780E-03
         0.42080E-04
        -0.15192E-02
        -0.13224E-02
         0.99526E-03
        -0.17323E-02
         0.20234E-02
         0.18609E-02
         0.17175E-02
         0.91060E-03
        -0.19801E-02
        -0.23490E-02
        -0.17074E-02
        -0.14906E-02
         0.76539E-03
         0.12498E-02
         0.18667E-02
         0.28984E-02
         0.27184E-02
         0.24631E-02
         0.22359E-02
         0.16503E-02
         0.87623E-03
        -0.21374E-02
        -0.26932E-02
        -0.31291E-02
        -0.30382E-02
        -0.28748E-02
        -0.26436E-02
        -0.23717E-02
        -0.21472E-02
        -0.15100E-02
         0.93572E-03
         0.00000E+00
         0.18171E-02
         0.25928E-02
         0.32179E-02
         0.36559E-02
         0.38815E-02
         0.38815E-02
         0.36559E-02
         0.32179E-02
         0.25928E-02
         0.18171E-02
         0.93572E-03
        -0.47884E-18
        -0.93572E-03
        -0.18171E-02
        -0.25928E-02
        -0.32179E-02
        -0.36559E-02
        -0.38815E-02
        -0.38815E-02
        -0.36559E-02
        -0.32179E-02
        -0.25928E-02
        -0.18171E-02
        -0.93572E-03
         0.67625E-03
         0.12348E-02
         0.59465E-03
        -0.33323E-03
         0.15100E-03
        -0.67347E-03
         0.18423E-02
         0.14636E-02
         0.30622E-03
         0.11777E-02
         0.22755E-02
         0.28260E-02
         0.24247E-02
         0.21687E-02
         0.29351E-02
        -0.10042E-02
         0.83825E-04
        -0.69882E-03
        -0.71112E-03
         0.83490E-04
        -0.77763E-03
         0.42353E-04
        -0.15192E-02
        -0.13223E-02
         0.99661E-03
        -0.17322E-02
         0.20237E-02
         0.18607E-02
         0.17175E-02
         0.91084E-03
        -0.19801E-02
        -0.23491E-02
        -0.17074E-02
        -0.14909E-02
         0.76640E-03
         0.12503E-02
         0.18667E-02
         0.28974E-02
         0.27179E-02
         0.24629E-02
         0.22359E-02
         0.16503E-02
         0.87650E-03
        -0.21374E-02
        -0.26933E-02
        -0.31291E-02
        -0.30382E-02
        -0.28749E-02
        -0.26439E-02
        -0.23719E-02
        -0.21478E-02
        -0.15099E-02
         0.93572E-03
         0.00000E+00
         0.18171E-02
         0.25928E-02
         0.32179E-02
         0.36559E-02
         0.38815E-02
         0.38815E-02
         0.36559E-02
         0.32179E-02
         0.25928E-02
         0.18171E-02
         0.93572E-03
        -0.47884E-18
        -0.93572E-03
        -0.18171E-02
        -0.25928E-02
        -0.32179E-02
        -0.36559E-02
        -0.38815E-02
        -0.38815E-02
        -0.36559E-02
        -0.32179E-02
        -0.25928E-02
        -0.18171E-02
        -0.93572E-03
         0.67680E-03
         0.12354E-02
         0.59517E-03
        -0.33247E-03
         0.15136E-03
        -0.67298E-03
         0.18425E-02
         0.14646E-02
         0.30737E-03
         0.11795E-02
         0.22757E-02
         0.28255E-02
         0.24248E-02
         0.21687E-02
         0.29348E-02
        -0.10043E-02
         0.84634E-04
        -0.69810E-03
        -0.71098E-03
         0.83614E-04
        -0.77746E-03
         0.42626E-04
        -0.15191E-02
        -0.13223E-02
         0.99797E-03
        -0.17322E-02
         0.20240E-02
         0.18606E-02
         0.17175E-02
         0.91108E-03
        -0.19802E-02
        -0.23491E-02
        -0.17074E-02
        -0.14911E-02
         0.76740E-03
         0.12507E-02
         0.18668E-02
         0.28963E-02
         0.27174E-02
         0.24627E-02
         0.22358E-02
         0.16503E-02
         0.87676E-03
        -0.21374E-02
        -0.26933E-02
        -0.31291E-02
        -0.30382E-02
        -0.28749E-02
        -0.26442E-02
        -0.23721E-02
        -0.21483E-02
        -0.15097E-02
         0.93572E-03
         0.00000E+00
         0.18171E-02
         0.25928E-02
         0.32179E-02
         0.36559E-02
         0.38815E-02
         0.38815E-02
         0.36559E-02
         0.32179E-02
         0.25928E-02
         0.18171E-02
         0.93572E-03
        -0.47884E-18
        -0.93572E-03
        -0.18171E-02
        -0.25928E-02
        -0.32179E-02
        -0.36559E-02
        -0.38815E-02
        -0.38815E-02
        -0.36559E-02
        -0.32179E-02
        -0.25928E-02
        -0.18171E-02
        -0.93572E-03
         0.67736E-03
         0.12361E-02
         0.59570E-03
        -0.33172E-03
         0.15173E-03
        -0.67248E-03
         0.18427E-02
         0.14656E-02
         0.30852E-03
         0.11812E-02
         0.22758E-02
         0.28251E-02
         0.24249E-02
         0.21688E-02
         0.29345E-02
        -0.10044E-02
         0.85443E-04
        -0.69737E-03
        -0.71084E-03
         0.83737E-04
        -0.77729E-03
         0.42899E-04
        -0.15191E-02
        -0.13222E-02
         0.99932E-03
        -0.17322E-02
         0.20243E-02
         0.18605E-02
         0.17175E-02
         0.91132E-03
        -0.19802E-02
        -0.23491E-02
        -0.17074E-02
        -0.14914E-02
         0.76841E-03
         0.12511E-02
         0.18668E-02
         0.28952E-02
         0.27170E-02
         0.24624E-02
         0.22358E-02
         0.16503E-02
         0.87702E-03
        -0.21374E-02
        -0.26933E-02
        -0.31291E-02
        -0.30382E-02
        -0.28749E-02
        -0.26444E-02
        -0.23723E-02
        -0.21489E-02
        -0.15096E-02
         0.93572E-03
         0.00000E+00
         0.18171E-02
         0.25928E-02
         0.32179E-02
         0.36559E-02
         0.38815E-02
         0.38815E-02
         0.36559E-02
         0.32179E-02
         0.25928E-02
         0.18171E-02
         0.93572E-03
        -0.47884E-18
        -0.93572E-03
        -0.18171E-02
        -0.25928E-02
        -0.32179E-02
        -0.36559E-02
        -0.38815E-02
        -0.38815E-02
        -0.36559E-02
        -0.32179E-02
        -0.25928E-02
        -0.18171E-02
        -0.93572E-03
         0.67791E-03
         0.12368E-02
         0.59622E-03
        -0.33096E-03
         0.15209E-03
        -0.67199E-03
         0.18429E-02
         0.14666E-02
         0.30967E-03
         0.11830E-02
         0.22759E-02
         0.28247E-02
         0.24251E-02
         0.21688E-02
         0.29343E-02
        -0.10046E-02
         0.86253E-04
        -0.69665E-03
        -0.71070E-03
         0.83861E-04
        -0.77712E-03
         0.43173E-04
        -0.15190E-02
        -0.13220E-02
         0.10007E-02
        -0.17321E-02
         0.20245E-02
         0.18603E-02
         0.17175E-02
         0.91156E-03
        -0.19802E-02
        -0.23491E-02
        -0.17074E-02
        -0.14916E-02
         0.76941E-03
         0.12515E-02
         0.18668E-02
         0.28942E-02
         0.27165E-02
         0.24622E-02
         0.22358E-02
         0.16503E-02
         0.87728E-03
        -0.21374E-02
        -0.26933E-02
        -0.31291E-02
        -0.30382E-02
        -0.28749E-02
        -0.26447E-02
        -0.23725E-02
        -0.21494E-02
        -0.15095E-02
         0.93572E-03
         0.00000E+00
         0.18171E-02
         0.25928E-02
         0.32179E-02
         0.36559E-02
         0.38815E-02
         0.38815E-02
         0.36559E-02
         0.32179E-02
         0.25928E-02
         0.18171E-02
         0.93572E-03
        -0.47884E-18
        -0.93572E-03
        -0.18171E-02
        -0.25928E-02
        -0.32179E-02
        -0.36559E-02
        -0.38815E-02
        -0.38815E-02
        -0.36559E-02
        -0.32179E-02
        -0.25928E-02
        -0.18171E-02
        -0.93572E-03
         0.67847E-03
         0.12374E-02
         0.59674E-03
        -0.33021E-03
         0.15245E-03
        -0.67150E-03
         0.18430E-02
         0.14676E-02
         0.31081E-03
         0.11847E-02
         0.22761E-02
         0.28242E-02
         0.24252E-02
         0.21688E-02
         0.29340E-02
        -0.10047E-02
         0.87062E-04
        -0.69592E-03
        -0.71056E-03
         0.83985E-04
        -0.77695E-03
         0.43446E-04
        -0.15190E-02
        -0.13219E-02
         0.10020E-02
        -0.17321E-02
         0.20248E-02
         0.18602E-02
         0.17175E-02
         0.91180E-03
        -0.19803E-02
        -0.23491E-02
        -0.17073E-02
        -0.14919E-02
         0.77042E-03
         0.12520E-02
         0.18669E-02
         0.28931E-02
         0.27160E-02
         0.24620E-02
         0.22358E-02
         0.16503E-02
         0.87754E-03
        -0.21374E-02
        -0.26933E-02
        -0.31291E-02
        -0.30382E-02
        -0.28749E-02
        -0.26450E-02
        -0.23727E-02
        -0.21500E-02
        -0.15094E-02
         0.93572E-03
         0.00000E+00
         0.18171E-02
         0.25928E-02
         0.32179E-02
         0.36559E-02
         0.38815E-02
         0.38815E-02
         0.36559E-02
         0.32179E-02
         0.25928E-02
         0.18171E-02
         0.93572E-03
         0.39516E-17
        -0.93572E-03
        -0.18171E-02
        -0.25928E-02
        -0.32179E-02
        -0.36559E-02
        -0.38815E-02
        -0.38815E-02
        -0.36559E-02
        -0.32179E-02
        -0.25928E-02
        -0.18171E-02
        -0.93572E-03
         0.67902E-03
         0.12381E-02
         0.59727E-03
        -0.32945E-03
         0.15282E-03
        -0.67100E-03
         0.18432E-02
         0.14686E-02
         0.31196E-03
         0.11865E-02
         0.22762E-02
         0.28238E-02
         0.24254E-02
         0.21688E-02
         0.29337E-02
        -0.10049E-02
         0.87871E-04
        -0.69519E-03
        -0.71042E-03
         0.84108E-04
        -0.77678E-03
         0.43720E-04
        -0.15189E-02
        -0.13219E-02
         0.10034E-02
        -0.17320E-02
         0.20251E-02
         0.18601E-02
         0.17175E-02
         0.91204E-03
        -0.19803E-02
        -0.23492E-02
        -0.17073E-02
        -0.14921E-02
         0.77142E-03
         0.12524E-02
         0.18669E-02
         0.28920E-02
         0.27155E-02
         0.24618E-02
         0.22358E-02
         0.16503E-02
         0.87781E-03
        -0.21374E-02
        -0.26934E-02
        -0.31291E-02
        -0.30382E-02
        -0.28749E-02
        -0.26452E-02
        -0.23729E-02
        -0.21505E-02
        -0.15093E-02
         0.93572E-03
         0.00000E+00
         0.18171E-02
         0.25928E-02
         0.32179E-02
         0.36559E-02
         0.38815E-02
         0.38815E-02
         0.36559E-02
         0.32179E-02
         0.25928E-02
         0.18171E-02
         0.93572E-03
        -0.47884E-18
        -0.93572E-03
        -0.18171E-02
        -0.25928E-02
        -0.32179E-02
        -0.36559E-02
        -0.38815E-02
        -0.38815E-02
        -0.36559E-02
        -0.32179E-02
        -0.25928E-02
        -0.18171E-02
        -0.93572E-03
         0.67958E-03
         0.12387E-02
         0.59779E-03
        -0.32870E-03
         0.15318E-03
        -0.67051E-03
         0.18434E-02
         0.14696E-02
         0.31311E-03
         0.11882E-02
         0.22763E-02
         0.28233E-02
         0.24255E-02
         0.21689E-02
         0.29335E-02
        -0.10050E-02
         0.88681E-04
        -0.69447E-03
        -0.71028E-03
         0.84232E-04
        -0.77661E-03
         0.43993E-04
        -0.15189E-02
        -0.13218E-02
         0.10048E-02
        -0.17320E-02
         0.20254E-02
         0.18599E-02
         0.17175E-02
         0.91228E-03
        -0.19803E-02
        -0.23492E-02
        -0.17073E-02
        -0.14923E-02
         0.77243E-03
         0.12528E-02
         0.18670E-02
         0.28910E-02
         0.27151E-02
         0.24615E-02
         0.22358E-02
         0.16503E-02
         0.87807E-03
        -0.21374E-02
        -0.26934E-02
        -0.31291E-02
        -0.30382E-02
        -0.28749E-02
        -0.26455E-02
        -0.23732E-02
        -0.21511E-02
        -0.15092E-02
         0.93572E-03
         0.00000E+00
         0.18171E-02
         0.25928E-02
         0.32179E-02
         0.36559E-02
         0.38815E-02
         0.38815E-02
         0.36559E-02
         0.32179E-02
         0.25928E-02
         0.18171E-02
         0.93572E-03
         0.22152E-17
        -0.93572E-03
        -0.18171E-02
        -0.25928E-02
        -0.32179E-02
        -0.36559E-02
        -0.38815E-02
        -0.38815E-02
        -0.36559E-02
        -0.32179E-02
        -0.25928E-02
        -0.18171E-02
        -0.93572E-03
         0.68013E-03
         0.12394E-02
         0.59831E-03
        -0.32794E-03
         0.15354E-03
        -0.67002E-03
         0.18436E-02
         0.14706E-02
         0.31426E-03
         0.11900E-02
         0.22765E-02
         0.28229E-02
         0.24257E-02
         0.21689E-02
         0.29332E-02
        -0.10051E-02
         0.89490E-04
        -0.69374E-03
        -0.71013E-03
         0.84355E-04
        -0.77644E-03
         0.44266E-04
        -0.15188E-02
        -0.13216E-02
         0.10061E-02
        -0.17320E-02
         0.20257E-02
         0.18598E-02
         0.17175E-02
         0.91252E-03
        -0.19803E-02
        -0.23492E-02
        -0.17073E-02
        -0.14926E-02
         0.77343E-03
         0.12533E-02
         0.18670E-02
         0.28899E-02
         0.27146E-02
         0.24613E-02
         0.22358E-02
         0.16503E-02
         0.87833E-03
        -0.21374E-02
        -0.26934E-02
        -0.31291E-02
        -0.30382E-02
        -0.28750E-02
        -0.26458E-02
        -0.23734E-02
        -0.21516E-02
        -0.15091E-02
         0.93572E-03
         0.00000E+00
         0.18171E-02
         0.25928E-02
         0.32179E-02
         0.36559E-02
         0.38815E-02
         0.38815E-02
         0.36559E-02
         0.32179E-02
         0.25928E-02
         0.18171E-02
         0.93572E-03
        -0.47884E-18
        -0.93572E-03
        -0.18171E-02
        -0.25928E-02
        -0.32179E-02
        -0.36559E-02
        -0.38815E-02
        -0.38815E-02
        -0.36559E-02
        -0.32179E-02
        -0.25928E-02
        -0.18171E-02
        -0.93572E-03
         0.68068E-03
         0.12401E-02
         0.59884E-03
        -0.32719E-03
         0.15391E-03
        -0.66953E-03
         0.18438E-02
         0.14716E-02
         0.31541E-03
         0.11917E-02
         0.22766E-02
         0.28225E-02
         0.24258E-02
         0.21690E-02
         0.29330E-02
        -0.10053E-02
         0.90299E-04
        -0.69302E-03
        -0.70999E-03
         0.84479E-04
        -0.77627E-03
         0.44540E-04
        -0.15188E-02
        -0.13215E-02
         0.10075E-02
        -0.17319E-02
         0.20260E-02
         0.18597E-02
         0.17175E-02
         0.91276E-03
        -0.19804E-02
        -0.23493E-02
        -0.17073E-02
        -0.14928E-02
         0.77444E-03
         0.12537E-02
         0.18670E-02
         0.28888E-02
         0.27141E-02
         0.24611E-02
         0.22358E-02
         0.16503E-02
         0.87859E-03
        -0.21374E-02
        -0.26934E-02
        -0.31291E-02
        -0.30382E-02
        -0.28750E-02
        -0.26460E-02
        -0.23736E-02
        -0.21521E-02
        -0.15090E-02
         0.93572E-03
         0.00000E+00
         0.18171E-02
         0.25928E-02
         0.32179E-02
         0.36559E-02
         0.38815E-02
         0.38815E-02
         0.36559E-02
         0.32179E-02
         0.25928E-02
         0.18171E-02
         0.93572E-03
         0.22152E-17
        -0.93572E-03
        -0.18171E-02
        -0.25928E-02
        -0.32179E-02
        -0.36559E-02
        -0.38815E-02
        -0.38815E-02
        -0.36559E-02
        -0.32179E-02
        -0.25928E-02
        -0.18171E-02
        -0.93572E-03
         0.68124E-03
         0.12407E-02
         0.59936E-03
        -0.32643E-03
         0.15427E-03
        -0.66903E-03
         0.18440E-02
         0.14727E-02
         0.31656E-03
         0.11935E-02
         0.22767E-02
         0.28220E-02
         0.24260E-02
         0.21690E-02
         0.29327E-02
        -0.10054E-02
         0.91108E-04
        -0.69229E-03
        -0.70985E-03
         0.84602E-04
        -0.77610E-03
         0.44813E-04
        -0.15187E-02
        -0.13215E-02
         0.10088E-02
        -0.17319E-02
         0.20262E-02
         0.18595E-02
         0.17175E-02
         0.91300E-03
        -0.19804E-02
        -0.23493E-02
        -0.17073E-02
        -0.14931E-02
         0.77544E-03
         0.12541E-02
         0.18671E-02
         0.28877E-02
         0.27137E-02
         0.24609E-02
         0.22358E-02
         0.16503E-02
         0.87885E-03
        -0.21374E-02
        -0.26934E-02
        -0.31291E-02
        -0.30382E-02
        -0.28750E-02
        -0.26463E-02
        -0.23738E-02
        -0.21527E-02
        -0.15088E-02
         0.93572E-03
         0.00000E+00
         0.18171E-02
         0.25928E-02
         0.32179E-02
         0.36559E-02
         0.38815E-02
         0.38815E-02
         0.36559E-02
         0.32179E-02
         0.25928E-02
         0.18171E-02
         0.93572E-03
        -0.47884E-18
        -0.93572E-03
        -0.18171E-02
        -0.25928E-02
        -0.32179E-02
        -0.36559E-02
        -0.38815E-02
        -0.38815E-02
        -0.36559E-02
        -0.32179E-02
        -0.25928E-02
        -0.18171E-02
        -0.93572E-03
         0.68179E-03
         0.12414E-02
         0.59988E-03
        -0.32568E-03
         0.15463E-03
        -0.66854E-03
         0.18442E-02
         0.14736E-02
         0.31770E-03
         0.11952E-02
         0.22768E-02
         0.28216E-02
         0.24261E-02
         0.21690E-02
         0.29324E-02
        -0.10056E-02
         0.91918E-04
        -0.69156E-03
        -0.70971E-03
         0.84726E-04
        -0.77593E-03
         0.45086E-04
        -0.15187E-02
        -0.13213E-02
         0.10102E-02
        -0.17318E-02
         0.20265E-02
         0.18594E-02
         0.17175E-02
         0.91324E-03
        -0.19804E-02
        -0.23493E-02
        -0.17073E-02
        -0.14933E-02
         0.77645E-03
         0.12545E-02
         0.18671E-02
         0.28867E-02
         0.27132E-02
         0.24606E-02
         0.22358E-02
         0.16503E-02
         0.87912E-03
        -0.21374E-02
        -0.26935E-02
        -0.31291E-02
        -0.30381E-02
        -0.28750E-02
        -0.26466E-02
        -0.23740E-02
        -0.21533E-02
        -0.15087E-02
         0.93572E-03
         0.00000E+00
         0.18171E-02
         0.25928E-02
         0.32179E-02
         0.36559E-02
         0.38815E-02
         0.38815E-02
         0.36559E-02
         0.32179E-02
         0.25928E-02
         0.18171E-02
         0.93572E-03
        -0.47884E-18
        -0.93572E-03
        -0.18171E-02
        -0.25928E-02
        -0.32179E-02
        -0.36559E-02
        -0.38815E-02
        -0.38815E-02
        -0.36559E-02
        -0.32179E-02
        -0.25928E-02
        -0.18171E-02
        -0.93572E-03
         0.68235E-03
         0.12421E-02
         0.60041E-03
        -0.32493E-03
         0.15500E-03
        -0.66805E-03
         0.18444E-02
         0.14747E-02
         0.31885E-03
         0.11970E-02
         0.22770E-02
         0.28211E-02
         0.24262E-02
         0.21691E-02
         0.29322E-02
        -0.10057E-02
         0.92727E-04
        -0.69084E-03
        -0.70957E-03
         0.84849E-04
        -0.77576E-03
         0.45359E-04
        -0.15186E-02
        -0.13212E-02
         0.10115E-02
        -0.17318E-02
         0.20268E-02
         0.18593E-02
         0.17175E-02
         0.91347E-03
        -0.19804E-02
        -0.23493E-02
        -0.17073E-02
        -0.14936E-02
         0.77745E-03
         0.12550E-02
         0.18671E-02
         0.28856E-02
         0.27127E-02
         0.24604E-02
         0.22358E-02
         0.16503E-02
         0.87938E-03
        -0.21374E-02
        -0.26935E-02
        -0.31291E-02
        -0.30381E-02
        -0.28750E-02
        -0.26468E-02
        -0.23742E-02
        -0.21538E-02
        -0.15086E-02
         0.93572E-03
         0.00000E+00
         0.18171E-02
         0.25928E-02
         0.32179E-02
         0.36559E-02
         0.38815E-02
         0.38815E-02
         0.36559E-02
         0.32179E-02
         0.25928E-02
         0.18171E-02
         0.93572E-03
        -0.47884E-18
        -0.93572E-03
        -0.18171E-02
        -0.25928E-02
        -0.32179E-02
        -0.36559E-02
        -0.38815E-02
        -0.38815E-02
        -0.36559E-02
        -0.32179E-02
        -0.25928E-02
        -0.18171E-02
        -0.93572E-03
         0.68290E-03
         0.12427E-02
         0.60093E-03
        -0.32417E-03
         0.15536E-03
        -0.66755E-03
         0.18445E-02
         0.14757E-02
         0.32000E-03
         0.11987E-02
         0.22771E-02
         0.28207E-02
         0.24264E-02
         0.21691E-02
         0.29319E-02
        -0.10058E-02
         0.93536E-04
        -0.69011E-03
        -0.70943E-03
         0.84973E-04
        -0.77559E-03
         0.45633E-04
        -0.15186E-02
        -0.13212E-02
         0.10129E-02
        -0.17318E-02
         0.20271E-02
         0.18592E-02
         0.17175E-02
         0.91371E-03
        -0.19805E-02
        -0.23493E-02
        -0.17073E-02
        -0.14938E-02
         0.77846E-03
         0.12554E-02
         0.18672E-02
         0.28845E-02
         0.27122E-02
         0.24602E-02
         0.22358E-02
         0.16502E-02
         0.87964E-03
        -0.21374E-02
        -0.26935E-02
        -0.31291E-02
        -0.30381E-02
        -0.28750E-02
        -0.26471E-02
        -0.23744E-02
        -0.21543E-02
        -0.15085E-02
         0.93572E-03
         0.00000E+00
         0.18171E-02
         0.25928E-02
         0.32179E-02
         0.36559E-02
         0.38815E-02
         0.38815E-02
         0.36559E-02
         0.32179E-02
         0.25928E-02
         0.18171E-02
         0.93572E-03
        -0.47884E-18
        -0.93572E-03
        -0.18171E-02
        -0.25928E-02
        -0.32179E-02
        -0.36559E-02
        -0.38815E-02
        -0.38815E-02
        -0.36559E-02
        -0.32179E-02
        -0.25928E-02
        -0.18171E-02
        -0.93572E-03
         0.68346E-03
         0.12434E-02
         0.60145E-03
        -0.32342E-03
         0.15572E-03
        -0.66706E-03
         0.18447E-02
         0.14767E-02
         0.32115E-03
         0.12005E-02
         0.22772E-02
         0.28203E-02
         0.24265E-02
         0.21691E-02
         0.29316E-02
        -0.10060E-02
         0.94345E-04
        -0.68939E-03
        -0.70929E-03
         0.85096E-04
        -0.77542E-03
         0.45906E-04
        -0.15185E-02
        -0.13211E-02
         0.10142E-02
        -0.17317E-02
         0.20274E-02
         0.18590E-02
         0.17175E-02
         0.91395E-03
        -0.19805E-02
        -0.23494E-02
        -0.17073E-02
        -0.14941E-02
         0.77946E-03
         0.12558E-02
         0.18672E-02
         0.28835E-02
         0.27118E-02
         0.24600E-02
         0.22358E-02
         0.16502E-02
         0.87990E-03
        -0.21374E-02
        -0.26935E-02
        -0.31291E-02
        -0.30381E-02
        -0.28750E-02
        -0.26474E-02
        -0.23746E-02
        -0.21549E-02
        -0.15084E-02
         0.93572E-03
         0.00000E+00
         0.18171E-02
         0.25928E-02
         0.32179E-02
         0.36559E-02
         0.38815E-02
         0.38815E-02
         0.36559E-02
         0.32179E-02
         0.25928E-02
         0.18171E-02
         0.93572E-03
         0.22152E-17
        -0.93572E-03
        -0.18171E-02
        -0.25928E-02
        -0.32179E-02
        -0.36559E-02
        -0.38815E-02
        -0.38815E-02
        -0.36559E-02
        -0.32179E-02
        -0.25928E-02
        -0.18171E-02
        -0.93572E-03
         0.68401E-03
         0.12440E-02
         0.60198E-03
        -0.32266E-03
         0.15609E-03
        -0.66657E-03
         0.18449E-02
         0.14777E-02
         0.32230E-03
         0.12022E-02
         0.22774E-02
         0.28198E-02
         0.24267E-02
         0.21692E-02
         0.29314E-02
        -0.10061E-02
         0.95155E-04
        -0.68866E-03
        -0.70915E-03
         0.85220E-04
        -0.77525E-03
         0.46180E-04
        -0.15185E-02
        -0.13210E-02
         0.10156E-02
        -0.17317E-02
         0.20277E-02
         0.18589E-02
         0.17175E-02
         0.91419E-03
        -0.19805E-02
        -0.23494E-02
        -0.17073E-02
        -0.14943E-02
         0.78047E-03
         0.12563E-02
         0.18672E-02
         0.28824E-02
         0.27113E-02
         0.24597E-02
         0.22358E-02
         0.16502E-02
         0.88016E-03
        -0.21374E-02
        -0.26935E-02
        -0.31291E-02
        -0.30381E-02
        -0.28751E-02
        -0.26476E-02
        -0.23748E-02
        -0.21554E-02
        -0.15083E-02
         0.93572E-03
         0.00000E+00
         0.18171E-02
         0.25928E-02
         0.32179E-02
         0.36559E-02
         0.38815E-02
         0.38815E-02
         0.36559E-02
         0.32179E-02
         0.25928E-02
         0.18171E-02
         0.93572E-03
        -0.47884E-18
        -0.93572E-03
        -0.18171E-02
        -0.25928E-02
        -0.32179E-02
        -0.36559E-02
        -0.38815E-02
        -0.38815E-02
        -0.36559E-02
        -0.32179E-02
        -0.25928E-02
        -0.18171E-02
        -0.93572E-03
         0.68457E-03
         0.12447E-02
         0.60250E-03
        -0.32191E-03
         0.15645E-03
        -0.66607E-03
         0.18451E-02
         0.14787E-02
         0.32345E-03
         0.12040E-02
         0.22775E-02
         0.28194E-02
         0.24268E-02
         0.21692E-02
         0.29311E-02
        -0.10062E-02
         0.95964E-04
        -0.68793E-03
        -0.70901E-03
         0.85343E-04
        -0.77507E-03
         0.46453E-04
        -0.15184E-02
        -0.13209E-02
         0.10169E-02
        -0.17316E-02
         0.20280E-02
         0.18588E-02
         0.17175E-02
         0.91443E-03
        -0.19806E-02
        -0.23494E-02
        -0.17073E-02
        -0.14945E-02
         0.78148E-03
         0.12567E-02
         0.18673E-02
         0.28813E-02
         0.27108E-02
         0.24595E-02
         0.22358E-02
         0.16502E-02
         0.88043E-03
        -0.21374E-02
        -0.26936E-02
        -0.31291E-02
        -0.30381E-02
        -0.28751E-02
        -0.26479E-02
        -0.23750E-02
        -0.21560E-02
        -0.15082E-02
         0.93572E-03
         0.00000E+00
         0.18171E-02
         0.25928E-02
         0.32179E-02
         0.36559E-02
         0.38815E-02
         0.38815E-02
         0.36559E-02
         0.32179E-02
         0.25928E-02
         0.18171E-02
         0.93572E-03
        -0.47884E-18
        -0.93572E-03
        -0.18171E-02
        -0.25928E-02
        -0.32179E-02
        -0.36559E-02
        -0.38815E-02
        -0.38815E-02
        -0.36559E-02
        -0.32179E-02
        -0.25928E-02
        -0.18171E-02
        -0.93572E-03
         0.68512E-03
         0.12454E-02
         0.60302E-03
        -0.32115E-03
         0.15681E-03
        -0.66558E-03
         0.18453E-02
         0.14797E-02
         0.32459E-03
         0.12058E-02
         0.22776E-02
         0.28189E-02
         0.24270E-02
         0.21693E-02
         0.29308E-02
        -0.10064E-02
         0.96773E-04
        -0.68721E-03
        -0.70887E-03
         0.85467E-04
        -0.77490E-03
         0.46726E-04
        -0.15184E-02
        -0.13208E-02
         0.10183E-02
        -0.17316E-02
         0.20283E-02
         0.18586E-02
         0.17175E-02
         0.91467E-03
        -0.19806E-02
        -0.23494E-02
        -0.17073E-02
        -0.14948E-02
         0.78248E-03
         0.12571E-02
         0.18673E-02
         0.28802E-02
         0.27103E-02
         0.24593E-02
         0.22358E-02
         0.16502E-02
         0.88069E-03
        -0.21374E-02
        -0.26936E-02
        -0.31291E-02
        -0.30381E-02
        -0.28751E-02
        -0.26482E-02
        -0.23752E-02
        -0.21565E-02
        -0.15081E-02
         0.93572E-03
         0.00000E+00
         0.18171E-02
         0.25928E-02
         0.32179E-02
         0.36559E-02
         0.38815E-02
         0.38815E-02
         0.36559E-02
         0.32179E-02
         0.25928E-02
         0.18171E-02
         0.93572E-03
        -0.47884E-18
        -0.93572E-03
        -0.18171E-02
        -0.25928E-02
        -0.32179E-02
        -0.36559E-02
        -0.38815E-02
        -0.38815E-02
        -0.36559E-02
        -0.32179E-02
        -0.25928E-02
        -0.18171E-02
        -0.93572E-03
         0.68567E-03
         0.12460E-02
         0.60355E-03
        -0.32040E-03
         0.15718E-03
        -0.66509E-03
         0.18455E-02
         0.14807E-02
         0.32574E-03
         0.12075E-02
         0.22777E-02
         0.28185E-02
         0.24271E-02
         0.21693E-02
         0.29306E-02
        -0.10065E-02
         0.97583E-04
        -0.68648E-03
        -0.70873E-03
         0.85591E-04
        -0.77474E-03
         0.47000E-04
        -0.15183E-02
        -0.13207E-02
         0.10197E-02
        -0.17316E-02
         0.20285E-02
         0.18585E-02
         0.17175E-02
         0.91491E-03
        -0.19806E-02
        -0.23495E-02
        -0.17073E-02
        -0.14950E-02
         0.78348E-03
         0.12576E-02
         0.18674E-02
         0.28792E-02
         0.27099E-02
         0.24591E-02
         0.22358E-02
         0.16502E-02
         0.88095E-03
        -0.21374E-02
        -0.26936E-02
        -0.31290E-02
        -0.30381E-02
        -0.28751E-02
        -0.26484E-02
        -0.23754E-02
        -0.21571E-02
        -0.15080E-02
         0.93572E-03
         0.00000E+00
         0.18171E-02
         0.25928E-02
         0.32179E-02
         0.36559E-02
         0.38815E-02
         0.38815E-02
         0.36559E-02
         0.32179E-02
         0.25928E-02
         0.18171E-02
         0.93572E-03
         0.47884E-18
        -0.93572E-03
        -0.18171E-02
        -0.25928E-02
        -0.32179E-02
        -0.36559E-02
        -0.38815E-02
        -0.38815E-02
        -0.36559E-02
        -0.32179E-02
        -0.25928E-02
        -0.18171E-02
        -0.93572E-03
  
SCALARS           initial_coordinate_z  double 1
LOOKUP_TABLE default
        -0.10771E-01
        -0.10771E-01
        -0.10771E-01
        -0.10771E-01
        -0.11750E-01
        -0.11750E-01
        -0.11750E-01
        -0.11750E-01
        -0.10771E-01
        -0.10771E-01
        -0.11750E-01
        -0.11750E-01
        -0.10771E-01
        -0.10771E-01
        -0.11750E-01
        -0.11750E-01
        -0.10771E-01
        -0.10771E-01
        -0.11750E-01
        -0.11750E-01
        -0.10771E-01
        -0.10771E-01
        -0.10771E-01
        -0.11750E-01
        -0.11750E-01
        -0.11750E-01
        -0.10771E-01
        -0.10771E-01
        -0.11750E-01
        -0.11750E-01
        -0.10771E-01
        -0.10771E-01
        -0.10771E-01
        -0.11750E-01
        -0.11750E-01
        -0.11750E-01
        -0.10771E-01
        -0.10771E-01
        -0.11750E-01
        -0.11750E-01
        -0.10771E-01
        -0.10771E-01
        -0.11750E-01
        -0.11750E-01
        -0.10771E-01
        -0.10771E-01
        -0.11750E-01
        -0.11750E-01
        -0.10771E-01
        -0.11750E-01
        -0.10771E-01
        -0.11750E-01
        -0.10771E-01
        -0.11750E-01
        -0.10771E-01
        -0.11750E-01
        -0.10771E-01
        -0.10771E-01
        -0.11750E-01
        -0.11750E-01
        -0.10771E-01
        -0.10771E-01
        -0.11750E-01
        -0.11750E-01
        -0.10771E-01
        -0.11750E-01
        -0.10771E-01
        -0.11750E-01
        -0.10771E-01
        -0.10771E-01
        -0.11750E-01
        -0.11750E-01
        -0.10771E-01
        -0.11750E-01
        -0.10771E-01
        -0.11750E-01
        -0.10771E-01
        -0.11750E-01
        -0.10771E-01
        -0.11750E-01
        -0.10771E-01
        -0.10771E-01
        -0.11750E-01
        -0.11750E-01
        -0.10771E-01
        -0.11750E-01
        -0.10771E-01
        -0.11750E-01
        -0.10771E-01
        -0.11750E-01
        -0.10771E-01
        -0.10771E-01
        -0.11750E-01
        -0.11750E-01
        -0.10771E-01
        -0.11750E-01
        -0.10771E-01
        -0.11750E-01
        -0.10771E-01
        -0.11750E-01
        -0.10771E-01
        -0.10771E-01
        -0.11750E-01
        -0.11750E-01
        -0.10771E-01
        -0.10771E-01
        -0.11750E-01
        -0.11750E-01
        -0.10771E-01
        -0.11750E-01
        -0.10771E-01
        -0.11750E-01
        -0.10771E-01
        -0.11750E-01
        -0.10771E-01
        -0.11750E-01
        -0.10771E-01
        -0.11750E-01
        -0.10771E-01
        -0.11750E-01
        -0.10771E-01
        -0.11750E-01
        -0.10771E-01
        -0.11750E-01
        -0.10771E-01
        -0.11750E-01
        -0.10771E-01
        -0.11750E-01
        -0.10771E-01
        -0.11750E-01
        -0.10771E-01
        -0.11750E-01
        -0.10771E-01
        -0.11750E-01
        -0.10771E-01
        -0.11750E-01
        -0.10771E-01
        -0.11750E-01
        -0.10771E-01
        -0.11750E-01
        -0.10771E-01
        -0.11750E-01
        -0.10771E-01
        -0.11750E-01
        -0.10771E-01
        -0.11750E-01
        -0.10771E-01
        -0.11750E-01
        -0.10771E-01
        -0.11750E-01
        -0.10771E-01
        -0.11750E-01
        -0.10771E-01
        -0.11750E-01
        -0.10771E-01
        -0.11750E-01
        -0.97917E-02
        -0.97917E-02
        -0.97917E-02
        -0.97917E-02
        -0.97917E-02
        -0.97917E-02
        -0.97917E-02
        -0.97917E-02
        -0.97917E-02
        -0.97917E-02
        -0.97917E-02
        -0.97917E-02
        -0.97917E-02
        -0.97917E-02
        -0.97917E-02
        -0.97917E-02
        -0.97917E-02
        -0.97917E-02
        -0.97917E-02
        -0.97917E-02
        -0.97917E-02
        -0.97917E-02
        -0.97917E-02
        -0.97917E-02
        -0.97917E-02
        -0.97917E-02
        -0.97917E-02
        -0.97917E-02
        -0.97917E-02
        -0.97917E-02
        -0.97917E-02
        -0.97917E-02
        -0.97917E-02
        -0.97917E-02
        -0.97917E-02
        -0.97917E-02
        -0.97917E-02
        -0.97917E-02
        -0.97917E-02
        -0.97917E-02
        -0.97917E-02
        -0.97917E-02
        -0.97917E-02
        -0.97917E-02
        -0.97917E-02
        -0.97917E-02
        -0.97917E-02
        -0.97917E-02
        -0.97917E-02
        -0.97917E-02
        -0.97917E-02
        -0.97917E-02
        -0.97917E-02
        -0.97917E-02
        -0.97917E-02
        -0.97917E-02
        -0.97917E-02
        -0.97917E-02
        -0.97917E-02
        -0.97917E-02
        -0.97917E-02
        -0.97917E-02
        -0.97917E-02
        -0.97917E-02
        -0.97917E-02
        -0.97917E-02
        -0.97917E-02
        -0.97917E-02
        -0.97917E-02
        -0.97917E-02
        -0.97917E-02
        -0.97917E-02
        -0.97917E-02
        -0.97917E-02
        -0.97917E-02
        -0.97917E-02
        -0.97917E-02
        -0.97917E-02
        -0.88125E-02
        -0.88125E-02
        -0.88125E-02
        -0.88125E-02
        -0.88125E-02
        -0.88125E-02
        -0.88125E-02
        -0.88125E-02
        -0.88125E-02
        -0.88125E-02
        -0.88125E-02
        -0.88125E-02
        -0.88125E-02
        -0.88125E-02
        -0.88125E-02
        -0.88125E-02
        -0.88125E-02
        -0.88125E-02
        -0.88125E-02
        -0.88125E-02
        -0.88125E-02
        -0.88125E-02
        -0.88125E-02
        -0.88125E-02
        -0.88125E-02
        -0.88125E-02
        -0.88125E-02
        -0.88125E-02
        -0.88125E-02
        -0.88125E-02
        -0.88125E-02
        -0.88125E-02
        -0.88125E-02
        -0.88125E-02
        -0.88125E-02
        -0.88125E-02
        -0.88125E-02
        -0.88125E-02
        -0.88125E-02
        -0.88125E-02
        -0.88125E-02
        -0.88125E-02
        -0.88125E-02
        -0.88125E-02
        -0.88125E-02
        -0.88125E-02
        -0.88125E-02
        -0.88125E-02
        -0.88125E-02
        -0.88125E-02
        -0.88125E-02
        -0.88125E-02
        -0.88125E-02
        -0.88125E-02
        -0.88125E-02
        -0.88125E-02
        -0.88125E-02
        -0.88125E-02
        -0.88125E-02
        -0.88125E-02
        -0.88125E-02
        -0.88125E-02
        -0.88125E-02
        -0.88125E-02
        -0.88125E-02
        -0.88125E-02
        -0.88125E-02
        -0.88125E-02
        -0.88125E-02
        -0.88125E-02
        -0.88125E-02
        -0.88125E-02
        -0.88125E-02
        -0.88125E-02
        -0.88125E-02
        -0.88125E-02
        -0.88125E-02
        -0.88125E-02
        -0.78333E-02
        -0.78333E-02
        -0.78333E-02
        -0.78333E-02
        -0.78333E-02
        -0.78333E-02
        -0.78333E-02
        -0.78333E-02
        -0.78333E-02
        -0.78333E-02
        -0.78333E-02
        -0.78333E-02
        -0.78333E-02
        -0.78333E-02
        -0.78333E-02
        -0.78333E-02
        -0.78333E-02
        -0.78333E-02
        -0.78333E-02
        -0.78333E-02
        -0.78333E-02
        -0.78333E-02
        -0.78333E-02
        -0.78333E-02
        -0.78333E-02
        -0.78333E-02
        -0.78333E-02
        -0.78333E-02
        -0.78333E-02
        -0.78333E-02
        -0.78333E-02
        -0.78333E-02
        -0.78333E-02
        -0.78333E-02
        -0.78333E-02
        -0.78333E-02
        -0.78333E-02
        -0.78333E-02
        -0.78333E-02
        -0.78333E-02
        -0.78333E-02
        -0.78333E-02
        -0.78333E-02
        -0.78333E-02
        -0.78333E-02
        -0.78333E-02
        -0.78333E-02
        -0.78333E-02
        -0.78333E-02
        -0.78333E-02
        -0.78333E-02
        -0.78333E-02
        -0.78333E-02
        -0.78333E-02
        -0.78333E-02
        -0.78333E-02
        -0.78333E-02
        -0.78333E-02
        -0.78333E-02
        -0.78333E-02
        -0.78333E-02
        -0.78333E-02
        -0.78333E-02
        -0.78333E-02
        -0.78333E-02
        -0.78333E-02
        -0.78333E-02
        -0.78333E-02
        -0.78333E-02
        -0.78333E-02
        -0.78333E-02
        -0.78333E-02
        -0.78333E-02
        -0.78333E-02
        -0.78333E-02
        -0.78333E-02
        -0.78333E-02
        -0.78333E-02
        -0.68542E-02
        -0.68542E-02
        -0.68542E-02
        -0.68542E-02
        -0.68542E-02
        -0.68542E-02
        -0.68542E-02
        -0.68542E-02
        -0.68542E-02
        -0.68542E-02
        -0.68542E-02
        -0.68542E-02
        -0.68542E-02
        -0.68542E-02
        -0.68542E-02
        -0.68542E-02
        -0.68542E-02
        -0.68542E-02
        -0.68542E-02
        -0.68542E-02
        -0.68542E-02
        -0.68542E-02
        -0.68542E-02
        -0.68542E-02
        -0.68542E-02
        -0.68542E-02
        -0.68542E-02
        -0.68542E-02
        -0.68542E-02
        -0.68542E-02
        -0.68542E-02
        -0.68542E-02
        -0.68542E-02
        -0.68542E-02
        -0.68542E-02
        -0.68542E-02
        -0.68542E-02
        -0.68542E-02
        -0.68542E-02
        -0.68542E-02
        -0.68542E-02
        -0.68542E-02
        -0.68542E-02
        -0.68542E-02
        -0.68542E-02
        -0.68542E-02
        -0.68542E-02
        -0.68542E-02
        -0.68542E-02
        -0.68542E-02
        -0.68542E-02
        -0.68542E-02
        -0.68542E-02
        -0.68542E-02
        -0.68542E-02
        -0.68542E-02
        -0.68542E-02
        -0.68542E-02
        -0.68542E-02
        -0.68542E-02
        -0.68542E-02
        -0.68542E-02
        -0.68542E-02
        -0.68542E-02
        -0.68542E-02
        -0.68542E-02
        -0.68542E-02
        -0.68542E-02
        -0.68542E-02
        -0.68542E-02
        -0.68542E-02
        -0.68542E-02
        -0.68542E-02
        -0.68542E-02
        -0.68542E-02
        -0.68542E-02
        -0.68542E-02
        -0.68542E-02
        -0.58750E-02
        -0.58750E-02
        -0.58750E-02
        -0.58750E-02
        -0.58750E-02
        -0.58750E-02
        -0.58750E-02
        -0.58750E-02
        -0.58750E-02
        -0.58750E-02
        -0.58750E-02
        -0.58750E-02
        -0.58750E-02
        -0.58750E-02
        -0.58750E-02
        -0.58750E-02
        -0.58750E-02
        -0.58750E-02
        -0.58750E-02
        -0.58750E-02
        -0.58750E-02
        -0.58750E-02
        -0.58750E-02
        -0.58750E-02
        -0.58750E-02
        -0.58750E-02
        -0.58750E-02
        -0.58750E-02
        -0.58750E-02
        -0.58750E-02
        -0.58750E-02
        -0.58750E-02
        -0.58750E-02
        -0.58750E-02
        -0.58750E-02
        -0.58750E-02
        -0.58750E-02
        -0.58750E-02
        -0.58750E-02
        -0.58750E-02
        -0.58750E-02
        -0.58750E-02
        -0.58750E-02
        -0.58750E-02
        -0.58750E-02
        -0.58750E-02
        -0.58750E-02
        -0.58750E-02
        -0.58750E-02
        -0.58750E-02
        -0.58750E-02
        -0.58750E-02
        -0.58750E-02
        -0.58750E-02
        -0.58750E-02
        -0.58750E-02
        -0.58750E-02
        -0.58750E-02
        -0.58750E-02
        -0.58750E-02
        -0.58750E-02
        -0.58750E-02
        -0.58750E-02
        -0.58750E-02
        -0.58750E-02
        -0.58750E-02
        -0.58750E-02
        -0.58750E-02
        -0.58750E-02
        -0.58750E-02
        -0.58750E-02
        -0.58750E-02
        -0.58750E-02
        -0.58750E-02
        -0.58750E-02
        -0.58750E-02
        -0.58750E-02
        -0.58750E-02
        -0.48958E-02
        -0.48958E-02
        -0.48958E-02
        -0.48958E-02
        -0.48958E-02
        -0.48958E-02
        -0.48958E-02
        -0.48958E-02
        -0.48958E-02
        -0.48958E-02
        -0.48958E-02
        -0.48958E-02
        -0.48958E-02
        -0.48958E-02
        -0.48958E-02
        -0.48958E-02
        -0.48958E-02
        -0.48958E-02
        -0.48958E-02
        -0.48958E-02
        -0.48958E-02
        -0.48958E-02
        -0.48958E-02
        -0.48958E-02
        -0.48958E-02
        -0.48958E-02
        -0.48958E-02
        -0.48958E-02
        -0.48958E-02
        -0.48958E-02
        -0.48958E-02
        -0.48958E-02
        -0.48958E-02
        -0.48958E-02
        -0.48958E-02
        -0.48958E-02
        -0.48958E-02
        -0.48958E-02
        -0.48958E-02
        -0.48958E-02
        -0.48958E-02
        -0.48958E-02
        -0.48958E-02
        -0.48958E-02
        -0.48958E-02
        -0.48958E-02
        -0.48958E-02
        -0.48958E-02
        -0.48958E-02
        -0.48958E-02
        -0.48958E-02
        -0.48958E-02
        -0.48958E-02
        -0.48958E-02
        -0.48958E-02
        -0.48958E-02
        -0.48958E-02
        -0.48958E-02
        -0.48958E-02
        -0.48958E-02
        -0.48958E-02
        -0.48958E-02
        -0.48958E-02
        -0.48958E-02
        -0.48958E-02
        -0.48958E-02
        -0.48958E-02
        -0.48958E-02
        -0.48958E-02
        -0.48958E-02
        -0.48958E-02
        -0.48958E-02
        -0.48958E-02
        -0.48958E-02
        -0.48958E-02
        -0.48958E-02
        -0.48958E-02
        -0.48958E-02
        -0.39167E-02
        -0.39167E-02
        -0.39167E-02
        -0.39167E-02
        -0.39167E-02
        -0.39167E-02
        -0.39167E-02
        -0.39167E-02
        -0.39167E-02
        -0.39167E-02
        -0.39167E-02
        -0.39167E-02
        -0.39167E-02
        -0.39167E-02
        -0.39167E-02
        -0.39167E-02
        -0.39167E-02
        -0.39167E-02
        -0.39167E-02
        -0.39167E-02
        -0.39167E-02
        -0.39167E-02
        -0.39167E-02
        -0.39167E-02
        -0.39167E-02
        -0.39167E-02
        -0.39167E-02
        -0.39167E-02
        -0.39167E-02
        -0.39167E-02
        -0.39167E-02
        -0.39167E-02
        -0.39167E-02
        -0.39167E-02
        -0.39167E-02
        -0.39167E-02
        -0.39167E-02
        -0.39167E-02
        -0.39167E-02
        -0.39167E-02
        -0.39167E-02
        -0.39167E-02
        -0.39167E-02
        -0.39167E-02
        -0.39167E-02
        -0.39167E-02
        -0.39167E-02
        -0.39167E-02
        -0.39167E-02
        -0.39167E-02
        -0.39167E-02
        -0.39167E-02
        -0.39167E-02
        -0.39167E-02
        -0.39167E-02
        -0.39167E-02
        -0.39167E-02
        -0.39167E-02
        -0.39167E-02
        -0.39167E-02
        -0.39167E-02
        -0.39167E-02
        -0.39167E-02
        -0.39167E-02
        -0.39167E-02
        -0.39167E-02
        -0.39167E-02
        -0.39167E-02
        -0.39167E-02
        -0.39167E-02
        -0.39167E-02
        -0.39167E-02
        -0.39167E-02
        -0.39167E-02
        -0.39167E-02
        -0.39167E-02
        -0.39167E-02
        -0.39167E-02
        -0.29375E-02
        -0.29375E-02
        -0.29375E-02
        -0.29375E-02
        -0.29375E-02
        -0.29375E-02
        -0.29375E-02
        -0.29375E-02
        -0.29375E-02
        -0.29375E-02
        -0.29375E-02
        -0.29375E-02
        -0.29375E-02
        -0.29375E-02
        -0.29375E-02
        -0.29375E-02
        -0.29375E-02
        -0.29375E-02
        -0.29375E-02
        -0.29375E-02
        -0.29375E-02
        -0.29375E-02
        -0.29375E-02
        -0.29375E-02
        -0.29375E-02
        -0.29375E-02
        -0.29375E-02
        -0.29375E-02
        -0.29375E-02
        -0.29375E-02
        -0.29375E-02
        -0.29375E-02
        -0.29375E-02
        -0.29375E-02
        -0.29375E-02
        -0.29375E-02
        -0.29375E-02
        -0.29375E-02
        -0.29375E-02
        -0.29375E-02
        -0.29375E-02
        -0.29375E-02
        -0.29375E-02
        -0.29375E-02
        -0.29375E-02
        -0.29375E-02
        -0.29375E-02
        -0.29375E-02
        -0.29375E-02
        -0.29375E-02
        -0.29375E-02
        -0.29375E-02
        -0.29375E-02
        -0.29375E-02
        -0.29375E-02
        -0.29375E-02
        -0.29375E-02
        -0.29375E-02
        -0.29375E-02
        -0.29375E-02
        -0.29375E-02
        -0.29375E-02
        -0.29375E-02
        -0.29375E-02
        -0.29375E-02
        -0.29375E-02
        -0.29375E-02
        -0.29375E-02
        -0.29375E-02
        -0.29375E-02
        -0.29375E-02
        -0.29375E-02
        -0.29375E-02
        -0.29375E-02
        -0.29375E-02
        -0.29375E-02
        -0.29375E-02
        -0.29375E-02
        -0.19583E-02
        -0.19583E-02
        -0.19583E-02
        -0.19583E-02
        -0.19583E-02
        -0.19583E-02
        -0.19583E-02
        -0.19583E-02
        -0.19583E-02
        -0.19583E-02
        -0.19583E-02
        -0.19583E-02
        -0.19583E-02
        -0.19583E-02
        -0.19583E-02
        -0.19583E-02
        -0.19583E-02
        -0.19583E-02
        -0.19583E-02
        -0.19583E-02
        -0.19583E-02
        -0.19583E-02
        -0.19583E-02
        -0.19583E-02
        -0.19583E-02
        -0.19583E-02
        -0.19583E-02
        -0.19583E-02
        -0.19583E-02
        -0.19583E-02
        -0.19583E-02
        -0.19583E-02
        -0.19583E-02
        -0.19583E-02
        -0.19583E-02
        -0.19583E-02
        -0.19583E-02
        -0.19583E-02
        -0.19583E-02
        -0.19583E-02
        -0.19583E-02
        -0.19583E-02
        -0.19583E-02
        -0.19583E-02
        -0.19583E-02
        -0.19583E-02
        -0.19583E-02
        -0.19583E-02
        -0.19583E-02
        -0.19583E-02
        -0.19583E-02
        -0.19583E-02
        -0.19583E-02
        -0.19583E-02
        -0.19583E-02
        -0.19583E-02
        -0.19583E-02
        -0.19583E-02
        -0.19583E-02
        -0.19583E-02
        -0.19583E-02
        -0.19583E-02
        -0.19583E-02
        -0.19583E-02
        -0.19583E-02
        -0.19583E-02
        -0.19583E-02
        -0.19583E-02
        -0.19583E-02
        -0.19583E-02
        -0.19583E-02
        -0.19583E-02
        -0.19583E-02
        -0.19583E-02
        -0.19583E-02
        -0.19583E-02
        -0.19583E-02
        -0.19583E-02
        -0.97917E-03
        -0.97917E-03
        -0.97917E-03
        -0.97917E-03
        -0.97917E-03
        -0.97917E-03
        -0.97917E-03
        -0.97917E-03
        -0.97917E-03
        -0.97917E-03
        -0.97917E-03
        -0.97917E-03
        -0.97917E-03
        -0.97917E-03
        -0.97917E-03
        -0.97917E-03
        -0.97917E-03
        -0.97917E-03
        -0.97917E-03
        -0.97917E-03
        -0.97917E-03
        -0.97917E-03
        -0.97917E-03
        -0.97917E-03
        -0.97917E-03
        -0.97917E-03
        -0.97917E-03
        -0.97917E-03
        -0.97917E-03
        -0.97917E-03
        -0.97917E-03
        -0.97917E-03
        -0.97917E-03
        -0.97917E-03
        -0.97917E-03
        -0.97917E-03
        -0.97917E-03
        -0.97917E-03
        -0.97917E-03
        -0.97917E-03
        -0.97917E-03
        -0.97917E-03
        -0.97917E-03
        -0.97917E-03
        -0.97917E-03
        -0.97917E-03
        -0.97917E-03
        -0.97917E-03
        -0.97917E-03
        -0.97917E-03
        -0.97917E-03
        -0.97917E-03
        -0.97917E-03
        -0.97917E-03
        -0.97917E-03
        -0.97917E-03
        -0.97917E-03
        -0.97917E-03
        -0.97917E-03
        -0.97917E-03
        -0.97917E-03
        -0.97917E-03
        -0.97917E-03
        -0.97917E-03
        -0.97917E-03
        -0.97917E-03
        -0.97917E-03
        -0.97917E-03
        -0.97917E-03
        -0.97917E-03
        -0.97917E-03
        -0.97917E-03
        -0.97917E-03
        -0.97917E-03
        -0.97917E-03
        -0.97917E-03
        -0.97917E-03
        -0.97917E-03
         0.38917E-18
         0.44621E-18
         0.34485E-18
         0.23671E-18
         0.26613E-18
         0.16162E-18
         0.53980E-18
         0.50579E-18
         0.36337E-18
         0.48798E-18
         0.60712E-18
         0.67611E-18
         0.60634E-18
         0.60658E-18
         0.70997E-18
         0.20892E-18
         0.35894E-18
         0.21887E-18
         0.27638E-18
         0.38382E-18
         0.29058E-18
         0.40326E-18
         0.18564E-18
         0.19650E-18
         0.48570E-18
         0.12837E-18
         0.60589E-18
         0.60416E-18
         0.60524E-18
         0.49621E-18
         0.61582E-19
         0.32255E-19
         0.73874E-19
         0.78478E-19
         0.34514E-18
         0.42054E-18
         0.51644E-18
         0.72521E-18
         0.72233E-18
         0.70722E-18
         0.69126E-18
         0.61573E-18
         0.51484E-18
         0.91170E-19
         0.30347E-20
        -0.66516E-19
        -0.69988E-19
        -0.68643E-19
        -0.59779E-19
        -0.43507E-19
        -0.29471E-19
         0.53205E-19
         0.86819E-18
         0.00000E+00
         0.86819E-18
         0.86819E-18
         0.00000E+00
         0.00000E+00
         0.00000E+00
         0.17364E-17
         0.17364E-17
         0.17364E-17
         0.43410E-18
         0.43410E-18
         0.43410E-18
         0.00000E+00
         0.00000E+00
         0.00000E+00
         0.00000E+00
         0.00000E+00
         0.21705E-18
        -0.21705E-18
         0.00000E+00
         0.00000E+00
         0.00000E+00
        -0.32557E-18
         0.54262E-19
        -0.40697E-18
         0.97917E-03
         0.97917E-03
         0.97917E-03
         0.97917E-03
         0.97917E-03
         0.97917E-03
         0.97917E-03
         0.97917E-03
         0.97917E-03
         0.97917E-03
         0.97917E-03
         0.97917E-03
         0.97917E-03
         0.97917E-03
         0.97917E-03
         0.97917E-03
         0.97917E-03
         0.97917E-03
         0.97917E-03
         0.97917E-03
         0.97917E-03
         0.97917E-03
         0.97917E-03
         0.97917E-03
         0.97917E-03
         0.97917E-03
         0.97917E-03
         0.97917E-03
         0.97917E-03
         0.97917E-03
         0.97917E-03
         0.97917E-03
         0.97917E-03
         0.97917E-03
         0.97917E-03
         0.97917E-03
         0.97917E-03
         0.97917E-03
         0.97917E-03
         0.97917E-03
         0.97917E-03
         0.97917E-03
         0.97917E-03
         0.97917E-03
         0.97917E-03
         0.97917E-03
         0.97917E-03
         0.97917E-03
         0.97917E-03
         0.97917E-03
         0.97917E-03
         0.97917E-03
         0.97917E-03
         0.97917E-03
         0.97917E-03
         0.97917E-03
         0.97917E-03
         0.97917E-03
         0.97917E-03
         0.97917E-03
         0.97917E-03
         0.97917E-03
         0.97917E-03
         0.97917E-03
         0.97917E-03
         0.97917E-03
         0.97917E-03
         0.97917E-03
         0.97917E-03
         0.97917E-03
         0.97917E-03
         0.97917E-03
         0.97917E-03
         0.97917E-03
         0.97917E-03
         0.97917E-03
         0.97917E-03
         0.97917E-03
         0.19583E-02
         0.19583E-02
         0.19583E-02
         0.19583E-02
         0.19583E-02
         0.19583E-02
         0.19583E-02
         0.19583E-02
         0.19583E-02
         0.19583E-02
         0.19583E-02
         0.19583E-02
         0.19583E-02
         0.19583E-02
         0.19583E-02
         0.19583E-02
         0.19583E-02
         0.19583E-02
         0.19583E-02
         0.19583E-02
         0.19583E-02
         0.19583E-02
         0.19583E-02
         0.19583E-02
         0.19583E-02
         0.19583E-02
         0.19583E-02
         0.19583E-02
         0.19583E-02
         0.19583E-02
         0.19583E-02
         0.19583E-02
         0.19583E-02
         0.19583E-02
         0.19583E-02
         0.19583E-02
         0.19583E-02
         0.19583E-02
         0.19583E-02
         0.19583E-02
         0.19583E-02
         0.19583E-02
         0.19583E-02
         0.19583E-02
         0.19583E-02
         0.19583E-02
         0.19583E-02
         0.19583E-02
         0.19583E-02
         0.19583E-02
         0.19583E-02
         0.19583E-02
         0.19583E-02
         0.19583E-02
         0.19583E-02
         0.19583E-02
         0.19583E-02
         0.19583E-02
         0.19583E-02
         0.19583E-02
         0.19583E-02
         0.19583E-02
         0.19583E-02
         0.19583E-02
         0.19583E-02
         0.19583E-02
         0.19583E-02
         0.19583E-02
         0.19583E-02
         0.19583E-02
         0.19583E-02
         0.19583E-02
         0.19583E-02
         0.19583E-02
         0.19583E-02
         0.19583E-02
         0.19583E-02
         0.19583E-02
         0.29375E-02
         0.29375E-02
         0.29375E-02
         0.29375E-02
         0.29375E-02
         0.29375E-02
         0.29375E-02
         0.29375E-02
         0.29375E-02
         0.29375E-02
         0.29375E-02
         0.29375E-02
         0.29375E-02
         0.29375E-02
         0.29375E-02
         0.29375E-02
         0.29375E-02
         0.29375E-02
         0.29375E-02
         0.29375E-02
         0.29375E-02
         0.29375E-02
         0.29375E-02
         0.29375E-02
         0.29375E-02
         0.29375E-02
         0.29375E-02
         0.29375E-02
         0.29375E-02
         0.29375E-02
         0.29375E-02
         0.29375E-02
         0.29375E-02
         0.29375E-02
         0.29375E-02
         0.29375E-02
         0.29375E-02
         0.29375E-02
         0.29375E-02
         0.29375E-02
         0.29375E-02
         0.29375E-02
         0.29375E-02
         0.29375E-02
         0.29375E-02
         0.29375E-02
         0.29375E-02
         0.29375E-02
         0.29375E-02
         0.29375E-02
         0.29375E-02
         0.29375E-02
         0.29375E-02
         0.29375E-02
         0.29375E-02
         0.29375E-02
         0.29375E-02
         0.29375E-02
         0.29375E-02
         0.29375E-02
         0.29375E-02
         0.29375E-02
         0.29375E-02
         0.29375E-02
         0.29375E-02
         0.29375E-02
         0.29375E-02
         0.29375E-02
         0.29375E-02
         0.29375E-02
         0.29375E-02
         0.29375E-02
         0.29375E-02
         0.29375E-02
         0.29375E-02
         0.29375E-02
         0.29375E-02
         0.29375E-02
         0.39167E-02
         0.39167E-02
         0.39167E-02
         0.39167E-02
         0.39167E-02
         0.39167E-02
         0.39167E-02
         0.39167E-02
         0.39167E-02
         0.39167E-02
         0.39167E-02
         0.39167E-02
         0.39167E-02
         0.39167E-02
         0.39167E-02
         0.39167E-02
         0.39167E-02
         0.39167E-02
         0.39167E-02
         0.39167E-02
         0.39167E-02
         0.39167E-02
         0.39167E-02
         0.39167E-02
         0.39167E-02
         0.39167E-02
         0.39167E-02
         0.39167E-02
         0.39167E-02
         0.39167E-02
         0.39167E-02
         0.39167E-02
         0.39167E-02
         0.39167E-02
         0.39167E-02
         0.39167E-02
         0.39167E-02
         0.39167E-02
         0.39167E-02
         0.39167E-02
         0.39167E-02
         0.39167E-02
         0.39167E-02
         0.39167E-02
         0.39167E-02
         0.39167E-02
         0.39167E-02
         0.39167E-02
         0.39167E-02
         0.39167E-02
         0.39167E-02
         0.39167E-02
         0.39167E-02
         0.39167E-02
         0.39167E-02
         0.39167E-02
         0.39167E-02
         0.39167E-02
         0.39167E-02
         0.39167E-02
         0.39167E-02
         0.39167E-02
         0.39167E-02
         0.39167E-02
         0.39167E-02
         0.39167E-02
         0.39167E-02
         0.39167E-02
         0.39167E-02
         0.39167E-02
         0.39167E-02
         0.39167E-02
         0.39167E-02
         0.39167E-02
         0.39167E-02
         0.39167E-02
         0.39167E-02
         0.39167E-02
         0.48958E-02
         0.48958E-02
         0.48958E-02
         0.48958E-02
         0.48958E-02
         0.48958E-02
         0.48958E-02
         0.48958E-02
         0.48958E-02
         0.48958E-02
         0.48958E-02
         0.48958E-02
         0.48958E-02
         0.48958E-02
         0.48958E-02
         0.48958E-02
         0.48958E-02
         0.48958E-02
         0.48958E-02
         0.48958E-02
         0.48958E-02
         0.48958E-02
         0.48958E-02
         0.48958E-02
         0.48958E-02
         0.48958E-02
         0.48958E-02
         0.48958E-02
         0.48958E-02
         0.48958E-02
         0.48958E-02
         0.48958E-02
         0.48958E-02
         0.48958E-02
         0.48958E-02
         0.48958E-02
         0.48958E-02
         0.48958E-02
         0.48958E-02
         0.48958E-02
         0.48958E-02
         0.48958E-02
         0.48958E-02
         0.48958E-02
         0.48958E-02
         0.48958E-02
         0.48958E-02
         0.48958E-02
         0.48958E-02
         0.48958E-02
         0.48958E-02
         0.48958E-02
         0.48958E-02
         0.48958E-02
         0.48958E-02
         0.48958E-02
         0.48958E-02
         0.48958E-02
         0.48958E-02
         0.48958E-02
         0.48958E-02
         0.48958E-02
         0.48958E-02
         0.48958E-02
         0.48958E-02
         0.48958E-02
         0.48958E-02
         0.48958E-02
         0.48958E-02
         0.48958E-02
         0.48958E-02
         0.48958E-02
         0.48958E-02
         0.48958E-02
         0.48958E-02
         0.48958E-02
         0.48958E-02
         0.48958E-02
         0.58750E-02
         0.58750E-02
         0.58750E-02
         0.58750E-02
         0.58750E-02
         0.58750E-02
         0.58750E-02
         0.58750E-02
         0.58750E-02
         0.58750E-02
         0.58750E-02
         0.58750E-02
         0.58750E-02
         0.58750E-02
         0.58750E-02
         0.58750E-02
         0.58750E-02
         0.58750E-02
         0.58750E-02
         0.58750E-02
         0.58750E-02
         0.58750E-02
         0.58750E-02
         0.58750E-02
         0.58750E-02
         0.58750E-02
         0.58750E-02
         0.58750E-02
         0.58750E-02
         0.58750E-02
         0.58750E-02
         0.58750E-02
         0.58750E-02
         0.58750E-02
         0.58750E-02
         0.58750E-02
         0.58750E-02
         0.58750E-02
         0.58750E-02
         0.58750E-02
         0.58750E-02
         0.58750E-02
         0.58750E-02
         0.58750E-02
         0.58750E-02
         0.58750E-02
         0.58750E-02
         0.58750E-02
         0.58750E-02
         0.58750E-02
         0.58750E-02
         0.58750E-02
         0.58750E-02
         0.58750E-02
         0.58750E-02
         0.58750E-02
         0.58750E-02
         0.58750E-02
         0.58750E-02
         0.58750E-02
         0.58750E-02
         0.58750E-02
         0.58750E-02
         0.58750E-02
         0.58750E-02
         0.58750E-02
         0.58750E-02
         0.58750E-02
         0.58750E-02
         0.58750E-02
         0.58750E-02
         0.58750E-02
         0.58750E-02
         0.58750E-02
         0.58750E-02
         0.58750E-02
         0.58750E-02
         0.58750E-02
         0.68542E-02
         0.68542E-02
         0.68542E-02
         0.68542E-02
         0.68542E-02
         0.68542E-02
         0.68542E-02
         0.68542E-02
         0.68542E-02
         0.68542E-02
         0.68542E-02
         0.68542E-02
         0.68542E-02
         0.68542E-02
         0.68542E-02
         0.68542E-02
         0.68542E-02
         0.68542E-02
         0.68542E-02
         0.68542E-02
         0.68542E-02
         0.68542E-02
         0.68542E-02
         0.68542E-02
         0.68542E-02
         0.68542E-02
         0.68542E-02
         0.68542E-02
         0.68542E-02
         0.68542E-02
         0.68542E-02
         0.68542E-02
         0.68542E-02
         0.68542E-02
         0.68542E-02
         0.68542E-02
         0.68542E-02
         0.68542E-02
         0.68542E-02
         0.68542E-02
         0.68542E-02
         0.68542E-02
         0.68542E-02
         0.68542E-02
         0.68542E-02
         0.68542E-02
         0.68542E-02
         0.68542E-02
         0.68542E-02
         0.68542E-02
         0.68542E-02
         0.68542E-02
         0.68542E-02
         0.68542E-02
         0.68542E-02
         0.68542E-02
         0.68542E-02
         0.68542E-02
         0.68542E-02
         0.68542E-02
         0.68542E-02
         0.68542E-02
         0.68542E-02
         0.68542E-02
         0.68542E-02
         0.68542E-02
         0.68542E-02
         0.68542E-02
         0.68542E-02
         0.68542E-02
         0.68542E-02
         0.68542E-02
         0.68542E-02
         0.68542E-02
         0.68542E-02
         0.68542E-02
         0.68542E-02
         0.68542E-02
         0.78333E-02
         0.78333E-02
         0.78333E-02
         0.78333E-02
         0.78333E-02
         0.78333E-02
         0.78333E-02
         0.78333E-02
         0.78333E-02
         0.78333E-02
         0.78333E-02
         0.78333E-02
         0.78333E-02
         0.78333E-02
         0.78333E-02
         0.78333E-02
         0.78333E-02
         0.78333E-02
         0.78333E-02
         0.78333E-02
         0.78333E-02
         0.78333E-02
         0.78333E-02
         0.78333E-02
         0.78333E-02
         0.78333E-02
         0.78333E-02
         0.78333E-02
         0.78333E-02
         0.78333E-02
         0.78333E-02
         0.78333E-02
         0.78333E-02
         0.78333E-02
         0.78333E-02
         0.78333E-02
         0.78333E-02
         0.78333E-02
         0.78333E-02
         0.78333E-02
         0.78333E-02
         0.78333E-02
         0.78333E-02
         0.78333E-02
         0.78333E-02
         0.78333E-02
         0.78333E-02
         0.78333E-02
         0.78333E-02
         0.78333E-02
         0.78333E-02
         0.78333E-02
         0.78333E-02
         0.78333E-02
         0.78333E-02
         0.78333E-02
         0.78333E-02
         0.78333E-02
         0.78333E-02
         0.78333E-02
         0.78333E-02
         0.78333E-02
         0.78333E-02
         0.78333E-02
         0.78333E-02
         0.78333E-02
         0.78333E-02
         0.78333E-02
         0.78333E-02
         0.78333E-02
         0.78333E-02
         0.78333E-02
         0.78333E-02
         0.78333E-02
         0.78333E-02
         0.78333E-02
         0.78333E-02
         0.78333E-02
         0.88125E-02
         0.88125E-02
         0.88125E-02
         0.88125E-02
         0.88125E-02
         0.88125E-02
         0.88125E-02
         0.88125E-02
         0.88125E-02
         0.88125E-02
         0.88125E-02
         0.88125E-02
         0.88125E-02
         0.88125E-02
         0.88125E-02
         0.88125E-02
         0.88125E-02
         0.88125E-02
         0.88125E-02
         0.88125E-02
         0.88125E-02
         0.88125E-02
         0.88125E-02
         0.88125E-02
         0.88125E-02
         0.88125E-02
         0.88125E-02
         0.88125E-02
         0.88125E-02
         0.88125E-02
         0.88125E-02
         0.88125E-02
         0.88125E-02
         0.88125E-02
         0.88125E-02
         0.88125E-02
         0.88125E-02
         0.88125E-02
         0.88125E-02
         0.88125E-02
         0.88125E-02
         0.88125E-02
         0.88125E-02
         0.88125E-02
         0.88125E-02
         0.88125E-02
         0.88125E-02
         0.88125E-02
         0.88125E-02
         0.88125E-02
         0.88125E-02
         0.88125E-02
         0.88125E-02
         0.88125E-02
         0.88125E-02
         0.88125E-02
         0.88125E-02
         0.88125E-02
         0.88125E-02
         0.88125E-02
         0.88125E-02
         0.88125E-02
         0.88125E-02
         0.88125E-02
         0.88125E-02
         0.88125E-02
         0.88125E-02
         0.88125E-02
         0.88125E-02
         0.88125E-02
         0.88125E-02
         0.88125E-02
         0.88125E-02
         0.88125E-02
         0.88125E-02
         0.88125E-02
         0.88125E-02
         0.88125E-02
         0.97917E-02
         0.97917E-02
         0.97917E-02
         0.97917E-02
         0.97917E-02
         0.97917E-02
         0.97917E-02
         0.97917E-02
         0.97917E-02
         0.97917E-02
         0.97917E-02
         0.97917E-02
         0.97917E-02
         0.97917E-02
         0.97917E-02
         0.97917E-02
         0.97917E-02
         0.97917E-02
         0.97917E-02
         0.97917E-02
         0.97917E-02
         0.97917E-02
         0.97917E-02
         0.97917E-02
         0.97917E-02
         0.97917E-02
         0.97917E-02
         0.97917E-02
         0.97917E-02
         0.97917E-02
         0.97917E-02
         0.97917E-02
         0.97917E-02
         0.97917E-02
         0.97917E-02
         0.97917E-02
         0.97917E-02
         0.97917E-02
         0.97917E-02
         0.97917E-02
         0.97917E-02
         0.97917E-02
         0.97917E-02
         0.97917E-02
         0.97917E-02
         0.97917E-02
         0.97917E-02
         0.97917E-02
         0.97917E-02
         0.97917E-02
         0.97917E-02
         0.97917E-02
         0.97917E-02
         0.97917E-02
         0.97917E-02
         0.97917E-02
         0.97917E-02
         0.97917E-02
         0.97917E-02
         0.97917E-02
         0.97917E-02
         0.97917E-02
         0.97917E-02
         0.97917E-02
         0.97917E-02
         0.97917E-02
         0.97917E-02
         0.97917E-02
         0.97917E-02
         0.97917E-02
         0.97917E-02
         0.97917E-02
         0.97917E-02
         0.97917E-02
         0.97917E-02
         0.97917E-02
         0.97917E-02
         0.97917E-02
         0.10771E-01
         0.10771E-01
         0.10771E-01
         0.10771E-01
         0.10771E-01
         0.10771E-01
         0.10771E-01
         0.10771E-01
         0.10771E-01
         0.10771E-01
         0.10771E-01
         0.10771E-01
         0.10771E-01
         0.10771E-01
         0.10771E-01
         0.10771E-01
         0.10771E-01
         0.10771E-01
         0.10771E-01
         0.10771E-01
         0.10771E-01
         0.10771E-01
         0.10771E-01
         0.10771E-01
         0.10771E-01
         0.10771E-01
         0.10771E-01
         0.10771E-01
         0.10771E-01
         0.10771E-01
         0.10771E-01
         0.10771E-01
         0.10771E-01
         0.10771E-01
         0.10771E-01
         0.10771E-01
         0.10771E-01
         0.10771E-01
         0.10771E-01
         0.10771E-01
         0.10771E-01
         0.10771E-01
         0.10771E-01
         0.10771E-01
         0.10771E-01
         0.10771E-01
         0.10771E-01
         0.10771E-01
         0.10771E-01
         0.10771E-01
         0.10771E-01
         0.10771E-01
         0.10771E-01
         0.10771E-01
         0.10771E-01
         0.10771E-01
         0.10771E-01
         0.10771E-01
         0.10771E-01
         0.10771E-01
         0.10771E-01
         0.10771E-01
         0.10771E-01
         0.10771E-01
         0.10771E-01
         0.10771E-01
         0.10771E-01
         0.10771E-01
         0.10771E-01
         0.10771E-01
         0.10771E-01
         0.10771E-01
         0.10771E-01
         0.10771E-01
         0.10771E-01
         0.10771E-01
         0.10771E-01
         0.10771E-01
         0.11750E-01
         0.11750E-01
         0.11750E-01
         0.11750E-01
         0.11750E-01
         0.11750E-01
         0.11750E-01
         0.11750E-01
         0.11750E-01
         0.11750E-01
         0.11750E-01
         0.11750E-01
         0.11750E-01
         0.11750E-01
         0.11750E-01
         0.11750E-01
         0.11750E-01
         0.11750E-01
         0.11750E-01
         0.11750E-01
         0.11750E-01
         0.11750E-01
         0.11750E-01
         0.11750E-01
         0.11750E-01
         0.11750E-01
         0.11750E-01
         0.11750E-01
         0.11750E-01
         0.11750E-01
         0.11750E-01
         0.11750E-01
         0.11750E-01
         0.11750E-01
         0.11750E-01
         0.11750E-01
         0.11750E-01
         0.11750E-01
         0.11750E-01
         0.11750E-01
         0.11750E-01
         0.11750E-01
         0.11750E-01
         0.11750E-01
         0.11750E-01
         0.11750E-01
         0.11750E-01
         0.11750E-01
         0.11750E-01
         0.11750E-01
         0.11750E-01
         0.11750E-01
         0.11750E-01
         0.11750E-01
         0.11750E-01
         0.11750E-01
         0.11750E-01
         0.11750E-01
         0.11750E-01
         0.11750E-01
         0.11750E-01
         0.11750E-01
         0.11750E-01
         0.11750E-01
         0.11750E-01
         0.11750E-01
         0.11750E-01
         0.11750E-01
         0.11750E-01
         0.11750E-01
         0.11750E-01
         0.11750E-01
         0.11750E-01
         0.11750E-01
         0.11750E-01
         0.11750E-01
         0.11750E-01
         0.11750E-01
  
SCALARS                init_velocity_x  double 1
LOOKUP_TABLE default
         0.00000E+00
         0.00000E+00
         0.00000E+00
         0.00000E+00
         0.00000E+00
         0.00000E+00
         0.00000E+00
         0.00000E+00
         0.00000E+00
         0.00000E+00
         0.00000E+00
         0.00000E+00
         0.00000E+00
         0.00000E+00
         0.00000E+00
         0.00000E+00
         0.00000E+00
         0.00000E+00
         0.00000E+00
         0.00000E+00
         0.00000E+00
         0.00000E+00
         0.00000E+00
         0.00000E+00
         0.00000E+00
         0.00000E+00
         0.00000E+00
         0.00000E+00
         0.00000E+00
         0.00000E+00
         0.00000E+00
         0.00000E+00
         0.00000E+00
         0.00000E+00
         0.00000E+00
         0.00000E+00
         0.00000E+00
         0.00000E+00
         0.00000E+00
         0.00000E+00
         0.00000E+00
         0.00000E+00
         0.00000E+00
         0.00000E+00
         0.00000E+00
         0.00000E+00
         0.00000E+00
         0.00000E+00
         0.00000E+00
         0.00000E+00
         0.00000E+00
         0.00000E+00
         0.00000E+00
         0.00000E+00
         0.00000E+00
         0.00000E+00
         0.00000E+00
         0.00000E+00
         0.00000E+00
         0.00000E+00
         0.00000E+00
         0.00000E+00
         0.00000E+00
         0.00000E+00
         0.00000E+00
         0.00000E+00
         0.00000E+00
         0.00000E+00
         0.00000E+00
         0.00000E+00
         0.00000E+00
         0.00000E+00
         0.00000E+00
         0.00000E+00
         0.00000E+00
         0.00000E+00
         0.00000E+00
         0.00000E+00
         0.00000E+00
         0.00000E+00
         0.00000E+00
         0.00000E+00
         0.00000E+00
         0.00000E+00
         0.00000E+00
         0.00000E+00
         0.00000E+00
         0.00000E+00
         0.00000E+00
         0.00000E+00
         0.00000E+00
         0.00000E+00
         0.00000E+00
         0.00000E+00
         0.00000E+00
         0.00000E+00
         0.00000E+00
         0.00000E+00
         0.00000E+00
         0.00000E+00
         0.00000E+00
         0.00000E+00
         0.00000E+00
         0.00000E+00
         0.00000E+00
         0.00000E+00
         0.00000E+00
         0.00000E+00
         0.00000E+00
         0.00000E+00
         0.00000E+00
         0.00000E+00
         0.00000E+00
         0.00000E+00
         0.00000E+00
         0.00000E+00
         0.00000E+00
         0.00000E+00
         0.00000E+00
         0.00000E+00
         0.00000E+00
         0.00000E+00
         0.00000E+00
         0.00000E+00
         0.00000E+00
         0.00000E+00
         0.00000E+00
         0.00000E+00
         0.00000E+00
         0.00000E+00
         0.00000E+00
         0.00000E+00
         0.00000E+00
         0.00000E+00
         0.00000E+00
         0.00000E+00
         0.00000E+00
         0.00000E+00
         0.00000E+00
         0.00000E+00
         0.00000E+00
         0.00000E+00
         0.00000E+00
         0.00000E+00
         0.00000E+00
         0.00000E+00
         0.00000E+00
         0.00000E+00
         0.00000E+00
         0.00000E+00
         0.00000E+00
         0.00000E+00
         0.00000E+00
         0.00000E+00
         0.00000E+00
         0.00000E+00
         0.00000E+00
         0.00000E+00
         0.00000E+00
         0.00000E+00
         0.00000E+00
         0.00000E+00
         0.00000E+00
         0.00000E+00
         0.00000E+00
         0.00000E+00
         0.00000E+00
         0.00000E+00
         0.00000E+00
         0.00000E+00
         0.00000E+00
         0.00000E+00
         0.00000E+00
         0.00000E+00
         0.00000E+00
         0.00000E+00
         0.00000E+00
         0.00000E+00
         0.00000E+00
         0.00000E+00
         0.00000E+00
         0.00000E+00
         0.00000E+00
         0.00000E+00
         0.00000E+00
         0.00000E+00
         0.00000E+00
         0.00000E+00
         0.00000E+00
         0.00000E+00
         0.00000E+00
         0.00000E+00
         0.00000E+00
         0.00000E+00
         0.00000E+00
         0.00000E+00
         0.00000E+00
         0.00000E+00
         0.00000E+00
         0.00000E+00
         0.00000E+00
         0.00000E+00
         0.00000E+00
         0.00000E+00
         0.00000E+00
         0.00000E+00
         0.00000E+00
         0.00000E+00
         0.00000E+00
         0.00000E+00
         0.00000E+00
         0.00000E+00
         0.00000E+00
         0.00000E+00
         0.00000E+00
         0.00000E+00
         0.00000E+00
         0.00000E+00
         0.00000E+00
         0.00000E+00
         0.00000E+00
         0.00000E+00
         0.00000E+00
         0.00000E+00
         0.00000E+00
         0.00000E+00
         0.00000E+00
         0.00000E+00
         0.00000E+00
         0.00000E+00
         0.00000E+00
         0.00000E+00
         0.00000E+00
         0.00000E+00
         0.00000E+00
         0.00000E+00
         0.00000E+00
         0.00000E+00
         0.00000E+00
         0.00000E+00
         0.00000E+00
         0.00000E+00
         0.00000E+00
         0.00000E+00
         0.00000E+00
         0.00000E+00
         0.00000E+00
         0.00000E+00
         0.00000E+00
         0.00000E+00
         0.00000E+00
         0.00000E+00
         0.00000E+00
         0.00000E+00
         0.00000E+00
         0.00000E+00
         0.00000E+00
         0.00000E+00
         0.00000E+00
         0.00000E+00
         0.00000E+00
         0.00000E+00
         0.00000E+00
         0.00000E+00
         0.00000E+00
         0.00000E+00
         0.00000E+00
         0.00000E+00
         0.00000E+00
         0.00000E+00
         0.00000E+00
         0.00000E+00
         0.00000E+00
         0.00000E+00
         0.00000E+00
         0.00000E+00
         0.00000E+00
         0.00000E+00
         0.00000E+00
         0.00000E+00
         0.00000E+00
         0.00000E+00
         0.00000E+00
         0.00000E+00
         0.00000E+00
         0.00000E+00
         0.00000E+00
         0.00000E+00
         0.00000E+00
         0.00000E+00
         0.00000E+00
         0.00000E+00
         0.00000E+00
         0.00000E+00
         0.00000E+00
         0.00000E+00
         0.00000E+00
         0.00000E+00
         0.00000E+00
         0.00000E+00
         0.00000E+00
         0.00000E+00
         0.00000E+00
         0.00000E+00
         0.00000E+00
         0.00000E+00
         0.00000E+00
         0.00000E+00
         0.00000E+00
         0.00000E+00
         0.00000E+00
         0.00000E+00
         0.00000E+00
         0.00000E+00
         0.00000E+00
         0.00000E+00
         0.00000E+00
         0.00000E+00
         0.00000E+00
         0.00000E+00
         0.00000E+00
         0.00000E+00
         0.00000E+00
         0.00000E+00
         0.00000E+00
         0.00000E+00
         0.00000E+00
         0.00000E+00
         0.00000E+00
         0.00000E+00
         0.00000E+00
         0.00000E+00
         0.00000E+00
         0.00000E+00
         0.00000E+00
         0.00000E+00
         0.00000E+00
         0.00000E+00
         0.00000E+00
         0.00000E+00
         0.00000E+00
         0.00000E+00
         0.00000E+00
         0.00000E+00
         0.00000E+00
         0.00000E+00
         0.00000E+00
         0.00000E+00
         0.00000E+00
         0.00000E+00
         0.00000E+00
         0.00000E+00
         0.00000E+00
         0.00000E+00
         0.00000E+00
         0.00000E+00
         0.00000E+00
         0.00000E+00
         0.00000E+00
         0.00000E+00
         0.00000E+00
         0.00000E+00
         0.00000E+00
         0.00000E+00
         0.00000E+00
         0.00000E+00
         0.00000E+00
         0.00000E+00
         0.00000E+00
         0.00000E+00
         0.00000E+00
         0.00000E+00
         0.00000E+00
         0.00000E+00
         0.00000E+00
         0.00000E+00
         0.00000E+00
         0.00000E+00
         0.00000E+00
         0.00000E+00
         0.00000E+00
         0.00000E+00
         0.00000E+00
         0.00000E+00
         0.00000E+00
         0.00000E+00
         0.00000E+00
         0.00000E+00
         0.00000E+00
         0.00000E+00
         0.00000E+00
         0.00000E+00
         0.00000E+00
         0.00000E+00
         0.00000E+00
         0.00000E+00
         0.00000E+00
         0.00000E+00
         0.00000E+00
         0.00000E+00
         0.00000E+00
         0.00000E+00
         0.00000E+00
         0.00000E+00
         0.00000E+00
         0.00000E+00
         0.00000E+00
         0.00000E+00
         0.00000E+00
         0.00000E+00
         0.00000E+00
         0.00000E+00
         0.00000E+00
         0.00000E+00
         0.00000E+00
         0.00000E+00
         0.00000E+00
         0.00000E+00
         0.00000E+00
         0.00000E+00
         0.00000E+00
         0.00000E+00
         0.00000E+00
         0.00000E+00
         0.00000E+00
         0.00000E+00
         0.00000E+00
         0.00000E+00
         0.00000E+00
         0.00000E+00
         0.00000E+00
         0.00000E+00
         0.00000E+00
         0.00000E+00
         0.00000E+00
         0.00000E+00
         0.00000E+00
         0.00000E+00
         0.00000E+00
         0.00000E+00
         0.00000E+00
         0.00000E+00
         0.00000E+00
         0.00000E+00
         0.00000E+00
         0.00000E+00
         0.00000E+00
         0.00000E+00
         0.00000E+00
         0.00000E+00
         0.00000E+00
         0.00000E+00
         0.00000E+00
         0.00000E+00
         0.00000E+00
         0.00000E+00
         0.00000E+00
         0.00000E+00
         0.00000E+00
         0.00000E+00
         0.00000E+00
         0.00000E+00
         0.00000E+00
         0.00000E+00
         0.00000E+00
         0.00000E+00
         0.00000E+00
         0.00000E+00
         0.00000E+00
         0.00000E+00
         0.00000E+00
         0.00000E+00
         0.00000E+00
         0.00000E+00
         0.00000E+00
         0.00000E+00
         0.00000E+00
         0.00000E+00
         0.00000E+00
         0.00000E+00
         0.00000E+00
         0.00000E+00
         0.00000E+00
         0.00000E+00
         0.00000E+00
         0.00000E+00
         0.00000E+00
         0.00000E+00
         0.00000E+00
         0.00000E+00
         0.00000E+00
         0.00000E+00
         0.00000E+00
         0.00000E+00
         0.00000E+00
         0.00000E+00
         0.00000E+00
         0.00000E+00
         0.00000E+00
         0.00000E+00
         0.00000E+00
         0.00000E+00
         0.00000E+00
         0.00000E+00
         0.00000E+00
         0.00000E+00
         0.00000E+00
         0.00000E+00
         0.00000E+00
         0.00000E+00
         0.00000E+00
         0.00000E+00
         0.00000E+00
         0.00000E+00
         0.00000E+00
         0.00000E+00
         0.00000E+00
         0.00000E+00
         0.00000E+00
         0.00000E+00
         0.00000E+00
         0.00000E+00
         0.00000E+00
         0.00000E+00
         0.00000E+00
         0.00000E+00
         0.00000E+00
         0.00000E+00
         0.00000E+00
         0.00000E+00
         0.00000E+00
         0.00000E+00
         0.00000E+00
         0.00000E+00
         0.00000E+00
         0.00000E+00
         0.00000E+00
         0.00000E+00
         0.00000E+00
         0.00000E+00
         0.00000E+00
         0.00000E+00
         0.00000E+00
         0.00000E+00
         0.00000E+00
         0.00000E+00
         0.00000E+00
         0.00000E+00
         0.00000E+00
         0.00000E+00
         0.00000E+00
         0.00000E+00
         0.00000E+00
         0.00000E+00
         0.00000E+00
         0.00000E+00
         0.00000E+00
         0.00000E+00
         0.00000E+00
         0.00000E+00
         0.00000E+00
         0.00000E+00
         0.00000E+00
         0.00000E+00
         0.00000E+00
         0.00000E+00
         0.00000E+00
         0.00000E+00
         0.00000E+00
         0.00000E+00
         0.00000E+00
         0.00000E+00
         0.00000E+00
         0.00000E+00
         0.00000E+00
         0.00000E+00
         0.00000E+00
         0.00000E+00
         0.00000E+00
         0.00000E+00
         0.00000E+00
         0.00000E+00
         0.00000E+00
         0.00000E+00
         0.00000E+00
         0.00000E+00
         0.00000E+00
         0.00000E+00
         0.00000E+00
         0.00000E+00
         0.00000E+00
         0.00000E+00
         0.00000E+00
         0.00000E+00
         0.00000E+00
         0.00000E+00
         0.00000E+00
         0.00000E+00
         0.00000E+00
         0.00000E+00
         0.00000E+00
         0.00000E+00
         0.00000E+00
         0.00000E+00
         0.00000E+00
         0.00000E+00
         0.00000E+00
         0.00000E+00
         0.00000E+00
         0.00000E+00
         0.00000E+00
         0.00000E+00
         0.00000E+00
         0.00000E+00
         0.00000E+00
         0.00000E+00
         0.00000E+00
         0.00000E+00
         0.00000E+00
         0.00000E+00
         0.00000E+00
         0.00000E+00
         0.00000E+00
         0.00000E+00
         0.00000E+00
         0.00000E+00
         0.00000E+00
         0.00000E+00
         0.00000E+00
         0.00000E+00
         0.00000E+00
         0.00000E+00
         0.00000E+00
         0.00000E+00
         0.00000E+00
         0.00000E+00
         0.00000E+00
         0.00000E+00
         0.00000E+00
         0.00000E+00
         0.00000E+00
         0.00000E+00
         0.00000E+00
         0.00000E+00
         0.00000E+00
         0.00000E+00
         0.00000E+00
         0.00000E+00
         0.00000E+00
         0.00000E+00
         0.00000E+00
         0.00000E+00
         0.00000E+00
         0.00000E+00
         0.00000E+00
         0.00000E+00
         0.00000E+00
         0.00000E+00
         0.00000E+00
         0.00000E+00
         0.00000E+00
         0.00000E+00
         0.00000E+00
         0.00000E+00
         0.00000E+00
         0.00000E+00
         0.00000E+00
         0.00000E+00
         0.00000E+00
         0.00000E+00
         0.00000E+00
         0.00000E+00
         0.00000E+00
         0.00000E+00
         0.00000E+00
         0.00000E+00
         0.00000E+00
         0.00000E+00
         0.00000E+00
         0.00000E+00
         0.00000E+00
         0.00000E+00
         0.00000E+00
         0.00000E+00
         0.00000E+00
         0.00000E+00
         0.00000E+00
         0.00000E+00
         0.00000E+00
         0.00000E+00
         0.00000E+00
         0.00000E+00
         0.00000E+00
         0.00000E+00
         0.00000E+00
         0.00000E+00
         0.00000E+00
         0.00000E+00
         0.00000E+00
         0.00000E+00
         0.00000E+00
         0.00000E+00
         0.00000E+00
         0.00000E+00
         0.00000E+00
         0.00000E+00
         0.00000E+00
         0.00000E+00
         0.00000E+00
         0.00000E+00
         0.00000E+00
         0.00000E+00
         0.00000E+00
         0.00000E+00
         0.00000E+00
         0.00000E+00
         0.00000E+00
         0.00000E+00
         0.00000E+00
         0.00000E+00
         0.00000E+00
         0.00000E+00
         0.00000E+00
         0.00000E+00
         0.00000E+00
         0.00000E+00
         0.00000E+00
         0.00000E+00
         0.00000E+00
         0.00000E+00
         0.00000E+00
         0.00000E+00
         0.00000E+00
         0.00000E+00
         0.00000E+00
         0.00000E+00
         0.00000E+00
         0.00000E+00
         0.00000E+00
         0.00000E+00
         0.00000E+00
         0.00000E+00
         0.00000E+00
         0.00000E+00
         0.00000E+00
         0.00000E+00
         0.00000E+00
         0.00000E+00
         0.00000E+00
         0.00000E+00
         0.00000E+00
         0.00000E+00
         0.00000E+00
         0.00000E+00
         0.00000E+00
         0.00000E+00
         0.00000E+00
         0.00000E+00
         0.00000E+00
         0.00000E+00
         0.00000E+00
         0.00000E+00
         0.00000E+00
         0.00000E+00
         0.00000E+00
         0.00000E+00
         0.00000E+00
         0.00000E+00
         0.00000E+00
         0.00000E+00
         0.00000E+00
         0.00000E+00
         0.00000E+00
         0.00000E+00
         0.00000E+00
         0.00000E+00
         0.00000E+00
         0.00000E+00
         0.00000E+00
         0.00000E+00
         0.00000E+00
         0.00000E+00
         0.00000E+00
         0.00000E+00
         0.00000E+00
         0.00000E+00
         0.00000E+00
         0.00000E+00
         0.00000E+00
         0.00000E+00
         0.00000E+00
         0.00000E+00
         0.00000E+00
         0.00000E+00
         0.00000E+00
         0.00000E+00
         0.00000E+00
         0.00000E+00
         0.00000E+00
         0.00000E+00
         0.00000E+00
         0.00000E+00
         0.00000E+00
         0.00000E+00
         0.00000E+00
         0.00000E+00
         0.00000E+00
         0.00000E+00
         0.00000E+00
         0.00000E+00
         0.00000E+00
         0.00000E+00
         0.00000E+00
         0.00000E+00
         0.00000E+00
         0.00000E+00
         0.00000E+00
         0.00000E+00
         0.00000E+00
         0.00000E+00
         0.00000E+00
         0.00000E+00
         0.00000E+00
         0.00000E+00
         0.00000E+00
         0.00000E+00
         0.00000E+00
         0.00000E+00
         0.00000E+00
         0.00000E+00
         0.00000E+00
         0.00000E+00
         0.00000E+00
         0.00000E+00
         0.00000E+00
         0.00000E+00
         0.00000E+00
         0.00000E+00
         0.00000E+00
         0.00000E+00
         0.00000E+00
         0.00000E+00
         0.00000E+00
         0.00000E+00
         0.00000E+00
         0.00000E+00
         0.00000E+00
         0.00000E+00
         0.00000E+00
         0.00000E+00
         0.00000E+00
         0.00000E+00
         0.00000E+00
         0.00000E+00
         0.00000E+00
         0.00000E+00
         0.00000E+00
         0.00000E+00
         0.00000E+00
         0.00000E+00
         0.00000E+00
         0.00000E+00
         0.00000E+00
         0.00000E+00
         0.00000E+00
         0.00000E+00
         0.00000E+00
         0.00000E+00
         0.00000E+00
         0.00000E+00
         0.00000E+00
         0.00000E+00
         0.00000E+00
         0.00000E+00
         0.00000E+00
         0.00000E+00
         0.00000E+00
         0.00000E+00
         0.00000E+00
         0.00000E+00
         0.00000E+00
         0.00000E+00
         0.00000E+00
         0.00000E+00
         0.00000E+00
         0.00000E+00
         0.00000E+00
         0.00000E+00
         0.00000E+00
         0.00000E+00
         0.00000E+00
         0.00000E+00
         0.00000E+00
         0.00000E+00
         0.00000E+00
         0.00000E+00
         0.00000E+00
         0.00000E+00
         0.00000E+00
         0.00000E+00
         0.00000E+00
         0.00000E+00
         0.00000E+00
         0.00000E+00
         0.00000E+00
         0.00000E+00
         0.00000E+00
         0.00000E+00
         0.00000E+00
         0.00000E+00
         0.00000E+00
         0.00000E+00
         0.00000E+00
         0.00000E+00
         0.00000E+00
         0.00000E+00
         0.00000E+00
         0.00000E+00
         0.00000E+00
         0.00000E+00
         0.00000E+00
         0.00000E+00
         0.00000E+00
         0.00000E+00
         0.00000E+00
         0.00000E+00
         0.00000E+00
         0.00000E+00
         0.00000E+00
         0.00000E+00
         0.00000E+00
         0.00000E+00
         0.00000E+00
         0.00000E+00
         0.00000E+00
         0.00000E+00
         0.00000E+00
         0.00000E+00
         0.00000E+00
         0.00000E+00
         0.00000E+00
         0.00000E+00
         0.00000E+00
         0.00000E+00
         0.00000E+00
         0.00000E+00
         0.00000E+00
         0.00000E+00
         0.00000E+00
         0.00000E+00
         0.00000E+00
         0.00000E+00
         0.00000E+00
         0.00000E+00
         0.00000E+00
         0.00000E+00
         0.00000E+00
         0.00000E+00
         0.00000E+00
         0.00000E+00
         0.00000E+00
         0.00000E+00
         0.00000E+00
         0.00000E+00
         0.00000E+00
         0.00000E+00
         0.00000E+00
         0.00000E+00
         0.00000E+00
         0.00000E+00
         0.00000E+00
         0.00000E+00
         0.00000E+00
         0.00000E+00
         0.00000E+00
         0.00000E+00
         0.00000E+00
         0.00000E+00
         0.00000E+00
         0.00000E+00
         0.00000E+00
         0.00000E+00
         0.00000E+00
         0.00000E+00
         0.00000E+00
         0.00000E+00
         0.00000E+00
         0.00000E+00
         0.00000E+00
         0.00000E+00
         0.00000E+00
         0.00000E+00
         0.00000E+00
         0.00000E+00
         0.00000E+00
         0.00000E+00
         0.00000E+00
         0.00000E+00
         0.00000E+00
         0.00000E+00
         0.00000E+00
         0.00000E+00
         0.00000E+00
         0.00000E+00
         0.00000E+00
         0.00000E+00
         0.00000E+00
         0.00000E+00
         0.00000E+00
         0.00000E+00
         0.00000E+00
         0.00000E+00
         0.00000E+00
         0.00000E+00
         0.00000E+00
         0.00000E+00
         0.00000E+00
         0.00000E+00
         0.00000E+00
         0.00000E+00
         0.00000E+00
         0.00000E+00
         0.00000E+00
         0.00000E+00
         0.00000E+00
         0.00000E+00
         0.00000E+00
         0.00000E+00
         0.00000E+00
         0.00000E+00
         0.00000E+00
         0.00000E+00
         0.00000E+00
         0.00000E+00
         0.00000E+00
         0.00000E+00
         0.00000E+00
         0.00000E+00
         0.00000E+00
         0.00000E+00
         0.00000E+00
         0.00000E+00
         0.00000E+00
         0.00000E+00
         0.00000E+00
         0.00000E+00
         0.00000E+00
         0.00000E+00
         0.00000E+00
         0.00000E+00
         0.00000E+00
         0.00000E+00
         0.00000E+00
         0.00000E+00
         0.00000E+00
         0.00000E+00
         0.00000E+00
         0.00000E+00
         0.00000E+00
         0.00000E+00
         0.00000E+00
         0.00000E+00
         0.00000E+00
         0.00000E+00
         0.00000E+00
         0.00000E+00
         0.00000E+00
         0.00000E+00
         0.00000E+00
         0.00000E+00
         0.00000E+00
         0.00000E+00
         0.00000E+00
         0.00000E+00
         0.00000E+00
         0.00000E+00
         0.00000E+00
         0.00000E+00
         0.00000E+00
         0.00000E+00
         0.00000E+00
         0.00000E+00
         0.00000E+00
         0.00000E+00
         0.00000E+00
         0.00000E+00
         0.00000E+00
         0.00000E+00
         0.00000E+00
         0.00000E+00
         0.00000E+00
         0.00000E+00
         0.00000E+00
         0.00000E+00
         0.00000E+00
         0.00000E+00
         0.00000E+00
         0.00000E+00
         0.00000E+00
         0.00000E+00
         0.00000E+00
         0.00000E+00
         0.00000E+00
         0.00000E+00
         0.00000E+00
         0.00000E+00
         0.00000E+00
         0.00000E+00
         0.00000E+00
         0.00000E+00
         0.00000E+00
         0.00000E+00
         0.00000E+00
         0.00000E+00
         0.00000E+00
         0.00000E+00
         0.00000E+00
         0.00000E+00
         0.00000E+00
         0.00000E+00
         0.00000E+00
         0.00000E+00
         0.00000E+00
         0.00000E+00
         0.00000E+00
         0.00000E+00
         0.00000E+00
         0.00000E+00
         0.00000E+00
         0.00000E+00
         0.00000E+00
         0.00000E+00
         0.00000E+00
         0.00000E+00
         0.00000E+00
         0.00000E+00
         0.00000E+00
         0.00000E+00
         0.00000E+00
         0.00000E+00
         0.00000E+00
         0.00000E+00
         0.00000E+00
         0.00000E+00
         0.00000E+00
         0.00000E+00
         0.00000E+00
         0.00000E+00
         0.00000E+00
         0.00000E+00
         0.00000E+00
         0.00000E+00
         0.00000E+00
         0.00000E+00
         0.00000E+00
         0.00000E+00
         0.00000E+00
         0.00000E+00
         0.00000E+00
         0.00000E+00
         0.00000E+00
         0.00000E+00
         0.00000E+00
         0.00000E+00
         0.00000E+00
         0.00000E+00
         0.00000E+00
         0.00000E+00
         0.00000E+00
         0.00000E+00
         0.00000E+00
         0.00000E+00
         0.00000E+00
         0.00000E+00
         0.00000E+00
         0.00000E+00
         0.00000E+00
         0.00000E+00
         0.00000E+00
         0.00000E+00
         0.00000E+00
         0.00000E+00
         0.00000E+00
         0.00000E+00
         0.00000E+00
         0.00000E+00
         0.00000E+00
         0.00000E+00
         0.00000E+00
         0.00000E+00
         0.00000E+00
         0.00000E+00
         0.00000E+00
         0.00000E+00
         0.00000E+00
         0.00000E+00
         0.00000E+00
         0.00000E+00
         0.00000E+00
         0.00000E+00
         0.00000E+00
         0.00000E+00
         0.00000E+00
         0.00000E+00
         0.00000E+00
         0.00000E+00
         0.00000E+00
         0.00000E+00
         0.00000E+00
         0.00000E+00
         0.00000E+00
         0.00000E+00
         0.00000E+00
         0.00000E+00
         0.00000E+00
         0.00000E+00
         0.00000E+00
         0.00000E+00
         0.00000E+00
         0.00000E+00
         0.00000E+00
         0.00000E+00
         0.00000E+00
         0.00000E+00
         0.00000E+00
         0.00000E+00
         0.00000E+00
         0.00000E+00
         0.00000E+00
         0.00000E+00
         0.00000E+00
         0.00000E+00
         0.00000E+00
         0.00000E+00
         0.00000E+00
         0.00000E+00
         0.00000E+00
         0.00000E+00
         0.00000E+00
         0.00000E+00
         0.00000E+00
         0.00000E+00
         0.00000E+00
         0.00000E+00
         0.00000E+00
         0.00000E+00
         0.00000E+00
         0.00000E+00
         0.00000E+00
         0.00000E+00
         0.00000E+00
         0.00000E+00
         0.00000E+00
         0.00000E+00
         0.00000E+00
         0.00000E+00
         0.00000E+00
         0.00000E+00
         0.00000E+00
         0.00000E+00
         0.00000E+00
         0.00000E+00
         0.00000E+00
         0.00000E+00
         0.00000E+00
         0.00000E+00
         0.00000E+00
         0.00000E+00
         0.00000E+00
         0.00000E+00
         0.00000E+00
         0.00000E+00
         0.00000E+00
         0.00000E+00
         0.00000E+00
         0.00000E+00
         0.00000E+00
         0.00000E+00
         0.00000E+00
         0.00000E+00
         0.00000E+00
         0.00000E+00
         0.00000E+00
         0.00000E+00
         0.00000E+00
         0.00000E+00
         0.00000E+00
         0.00000E+00
         0.00000E+00
         0.00000E+00
         0.00000E+00
         0.00000E+00
         0.00000E+00
         0.00000E+00
         0.00000E+00
         0.00000E+00
         0.00000E+00
         0.00000E+00
         0.00000E+00
         0.00000E+00
         0.00000E+00
         0.00000E+00
         0.00000E+00
         0.00000E+00
         0.00000E+00
         0.00000E+00
         0.00000E+00
         0.00000E+00
         0.00000E+00
         0.00000E+00
         0.00000E+00
         0.00000E+00
         0.00000E+00
         0.00000E+00
         0.00000E+00
         0.00000E+00
         0.00000E+00
         0.00000E+00
         0.00000E+00
         0.00000E+00
         0.00000E+00
         0.00000E+00
         0.00000E+00
         0.00000E+00
         0.00000E+00
         0.00000E+00
         0.00000E+00
         0.00000E+00
         0.00000E+00
         0.00000E+00
         0.00000E+00
         0.00000E+00
         0.00000E+00
         0.00000E+00
         0.00000E+00
         0.00000E+00
         0.00000E+00
         0.00000E+00
         0.00000E+00
         0.00000E+00
         0.00000E+00
         0.00000E+00
         0.00000E+00
         0.00000E+00
         0.00000E+00
         0.00000E+00
         0.00000E+00
         0.00000E+00
         0.00000E+00
         0.00000E+00
         0.00000E+00
         0.00000E+00
         0.00000E+00
         0.00000E+00
         0.00000E+00
         0.00000E+00
         0.00000E+00
         0.00000E+00
         0.00000E+00
         0.00000E+00
         0.00000E+00
         0.00000E+00
         0.00000E+00
         0.00000E+00
         0.00000E+00
         0.00000E+00
         0.00000E+00
         0.00000E+00
         0.00000E+00
         0.00000E+00
         0.00000E+00
         0.00000E+00
         0.00000E+00
         0.00000E+00
         0.00000E+00
         0.00000E+00
         0.00000E+00
         0.00000E+00
         0.00000E+00
         0.00000E+00
         0.00000E+00
         0.00000E+00
         0.00000E+00
         0.00000E+00
         0.00000E+00
         0.00000E+00
         0.00000E+00
         0.00000E+00
         0.00000E+00
         0.00000E+00
         0.00000E+00
         0.00000E+00
         0.00000E+00
         0.00000E+00
         0.00000E+00
         0.00000E+00
         0.00000E+00
         0.00000E+00
         0.00000E+00
         0.00000E+00
         0.00000E+00
         0.00000E+00
         0.00000E+00
         0.00000E+00
         0.00000E+00
         0.00000E+00
         0.00000E+00
         0.00000E+00
         0.00000E+00
         0.00000E+00
         0.00000E+00
         0.00000E+00
         0.00000E+00
         0.00000E+00
         0.00000E+00
         0.00000E+00
         0.00000E+00
         0.00000E+00
         0.00000E+00
         0.00000E+00
         0.00000E+00
         0.00000E+00
         0.00000E+00
         0.00000E+00
         0.00000E+00
         0.00000E+00
         0.00000E+00
         0.00000E+00
         0.00000E+00
         0.00000E+00
         0.00000E+00
         0.00000E+00
         0.00000E+00
         0.00000E+00
         0.00000E+00
         0.00000E+00
         0.00000E+00
         0.00000E+00
         0.00000E+00
         0.00000E+00
         0.00000E+00
         0.00000E+00
         0.00000E+00
         0.00000E+00
         0.00000E+00
         0.00000E+00
         0.00000E+00
         0.00000E+00
         0.00000E+00
         0.00000E+00
         0.00000E+00
         0.00000E+00
         0.00000E+00
         0.00000E+00
         0.00000E+00
         0.00000E+00
         0.00000E+00
         0.00000E+00
         0.00000E+00
         0.00000E+00
         0.00000E+00
         0.00000E+00
         0.00000E+00
         0.00000E+00
         0.00000E+00
         0.00000E+00
         0.00000E+00
         0.00000E+00
         0.00000E+00
         0.00000E+00
         0.00000E+00
         0.00000E+00
         0.00000E+00
         0.00000E+00
         0.00000E+00
         0.00000E+00
         0.00000E+00
         0.00000E+00
         0.00000E+00
         0.00000E+00
         0.00000E+00
         0.00000E+00
         0.00000E+00
         0.00000E+00
         0.00000E+00
         0.00000E+00
         0.00000E+00
         0.00000E+00
         0.00000E+00
         0.00000E+00
         0.00000E+00
         0.00000E+00
         0.00000E+00
         0.00000E+00
         0.00000E+00
         0.00000E+00
         0.00000E+00
         0.00000E+00
         0.00000E+00
         0.00000E+00
         0.00000E+00
         0.00000E+00
         0.00000E+00
         0.00000E+00
         0.00000E+00
         0.00000E+00
         0.00000E+00
         0.00000E+00
         0.00000E+00
         0.00000E+00
         0.00000E+00
         0.00000E+00
         0.00000E+00
         0.00000E+00
         0.00000E+00
         0.00000E+00
         0.00000E+00
         0.00000E+00
         0.00000E+00
         0.00000E+00
         0.00000E+00
         0.00000E+00
         0.00000E+00
         0.00000E+00
         0.00000E+00
         0.00000E+00
         0.00000E+00
         0.00000E+00
         0.00000E+00
         0.00000E+00
         0.00000E+00
         0.00000E+00
         0.00000E+00
         0.00000E+00
         0.00000E+00
         0.00000E+00
         0.00000E+00
         0.00000E+00
         0.00000E+00
         0.00000E+00
         0.00000E+00
         0.00000E+00
         0.00000E+00
         0.00000E+00
         0.00000E+00
         0.00000E+00
         0.00000E+00
         0.00000E+00
         0.00000E+00
         0.00000E+00
         0.00000E+00
         0.00000E+00
         0.00000E+00
         0.00000E+00
         0.00000E+00
         0.00000E+00
         0.00000E+00
         0.00000E+00
         0.00000E+00
         0.00000E+00
         0.00000E+00
         0.00000E+00
         0.00000E+00
         0.00000E+00
         0.00000E+00
         0.00000E+00
         0.00000E+00
         0.00000E+00
         0.00000E+00
         0.00000E+00
         0.00000E+00
         0.00000E+00
         0.00000E+00
         0.00000E+00
         0.00000E+00
         0.00000E+00
         0.00000E+00
         0.00000E+00
         0.00000E+00
         0.00000E+00
         0.00000E+00
         0.00000E+00
         0.00000E+00
         0.00000E+00
         0.00000E+00
         0.00000E+00
         0.00000E+00
         0.00000E+00
         0.00000E+00
         0.00000E+00
         0.00000E+00
         0.00000E+00
         0.00000E+00
         0.00000E+00
         0.00000E+00
         0.00000E+00
         0.00000E+00
         0.00000E+00
         0.00000E+00
         0.00000E+00
         0.00000E+00
         0.00000E+00
         0.00000E+00
         0.00000E+00
         0.00000E+00
         0.00000E+00
         0.00000E+00
         0.00000E+00
         0.00000E+00
         0.00000E+00
         0.00000E+00
         0.00000E+00
         0.00000E+00
         0.00000E+00
         0.00000E+00
         0.00000E+00
         0.00000E+00
         0.00000E+00
         0.00000E+00
         0.00000E+00
         0.00000E+00
         0.00000E+00
         0.00000E+00
         0.00000E+00
         0.00000E+00
         0.00000E+00
         0.00000E+00
         0.00000E+00
         0.00000E+00
         0.00000E+00
         0.00000E+00
         0.00000E+00
         0.00000E+00
         0.00000E+00
         0.00000E+00
         0.00000E+00
         0.00000E+00
         0.00000E+00
         0.00000E+00
         0.00000E+00
         0.00000E+00
         0.00000E+00
         0.00000E+00
         0.00000E+00
         0.00000E+00
         0.00000E+00
         0.00000E+00
         0.00000E+00
         0.00000E+00
         0.00000E+00
         0.00000E+00
         0.00000E+00
         0.00000E+00
         0.00000E+00
         0.00000E+00
         0.00000E+00
         0.00000E+00
         0.00000E+00
         0.00000E+00
         0.00000E+00
         0.00000E+00
         0.00000E+00
         0.00000E+00
         0.00000E+00
         0.00000E+00
         0.00000E+00
         0.00000E+00
         0.00000E+00
         0.00000E+00
         0.00000E+00
         0.00000E+00
         0.00000E+00
         0.00000E+00
         0.00000E+00
         0.00000E+00
         0.00000E+00
         0.00000E+00
         0.00000E+00
         0.00000E+00
         0.00000E+00
         0.00000E+00
         0.00000E+00
         0.00000E+00
         0.00000E+00
         0.00000E+00
         0.00000E+00
         0.00000E+00
         0.00000E+00
         0.00000E+00
         0.00000E+00
         0.00000E+00
         0.00000E+00
         0.00000E+00
         0.00000E+00
         0.00000E+00
         0.00000E+00
         0.00000E+00
         0.00000E+00
         0.00000E+00
         0.00000E+00
         0.00000E+00
         0.00000E+00
         0.00000E+00
         0.00000E+00
         0.00000E+00
         0.00000E+00
         0.00000E+00
         0.00000E+00
         0.00000E+00
         0.00000E+00
         0.00000E+00
         0.00000E+00
         0.00000E+00
         0.00000E+00
         0.00000E+00
         0.00000E+00
         0.00000E+00
         0.00000E+00
         0.00000E+00
         0.00000E+00
         0.00000E+00
         0.00000E+00
         0.00000E+00
         0.00000E+00
         0.00000E+00
         0.00000E+00
         0.00000E+00
         0.00000E+00
         0.00000E+00
         0.00000E+00
         0.00000E+00
         0.00000E+00
         0.00000E+00
         0.00000E+00
         0.00000E+00
         0.00000E+00
         0.00000E+00
         0.00000E+00
         0.00000E+00
         0.00000E+00
         0.00000E+00
         0.00000E+00
         0.00000E+00
         0.00000E+00
         0.00000E+00
         0.00000E+00
         0.00000E+00
         0.00000E+00
         0.00000E+00
         0.00000E+00
         0.00000E+00
         0.00000E+00
         0.00000E+00
         0.00000E+00
         0.00000E+00
         0.00000E+00
         0.00000E+00
         0.00000E+00
         0.00000E+00
         0.00000E+00
         0.00000E+00
         0.00000E+00
         0.00000E+00
         0.00000E+00
         0.00000E+00
         0.00000E+00
         0.00000E+00
         0.00000E+00
         0.00000E+00
         0.00000E+00
         0.00000E+00
         0.00000E+00
         0.00000E+00
         0.00000E+00
         0.00000E+00
         0.00000E+00
         0.00000E+00
         0.00000E+00
         0.00000E+00
         0.00000E+00
         0.00000E+00
         0.00000E+00
         0.00000E+00
         0.00000E+00
         0.00000E+00
         0.00000E+00
         0.00000E+00
         0.00000E+00
         0.00000E+00
         0.00000E+00
         0.00000E+00
         0.00000E+00
         0.00000E+00
         0.00000E+00
         0.00000E+00
         0.00000E+00
         0.00000E+00
         0.00000E+00
         0.00000E+00
         0.00000E+00
         0.00000E+00
         0.00000E+00
         0.00000E+00
         0.00000E+00
         0.00000E+00
         0.00000E+00
         0.00000E+00
         0.00000E+00
         0.00000E+00
         0.00000E+00
         0.00000E+00
         0.00000E+00
         0.00000E+00
         0.00000E+00
         0.00000E+00
         0.00000E+00
         0.00000E+00
         0.00000E+00
         0.00000E+00
         0.00000E+00
         0.00000E+00
         0.00000E+00
         0.00000E+00
         0.00000E+00
         0.00000E+00
         0.00000E+00
         0.00000E+00
         0.00000E+00
         0.00000E+00
         0.00000E+00
         0.00000E+00
         0.00000E+00
         0.00000E+00
         0.00000E+00
         0.00000E+00
         0.00000E+00
         0.00000E+00
         0.00000E+00
         0.00000E+00
         0.00000E+00
         0.00000E+00
         0.00000E+00
         0.00000E+00
         0.00000E+00
         0.00000E+00
         0.00000E+00
         0.00000E+00
         0.00000E+00
         0.00000E+00
         0.00000E+00
         0.00000E+00
         0.00000E+00
         0.00000E+00
         0.00000E+00
         0.00000E+00
         0.00000E+00
         0.00000E+00
         0.00000E+00
         0.00000E+00
         0.00000E+00
         0.00000E+00
         0.00000E+00
         0.00000E+00
         0.00000E+00
         0.00000E+00
         0.00000E+00
         0.00000E+00
         0.00000E+00
         0.00000E+00
         0.00000E+00
         0.00000E+00
         0.00000E+00
         0.00000E+00
         0.00000E+00
         0.00000E+00
         0.00000E+00
         0.00000E+00
         0.00000E+00
         0.00000E+00
         0.00000E+00
         0.00000E+00
         0.00000E+00
         0.00000E+00
         0.00000E+00
         0.00000E+00
         0.00000E+00
         0.00000E+00
         0.00000E+00
         0.00000E+00
         0.00000E+00
         0.00000E+00
         0.00000E+00
         0.00000E+00
         0.00000E+00
         0.00000E+00
         0.00000E+00
         0.00000E+00
         0.00000E+00
         0.00000E+00
         0.00000E+00
         0.00000E+00
         0.00000E+00
         0.00000E+00
         0.00000E+00
         0.00000E+00
         0.00000E+00
         0.00000E+00
         0.00000E+00
         0.00000E+00
         0.00000E+00
         0.00000E+00
         0.00000E+00
         0.00000E+00
         0.00000E+00
         0.00000E+00
         0.00000E+00
         0.00000E+00
         0.00000E+00
         0.00000E+00
         0.00000E+00
         0.00000E+00
         0.00000E+00
         0.00000E+00
         0.00000E+00
         0.00000E+00
         0.00000E+00
         0.00000E+00
         0.00000E+00
         0.00000E+00
         0.00000E+00
         0.00000E+00
         0.00000E+00
         0.00000E+00
         0.00000E+00
         0.00000E+00
         0.00000E+00
         0.00000E+00
         0.00000E+00
         0.00000E+00
         0.00000E+00
         0.00000E+00
         0.00000E+00
         0.00000E+00
         0.00000E+00
         0.00000E+00
         0.00000E+00
         0.00000E+00
         0.00000E+00
         0.00000E+00
         0.00000E+00
  
SCALARS                init_velocity_y  double 1
LOOKUP_TABLE default
         0.00000E+00
         0.00000E+00
         0.00000E+00
         0.00000E+00
         0.00000E+00
         0.00000E+00
         0.00000E+00
         0.00000E+00
         0.00000E+00
         0.00000E+00
         0.00000E+00
         0.00000E+00
         0.00000E+00
         0.00000E+00
         0.00000E+00
         0.00000E+00
         0.00000E+00
         0.00000E+00
         0.00000E+00
         0.00000E+00
         0.00000E+00
         0.00000E+00
         0.00000E+00
         0.00000E+00
         0.00000E+00
         0.00000E+00
         0.00000E+00
         0.00000E+00
         0.00000E+00
         0.00000E+00
         0.00000E+00
         0.00000E+00
         0.00000E+00
         0.00000E+00
         0.00000E+00
         0.00000E+00
         0.00000E+00
         0.00000E+00
         0.00000E+00
         0.00000E+00
         0.00000E+00
         0.00000E+00
         0.00000E+00
         0.00000E+00
         0.00000E+00
         0.00000E+00
         0.00000E+00
         0.00000E+00
         0.00000E+00
         0.00000E+00
         0.00000E+00
         0.00000E+00
         0.00000E+00
         0.00000E+00
         0.00000E+00
         0.00000E+00
         0.00000E+00
         0.00000E+00
         0.00000E+00
         0.00000E+00
         0.00000E+00
         0.00000E+00
         0.00000E+00
         0.00000E+00
         0.00000E+00
         0.00000E+00
         0.00000E+00
         0.00000E+00
         0.00000E+00
         0.00000E+00
         0.00000E+00
         0.00000E+00
         0.00000E+00
         0.00000E+00
         0.00000E+00
         0.00000E+00
         0.00000E+00
         0.00000E+00
         0.00000E+00
         0.00000E+00
         0.00000E+00
         0.00000E+00
         0.00000E+00
         0.00000E+00
         0.00000E+00
         0.00000E+00
         0.00000E+00
         0.00000E+00
         0.00000E+00
         0.00000E+00
         0.00000E+00
         0.00000E+00
         0.00000E+00
         0.00000E+00
         0.00000E+00
         0.00000E+00
         0.00000E+00
         0.00000E+00
         0.00000E+00
         0.00000E+00
         0.00000E+00
         0.00000E+00
         0.00000E+00
         0.00000E+00
         0.00000E+00
         0.00000E+00
         0.00000E+00
         0.00000E+00
         0.00000E+00
         0.00000E+00
         0.00000E+00
         0.00000E+00
         0.00000E+00
         0.00000E+00
         0.00000E+00
         0.00000E+00
         0.00000E+00
         0.00000E+00
         0.00000E+00
         0.00000E+00
         0.00000E+00
         0.00000E+00
         0.00000E+00
         0.00000E+00
         0.00000E+00
         0.00000E+00
         0.00000E+00
         0.00000E+00
         0.00000E+00
         0.00000E+00
         0.00000E+00
         0.00000E+00
         0.00000E+00
         0.00000E+00
         0.00000E+00
         0.00000E+00
         0.00000E+00
         0.00000E+00
         0.00000E+00
         0.00000E+00
         0.00000E+00
         0.00000E+00
         0.00000E+00
         0.00000E+00
         0.00000E+00
         0.00000E+00
         0.00000E+00
         0.00000E+00
         0.00000E+00
         0.00000E+00
         0.00000E+00
         0.00000E+00
         0.00000E+00
         0.00000E+00
         0.00000E+00
         0.00000E+00
         0.00000E+00
         0.00000E+00
         0.00000E+00
         0.00000E+00
         0.00000E+00
         0.00000E+00
         0.00000E+00
         0.00000E+00
         0.00000E+00
         0.00000E+00
         0.00000E+00
         0.00000E+00
         0.00000E+00
         0.00000E+00
         0.00000E+00
         0.00000E+00
         0.00000E+00
         0.00000E+00
         0.00000E+00
         0.00000E+00
         0.00000E+00
         0.00000E+00
         0.00000E+00
         0.00000E+00
         0.00000E+00
         0.00000E+00
         0.00000E+00
         0.00000E+00
         0.00000E+00
         0.00000E+00
         0.00000E+00
         0.00000E+00
         0.00000E+00
         0.00000E+00
         0.00000E+00
         0.00000E+00
         0.00000E+00
         0.00000E+00
         0.00000E+00
         0.00000E+00
         0.00000E+00
         0.00000E+00
         0.00000E+00
         0.00000E+00
         0.00000E+00
         0.00000E+00
         0.00000E+00
         0.00000E+00
         0.00000E+00
         0.00000E+00
         0.00000E+00
         0.00000E+00
         0.00000E+00
         0.00000E+00
         0.00000E+00
         0.00000E+00
         0.00000E+00
         0.00000E+00
         0.00000E+00
         0.00000E+00
         0.00000E+00
         0.00000E+00
         0.00000E+00
         0.00000E+00
         0.00000E+00
         0.00000E+00
         0.00000E+00
         0.00000E+00
         0.00000E+00
         0.00000E+00
         0.00000E+00
         0.00000E+00
         0.00000E+00
         0.00000E+00
         0.00000E+00
         0.00000E+00
         0.00000E+00
         0.00000E+00
         0.00000E+00
         0.00000E+00
         0.00000E+00
         0.00000E+00
         0.00000E+00
         0.00000E+00
         0.00000E+00
         0.00000E+00
         0.00000E+00
         0.00000E+00
         0.00000E+00
         0.00000E+00
         0.00000E+00
         0.00000E+00
         0.00000E+00
         0.00000E+00
         0.00000E+00
         0.00000E+00
         0.00000E+00
         0.00000E+00
         0.00000E+00
         0.00000E+00
         0.00000E+00
         0.00000E+00
         0.00000E+00
         0.00000E+00
         0.00000E+00
         0.00000E+00
         0.00000E+00
         0.00000E+00
         0.00000E+00
         0.00000E+00
         0.00000E+00
         0.00000E+00
         0.00000E+00
         0.00000E+00
         0.00000E+00
         0.00000E+00
         0.00000E+00
         0.00000E+00
         0.00000E+00
         0.00000E+00
         0.00000E+00
         0.00000E+00
         0.00000E+00
         0.00000E+00
         0.00000E+00
         0.00000E+00
         0.00000E+00
         0.00000E+00
         0.00000E+00
         0.00000E+00
         0.00000E+00
         0.00000E+00
         0.00000E+00
         0.00000E+00
         0.00000E+00
         0.00000E+00
         0.00000E+00
         0.00000E+00
         0.00000E+00
         0.00000E+00
         0.00000E+00
         0.00000E+00
         0.00000E+00
         0.00000E+00
         0.00000E+00
         0.00000E+00
         0.00000E+00
         0.00000E+00
         0.00000E+00
         0.00000E+00
         0.00000E+00
         0.00000E+00
         0.00000E+00
         0.00000E+00
         0.00000E+00
         0.00000E+00
         0.00000E+00
         0.00000E+00
         0.00000E+00
         0.00000E+00
         0.00000E+00
         0.00000E+00
         0.00000E+00
         0.00000E+00
         0.00000E+00
         0.00000E+00
         0.00000E+00
         0.00000E+00
         0.00000E+00
         0.00000E+00
         0.00000E+00
         0.00000E+00
         0.00000E+00
         0.00000E+00
         0.00000E+00
         0.00000E+00
         0.00000E+00
         0.00000E+00
         0.00000E+00
         0.00000E+00
         0.00000E+00
         0.00000E+00
         0.00000E+00
         0.00000E+00
         0.00000E+00
         0.00000E+00
         0.00000E+00
         0.00000E+00
         0.00000E+00
         0.00000E+00
         0.00000E+00
         0.00000E+00
         0.00000E+00
         0.00000E+00
         0.00000E+00
         0.00000E+00
         0.00000E+00
         0.00000E+00
         0.00000E+00
         0.00000E+00
         0.00000E+00
         0.00000E+00
         0.00000E+00
         0.00000E+00
         0.00000E+00
         0.00000E+00
         0.00000E+00
         0.00000E+00
         0.00000E+00
         0.00000E+00
         0.00000E+00
         0.00000E+00
         0.00000E+00
         0.00000E+00
         0.00000E+00
         0.00000E+00
         0.00000E+00
         0.00000E+00
         0.00000E+00
         0.00000E+00
         0.00000E+00
         0.00000E+00
         0.00000E+00
         0.00000E+00
         0.00000E+00
         0.00000E+00
         0.00000E+00
         0.00000E+00
         0.00000E+00
         0.00000E+00
         0.00000E+00
         0.00000E+00
         0.00000E+00
         0.00000E+00
         0.00000E+00
         0.00000E+00
         0.00000E+00
         0.00000E+00
         0.00000E+00
         0.00000E+00
         0.00000E+00
         0.00000E+00
         0.00000E+00
         0.00000E+00
         0.00000E+00
         0.00000E+00
         0.00000E+00
         0.00000E+00
         0.00000E+00
         0.00000E+00
         0.00000E+00
         0.00000E+00
         0.00000E+00
         0.00000E+00
         0.00000E+00
         0.00000E+00
         0.00000E+00
         0.00000E+00
         0.00000E+00
         0.00000E+00
         0.00000E+00
         0.00000E+00
         0.00000E+00
         0.00000E+00
         0.00000E+00
         0.00000E+00
         0.00000E+00
         0.00000E+00
         0.00000E+00
         0.00000E+00
         0.00000E+00
         0.00000E+00
         0.00000E+00
         0.00000E+00
         0.00000E+00
         0.00000E+00
         0.00000E+00
         0.00000E+00
         0.00000E+00
         0.00000E+00
         0.00000E+00
         0.00000E+00
         0.00000E+00
         0.00000E+00
         0.00000E+00
         0.00000E+00
         0.00000E+00
         0.00000E+00
         0.00000E+00
         0.00000E+00
         0.00000E+00
         0.00000E+00
         0.00000E+00
         0.00000E+00
         0.00000E+00
         0.00000E+00
         0.00000E+00
         0.00000E+00
         0.00000E+00
         0.00000E+00
         0.00000E+00
         0.00000E+00
         0.00000E+00
         0.00000E+00
         0.00000E+00
         0.00000E+00
         0.00000E+00
         0.00000E+00
         0.00000E+00
         0.00000E+00
         0.00000E+00
         0.00000E+00
         0.00000E+00
         0.00000E+00
         0.00000E+00
         0.00000E+00
         0.00000E+00
         0.00000E+00
         0.00000E+00
         0.00000E+00
         0.00000E+00
         0.00000E+00
         0.00000E+00
         0.00000E+00
         0.00000E+00
         0.00000E+00
         0.00000E+00
         0.00000E+00
         0.00000E+00
         0.00000E+00
         0.00000E+00
         0.00000E+00
         0.00000E+00
         0.00000E+00
         0.00000E+00
         0.00000E+00
         0.00000E+00
         0.00000E+00
         0.00000E+00
         0.00000E+00
         0.00000E+00
         0.00000E+00
         0.00000E+00
         0.00000E+00
         0.00000E+00
         0.00000E+00
         0.00000E+00
         0.00000E+00
         0.00000E+00
         0.00000E+00
         0.00000E+00
         0.00000E+00
         0.00000E+00
         0.00000E+00
         0.00000E+00
         0.00000E+00
         0.00000E+00
         0.00000E+00
         0.00000E+00
         0.00000E+00
         0.00000E+00
         0.00000E+00
         0.00000E+00
         0.00000E+00
         0.00000E+00
         0.00000E+00
         0.00000E+00
         0.00000E+00
         0.00000E+00
         0.00000E+00
         0.00000E+00
         0.00000E+00
         0.00000E+00
         0.00000E+00
         0.00000E+00
         0.00000E+00
         0.00000E+00
         0.00000E+00
         0.00000E+00
         0.00000E+00
         0.00000E+00
         0.00000E+00
         0.00000E+00
         0.00000E+00
         0.00000E+00
         0.00000E+00
         0.00000E+00
         0.00000E+00
         0.00000E+00
         0.00000E+00
         0.00000E+00
         0.00000E+00
         0.00000E+00
         0.00000E+00
         0.00000E+00
         0.00000E+00
         0.00000E+00
         0.00000E+00
         0.00000E+00
         0.00000E+00
         0.00000E+00
         0.00000E+00
         0.00000E+00
         0.00000E+00
         0.00000E+00
         0.00000E+00
         0.00000E+00
         0.00000E+00
         0.00000E+00
         0.00000E+00
         0.00000E+00
         0.00000E+00
         0.00000E+00
         0.00000E+00
         0.00000E+00
         0.00000E+00
         0.00000E+00
         0.00000E+00
         0.00000E+00
         0.00000E+00
         0.00000E+00
         0.00000E+00
         0.00000E+00
         0.00000E+00
         0.00000E+00
         0.00000E+00
         0.00000E+00
         0.00000E+00
         0.00000E+00
         0.00000E+00
         0.00000E+00
         0.00000E+00
         0.00000E+00
         0.00000E+00
         0.00000E+00
         0.00000E+00
         0.00000E+00
         0.00000E+00
         0.00000E+00
         0.00000E+00
         0.00000E+00
         0.00000E+00
         0.00000E+00
         0.00000E+00
         0.00000E+00
         0.00000E+00
         0.00000E+00
         0.00000E+00
         0.00000E+00
         0.00000E+00
         0.00000E+00
         0.00000E+00
         0.00000E+00
         0.00000E+00
         0.00000E+00
         0.00000E+00
         0.00000E+00
         0.00000E+00
         0.00000E+00
         0.00000E+00
         0.00000E+00
         0.00000E+00
         0.00000E+00
         0.00000E+00
         0.00000E+00
         0.00000E+00
         0.00000E+00
         0.00000E+00
         0.00000E+00
         0.00000E+00
         0.00000E+00
         0.00000E+00
         0.00000E+00
         0.00000E+00
         0.00000E+00
         0.00000E+00
         0.00000E+00
         0.00000E+00
         0.00000E+00
         0.00000E+00
         0.00000E+00
         0.00000E+00
         0.00000E+00
         0.00000E+00
         0.00000E+00
         0.00000E+00
         0.00000E+00
         0.00000E+00
         0.00000E+00
         0.00000E+00
         0.00000E+00
         0.00000E+00
         0.00000E+00
         0.00000E+00
         0.00000E+00
         0.00000E+00
         0.00000E+00
         0.00000E+00
         0.00000E+00
         0.00000E+00
         0.00000E+00
         0.00000E+00
         0.00000E+00
         0.00000E+00
         0.00000E+00
         0.00000E+00
         0.00000E+00
         0.00000E+00
         0.00000E+00
         0.00000E+00
         0.00000E+00
         0.00000E+00
         0.00000E+00
         0.00000E+00
         0.00000E+00
         0.00000E+00
         0.00000E+00
         0.00000E+00
         0.00000E+00
         0.00000E+00
         0.00000E+00
         0.00000E+00
         0.00000E+00
         0.00000E+00
         0.00000E+00
         0.00000E+00
         0.00000E+00
         0.00000E+00
         0.00000E+00
         0.00000E+00
         0.00000E+00
         0.00000E+00
         0.00000E+00
         0.00000E+00
         0.00000E+00
         0.00000E+00
         0.00000E+00
         0.00000E+00
         0.00000E+00
         0.00000E+00
         0.00000E+00
         0.00000E+00
         0.00000E+00
         0.00000E+00
         0.00000E+00
         0.00000E+00
         0.00000E+00
         0.00000E+00
         0.00000E+00
         0.00000E+00
         0.00000E+00
         0.00000E+00
         0.00000E+00
         0.00000E+00
         0.00000E+00
         0.00000E+00
         0.00000E+00
         0.00000E+00
         0.00000E+00
         0.00000E+00
         0.00000E+00
         0.00000E+00
         0.00000E+00
         0.00000E+00
         0.00000E+00
         0.00000E+00
         0.00000E+00
         0.00000E+00
         0.00000E+00
         0.00000E+00
         0.00000E+00
         0.00000E+00
         0.00000E+00
         0.00000E+00
         0.00000E+00
         0.00000E+00
         0.00000E+00
         0.00000E+00
         0.00000E+00
         0.00000E+00
         0.00000E+00
         0.00000E+00
         0.00000E+00
         0.00000E+00
         0.00000E+00
         0.00000E+00
         0.00000E+00
         0.00000E+00
         0.00000E+00
         0.00000E+00
         0.00000E+00
         0.00000E+00
         0.00000E+00
         0.00000E+00
         0.00000E+00
         0.00000E+00
         0.00000E+00
         0.00000E+00
         0.00000E+00
         0.00000E+00
         0.00000E+00
         0.00000E+00
         0.00000E+00
         0.00000E+00
         0.00000E+00
         0.00000E+00
         0.00000E+00
         0.00000E+00
         0.00000E+00
         0.00000E+00
         0.00000E+00
         0.00000E+00
         0.00000E+00
         0.00000E+00
         0.00000E+00
         0.00000E+00
         0.00000E+00
         0.00000E+00
         0.00000E+00
         0.00000E+00
         0.00000E+00
         0.00000E+00
         0.00000E+00
         0.00000E+00
         0.00000E+00
         0.00000E+00
         0.00000E+00
         0.00000E+00
         0.00000E+00
         0.00000E+00
         0.00000E+00
         0.00000E+00
         0.00000E+00
         0.00000E+00
         0.00000E+00
         0.00000E+00
         0.00000E+00
         0.00000E+00
         0.00000E+00
         0.00000E+00
         0.00000E+00
         0.00000E+00
         0.00000E+00
         0.00000E+00
         0.00000E+00
         0.00000E+00
         0.00000E+00
         0.00000E+00
         0.00000E+00
         0.00000E+00
         0.00000E+00
         0.00000E+00
         0.00000E+00
         0.00000E+00
         0.00000E+00
         0.00000E+00
         0.00000E+00
         0.00000E+00
         0.00000E+00
         0.00000E+00
         0.00000E+00
         0.00000E+00
         0.00000E+00
         0.00000E+00
         0.00000E+00
         0.00000E+00
         0.00000E+00
         0.00000E+00
         0.00000E+00
         0.00000E+00
         0.00000E+00
         0.00000E+00
         0.00000E+00
         0.00000E+00
         0.00000E+00
         0.00000E+00
         0.00000E+00
         0.00000E+00
         0.00000E+00
         0.00000E+00
         0.00000E+00
         0.00000E+00
         0.00000E+00
         0.00000E+00
         0.00000E+00
         0.00000E+00
         0.00000E+00
         0.00000E+00
         0.00000E+00
         0.00000E+00
         0.00000E+00
         0.00000E+00
         0.00000E+00
         0.00000E+00
         0.00000E+00
         0.00000E+00
         0.00000E+00
         0.00000E+00
         0.00000E+00
         0.00000E+00
         0.00000E+00
         0.00000E+00
         0.00000E+00
         0.00000E+00
         0.00000E+00
         0.00000E+00
         0.00000E+00
         0.00000E+00
         0.00000E+00
         0.00000E+00
         0.00000E+00
         0.00000E+00
         0.00000E+00
         0.00000E+00
         0.00000E+00
         0.00000E+00
         0.00000E+00
         0.00000E+00
         0.00000E+00
         0.00000E+00
         0.00000E+00
         0.00000E+00
         0.00000E+00
         0.00000E+00
         0.00000E+00
         0.00000E+00
         0.00000E+00
         0.00000E+00
         0.00000E+00
         0.00000E+00
         0.00000E+00
         0.00000E+00
         0.00000E+00
         0.00000E+00
         0.00000E+00
         0.00000E+00
         0.00000E+00
         0.00000E+00
         0.00000E+00
         0.00000E+00
         0.00000E+00
         0.00000E+00
         0.00000E+00
         0.00000E+00
         0.00000E+00
         0.00000E+00
         0.00000E+00
         0.00000E+00
         0.00000E+00
         0.00000E+00
         0.00000E+00
         0.00000E+00
         0.00000E+00
         0.00000E+00
         0.00000E+00
         0.00000E+00
         0.00000E+00
         0.00000E+00
         0.00000E+00
         0.00000E+00
         0.00000E+00
         0.00000E+00
         0.00000E+00
         0.00000E+00
         0.00000E+00
         0.00000E+00
         0.00000E+00
         0.00000E+00
         0.00000E+00
         0.00000E+00
         0.00000E+00
         0.00000E+00
         0.00000E+00
         0.00000E+00
         0.00000E+00
         0.00000E+00
         0.00000E+00
         0.00000E+00
         0.00000E+00
         0.00000E+00
         0.00000E+00
         0.00000E+00
         0.00000E+00
         0.00000E+00
         0.00000E+00
         0.00000E+00
         0.00000E+00
         0.00000E+00
         0.00000E+00
         0.00000E+00
         0.00000E+00
         0.00000E+00
         0.00000E+00
         0.00000E+00
         0.00000E+00
         0.00000E+00
         0.00000E+00
         0.00000E+00
         0.00000E+00
         0.00000E+00
         0.00000E+00
         0.00000E+00
         0.00000E+00
         0.00000E+00
         0.00000E+00
         0.00000E+00
         0.00000E+00
         0.00000E+00
         0.00000E+00
         0.00000E+00
         0.00000E+00
         0.00000E+00
         0.00000E+00
         0.00000E+00
         0.00000E+00
         0.00000E+00
         0.00000E+00
         0.00000E+00
         0.00000E+00
         0.00000E+00
         0.00000E+00
         0.00000E+00
         0.00000E+00
         0.00000E+00
         0.00000E+00
         0.00000E+00
         0.00000E+00
         0.00000E+00
         0.00000E+00
         0.00000E+00
         0.00000E+00
         0.00000E+00
         0.00000E+00
         0.00000E+00
         0.00000E+00
         0.00000E+00
         0.00000E+00
         0.00000E+00
         0.00000E+00
         0.00000E+00
         0.00000E+00
         0.00000E+00
         0.00000E+00
         0.00000E+00
         0.00000E+00
         0.00000E+00
         0.00000E+00
         0.00000E+00
         0.00000E+00
         0.00000E+00
         0.00000E+00
         0.00000E+00
         0.00000E+00
         0.00000E+00
         0.00000E+00
         0.00000E+00
         0.00000E+00
         0.00000E+00
         0.00000E+00
         0.00000E+00
         0.00000E+00
         0.00000E+00
         0.00000E+00
         0.00000E+00
         0.00000E+00
         0.00000E+00
         0.00000E+00
         0.00000E+00
         0.00000E+00
         0.00000E+00
         0.00000E+00
         0.00000E+00
         0.00000E+00
         0.00000E+00
         0.00000E+00
         0.00000E+00
         0.00000E+00
         0.00000E+00
         0.00000E+00
         0.00000E+00
         0.00000E+00
         0.00000E+00
         0.00000E+00
         0.00000E+00
         0.00000E+00
         0.00000E+00
         0.00000E+00
         0.00000E+00
         0.00000E+00
         0.00000E+00
         0.00000E+00
         0.00000E+00
         0.00000E+00
         0.00000E+00
         0.00000E+00
         0.00000E+00
         0.00000E+00
         0.00000E+00
         0.00000E+00
         0.00000E+00
         0.00000E+00
         0.00000E+00
         0.00000E+00
         0.00000E+00
         0.00000E+00
         0.00000E+00
         0.00000E+00
         0.00000E+00
         0.00000E+00
         0.00000E+00
         0.00000E+00
         0.00000E+00
         0.00000E+00
         0.00000E+00
         0.00000E+00
         0.00000E+00
         0.00000E+00
         0.00000E+00
         0.00000E+00
         0.00000E+00
         0.00000E+00
         0.00000E+00
         0.00000E+00
         0.00000E+00
         0.00000E+00
         0.00000E+00
         0.00000E+00
         0.00000E+00
         0.00000E+00
         0.00000E+00
         0.00000E+00
         0.00000E+00
         0.00000E+00
         0.00000E+00
         0.00000E+00
         0.00000E+00
         0.00000E+00
         0.00000E+00
         0.00000E+00
         0.00000E+00
         0.00000E+00
         0.00000E+00
         0.00000E+00
         0.00000E+00
         0.00000E+00
         0.00000E+00
         0.00000E+00
         0.00000E+00
         0.00000E+00
         0.00000E+00
         0.00000E+00
         0.00000E+00
         0.00000E+00
         0.00000E+00
         0.00000E+00
         0.00000E+00
         0.00000E+00
         0.00000E+00
         0.00000E+00
         0.00000E+00
         0.00000E+00
         0.00000E+00
         0.00000E+00
         0.00000E+00
         0.00000E+00
         0.00000E+00
         0.00000E+00
         0.00000E+00
         0.00000E+00
         0.00000E+00
         0.00000E+00
         0.00000E+00
         0.00000E+00
         0.00000E+00
         0.00000E+00
         0.00000E+00
         0.00000E+00
         0.00000E+00
         0.00000E+00
         0.00000E+00
         0.00000E+00
         0.00000E+00
         0.00000E+00
         0.00000E+00
         0.00000E+00
         0.00000E+00
         0.00000E+00
         0.00000E+00
         0.00000E+00
         0.00000E+00
         0.00000E+00
         0.00000E+00
         0.00000E+00
         0.00000E+00
         0.00000E+00
         0.00000E+00
         0.00000E+00
         0.00000E+00
         0.00000E+00
         0.00000E+00
         0.00000E+00
         0.00000E+00
         0.00000E+00
         0.00000E+00
         0.00000E+00
         0.00000E+00
         0.00000E+00
         0.00000E+00
         0.00000E+00
         0.00000E+00
         0.00000E+00
         0.00000E+00
         0.00000E+00
         0.00000E+00
         0.00000E+00
         0.00000E+00
         0.00000E+00
         0.00000E+00
         0.00000E+00
         0.00000E+00
         0.00000E+00
         0.00000E+00
         0.00000E+00
         0.00000E+00
         0.00000E+00
         0.00000E+00
         0.00000E+00
         0.00000E+00
         0.00000E+00
         0.00000E+00
         0.00000E+00
         0.00000E+00
         0.00000E+00
         0.00000E+00
         0.00000E+00
         0.00000E+00
         0.00000E+00
         0.00000E+00
         0.00000E+00
         0.00000E+00
         0.00000E+00
         0.00000E+00
         0.00000E+00
         0.00000E+00
         0.00000E+00
         0.00000E+00
         0.00000E+00
         0.00000E+00
         0.00000E+00
         0.00000E+00
         0.00000E+00
         0.00000E+00
         0.00000E+00
         0.00000E+00
         0.00000E+00
         0.00000E+00
         0.00000E+00
         0.00000E+00
         0.00000E+00
         0.00000E+00
         0.00000E+00
         0.00000E+00
         0.00000E+00
         0.00000E+00
         0.00000E+00
         0.00000E+00
         0.00000E+00
         0.00000E+00
         0.00000E+00
         0.00000E+00
         0.00000E+00
         0.00000E+00
         0.00000E+00
         0.00000E+00
         0.00000E+00
         0.00000E+00
         0.00000E+00
         0.00000E+00
         0.00000E+00
         0.00000E+00
         0.00000E+00
         0.00000E+00
         0.00000E+00
         0.00000E+00
         0.00000E+00
         0.00000E+00
         0.00000E+00
         0.00000E+00
         0.00000E+00
         0.00000E+00
         0.00000E+00
         0.00000E+00
         0.00000E+00
         0.00000E+00
         0.00000E+00
         0.00000E+00
         0.00000E+00
         0.00000E+00
         0.00000E+00
         0.00000E+00
         0.00000E+00
         0.00000E+00
         0.00000E+00
         0.00000E+00
         0.00000E+00
         0.00000E+00
         0.00000E+00
         0.00000E+00
         0.00000E+00
         0.00000E+00
         0.00000E+00
         0.00000E+00
         0.00000E+00
         0.00000E+00
         0.00000E+00
         0.00000E+00
         0.00000E+00
         0.00000E+00
         0.00000E+00
         0.00000E+00
         0.00000E+00
         0.00000E+00
         0.00000E+00
         0.00000E+00
         0.00000E+00
         0.00000E+00
         0.00000E+00
         0.00000E+00
         0.00000E+00
         0.00000E+00
         0.00000E+00
         0.00000E+00
         0.00000E+00
         0.00000E+00
         0.00000E+00
         0.00000E+00
         0.00000E+00
         0.00000E+00
         0.00000E+00
         0.00000E+00
         0.00000E+00
         0.00000E+00
         0.00000E+00
         0.00000E+00
         0.00000E+00
         0.00000E+00
         0.00000E+00
         0.00000E+00
         0.00000E+00
         0.00000E+00
         0.00000E+00
         0.00000E+00
         0.00000E+00
         0.00000E+00
         0.00000E+00
         0.00000E+00
         0.00000E+00
         0.00000E+00
         0.00000E+00
         0.00000E+00
         0.00000E+00
         0.00000E+00
         0.00000E+00
         0.00000E+00
         0.00000E+00
         0.00000E+00
         0.00000E+00
         0.00000E+00
         0.00000E+00
         0.00000E+00
         0.00000E+00
         0.00000E+00
         0.00000E+00
         0.00000E+00
         0.00000E+00
         0.00000E+00
         0.00000E+00
         0.00000E+00
         0.00000E+00
         0.00000E+00
         0.00000E+00
         0.00000E+00
         0.00000E+00
         0.00000E+00
         0.00000E+00
         0.00000E+00
         0.00000E+00
         0.00000E+00
         0.00000E+00
         0.00000E+00
         0.00000E+00
         0.00000E+00
         0.00000E+00
         0.00000E+00
         0.00000E+00
         0.00000E+00
         0.00000E+00
         0.00000E+00
         0.00000E+00
         0.00000E+00
         0.00000E+00
         0.00000E+00
         0.00000E+00
         0.00000E+00
         0.00000E+00
         0.00000E+00
         0.00000E+00
         0.00000E+00
         0.00000E+00
         0.00000E+00
         0.00000E+00
         0.00000E+00
         0.00000E+00
         0.00000E+00
         0.00000E+00
         0.00000E+00
         0.00000E+00
         0.00000E+00
         0.00000E+00
         0.00000E+00
         0.00000E+00
         0.00000E+00
         0.00000E+00
         0.00000E+00
         0.00000E+00
         0.00000E+00
         0.00000E+00
         0.00000E+00
         0.00000E+00
         0.00000E+00
         0.00000E+00
         0.00000E+00
         0.00000E+00
         0.00000E+00
         0.00000E+00
         0.00000E+00
         0.00000E+00
         0.00000E+00
         0.00000E+00
         0.00000E+00
         0.00000E+00
         0.00000E+00
         0.00000E+00
         0.00000E+00
         0.00000E+00
         0.00000E+00
         0.00000E+00
         0.00000E+00
         0.00000E+00
         0.00000E+00
         0.00000E+00
         0.00000E+00
         0.00000E+00
         0.00000E+00
         0.00000E+00
         0.00000E+00
         0.00000E+00
         0.00000E+00
         0.00000E+00
         0.00000E+00
         0.00000E+00
         0.00000E+00
         0.00000E+00
         0.00000E+00
         0.00000E+00
         0.00000E+00
         0.00000E+00
         0.00000E+00
         0.00000E+00
         0.00000E+00
         0.00000E+00
         0.00000E+00
         0.00000E+00
         0.00000E+00
         0.00000E+00
         0.00000E+00
         0.00000E+00
         0.00000E+00
         0.00000E+00
         0.00000E+00
         0.00000E+00
         0.00000E+00
         0.00000E+00
         0.00000E+00
         0.00000E+00
         0.00000E+00
         0.00000E+00
         0.00000E+00
         0.00000E+00
         0.00000E+00
         0.00000E+00
         0.00000E+00
         0.00000E+00
         0.00000E+00
         0.00000E+00
         0.00000E+00
         0.00000E+00
         0.00000E+00
         0.00000E+00
         0.00000E+00
         0.00000E+00
         0.00000E+00
         0.00000E+00
         0.00000E+00
         0.00000E+00
         0.00000E+00
         0.00000E+00
         0.00000E+00
         0.00000E+00
         0.00000E+00
         0.00000E+00
         0.00000E+00
         0.00000E+00
         0.00000E+00
         0.00000E+00
         0.00000E+00
         0.00000E+00
         0.00000E+00
         0.00000E+00
         0.00000E+00
         0.00000E+00
         0.00000E+00
         0.00000E+00
         0.00000E+00
         0.00000E+00
         0.00000E+00
         0.00000E+00
         0.00000E+00
         0.00000E+00
         0.00000E+00
         0.00000E+00
         0.00000E+00
         0.00000E+00
         0.00000E+00
         0.00000E+00
         0.00000E+00
         0.00000E+00
         0.00000E+00
         0.00000E+00
         0.00000E+00
         0.00000E+00
         0.00000E+00
         0.00000E+00
         0.00000E+00
         0.00000E+00
         0.00000E+00
         0.00000E+00
         0.00000E+00
         0.00000E+00
         0.00000E+00
         0.00000E+00
         0.00000E+00
         0.00000E+00
         0.00000E+00
         0.00000E+00
         0.00000E+00
         0.00000E+00
         0.00000E+00
         0.00000E+00
         0.00000E+00
         0.00000E+00
         0.00000E+00
         0.00000E+00
         0.00000E+00
         0.00000E+00
         0.00000E+00
         0.00000E+00
         0.00000E+00
         0.00000E+00
         0.00000E+00
         0.00000E+00
         0.00000E+00
         0.00000E+00
         0.00000E+00
         0.00000E+00
         0.00000E+00
         0.00000E+00
         0.00000E+00
         0.00000E+00
         0.00000E+00
         0.00000E+00
         0.00000E+00
         0.00000E+00
         0.00000E+00
         0.00000E+00
         0.00000E+00
         0.00000E+00
         0.00000E+00
         0.00000E+00
         0.00000E+00
         0.00000E+00
         0.00000E+00
         0.00000E+00
         0.00000E+00
         0.00000E+00
         0.00000E+00
         0.00000E+00
         0.00000E+00
         0.00000E+00
         0.00000E+00
         0.00000E+00
         0.00000E+00
         0.00000E+00
         0.00000E+00
         0.00000E+00
         0.00000E+00
         0.00000E+00
         0.00000E+00
         0.00000E+00
         0.00000E+00
         0.00000E+00
         0.00000E+00
         0.00000E+00
         0.00000E+00
         0.00000E+00
         0.00000E+00
         0.00000E+00
         0.00000E+00
         0.00000E+00
         0.00000E+00
         0.00000E+00
         0.00000E+00
         0.00000E+00
         0.00000E+00
         0.00000E+00
         0.00000E+00
         0.00000E+00
         0.00000E+00
         0.00000E+00
         0.00000E+00
         0.00000E+00
         0.00000E+00
         0.00000E+00
         0.00000E+00
         0.00000E+00
         0.00000E+00
         0.00000E+00
         0.00000E+00
         0.00000E+00
         0.00000E+00
         0.00000E+00
         0.00000E+00
         0.00000E+00
         0.00000E+00
         0.00000E+00
         0.00000E+00
         0.00000E+00
         0.00000E+00
         0.00000E+00
         0.00000E+00
         0.00000E+00
         0.00000E+00
         0.00000E+00
         0.00000E+00
         0.00000E+00
         0.00000E+00
         0.00000E+00
         0.00000E+00
         0.00000E+00
         0.00000E+00
         0.00000E+00
         0.00000E+00
         0.00000E+00
         0.00000E+00
         0.00000E+00
         0.00000E+00
         0.00000E+00
         0.00000E+00
         0.00000E+00
         0.00000E+00
         0.00000E+00
         0.00000E+00
         0.00000E+00
         0.00000E+00
         0.00000E+00
         0.00000E+00
         0.00000E+00
         0.00000E+00
         0.00000E+00
         0.00000E+00
         0.00000E+00
         0.00000E+00
         0.00000E+00
         0.00000E+00
         0.00000E+00
         0.00000E+00
         0.00000E+00
         0.00000E+00
         0.00000E+00
         0.00000E+00
         0.00000E+00
         0.00000E+00
         0.00000E+00
         0.00000E+00
         0.00000E+00
         0.00000E+00
         0.00000E+00
         0.00000E+00
         0.00000E+00
         0.00000E+00
         0.00000E+00
         0.00000E+00
         0.00000E+00
         0.00000E+00
         0.00000E+00
         0.00000E+00
         0.00000E+00
         0.00000E+00
         0.00000E+00
         0.00000E+00
         0.00000E+00
         0.00000E+00
         0.00000E+00
         0.00000E+00
         0.00000E+00
         0.00000E+00
         0.00000E+00
         0.00000E+00
         0.00000E+00
         0.00000E+00
         0.00000E+00
         0.00000E+00
         0.00000E+00
         0.00000E+00
         0.00000E+00
         0.00000E+00
         0.00000E+00
         0.00000E+00
         0.00000E+00
         0.00000E+00
         0.00000E+00
         0.00000E+00
         0.00000E+00
         0.00000E+00
         0.00000E+00
         0.00000E+00
         0.00000E+00
         0.00000E+00
         0.00000E+00
         0.00000E+00
         0.00000E+00
         0.00000E+00
         0.00000E+00
         0.00000E+00
         0.00000E+00
         0.00000E+00
         0.00000E+00
         0.00000E+00
         0.00000E+00
         0.00000E+00
         0.00000E+00
         0.00000E+00
         0.00000E+00
         0.00000E+00
         0.00000E+00
         0.00000E+00
         0.00000E+00
         0.00000E+00
         0.00000E+00
         0.00000E+00
         0.00000E+00
         0.00000E+00
         0.00000E+00
         0.00000E+00
         0.00000E+00
         0.00000E+00
         0.00000E+00
         0.00000E+00
         0.00000E+00
         0.00000E+00
         0.00000E+00
         0.00000E+00
         0.00000E+00
         0.00000E+00
         0.00000E+00
         0.00000E+00
         0.00000E+00
         0.00000E+00
         0.00000E+00
         0.00000E+00
         0.00000E+00
         0.00000E+00
         0.00000E+00
         0.00000E+00
         0.00000E+00
         0.00000E+00
         0.00000E+00
         0.00000E+00
         0.00000E+00
         0.00000E+00
         0.00000E+00
         0.00000E+00
         0.00000E+00
         0.00000E+00
         0.00000E+00
         0.00000E+00
         0.00000E+00
         0.00000E+00
         0.00000E+00
         0.00000E+00
         0.00000E+00
         0.00000E+00
         0.00000E+00
         0.00000E+00
         0.00000E+00
         0.00000E+00
         0.00000E+00
         0.00000E+00
         0.00000E+00
         0.00000E+00
         0.00000E+00
         0.00000E+00
         0.00000E+00
         0.00000E+00
         0.00000E+00
         0.00000E+00
         0.00000E+00
         0.00000E+00
         0.00000E+00
         0.00000E+00
         0.00000E+00
         0.00000E+00
         0.00000E+00
         0.00000E+00
         0.00000E+00
         0.00000E+00
         0.00000E+00
         0.00000E+00
         0.00000E+00
         0.00000E+00
         0.00000E+00
         0.00000E+00
         0.00000E+00
         0.00000E+00
         0.00000E+00
         0.00000E+00
         0.00000E+00
         0.00000E+00
         0.00000E+00
         0.00000E+00
         0.00000E+00
         0.00000E+00
         0.00000E+00
         0.00000E+00
         0.00000E+00
         0.00000E+00
         0.00000E+00
         0.00000E+00
         0.00000E+00
         0.00000E+00
         0.00000E+00
         0.00000E+00
         0.00000E+00
         0.00000E+00
         0.00000E+00
         0.00000E+00
         0.00000E+00
         0.00000E+00
         0.00000E+00
         0.00000E+00
         0.00000E+00
         0.00000E+00
         0.00000E+00
         0.00000E+00
         0.00000E+00
         0.00000E+00
         0.00000E+00
         0.00000E+00
         0.00000E+00
         0.00000E+00
         0.00000E+00
         0.00000E+00
         0.00000E+00
         0.00000E+00
         0.00000E+00
         0.00000E+00
         0.00000E+00
         0.00000E+00
         0.00000E+00
         0.00000E+00
         0.00000E+00
         0.00000E+00
         0.00000E+00
         0.00000E+00
         0.00000E+00
         0.00000E+00
         0.00000E+00
         0.00000E+00
         0.00000E+00
         0.00000E+00
         0.00000E+00
         0.00000E+00
         0.00000E+00
         0.00000E+00
         0.00000E+00
         0.00000E+00
         0.00000E+00
         0.00000E+00
         0.00000E+00
         0.00000E+00
         0.00000E+00
         0.00000E+00
         0.00000E+00
         0.00000E+00
         0.00000E+00
         0.00000E+00
         0.00000E+00
         0.00000E+00
         0.00000E+00
         0.00000E+00
         0.00000E+00
         0.00000E+00
         0.00000E+00
         0.00000E+00
         0.00000E+00
         0.00000E+00
         0.00000E+00
         0.00000E+00
         0.00000E+00
         0.00000E+00
         0.00000E+00
         0.00000E+00
         0.00000E+00
         0.00000E+00
         0.00000E+00
         0.00000E+00
         0.00000E+00
         0.00000E+00
         0.00000E+00
         0.00000E+00
         0.00000E+00
         0.00000E+00
         0.00000E+00
         0.00000E+00
         0.00000E+00
         0.00000E+00
         0.00000E+00
         0.00000E+00
         0.00000E+00
         0.00000E+00
         0.00000E+00
         0.00000E+00
         0.00000E+00
         0.00000E+00
         0.00000E+00
         0.00000E+00
         0.00000E+00
         0.00000E+00
         0.00000E+00
         0.00000E+00
         0.00000E+00
         0.00000E+00
         0.00000E+00
         0.00000E+00
         0.00000E+00
         0.00000E+00
         0.00000E+00
         0.00000E+00
         0.00000E+00
         0.00000E+00
         0.00000E+00
         0.00000E+00
         0.00000E+00
         0.00000E+00
         0.00000E+00
         0.00000E+00
         0.00000E+00
         0.00000E+00
         0.00000E+00
         0.00000E+00
         0.00000E+00
         0.00000E+00
         0.00000E+00
         0.00000E+00
         0.00000E+00
         0.00000E+00
         0.00000E+00
         0.00000E+00
         0.00000E+00
         0.00000E+00
         0.00000E+00
         0.00000E+00
         0.00000E+00
         0.00000E+00
         0.00000E+00
         0.00000E+00
         0.00000E+00
         0.00000E+00
         0.00000E+00
         0.00000E+00
         0.00000E+00
         0.00000E+00
         0.00000E+00
         0.00000E+00
  
SCALARS                init_velocity_z  double 1
LOOKUP_TABLE default
        -0.37300E+03
        -0.37300E+03
        -0.37300E+03
        -0.37300E+03
        -0.37300E+03
        -0.37300E+03
        -0.37300E+03
        -0.37300E+03
        -0.37300E+03
        -0.37300E+03
        -0.37300E+03
        -0.37300E+03
        -0.37300E+03
        -0.37300E+03
        -0.37300E+03
        -0.37300E+03
        -0.37300E+03
        -0.37300E+03
        -0.37300E+03
        -0.37300E+03
        -0.37300E+03
        -0.37300E+03
        -0.37300E+03
        -0.37300E+03
        -0.37300E+03
        -0.37300E+03
        -0.37300E+03
        -0.37300E+03
        -0.37300E+03
        -0.37300E+03
        -0.37300E+03
        -0.37300E+03
        -0.37300E+03
        -0.37300E+03
        -0.37300E+03
        -0.37300E+03
        -0.37300E+03
        -0.37300E+03
        -0.37300E+03
        -0.37300E+03
        -0.37300E+03
        -0.37300E+03
        -0.37300E+03
        -0.37300E+03
        -0.37300E+03
        -0.37300E+03
        -0.37300E+03
        -0.37300E+03
        -0.37300E+03
        -0.37300E+03
        -0.37300E+03
        -0.37300E+03
        -0.37300E+03
        -0.37300E+03
        -0.37300E+03
        -0.37300E+03
        -0.37300E+03
        -0.37300E+03
        -0.37300E+03
        -0.37300E+03
        -0.37300E+03
        -0.37300E+03
        -0.37300E+03
        -0.37300E+03
        -0.37300E+03
        -0.37300E+03
        -0.37300E+03
        -0.37300E+03
        -0.37300E+03
        -0.37300E+03
        -0.37300E+03
        -0.37300E+03
        -0.37300E+03
        -0.37300E+03
        -0.37300E+03
        -0.37300E+03
        -0.37300E+03
        -0.37300E+03
        -0.37300E+03
        -0.37300E+03
        -0.37300E+03
        -0.37300E+03
        -0.37300E+03
        -0.37300E+03
        -0.37300E+03
        -0.37300E+03
        -0.37300E+03
        -0.37300E+03
        -0.37300E+03
        -0.37300E+03
        -0.37300E+03
        -0.37300E+03
        -0.37300E+03
        -0.37300E+03
        -0.37300E+03
        -0.37300E+03
        -0.37300E+03
        -0.37300E+03
        -0.37300E+03
        -0.37300E+03
        -0.37300E+03
        -0.37300E+03
        -0.37300E+03
        -0.37300E+03
        -0.37300E+03
        -0.37300E+03
        -0.37300E+03
        -0.37300E+03
        -0.37300E+03
        -0.37300E+03
        -0.37300E+03
        -0.37300E+03
        -0.37300E+03
        -0.37300E+03
        -0.37300E+03
        -0.37300E+03
        -0.37300E+03
        -0.37300E+03
        -0.37300E+03
        -0.37300E+03
        -0.37300E+03
        -0.37300E+03
        -0.37300E+03
        -0.37300E+03
        -0.37300E+03
        -0.37300E+03
        -0.37300E+03
        -0.37300E+03
        -0.37300E+03
        -0.37300E+03
        -0.37300E+03
        -0.37300E+03
        -0.37300E+03
        -0.37300E+03
        -0.37300E+03
        -0.37300E+03
        -0.37300E+03
        -0.37300E+03
        -0.37300E+03
        -0.37300E+03
        -0.37300E+03
        -0.37300E+03
        -0.37300E+03
        -0.37300E+03
        -0.37300E+03
        -0.37300E+03
        -0.37300E+03
        -0.37300E+03
        -0.37300E+03
        -0.37300E+03
        -0.37300E+03
        -0.37300E+03
        -0.37300E+03
        -0.37300E+03
        -0.37300E+03
        -0.37300E+03
        -0.37300E+03
        -0.37300E+03
        -0.37300E+03
        -0.37300E+03
        -0.37300E+03
        -0.37300E+03
        -0.37300E+03
        -0.37300E+03
        -0.37300E+03
        -0.37300E+03
        -0.37300E+03
        -0.37300E+03
        -0.37300E+03
        -0.37300E+03
        -0.37300E+03
        -0.37300E+03
        -0.37300E+03
        -0.37300E+03
        -0.37300E+03
        -0.37300E+03
        -0.37300E+03
        -0.37300E+03
        -0.37300E+03
        -0.37300E+03
        -0.37300E+03
        -0.37300E+03
        -0.37300E+03
        -0.37300E+03
        -0.37300E+03
        -0.37300E+03
        -0.37300E+03
        -0.37300E+03
        -0.37300E+03
        -0.37300E+03
        -0.37300E+03
        -0.37300E+03
        -0.37300E+03
        -0.37300E+03
        -0.37300E+03
        -0.37300E+03
        -0.37300E+03
        -0.37300E+03
        -0.37300E+03
        -0.37300E+03
        -0.37300E+03
        -0.37300E+03
        -0.37300E+03
        -0.37300E+03
        -0.37300E+03
        -0.37300E+03
        -0.37300E+03
        -0.37300E+03
        -0.37300E+03
        -0.37300E+03
        -0.37300E+03
        -0.37300E+03
        -0.37300E+03
        -0.37300E+03
        -0.37300E+03
        -0.37300E+03
        -0.37300E+03
        -0.37300E+03
        -0.37300E+03
        -0.37300E+03
        -0.37300E+03
        -0.37300E+03
        -0.37300E+03
        -0.37300E+03
        -0.37300E+03
        -0.37300E+03
        -0.37300E+03
        -0.37300E+03
        -0.37300E+03
        -0.37300E+03
        -0.37300E+03
        -0.37300E+03
        -0.37300E+03
        -0.37300E+03
        -0.37300E+03
        -0.37300E+03
        -0.37300E+03
        -0.37300E+03
        -0.37300E+03
        -0.37300E+03
        -0.37300E+03
        -0.37300E+03
        -0.37300E+03
        -0.37300E+03
        -0.37300E+03
        -0.37300E+03
        -0.37300E+03
        -0.37300E+03
        -0.37300E+03
        -0.37300E+03
        -0.37300E+03
        -0.37300E+03
        -0.37300E+03
        -0.37300E+03
        -0.37300E+03
        -0.37300E+03
        -0.37300E+03
        -0.37300E+03
        -0.37300E+03
        -0.37300E+03
        -0.37300E+03
        -0.37300E+03
        -0.37300E+03
        -0.37300E+03
        -0.37300E+03
        -0.37300E+03
        -0.37300E+03
        -0.37300E+03
        -0.37300E+03
        -0.37300E+03
        -0.37300E+03
        -0.37300E+03
        -0.37300E+03
        -0.37300E+03
        -0.37300E+03
        -0.37300E+03
        -0.37300E+03
        -0.37300E+03
        -0.37300E+03
        -0.37300E+03
        -0.37300E+03
        -0.37300E+03
        -0.37300E+03
        -0.37300E+03
        -0.37300E+03
        -0.37300E+03
        -0.37300E+03
        -0.37300E+03
        -0.37300E+03
        -0.37300E+03
        -0.37300E+03
        -0.37300E+03
        -0.37300E+03
        -0.37300E+03
        -0.37300E+03
        -0.37300E+03
        -0.37300E+03
        -0.37300E+03
        -0.37300E+03
        -0.37300E+03
        -0.37300E+03
        -0.37300E+03
        -0.37300E+03
        -0.37300E+03
        -0.37300E+03
        -0.37300E+03
        -0.37300E+03
        -0.37300E+03
        -0.37300E+03
        -0.37300E+03
        -0.37300E+03
        -0.37300E+03
        -0.37300E+03
        -0.37300E+03
        -0.37300E+03
        -0.37300E+03
        -0.37300E+03
        -0.37300E+03
        -0.37300E+03
        -0.37300E+03
        -0.37300E+03
        -0.37300E+03
        -0.37300E+03
        -0.37300E+03
        -0.37300E+03
        -0.37300E+03
        -0.37300E+03
        -0.37300E+03
        -0.37300E+03
        -0.37300E+03
        -0.37300E+03
        -0.37300E+03
        -0.37300E+03
        -0.37300E+03
        -0.37300E+03
        -0.37300E+03
        -0.37300E+03
        -0.37300E+03
        -0.37300E+03
        -0.37300E+03
        -0.37300E+03
        -0.37300E+03
        -0.37300E+03
        -0.37300E+03
        -0.37300E+03
        -0.37300E+03
        -0.37300E+03
        -0.37300E+03
        -0.37300E+03
        -0.37300E+03
        -0.37300E+03
        -0.37300E+03
        -0.37300E+03
        -0.37300E+03
        -0.37300E+03
        -0.37300E+03
        -0.37300E+03
        -0.37300E+03
        -0.37300E+03
        -0.37300E+03
        -0.37300E+03
        -0.37300E+03
        -0.37300E+03
        -0.37300E+03
        -0.37300E+03
        -0.37300E+03
        -0.37300E+03
        -0.37300E+03
        -0.37300E+03
        -0.37300E+03
        -0.37300E+03
        -0.37300E+03
        -0.37300E+03
        -0.37300E+03
        -0.37300E+03
        -0.37300E+03
        -0.37300E+03
        -0.37300E+03
        -0.37300E+03
        -0.37300E+03
        -0.37300E+03
        -0.37300E+03
        -0.37300E+03
        -0.37300E+03
        -0.37300E+03
        -0.37300E+03
        -0.37300E+03
        -0.37300E+03
        -0.37300E+03
        -0.37300E+03
        -0.37300E+03
        -0.37300E+03
        -0.37300E+03
        -0.37300E+03
        -0.37300E+03
        -0.37300E+03
        -0.37300E+03
        -0.37300E+03
        -0.37300E+03
        -0.37300E+03
        -0.37300E+03
        -0.37300E+03
        -0.37300E+03
        -0.37300E+03
        -0.37300E+03
        -0.37300E+03
        -0.37300E+03
        -0.37300E+03
        -0.37300E+03
        -0.37300E+03
        -0.37300E+03
        -0.37300E+03
        -0.37300E+03
        -0.37300E+03
        -0.37300E+03
        -0.37300E+03
        -0.37300E+03
        -0.37300E+03
        -0.37300E+03
        -0.37300E+03
        -0.37300E+03
        -0.37300E+03
        -0.37300E+03
        -0.37300E+03
        -0.37300E+03
        -0.37300E+03
        -0.37300E+03
        -0.37300E+03
        -0.37300E+03
        -0.37300E+03
        -0.37300E+03
        -0.37300E+03
        -0.37300E+03
        -0.37300E+03
        -0.37300E+03
        -0.37300E+03
        -0.37300E+03
        -0.37300E+03
        -0.37300E+03
        -0.37300E+03
        -0.37300E+03
        -0.37300E+03
        -0.37300E+03
        -0.37300E+03
        -0.37300E+03
        -0.37300E+03
        -0.37300E+03
        -0.37300E+03
        -0.37300E+03
        -0.37300E+03
        -0.37300E+03
        -0.37300E+03
        -0.37300E+03
        -0.37300E+03
        -0.37300E+03
        -0.37300E+03
        -0.37300E+03
        -0.37300E+03
        -0.37300E+03
        -0.37300E+03
        -0.37300E+03
        -0.37300E+03
        -0.37300E+03
        -0.37300E+03
        -0.37300E+03
        -0.37300E+03
        -0.37300E+03
        -0.37300E+03
        -0.37300E+03
        -0.37300E+03
        -0.37300E+03
        -0.37300E+03
        -0.37300E+03
        -0.37300E+03
        -0.37300E+03
        -0.37300E+03
        -0.37300E+03
        -0.37300E+03
        -0.37300E+03
        -0.37300E+03
        -0.37300E+03
        -0.37300E+03
        -0.37300E+03
        -0.37300E+03
        -0.37300E+03
        -0.37300E+03
        -0.37300E+03
        -0.37300E+03
        -0.37300E+03
        -0.37300E+03
        -0.37300E+03
        -0.37300E+03
        -0.37300E+03
        -0.37300E+03
        -0.37300E+03
        -0.37300E+03
        -0.37300E+03
        -0.37300E+03
        -0.37300E+03
        -0.37300E+03
        -0.37300E+03
        -0.37300E+03
        -0.37300E+03
        -0.37300E+03
        -0.37300E+03
        -0.37300E+03
        -0.37300E+03
        -0.37300E+03
        -0.37300E+03
        -0.37300E+03
        -0.37300E+03
        -0.37300E+03
        -0.37300E+03
        -0.37300E+03
        -0.37300E+03
        -0.37300E+03
        -0.37300E+03
        -0.37300E+03
        -0.37300E+03
        -0.37300E+03
        -0.37300E+03
        -0.37300E+03
        -0.37300E+03
        -0.37300E+03
        -0.37300E+03
        -0.37300E+03
        -0.37300E+03
        -0.37300E+03
        -0.37300E+03
        -0.37300E+03
        -0.37300E+03
        -0.37300E+03
        -0.37300E+03
        -0.37300E+03
        -0.37300E+03
        -0.37300E+03
        -0.37300E+03
        -0.37300E+03
        -0.37300E+03
        -0.37300E+03
        -0.37300E+03
        -0.37300E+03
        -0.37300E+03
        -0.37300E+03
        -0.37300E+03
        -0.37300E+03
        -0.37300E+03
        -0.37300E+03
        -0.37300E+03
        -0.37300E+03
        -0.37300E+03
        -0.37300E+03
        -0.37300E+03
        -0.37300E+03
        -0.37300E+03
        -0.37300E+03
        -0.37300E+03
        -0.37300E+03
        -0.37300E+03
        -0.37300E+03
        -0.37300E+03
        -0.37300E+03
        -0.37300E+03
        -0.37300E+03
        -0.37300E+03
        -0.37300E+03
        -0.37300E+03
        -0.37300E+03
        -0.37300E+03
        -0.37300E+03
        -0.37300E+03
        -0.37300E+03
        -0.37300E+03
        -0.37300E+03
        -0.37300E+03
        -0.37300E+03
        -0.37300E+03
        -0.37300E+03
        -0.37300E+03
        -0.37300E+03
        -0.37300E+03
        -0.37300E+03
        -0.37300E+03
        -0.37300E+03
        -0.37300E+03
        -0.37300E+03
        -0.37300E+03
        -0.37300E+03
        -0.37300E+03
        -0.37300E+03
        -0.37300E+03
        -0.37300E+03
        -0.37300E+03
        -0.37300E+03
        -0.37300E+03
        -0.37300E+03
        -0.37300E+03
        -0.37300E+03
        -0.37300E+03
        -0.37300E+03
        -0.37300E+03
        -0.37300E+03
        -0.37300E+03
        -0.37300E+03
        -0.37300E+03
        -0.37300E+03
        -0.37300E+03
        -0.37300E+03
        -0.37300E+03
        -0.37300E+03
        -0.37300E+03
        -0.37300E+03
        -0.37300E+03
        -0.37300E+03
        -0.37300E+03
        -0.37300E+03
        -0.37300E+03
        -0.37300E+03
        -0.37300E+03
        -0.37300E+03
        -0.37300E+03
        -0.37300E+03
        -0.37300E+03
        -0.37300E+03
        -0.37300E+03
        -0.37300E+03
        -0.37300E+03
        -0.37300E+03
        -0.37300E+03
        -0.37300E+03
        -0.37300E+03
        -0.37300E+03
        -0.37300E+03
        -0.37300E+03
        -0.37300E+03
        -0.37300E+03
        -0.37300E+03
        -0.37300E+03
        -0.37300E+03
        -0.37300E+03
        -0.37300E+03
        -0.37300E+03
        -0.37300E+03
        -0.37300E+03
        -0.37300E+03
        -0.37300E+03
        -0.37300E+03
        -0.37300E+03
        -0.37300E+03
        -0.37300E+03
        -0.37300E+03
        -0.37300E+03
        -0.37300E+03
        -0.37300E+03
        -0.37300E+03
        -0.37300E+03
        -0.37300E+03
        -0.37300E+03
        -0.37300E+03
        -0.37300E+03
        -0.37300E+03
        -0.37300E+03
        -0.37300E+03
        -0.37300E+03
        -0.37300E+03
        -0.37300E+03
        -0.37300E+03
        -0.37300E+03
        -0.37300E+03
        -0.37300E+03
        -0.37300E+03
        -0.37300E+03
        -0.37300E+03
        -0.37300E+03
        -0.37300E+03
        -0.37300E+03
        -0.37300E+03
        -0.37300E+03
        -0.37300E+03
        -0.37300E+03
        -0.37300E+03
        -0.37300E+03
        -0.37300E+03
        -0.37300E+03
        -0.37300E+03
        -0.37300E+03
        -0.37300E+03
        -0.37300E+03
        -0.37300E+03
        -0.37300E+03
        -0.37300E+03
        -0.37300E+03
        -0.37300E+03
        -0.37300E+03
        -0.37300E+03
        -0.37300E+03
        -0.37300E+03
        -0.37300E+03
        -0.37300E+03
        -0.37300E+03
        -0.37300E+03
        -0.37300E+03
        -0.37300E+03
        -0.37300E+03
        -0.37300E+03
        -0.37300E+03
        -0.37300E+03
        -0.37300E+03
        -0.37300E+03
        -0.37300E+03
        -0.37300E+03
        -0.37300E+03
        -0.37300E+03
        -0.37300E+03
        -0.37300E+03
        -0.37300E+03
        -0.37300E+03
        -0.37300E+03
        -0.37300E+03
        -0.37300E+03
        -0.37300E+03
        -0.37300E+03
        -0.37300E+03
        -0.37300E+03
        -0.37300E+03
        -0.37300E+03
        -0.37300E+03
        -0.37300E+03
        -0.37300E+03
        -0.37300E+03
        -0.37300E+03
        -0.37300E+03
        -0.37300E+03
        -0.37300E+03
        -0.37300E+03
        -0.37300E+03
        -0.37300E+03
        -0.37300E+03
        -0.37300E+03
        -0.37300E+03
        -0.37300E+03
        -0.37300E+03
        -0.37300E+03
        -0.37300E+03
        -0.37300E+03
        -0.37300E+03
        -0.37300E+03
        -0.37300E+03
        -0.37300E+03
        -0.37300E+03
        -0.37300E+03
        -0.37300E+03
        -0.37300E+03
        -0.37300E+03
        -0.37300E+03
        -0.37300E+03
        -0.37300E+03
        -0.37300E+03
        -0.37300E+03
        -0.37300E+03
        -0.37300E+03
        -0.37300E+03
        -0.37300E+03
        -0.37300E+03
        -0.37300E+03
        -0.37300E+03
        -0.37300E+03
        -0.37300E+03
        -0.37300E+03
        -0.37300E+03
        -0.37300E+03
        -0.37300E+03
        -0.37300E+03
        -0.37300E+03
        -0.37300E+03
        -0.37300E+03
        -0.37300E+03
        -0.37300E+03
        -0.37300E+03
        -0.37300E+03
        -0.37300E+03
        -0.37300E+03
        -0.37300E+03
        -0.37300E+03
        -0.37300E+03
        -0.37300E+03
        -0.37300E+03
        -0.37300E+03
        -0.37300E+03
        -0.37300E+03
        -0.37300E+03
        -0.37300E+03
        -0.37300E+03
        -0.37300E+03
        -0.37300E+03
        -0.37300E+03
        -0.37300E+03
        -0.37300E+03
        -0.37300E+03
        -0.37300E+03
        -0.37300E+03
        -0.37300E+03
        -0.37300E+03
        -0.37300E+03
        -0.37300E+03
        -0.37300E+03
        -0.37300E+03
        -0.37300E+03
        -0.37300E+03
        -0.37300E+03
        -0.37300E+03
        -0.37300E+03
        -0.37300E+03
        -0.37300E+03
        -0.37300E+03
        -0.37300E+03
        -0.37300E+03
        -0.37300E+03
        -0.37300E+03
        -0.37300E+03
        -0.37300E+03
        -0.37300E+03
        -0.37300E+03
        -0.37300E+03
        -0.37300E+03
        -0.37300E+03
        -0.37300E+03
        -0.37300E+03
        -0.37300E+03
        -0.37300E+03
        -0.37300E+03
        -0.37300E+03
        -0.37300E+03
        -0.37300E+03
        -0.37300E+03
        -0.37300E+03
        -0.37300E+03
        -0.37300E+03
        -0.37300E+03
        -0.37300E+03
        -0.37300E+03
        -0.37300E+03
        -0.37300E+03
        -0.37300E+03
        -0.37300E+03
        -0.37300E+03
        -0.37300E+03
        -0.37300E+03
        -0.37300E+03
        -0.37300E+03
        -0.37300E+03
        -0.37300E+03
        -0.37300E+03
        -0.37300E+03
        -0.37300E+03
        -0.37300E+03
        -0.37300E+03
        -0.37300E+03
        -0.37300E+03
        -0.37300E+03
        -0.37300E+03
        -0.37300E+03
        -0.37300E+03
        -0.37300E+03
        -0.37300E+03
        -0.37300E+03
        -0.37300E+03
        -0.37300E+03
        -0.37300E+03
        -0.37300E+03
        -0.37300E+03
        -0.37300E+03
        -0.37300E+03
        -0.37300E+03
        -0.37300E+03
        -0.37300E+03
        -0.37300E+03
        -0.37300E+03
        -0.37300E+03
        -0.37300E+03
        -0.37300E+03
        -0.37300E+03
        -0.37300E+03
        -0.37300E+03
        -0.37300E+03
        -0.37300E+03
        -0.37300E+03
        -0.37300E+03
        -0.37300E+03
        -0.37300E+03
        -0.37300E+03
        -0.37300E+03
        -0.37300E+03
        -0.37300E+03
        -0.37300E+03
        -0.37300E+03
        -0.37300E+03
        -0.37300E+03
        -0.37300E+03
        -0.37300E+03
        -0.37300E+03
        -0.37300E+03
        -0.37300E+03
        -0.37300E+03
        -0.37300E+03
        -0.37300E+03
        -0.37300E+03
        -0.37300E+03
        -0.37300E+03
        -0.37300E+03
        -0.37300E+03
        -0.37300E+03
        -0.37300E+03
        -0.37300E+03
        -0.37300E+03
        -0.37300E+03
        -0.37300E+03
        -0.37300E+03
        -0.37300E+03
        -0.37300E+03
        -0.37300E+03
        -0.37300E+03
        -0.37300E+03
        -0.37300E+03
        -0.37300E+03
        -0.37300E+03
        -0.37300E+03
        -0.37300E+03
        -0.37300E+03
        -0.37300E+03
        -0.37300E+03
        -0.37300E+03
        -0.37300E+03
        -0.37300E+03
        -0.37300E+03
        -0.37300E+03
        -0.37300E+03
        -0.37300E+03
        -0.37300E+03
        -0.37300E+03
        -0.37300E+03
        -0.37300E+03
        -0.37300E+03
        -0.37300E+03
        -0.37300E+03
        -0.37300E+03
        -0.37300E+03
        -0.37300E+03
        -0.37300E+03
        -0.37300E+03
        -0.37300E+03
        -0.37300E+03
        -0.37300E+03
        -0.37300E+03
        -0.37300E+03
        -0.37300E+03
        -0.37300E+03
        -0.37300E+03
        -0.37300E+03
        -0.37300E+03
        -0.37300E+03
        -0.37300E+03
        -0.37300E+03
        -0.37300E+03
        -0.37300E+03
        -0.37300E+03
        -0.37300E+03
        -0.37300E+03
        -0.37300E+03
        -0.37300E+03
        -0.37300E+03
        -0.37300E+03
        -0.37300E+03
        -0.37300E+03
        -0.37300E+03
        -0.37300E+03
        -0.37300E+03
        -0.37300E+03
        -0.37300E+03
        -0.37300E+03
        -0.37300E+03
        -0.37300E+03
        -0.37300E+03
        -0.37300E+03
        -0.37300E+03
        -0.37300E+03
        -0.37300E+03
        -0.37300E+03
        -0.37300E+03
        -0.37300E+03
        -0.37300E+03
        -0.37300E+03
        -0.37300E+03
        -0.37300E+03
        -0.37300E+03
        -0.37300E+03
        -0.37300E+03
        -0.37300E+03
        -0.37300E+03
        -0.37300E+03
        -0.37300E+03
        -0.37300E+03
        -0.37300E+03
        -0.37300E+03
        -0.37300E+03
        -0.37300E+03
        -0.37300E+03
        -0.37300E+03
        -0.37300E+03
        -0.37300E+03
        -0.37300E+03
        -0.37300E+03
        -0.37300E+03
        -0.37300E+03
        -0.37300E+03
        -0.37300E+03
        -0.37300E+03
        -0.37300E+03
        -0.37300E+03
        -0.37300E+03
        -0.37300E+03
        -0.37300E+03
        -0.37300E+03
        -0.37300E+03
        -0.37300E+03
        -0.37300E+03
        -0.37300E+03
        -0.37300E+03
        -0.37300E+03
        -0.37300E+03
        -0.37300E+03
        -0.37300E+03
        -0.37300E+03
        -0.37300E+03
        -0.37300E+03
        -0.37300E+03
        -0.37300E+03
        -0.37300E+03
        -0.37300E+03
        -0.37300E+03
        -0.37300E+03
        -0.37300E+03
        -0.37300E+03
        -0.37300E+03
        -0.37300E+03
        -0.37300E+03
        -0.37300E+03
        -0.37300E+03
        -0.37300E+03
        -0.37300E+03
        -0.37300E+03
        -0.37300E+03
        -0.37300E+03
        -0.37300E+03
        -0.37300E+03
        -0.37300E+03
        -0.37300E+03
        -0.37300E+03
        -0.37300E+03
        -0.37300E+03
        -0.37300E+03
        -0.37300E+03
        -0.37300E+03
        -0.37300E+03
        -0.37300E+03
        -0.37300E+03
        -0.37300E+03
        -0.37300E+03
        -0.37300E+03
        -0.37300E+03
        -0.37300E+03
        -0.37300E+03
        -0.37300E+03
        -0.37300E+03
        -0.37300E+03
        -0.37300E+03
        -0.37300E+03
        -0.37300E+03
        -0.37300E+03
        -0.37300E+03
        -0.37300E+03
        -0.37300E+03
        -0.37300E+03
        -0.37300E+03
        -0.37300E+03
        -0.37300E+03
        -0.37300E+03
        -0.37300E+03
        -0.37300E+03
        -0.37300E+03
        -0.37300E+03
        -0.37300E+03
        -0.37300E+03
        -0.37300E+03
        -0.37300E+03
        -0.37300E+03
        -0.37300E+03
        -0.37300E+03
        -0.37300E+03
        -0.37300E+03
        -0.37300E+03
        -0.37300E+03
        -0.37300E+03
        -0.37300E+03
        -0.37300E+03
        -0.37300E+03
        -0.37300E+03
        -0.37300E+03
        -0.37300E+03
        -0.37300E+03
        -0.37300E+03
        -0.37300E+03
        -0.37300E+03
        -0.37300E+03
        -0.37300E+03
        -0.37300E+03
        -0.37300E+03
        -0.37300E+03
        -0.37300E+03
        -0.37300E+03
        -0.37300E+03
        -0.37300E+03
        -0.37300E+03
        -0.37300E+03
        -0.37300E+03
        -0.37300E+03
        -0.37300E+03
        -0.37300E+03
        -0.37300E+03
        -0.37300E+03
        -0.37300E+03
        -0.37300E+03
        -0.37300E+03
        -0.37300E+03
        -0.37300E+03
        -0.37300E+03
        -0.37300E+03
        -0.37300E+03
        -0.37300E+03
        -0.37300E+03
        -0.37300E+03
        -0.37300E+03
        -0.37300E+03
        -0.37300E+03
        -0.37300E+03
        -0.37300E+03
        -0.37300E+03
        -0.37300E+03
        -0.37300E+03
        -0.37300E+03
        -0.37300E+03
        -0.37300E+03
        -0.37300E+03
        -0.37300E+03
        -0.37300E+03
        -0.37300E+03
        -0.37300E+03
        -0.37300E+03
        -0.37300E+03
        -0.37300E+03
        -0.37300E+03
        -0.37300E+03
        -0.37300E+03
        -0.37300E+03
        -0.37300E+03
        -0.37300E+03
        -0.37300E+03
        -0.37300E+03
        -0.37300E+03
        -0.37300E+03
        -0.37300E+03
        -0.37300E+03
        -0.37300E+03
        -0.37300E+03
        -0.37300E+03
        -0.37300E+03
        -0.37300E+03
        -0.37300E+03
        -0.37300E+03
        -0.37300E+03
        -0.37300E+03
        -0.37300E+03
        -0.37300E+03
        -0.37300E+03
        -0.37300E+03
        -0.37300E+03
        -0.37300E+03
        -0.37300E+03
        -0.37300E+03
        -0.37300E+03
        -0.37300E+03
        -0.37300E+03
        -0.37300E+03
        -0.37300E+03
        -0.37300E+03
        -0.37300E+03
        -0.37300E+03
        -0.37300E+03
        -0.37300E+03
        -0.37300E+03
        -0.37300E+03
        -0.37300E+03
        -0.37300E+03
        -0.37300E+03
        -0.37300E+03
        -0.37300E+03
        -0.37300E+03
        -0.37300E+03
        -0.37300E+03
        -0.37300E+03
        -0.37300E+03
        -0.37300E+03
        -0.37300E+03
        -0.37300E+03
        -0.37300E+03
        -0.37300E+03
        -0.37300E+03
        -0.37300E+03
        -0.37300E+03
        -0.37300E+03
        -0.37300E+03
        -0.37300E+03
        -0.37300E+03
        -0.37300E+03
        -0.37300E+03
        -0.37300E+03
        -0.37300E+03
        -0.37300E+03
        -0.37300E+03
        -0.37300E+03
        -0.37300E+03
        -0.37300E+03
        -0.37300E+03
        -0.37300E+03
        -0.37300E+03
        -0.37300E+03
        -0.37300E+03
        -0.37300E+03
        -0.37300E+03
        -0.37300E+03
        -0.37300E+03
        -0.37300E+03
        -0.37300E+03
        -0.37300E+03
        -0.37300E+03
        -0.37300E+03
        -0.37300E+03
        -0.37300E+03
        -0.37300E+03
        -0.37300E+03
        -0.37300E+03
        -0.37300E+03
        -0.37300E+03
        -0.37300E+03
        -0.37300E+03
        -0.37300E+03
        -0.37300E+03
        -0.37300E+03
        -0.37300E+03
        -0.37300E+03
        -0.37300E+03
        -0.37300E+03
        -0.37300E+03
        -0.37300E+03
        -0.37300E+03
        -0.37300E+03
        -0.37300E+03
        -0.37300E+03
        -0.37300E+03
        -0.37300E+03
        -0.37300E+03
        -0.37300E+03
        -0.37300E+03
        -0.37300E+03
        -0.37300E+03
        -0.37300E+03
        -0.37300E+03
        -0.37300E+03
        -0.37300E+03
        -0.37300E+03
        -0.37300E+03
        -0.37300E+03
        -0.37300E+03
        -0.37300E+03
        -0.37300E+03
        -0.37300E+03
        -0.37300E+03
        -0.37300E+03
        -0.37300E+03
        -0.37300E+03
        -0.37300E+03
        -0.37300E+03
        -0.37300E+03
        -0.37300E+03
        -0.37300E+03
        -0.37300E+03
        -0.37300E+03
        -0.37300E+03
        -0.37300E+03
        -0.37300E+03
        -0.37300E+03
        -0.37300E+03
        -0.37300E+03
        -0.37300E+03
        -0.37300E+03
        -0.37300E+03
        -0.37300E+03
        -0.37300E+03
        -0.37300E+03
        -0.37300E+03
        -0.37300E+03
        -0.37300E+03
        -0.37300E+03
        -0.37300E+03
        -0.37300E+03
        -0.37300E+03
        -0.37300E+03
        -0.37300E+03
        -0.37300E+03
        -0.37300E+03
        -0.37300E+03
        -0.37300E+03
        -0.37300E+03
        -0.37300E+03
        -0.37300E+03
        -0.37300E+03
        -0.37300E+03
        -0.37300E+03
        -0.37300E+03
        -0.37300E+03
        -0.37300E+03
        -0.37300E+03
        -0.37300E+03
        -0.37300E+03
        -0.37300E+03
        -0.37300E+03
        -0.37300E+03
        -0.37300E+03
        -0.37300E+03
        -0.37300E+03
        -0.37300E+03
        -0.37300E+03
        -0.37300E+03
        -0.37300E+03
        -0.37300E+03
        -0.37300E+03
        -0.37300E+03
        -0.37300E+03
        -0.37300E+03
        -0.37300E+03
        -0.37300E+03
        -0.37300E+03
        -0.37300E+03
        -0.37300E+03
        -0.37300E+03
        -0.37300E+03
        -0.37300E+03
        -0.37300E+03
        -0.37300E+03
        -0.37300E+03
        -0.37300E+03
        -0.37300E+03
        -0.37300E+03
        -0.37300E+03
        -0.37300E+03
        -0.37300E+03
        -0.37300E+03
        -0.37300E+03
        -0.37300E+03
        -0.37300E+03
        -0.37300E+03
        -0.37300E+03
        -0.37300E+03
        -0.37300E+03
        -0.37300E+03
        -0.37300E+03
        -0.37300E+03
        -0.37300E+03
        -0.37300E+03
        -0.37300E+03
        -0.37300E+03
        -0.37300E+03
        -0.37300E+03
        -0.37300E+03
        -0.37300E+03
        -0.37300E+03
        -0.37300E+03
        -0.37300E+03
        -0.37300E+03
        -0.37300E+03
        -0.37300E+03
        -0.37300E+03
        -0.37300E+03
        -0.37300E+03
        -0.37300E+03
        -0.37300E+03
        -0.37300E+03
        -0.37300E+03
        -0.37300E+03
        -0.37300E+03
        -0.37300E+03
        -0.37300E+03
        -0.37300E+03
        -0.37300E+03
        -0.37300E+03
        -0.37300E+03
        -0.37300E+03
        -0.37300E+03
        -0.37300E+03
        -0.37300E+03
        -0.37300E+03
        -0.37300E+03
        -0.37300E+03
        -0.37300E+03
        -0.37300E+03
        -0.37300E+03
        -0.37300E+03
        -0.37300E+03
        -0.37300E+03
        -0.37300E+03
        -0.37300E+03
        -0.37300E+03
        -0.37300E+03
        -0.37300E+03
        -0.37300E+03
        -0.37300E+03
        -0.37300E+03
        -0.37300E+03
        -0.37300E+03
        -0.37300E+03
        -0.37300E+03
        -0.37300E+03
        -0.37300E+03
        -0.37300E+03
        -0.37300E+03
        -0.37300E+03
        -0.37300E+03
        -0.37300E+03
        -0.37300E+03
        -0.37300E+03
        -0.37300E+03
        -0.37300E+03
        -0.37300E+03
        -0.37300E+03
        -0.37300E+03
        -0.37300E+03
        -0.37300E+03
        -0.37300E+03
        -0.37300E+03
        -0.37300E+03
        -0.37300E+03
        -0.37300E+03
        -0.37300E+03
        -0.37300E+03
        -0.37300E+03
        -0.37300E+03
        -0.37300E+03
        -0.37300E+03
        -0.37300E+03
        -0.37300E+03
        -0.37300E+03
        -0.37300E+03
        -0.37300E+03
        -0.37300E+03
        -0.37300E+03
        -0.37300E+03
        -0.37300E+03
        -0.37300E+03
        -0.37300E+03
        -0.37300E+03
        -0.37300E+03
        -0.37300E+03
        -0.37300E+03
        -0.37300E+03
        -0.37300E+03
        -0.37300E+03
        -0.37300E+03
        -0.37300E+03
        -0.37300E+03
        -0.37300E+03
        -0.37300E+03
        -0.37300E+03
        -0.37300E+03
        -0.37300E+03
        -0.37300E+03
        -0.37300E+03
        -0.37300E+03
        -0.37300E+03
        -0.37300E+03
        -0.37300E+03
        -0.37300E+03
        -0.37300E+03
        -0.37300E+03
        -0.37300E+03
        -0.37300E+03
        -0.37300E+03
        -0.37300E+03
        -0.37300E+03
        -0.37300E+03
        -0.37300E+03
        -0.37300E+03
        -0.37300E+03
        -0.37300E+03
        -0.37300E+03
        -0.37300E+03
        -0.37300E+03
        -0.37300E+03
        -0.37300E+03
        -0.37300E+03
        -0.37300E+03
        -0.37300E+03
        -0.37300E+03
        -0.37300E+03
        -0.37300E+03
        -0.37300E+03
        -0.37300E+03
        -0.37300E+03
        -0.37300E+03
        -0.37300E+03
        -0.37300E+03
        -0.37300E+03
        -0.37300E+03
        -0.37300E+03
        -0.37300E+03
        -0.37300E+03
        -0.37300E+03
        -0.37300E+03
        -0.37300E+03
        -0.37300E+03
        -0.37300E+03
        -0.37300E+03
        -0.37300E+03
        -0.37300E+03
        -0.37300E+03
        -0.37300E+03
        -0.37300E+03
        -0.37300E+03
        -0.37300E+03
        -0.37300E+03
        -0.37300E+03
        -0.37300E+03
        -0.37300E+03
        -0.37300E+03
        -0.37300E+03
        -0.37300E+03
        -0.37300E+03
        -0.37300E+03
        -0.37300E+03
        -0.37300E+03
        -0.37300E+03
        -0.37300E+03
        -0.37300E+03
        -0.37300E+03
        -0.37300E+03
        -0.37300E+03
        -0.37300E+03
        -0.37300E+03
        -0.37300E+03
        -0.37300E+03
        -0.37300E+03
        -0.37300E+03
        -0.37300E+03
        -0.37300E+03
        -0.37300E+03
        -0.37300E+03
        -0.37300E+03
        -0.37300E+03
        -0.37300E+03
        -0.37300E+03
        -0.37300E+03
        -0.37300E+03
        -0.37300E+03
        -0.37300E+03
        -0.37300E+03
        -0.37300E+03
        -0.37300E+03
        -0.37300E+03
        -0.37300E+03
        -0.37300E+03
        -0.37300E+03
        -0.37300E+03
        -0.37300E+03
        -0.37300E+03
        -0.37300E+03
        -0.37300E+03
        -0.37300E+03
        -0.37300E+03
        -0.37300E+03
        -0.37300E+03
        -0.37300E+03
        -0.37300E+03
        -0.37300E+03
        -0.37300E+03
        -0.37300E+03
        -0.37300E+03
        -0.37300E+03
        -0.37300E+03
        -0.37300E+03
        -0.37300E+03
        -0.37300E+03
        -0.37300E+03
        -0.37300E+03
        -0.37300E+03
        -0.37300E+03
        -0.37300E+03
        -0.37300E+03
        -0.37300E+03
        -0.37300E+03
        -0.37300E+03
        -0.37300E+03
        -0.37300E+03
        -0.37300E+03
        -0.37300E+03
        -0.37300E+03
        -0.37300E+03
        -0.37300E+03
        -0.37300E+03
        -0.37300E+03
        -0.37300E+03
        -0.37300E+03
        -0.37300E+03
        -0.37300E+03
        -0.37300E+03
        -0.37300E+03
        -0.37300E+03
        -0.37300E+03
        -0.37300E+03
        -0.37300E+03
        -0.37300E+03
        -0.37300E+03
        -0.37300E+03
        -0.37300E+03
        -0.37300E+03
        -0.37300E+03
        -0.37300E+03
        -0.37300E+03
        -0.37300E+03
        -0.37300E+03
        -0.37300E+03
        -0.37300E+03
        -0.37300E+03
        -0.37300E+03
        -0.37300E+03
        -0.37300E+03
        -0.37300E+03
        -0.37300E+03
        -0.37300E+03
        -0.37300E+03
        -0.37300E+03
        -0.37300E+03
        -0.37300E+03
        -0.37300E+03
        -0.37300E+03
        -0.37300E+03
        -0.37300E+03
        -0.37300E+03
        -0.37300E+03
        -0.37300E+03
        -0.37300E+03
        -0.37300E+03
        -0.37300E+03
        -0.37300E+03
        -0.37300E+03
        -0.37300E+03
        -0.37300E+03
        -0.37300E+03
        -0.37300E+03
        -0.37300E+03
        -0.37300E+03
        -0.37300E+03
        -0.37300E+03
        -0.37300E+03
        -0.37300E+03
        -0.37300E+03
        -0.37300E+03
        -0.37300E+03
        -0.37300E+03
        -0.37300E+03
        -0.37300E+03
        -0.37300E+03
        -0.37300E+03
        -0.37300E+03
        -0.37300E+03
        -0.37300E+03
        -0.37300E+03
        -0.37300E+03
        -0.37300E+03
        -0.37300E+03
        -0.37300E+03
        -0.37300E+03
        -0.37300E+03
        -0.37300E+03
        -0.37300E+03
        -0.37300E+03
        -0.37300E+03
        -0.37300E+03
        -0.37300E+03
        -0.37300E+03
        -0.37300E+03
        -0.37300E+03
        -0.37300E+03
        -0.37300E+03
        -0.37300E+03
        -0.37300E+03
        -0.37300E+03
        -0.37300E+03
        -0.37300E+03
        -0.37300E+03
        -0.37300E+03
        -0.37300E+03
        -0.37300E+03
        -0.37300E+03
        -0.37300E+03
        -0.37300E+03
        -0.37300E+03
        -0.37300E+03
        -0.37300E+03
        -0.37300E+03
        -0.37300E+03
        -0.37300E+03
        -0.37300E+03
        -0.37300E+03
        -0.37300E+03
        -0.37300E+03
        -0.37300E+03
        -0.37300E+03
        -0.37300E+03
        -0.37300E+03
        -0.37300E+03
        -0.37300E+03
        -0.37300E+03
        -0.37300E+03
        -0.37300E+03
        -0.37300E+03
        -0.37300E+03
        -0.37300E+03
        -0.37300E+03
        -0.37300E+03
        -0.37300E+03
        -0.37300E+03
        -0.37300E+03
        -0.37300E+03
        -0.37300E+03
        -0.37300E+03
        -0.37300E+03
        -0.37300E+03
        -0.37300E+03
        -0.37300E+03
        -0.37300E+03
        -0.37300E+03
        -0.37300E+03
        -0.37300E+03
        -0.37300E+03
        -0.37300E+03
        -0.37300E+03
        -0.37300E+03
        -0.37300E+03
        -0.37300E+03
        -0.37300E+03
        -0.37300E+03
        -0.37300E+03
        -0.37300E+03
        -0.37300E+03
        -0.37300E+03
        -0.37300E+03
        -0.37300E+03
        -0.37300E+03
        -0.37300E+03
        -0.37300E+03
        -0.37300E+03
        -0.37300E+03
        -0.37300E+03
        -0.37300E+03
        -0.37300E+03
        -0.37300E+03
        -0.37300E+03
        -0.37300E+03
        -0.37300E+03
        -0.37300E+03
        -0.37300E+03
        -0.37300E+03
        -0.37300E+03
        -0.37300E+03
        -0.37300E+03
        -0.37300E+03
        -0.37300E+03
        -0.37300E+03
        -0.37300E+03
        -0.37300E+03
        -0.37300E+03
        -0.37300E+03
        -0.37300E+03
        -0.37300E+03
        -0.37300E+03
        -0.37300E+03
        -0.37300E+03
        -0.37300E+03
        -0.37300E+03
        -0.37300E+03
        -0.37300E+03
        -0.37300E+03
        -0.37300E+03
        -0.37300E+03
        -0.37300E+03
        -0.37300E+03
        -0.37300E+03
        -0.37300E+03
        -0.37300E+03
        -0.37300E+03
        -0.37300E+03
        -0.37300E+03
        -0.37300E+03
        -0.37300E+03
        -0.37300E+03
        -0.37300E+03
        -0.37300E+03
        -0.37300E+03
        -0.37300E+03
        -0.37300E+03
        -0.37300E+03
        -0.37300E+03
        -0.37300E+03
        -0.37300E+03
        -0.37300E+03
        -0.37300E+03
        -0.37300E+03
        -0.37300E+03
        -0.37300E+03
        -0.37300E+03
        -0.37300E+03
        -0.37300E+03
        -0.37300E+03
        -0.37300E+03
        -0.37300E+03
        -0.37300E+03
        -0.37300E+03
        -0.37300E+03
        -0.37300E+03
        -0.37300E+03
        -0.37300E+03
        -0.37300E+03
        -0.37300E+03
        -0.37300E+03
        -0.37300E+03
        -0.37300E+03
        -0.37300E+03
        -0.37300E+03
        -0.37300E+03
        -0.37300E+03
        -0.37300E+03
        -0.37300E+03
        -0.37300E+03
        -0.37300E+03
        -0.37300E+03
        -0.37300E+03
        -0.37300E+03
        -0.37300E+03
        -0.37300E+03
        -0.37300E+03
        -0.37300E+03
        -0.37300E+03
        -0.37300E+03
        -0.37300E+03
        -0.37300E+03
        -0.37300E+03
        -0.37300E+03
        -0.37300E+03
        -0.37300E+03
        -0.37300E+03
        -0.37300E+03
        -0.37300E+03
        -0.37300E+03
        -0.37300E+03
        -0.37300E+03
        -0.37300E+03
        -0.37300E+03
        -0.37300E+03
        -0.37300E+03
        -0.37300E+03
        -0.37300E+03
        -0.37300E+03
        -0.37300E+03
        -0.37300E+03
        -0.37300E+03
        -0.37300E+03
        -0.37300E+03
        -0.37300E+03
        -0.37300E+03
        -0.37300E+03
        -0.37300E+03
        -0.37300E+03
        -0.37300E+03
        -0.37300E+03
        -0.37300E+03
        -0.37300E+03
        -0.37300E+03
        -0.37300E+03
        -0.37300E+03
        -0.37300E+03
        -0.37300E+03
        -0.37300E+03
        -0.37300E+03
        -0.37300E+03
        -0.37300E+03
        -0.37300E+03
        -0.37300E+03
        -0.37300E+03
        -0.37300E+03
        -0.37300E+03
        -0.37300E+03
        -0.37300E+03
        -0.37300E+03
        -0.37300E+03
        -0.37300E+03
        -0.37300E+03
        -0.37300E+03
        -0.37300E+03
        -0.37300E+03
        -0.37300E+03
        -0.37300E+03
        -0.37300E+03
        -0.37300E+03
        -0.37300E+03
        -0.37300E+03
        -0.37300E+03
        -0.37300E+03
        -0.37300E+03
        -0.37300E+03
        -0.37300E+03
        -0.37300E+03
        -0.37300E+03
        -0.37300E+03
        -0.37300E+03
        -0.37300E+03
        -0.37300E+03
        -0.37300E+03
        -0.37300E+03
        -0.37300E+03
        -0.37300E+03
        -0.37300E+03
        -0.37300E+03
        -0.37300E+03
        -0.37300E+03
        -0.37300E+03
        -0.37300E+03
        -0.37300E+03
        -0.37300E+03
        -0.37300E+03
        -0.37300E+03
        -0.37300E+03
  
SCALARS              normalized_window  double 1
LOOKUP_TABLE default
         0.27500E+01
         0.27500E+01
         0.27500E+01
         0.27500E+01
         0.27500E+01
         0.27500E+01
         0.27500E+01
         0.27500E+01
         0.27500E+01
         0.27500E+01
         0.27500E+01
         0.27500E+01
         0.27500E+01
         0.27500E+01
         0.27500E+01
         0.27500E+01
         0.27500E+01
         0.27500E+01
         0.27500E+01
         0.27500E+01
         0.27500E+01
         0.27500E+01
         0.27500E+01
         0.27500E+01
         0.27500E+01
         0.27500E+01
         0.27500E+01
         0.27500E+01
         0.27500E+01
         0.27500E+01
         0.27500E+01
         0.27500E+01
         0.27500E+01
         0.27500E+01
         0.27500E+01
         0.27500E+01
         0.27500E+01
         0.27500E+01
         0.27500E+01
         0.27500E+01
         0.27500E+01
         0.27500E+01
         0.27500E+01
         0.27500E+01
         0.27500E+01
         0.27500E+01
         0.27500E+01
         0.27500E+01
         0.27500E+01
         0.27500E+01
         0.27500E+01
         0.27500E+01
         0.27500E+01
         0.27500E+01
         0.27500E+01
         0.27500E+01
         0.27500E+01
         0.27500E+01
         0.27500E+01
         0.27500E+01
         0.27500E+01
         0.27500E+01
         0.27500E+01
         0.27500E+01
         0.27500E+01
         0.27500E+01
         0.27500E+01
         0.27500E+01
         0.27500E+01
         0.27500E+01
         0.27500E+01
         0.27500E+01
         0.27500E+01
         0.27500E+01
         0.27500E+01
         0.27500E+01
         0.27500E+01
         0.27500E+01
         0.27500E+01
         0.27500E+01
         0.27500E+01
         0.27500E+01
         0.27500E+01
         0.27500E+01
         0.27500E+01
         0.27500E+01
         0.27500E+01
         0.27500E+01
         0.27500E+01
         0.27500E+01
         0.27500E+01
         0.27500E+01
         0.27500E+01
         0.27500E+01
         0.27500E+01
         0.27500E+01
         0.27500E+01
         0.27500E+01
         0.27500E+01
         0.27500E+01
         0.27500E+01
         0.27500E+01
         0.27500E+01
         0.27500E+01
         0.27500E+01
         0.27500E+01
         0.27500E+01
         0.27500E+01
         0.27500E+01
         0.27500E+01
         0.27500E+01
         0.27500E+01
         0.27500E+01
         0.27500E+01
         0.27500E+01
         0.27500E+01
         0.27500E+01
         0.27500E+01
         0.27500E+01
         0.27500E+01
         0.27500E+01
         0.27500E+01
         0.27500E+01
         0.27500E+01
         0.27500E+01
         0.27500E+01
         0.27500E+01
         0.27500E+01
         0.27500E+01
         0.27500E+01
         0.27500E+01
         0.27500E+01
         0.27500E+01
         0.27500E+01
         0.27500E+01
         0.27500E+01
         0.27500E+01
         0.27500E+01
         0.27500E+01
         0.27500E+01
         0.27500E+01
         0.27500E+01
         0.27500E+01
         0.27500E+01
         0.27500E+01
         0.27500E+01
         0.27500E+01
         0.27500E+01
         0.27500E+01
         0.27500E+01
         0.27500E+01
         0.27500E+01
         0.27500E+01
         0.27500E+01
         0.27500E+01
         0.27500E+01
         0.27500E+01
         0.27500E+01
         0.27500E+01
         0.27500E+01
         0.27500E+01
         0.27500E+01
         0.27500E+01
         0.27500E+01
         0.27500E+01
         0.27500E+01
         0.27500E+01
         0.27500E+01
         0.27500E+01
         0.27500E+01
         0.27500E+01
         0.27500E+01
         0.27500E+01
         0.27500E+01
         0.27500E+01
         0.27500E+01
         0.27500E+01
         0.27500E+01
         0.27500E+01
         0.27500E+01
         0.27500E+01
         0.27500E+01
         0.27500E+01
         0.27500E+01
         0.27500E+01
         0.27500E+01
         0.27500E+01
         0.27500E+01
         0.27500E+01
         0.27500E+01
         0.27500E+01
         0.27500E+01
         0.27500E+01
         0.27500E+01
         0.27500E+01
         0.27500E+01
         0.27500E+01
         0.27500E+01
         0.27500E+01
         0.27500E+01
         0.27500E+01
         0.27500E+01
         0.27500E+01
         0.27500E+01
         0.27500E+01
         0.27500E+01
         0.27500E+01
         0.27500E+01
         0.27500E+01
         0.27500E+01
         0.27500E+01
         0.27500E+01
         0.27500E+01
         0.27500E+01
         0.27500E+01
         0.27500E+01
         0.27500E+01
         0.27500E+01
         0.27500E+01
         0.27500E+01
         0.27500E+01
         0.27500E+01
         0.27500E+01
         0.27500E+01
         0.27500E+01
         0.27500E+01
         0.27500E+01
         0.27500E+01
         0.27500E+01
         0.27500E+01
         0.27500E+01
         0.27500E+01
         0.27500E+01
         0.27500E+01
         0.27500E+01
         0.27500E+01
         0.27500E+01
         0.27500E+01
         0.27500E+01
         0.27500E+01
         0.27500E+01
         0.27500E+01
         0.27500E+01
         0.27500E+01
         0.27500E+01
         0.27500E+01
         0.27500E+01
         0.27500E+01
         0.27500E+01
         0.27500E+01
         0.27500E+01
         0.27500E+01
         0.27500E+01
         0.27500E+01
         0.27500E+01
         0.27500E+01
         0.27500E+01
         0.27500E+01
         0.27500E+01
         0.27500E+01
         0.27500E+01
         0.27500E+01
         0.27500E+01
         0.27500E+01
         0.27500E+01
         0.27500E+01
         0.27500E+01
         0.27500E+01
         0.27500E+01
         0.27500E+01
         0.27500E+01
         0.27500E+01
         0.27500E+01
         0.27500E+01
         0.27500E+01
         0.27500E+01
         0.27500E+01
         0.27500E+01
         0.27500E+01
         0.27500E+01
         0.27500E+01
         0.27500E+01
         0.27500E+01
         0.27500E+01
         0.27500E+01
         0.27500E+01
         0.27500E+01
         0.27500E+01
         0.27500E+01
         0.27500E+01
         0.27500E+01
         0.27500E+01
         0.27500E+01
         0.27500E+01
         0.27500E+01
         0.27500E+01
         0.27500E+01
         0.27500E+01
         0.27500E+01
         0.27500E+01
         0.27500E+01
         0.27500E+01
         0.27500E+01
         0.27500E+01
         0.27500E+01
         0.27500E+01
         0.27500E+01
         0.27500E+01
         0.27500E+01
         0.27500E+01
         0.27500E+01
         0.27500E+01
         0.27500E+01
         0.27500E+01
         0.27500E+01
         0.27500E+01
         0.27500E+01
         0.27500E+01
         0.27500E+01
         0.27500E+01
         0.27500E+01
         0.27500E+01
         0.27500E+01
         0.27500E+01
         0.27500E+01
         0.27500E+01
         0.27500E+01
         0.27500E+01
         0.27500E+01
         0.27500E+01
         0.27500E+01
         0.27500E+01
         0.27500E+01
         0.27500E+01
         0.27500E+01
         0.27500E+01
         0.27500E+01
         0.27500E+01
         0.27500E+01
         0.27500E+01
         0.27500E+01
         0.27500E+01
         0.27500E+01
         0.27500E+01
         0.27500E+01
         0.27500E+01
         0.27500E+01
         0.27500E+01
         0.27500E+01
         0.27500E+01
         0.27500E+01
         0.27500E+01
         0.27500E+01
         0.27500E+01
         0.27500E+01
         0.27500E+01
         0.27500E+01
         0.27500E+01
         0.27500E+01
         0.27500E+01
         0.27500E+01
         0.27500E+01
         0.27500E+01
         0.27500E+01
         0.27500E+01
         0.27500E+01
         0.27500E+01
         0.27500E+01
         0.27500E+01
         0.27500E+01
         0.27500E+01
         0.27500E+01
         0.27500E+01
         0.27500E+01
         0.27500E+01
         0.27500E+01
         0.27500E+01
         0.27500E+01
         0.27500E+01
         0.27500E+01
         0.27500E+01
         0.27500E+01
         0.27500E+01
         0.27500E+01
         0.27500E+01
         0.27500E+01
         0.27500E+01
         0.27500E+01
         0.27500E+01
         0.27500E+01
         0.27500E+01
         0.27500E+01
         0.27500E+01
         0.27500E+01
         0.27500E+01
         0.27500E+01
         0.27500E+01
         0.27500E+01
         0.27500E+01
         0.27500E+01
         0.27500E+01
         0.27500E+01
         0.27500E+01
         0.27500E+01
         0.27500E+01
         0.27500E+01
         0.27500E+01
         0.27500E+01
         0.27500E+01
         0.27500E+01
         0.27500E+01
         0.27500E+01
         0.27500E+01
         0.27500E+01
         0.27500E+01
         0.27500E+01
         0.27500E+01
         0.27500E+01
         0.27500E+01
         0.27500E+01
         0.27500E+01
         0.27500E+01
         0.27500E+01
         0.27500E+01
         0.27500E+01
         0.27500E+01
         0.27500E+01
         0.27500E+01
         0.27500E+01
         0.27500E+01
         0.27500E+01
         0.27500E+01
         0.27500E+01
         0.27500E+01
         0.27500E+01
         0.27500E+01
         0.27500E+01
         0.27500E+01
         0.27500E+01
         0.27500E+01
         0.27500E+01
         0.27500E+01
         0.27500E+01
         0.27500E+01
         0.27500E+01
         0.27500E+01
         0.27500E+01
         0.27500E+01
         0.27500E+01
         0.27500E+01
         0.27500E+01
         0.27500E+01
         0.27500E+01
         0.27500E+01
         0.27500E+01
         0.27500E+01
         0.27500E+01
         0.27500E+01
         0.27500E+01
         0.27500E+01
         0.27500E+01
         0.27500E+01
         0.27500E+01
         0.27500E+01
         0.27500E+01
         0.27500E+01
         0.27500E+01
         0.27500E+01
         0.27500E+01
         0.27500E+01
         0.27500E+01
         0.27500E+01
         0.27500E+01
         0.27500E+01
         0.27500E+01
         0.27500E+01
         0.27500E+01
         0.27500E+01
         0.27500E+01
         0.27500E+01
         0.27500E+01
         0.27500E+01
         0.27500E+01
         0.27500E+01
         0.27500E+01
         0.27500E+01
         0.27500E+01
         0.27500E+01
         0.27500E+01
         0.27500E+01
         0.27500E+01
         0.27500E+01
         0.27500E+01
         0.27500E+01
         0.27500E+01
         0.27500E+01
         0.27500E+01
         0.27500E+01
         0.27500E+01
         0.27500E+01
         0.27500E+01
         0.27500E+01
         0.27500E+01
         0.27500E+01
         0.27500E+01
         0.27500E+01
         0.27500E+01
         0.27500E+01
         0.27500E+01
         0.27500E+01
         0.27500E+01
         0.27500E+01
         0.27500E+01
         0.27500E+01
         0.27500E+01
         0.27500E+01
         0.27500E+01
         0.27500E+01
         0.27500E+01
         0.27500E+01
         0.27500E+01
         0.27500E+01
         0.27500E+01
         0.27500E+01
         0.27500E+01
         0.27500E+01
         0.27500E+01
         0.27500E+01
         0.27500E+01
         0.27500E+01
         0.27500E+01
         0.27500E+01
         0.27500E+01
         0.27500E+01
         0.27500E+01
         0.27500E+01
         0.27500E+01
         0.27500E+01
         0.27500E+01
         0.27500E+01
         0.27500E+01
         0.27500E+01
         0.27500E+01
         0.27500E+01
         0.27500E+01
         0.27500E+01
         0.27500E+01
         0.27500E+01
         0.27500E+01
         0.27500E+01
         0.27500E+01
         0.27500E+01
         0.27500E+01
         0.27500E+01
         0.27500E+01
         0.27500E+01
         0.27500E+01
         0.27500E+01
         0.27500E+01
         0.27500E+01
         0.27500E+01
         0.27500E+01
         0.27500E+01
         0.27500E+01
         0.27500E+01
         0.27500E+01
         0.27500E+01
         0.27500E+01
         0.27500E+01
         0.27500E+01
         0.27500E+01
         0.27500E+01
         0.27500E+01
         0.27500E+01
         0.27500E+01
         0.27500E+01
         0.27500E+01
         0.27500E+01
         0.27500E+01
         0.27500E+01
         0.27500E+01
         0.27500E+01
         0.27500E+01
         0.27500E+01
         0.27500E+01
         0.27500E+01
         0.27500E+01
         0.27500E+01
         0.27500E+01
         0.27500E+01
         0.27500E+01
         0.27500E+01
         0.27500E+01
         0.27500E+01
         0.27500E+01
         0.27500E+01
         0.27500E+01
         0.27500E+01
         0.27500E+01
         0.27500E+01
         0.27500E+01
         0.27500E+01
         0.27500E+01
         0.27500E+01
         0.27500E+01
         0.27500E+01
         0.27500E+01
         0.27500E+01
         0.27500E+01
         0.27500E+01
         0.27500E+01
         0.27500E+01
         0.27500E+01
         0.27500E+01
         0.27500E+01
         0.27500E+01
         0.27500E+01
         0.27500E+01
         0.27500E+01
         0.27500E+01
         0.27500E+01
         0.27500E+01
         0.27500E+01
         0.27500E+01
         0.27500E+01
         0.27500E+01
         0.27500E+01
         0.27500E+01
         0.27500E+01
         0.27500E+01
         0.27500E+01
         0.27500E+01
         0.27500E+01
         0.27500E+01
         0.27500E+01
         0.27500E+01
         0.27500E+01
         0.27500E+01
         0.27500E+01
         0.27500E+01
         0.27500E+01
         0.27500E+01
         0.27500E+01
         0.27500E+01
         0.27500E+01
         0.27500E+01
         0.27500E+01
         0.27500E+01
         0.27500E+01
         0.27500E+01
         0.27500E+01
         0.27500E+01
         0.27500E+01
         0.27500E+01
         0.27500E+01
         0.27500E+01
         0.27500E+01
         0.27500E+01
         0.27500E+01
         0.27500E+01
         0.27500E+01
         0.27500E+01
         0.27500E+01
         0.27500E+01
         0.27500E+01
         0.27500E+01
         0.27500E+01
         0.27500E+01
         0.27500E+01
         0.27500E+01
         0.27500E+01
         0.27500E+01
         0.27500E+01
         0.27500E+01
         0.27500E+01
         0.27500E+01
         0.27500E+01
         0.27500E+01
         0.27500E+01
         0.27500E+01
         0.27500E+01
         0.27500E+01
         0.27500E+01
         0.27500E+01
         0.27500E+01
         0.27500E+01
         0.27500E+01
         0.27500E+01
         0.27500E+01
         0.27500E+01
         0.27500E+01
         0.27500E+01
         0.27500E+01
         0.27500E+01
         0.27500E+01
         0.27500E+01
         0.27500E+01
         0.27500E+01
         0.27500E+01
         0.27500E+01
         0.27500E+01
         0.27500E+01
         0.27500E+01
         0.27500E+01
         0.27500E+01
         0.27500E+01
         0.27500E+01
         0.27500E+01
         0.27500E+01
         0.27500E+01
         0.27500E+01
         0.27500E+01
         0.27500E+01
         0.27500E+01
         0.27500E+01
         0.27500E+01
         0.27500E+01
         0.27500E+01
         0.27500E+01
         0.27500E+01
         0.27500E+01
         0.27500E+01
         0.27500E+01
         0.27500E+01
         0.27500E+01
         0.27500E+01
         0.27500E+01
         0.27500E+01
         0.27500E+01
         0.27500E+01
         0.27500E+01
         0.27500E+01
         0.27500E+01
         0.27500E+01
         0.27500E+01
         0.27500E+01
         0.27500E+01
         0.27500E+01
         0.27500E+01
         0.27500E+01
         0.27500E+01
         0.27500E+01
         0.27500E+01
         0.27500E+01
         0.27500E+01
         0.27500E+01
         0.27500E+01
         0.27500E+01
         0.27500E+01
         0.27500E+01
         0.27500E+01
         0.27500E+01
         0.27500E+01
         0.27500E+01
         0.27500E+01
         0.27500E+01
         0.27500E+01
         0.27500E+01
         0.27500E+01
         0.27500E+01
         0.27500E+01
         0.27500E+01
         0.27500E+01
         0.27500E+01
         0.27500E+01
         0.27500E+01
         0.27500E+01
         0.27500E+01
         0.27500E+01
         0.27500E+01
         0.27500E+01
         0.27500E+01
         0.27500E+01
         0.27500E+01
         0.27500E+01
         0.27500E+01
         0.27500E+01
         0.27500E+01
         0.27500E+01
         0.27500E+01
         0.27500E+01
         0.27500E+01
         0.27500E+01
         0.27500E+01
         0.27500E+01
         0.27500E+01
         0.27500E+01
         0.27500E+01
         0.27500E+01
         0.27500E+01
         0.27500E+01
         0.27500E+01
         0.27500E+01
         0.27500E+01
         0.27500E+01
         0.27500E+01
         0.27500E+01
         0.27500E+01
         0.27500E+01
         0.27500E+01
         0.27500E+01
         0.27500E+01
         0.27500E+01
         0.27500E+01
         0.27500E+01
         0.27500E+01
         0.27500E+01
         0.27500E+01
         0.27500E+01
         0.27500E+01
         0.27500E+01
         0.27500E+01
         0.27500E+01
         0.27500E+01
         0.27500E+01
         0.27500E+01
         0.27500E+01
         0.27500E+01
         0.27500E+01
         0.27500E+01
         0.27500E+01
         0.27500E+01
         0.27500E+01
         0.27500E+01
         0.27500E+01
         0.27500E+01
         0.27500E+01
         0.27500E+01
         0.27500E+01
         0.27500E+01
         0.27500E+01
         0.27500E+01
         0.27500E+01
         0.27500E+01
         0.27500E+01
         0.27500E+01
         0.27500E+01
         0.27500E+01
         0.27500E+01
         0.27500E+01
         0.27500E+01
         0.27500E+01
         0.27500E+01
         0.27500E+01
         0.27500E+01
         0.27500E+01
         0.27500E+01
         0.27500E+01
         0.27500E+01
         0.27500E+01
         0.27500E+01
         0.27500E+01
         0.27500E+01
         0.27500E+01
         0.27500E+01
         0.27500E+01
         0.27500E+01
         0.27500E+01
         0.27500E+01
         0.27500E+01
         0.27500E+01
         0.27500E+01
         0.27500E+01
         0.27500E+01
         0.27500E+01
         0.27500E+01
         0.27500E+01
         0.27500E+01
         0.27500E+01
         0.27500E+01
         0.27500E+01
         0.27500E+01
         0.27500E+01
         0.27500E+01
         0.27500E+01
         0.27500E+01
         0.27500E+01
         0.27500E+01
         0.27500E+01
         0.27500E+01
         0.27500E+01
         0.27500E+01
         0.27500E+01
         0.27500E+01
         0.27500E+01
         0.27500E+01
         0.27500E+01
         0.27500E+01
         0.27500E+01
         0.27500E+01
         0.27500E+01
         0.27500E+01
         0.27500E+01
         0.27500E+01
         0.27500E+01
         0.27500E+01
         0.27500E+01
         0.27500E+01
         0.27500E+01
         0.27500E+01
         0.27500E+01
         0.27500E+01
         0.27500E+01
         0.27500E+01
         0.27500E+01
         0.27500E+01
         0.27500E+01
         0.27500E+01
         0.27500E+01
         0.27500E+01
         0.27500E+01
         0.27500E+01
         0.27500E+01
         0.27500E+01
         0.27500E+01
         0.27500E+01
         0.27500E+01
         0.27500E+01
         0.27500E+01
         0.27500E+01
         0.27500E+01
         0.27500E+01
         0.27500E+01
         0.27500E+01
         0.27500E+01
         0.27500E+01
         0.27500E+01
         0.27500E+01
         0.27500E+01
         0.27500E+01
         0.27500E+01
         0.27500E+01
         0.27500E+01
         0.27500E+01
         0.27500E+01
         0.27500E+01
         0.27500E+01
         0.27500E+01
         0.27500E+01
         0.27500E+01
         0.27500E+01
         0.27500E+01
         0.27500E+01
         0.27500E+01
         0.27500E+01
         0.27500E+01
         0.27500E+01
         0.27500E+01
         0.27500E+01
         0.27500E+01
         0.27500E+01
         0.27500E+01
         0.27500E+01
         0.27500E+01
         0.27500E+01
         0.27500E+01
         0.27500E+01
         0.27500E+01
         0.27500E+01
         0.27500E+01
         0.27500E+01
         0.27500E+01
         0.27500E+01
         0.27500E+01
         0.27500E+01
         0.27500E+01
         0.27500E+01
         0.27500E+01
         0.27500E+01
         0.27500E+01
         0.27500E+01
         0.27500E+01
         0.27500E+01
         0.27500E+01
         0.27500E+01
         0.27500E+01
         0.27500E+01
         0.27500E+01
         0.27500E+01
         0.27500E+01
         0.27500E+01
         0.27500E+01
         0.27500E+01
         0.27500E+01
         0.27500E+01
         0.27500E+01
         0.27500E+01
         0.27500E+01
         0.27500E+01
         0.27500E+01
         0.27500E+01
         0.27500E+01
         0.27500E+01
         0.27500E+01
         0.27500E+01
         0.27500E+01
         0.27500E+01
         0.27500E+01
         0.27500E+01
         0.27500E+01
         0.27500E+01
         0.27500E+01
         0.27500E+01
         0.27500E+01
         0.27500E+01
         0.27500E+01
         0.27500E+01
         0.27500E+01
         0.27500E+01
         0.27500E+01
         0.27500E+01
         0.27500E+01
         0.27500E+01
         0.27500E+01
         0.27500E+01
         0.27500E+01
         0.27500E+01
         0.27500E+01
         0.27500E+01
         0.27500E+01
         0.27500E+01
         0.27500E+01
         0.27500E+01
         0.27500E+01
         0.27500E+01
         0.27500E+01
         0.27500E+01
         0.27500E+01
         0.27500E+01
         0.27500E+01
         0.27500E+01
         0.27500E+01
         0.27500E+01
         0.27500E+01
         0.27500E+01
         0.27500E+01
         0.27500E+01
         0.27500E+01
         0.27500E+01
         0.27500E+01
         0.27500E+01
         0.27500E+01
         0.27500E+01
         0.27500E+01
         0.27500E+01
         0.27500E+01
         0.27500E+01
         0.27500E+01
         0.27500E+01
         0.27500E+01
         0.27500E+01
         0.27500E+01
         0.27500E+01
         0.27500E+01
         0.27500E+01
         0.27500E+01
         0.27500E+01
         0.27500E+01
         0.27500E+01
         0.27500E+01
         0.27500E+01
         0.27500E+01
         0.27500E+01
         0.27500E+01
         0.27500E+01
         0.27500E+01
         0.27500E+01
         0.27500E+01
         0.27500E+01
         0.27500E+01
         0.27500E+01
         0.27500E+01
         0.27500E+01
         0.27500E+01
         0.27500E+01
         0.27500E+01
         0.27500E+01
         0.27500E+01
         0.27500E+01
         0.27500E+01
         0.27500E+01
         0.27500E+01
         0.27500E+01
         0.27500E+01
         0.27500E+01
         0.27500E+01
         0.27500E+01
         0.27500E+01
         0.27500E+01
         0.27500E+01
         0.27500E+01
         0.27500E+01
         0.27500E+01
         0.27500E+01
         0.27500E+01
         0.27500E+01
         0.27500E+01
         0.27500E+01
         0.27500E+01
         0.27500E+01
         0.27500E+01
         0.27500E+01
         0.27500E+01
         0.27500E+01
         0.27500E+01
         0.27500E+01
         0.27500E+01
         0.27500E+01
         0.27500E+01
         0.27500E+01
         0.27500E+01
         0.27500E+01
         0.27500E+01
         0.27500E+01
         0.27500E+01
         0.27500E+01
         0.27500E+01
         0.27500E+01
         0.27500E+01
         0.27500E+01
         0.27500E+01
         0.27500E+01
         0.27500E+01
         0.27500E+01
         0.27500E+01
         0.27500E+01
         0.27500E+01
         0.27500E+01
         0.27500E+01
         0.27500E+01
         0.27500E+01
         0.27500E+01
         0.27500E+01
         0.27500E+01
         0.27500E+01
         0.27500E+01
         0.27500E+01
         0.27500E+01
         0.27500E+01
         0.27500E+01
         0.27500E+01
         0.27500E+01
         0.27500E+01
         0.27500E+01
         0.27500E+01
         0.27500E+01
         0.27500E+01
         0.27500E+01
         0.27500E+01
         0.27500E+01
         0.27500E+01
         0.27500E+01
         0.27500E+01
         0.27500E+01
         0.27500E+01
         0.27500E+01
         0.27500E+01
         0.27500E+01
         0.27500E+01
         0.27500E+01
         0.27500E+01
         0.27500E+01
         0.27500E+01
         0.27500E+01
         0.27500E+01
         0.27500E+01
         0.27500E+01
         0.27500E+01
         0.27500E+01
         0.27500E+01
         0.27500E+01
         0.27500E+01
         0.27500E+01
         0.27500E+01
         0.27500E+01
         0.27500E+01
         0.27500E+01
         0.27500E+01
         0.27500E+01
         0.27500E+01
         0.27500E+01
         0.27500E+01
         0.27500E+01
         0.27500E+01
         0.27500E+01
         0.27500E+01
         0.27500E+01
         0.27500E+01
         0.27500E+01
         0.27500E+01
         0.27500E+01
         0.27500E+01
         0.27500E+01
         0.27500E+01
         0.27500E+01
         0.27500E+01
         0.27500E+01
         0.27500E+01
         0.27500E+01
         0.27500E+01
         0.27500E+01
         0.27500E+01
         0.27500E+01
         0.27500E+01
         0.27500E+01
         0.27500E+01
         0.27500E+01
         0.27500E+01
         0.27500E+01
         0.27500E+01
         0.27500E+01
         0.27500E+01
         0.27500E+01
         0.27500E+01
         0.27500E+01
         0.27500E+01
         0.27500E+01
         0.27500E+01
         0.27500E+01
         0.27500E+01
         0.27500E+01
         0.27500E+01
         0.27500E+01
         0.27500E+01
         0.27500E+01
         0.27500E+01
         0.27500E+01
         0.27500E+01
         0.27500E+01
         0.27500E+01
         0.27500E+01
         0.27500E+01
         0.27500E+01
         0.27500E+01
         0.27500E+01
         0.27500E+01
         0.27500E+01
         0.27500E+01
         0.27500E+01
         0.27500E+01
         0.27500E+01
         0.27500E+01
         0.27500E+01
         0.27500E+01
         0.27500E+01
         0.27500E+01
         0.27500E+01
         0.27500E+01
         0.27500E+01
         0.27500E+01
         0.27500E+01
         0.27500E+01
         0.27500E+01
         0.27500E+01
         0.27500E+01
         0.27500E+01
         0.27500E+01
         0.27500E+01
         0.27500E+01
         0.27500E+01
         0.27500E+01
         0.27500E+01
         0.27500E+01
         0.27500E+01
         0.27500E+01
         0.27500E+01
         0.27500E+01
         0.27500E+01
         0.27500E+01
         0.27500E+01
         0.27500E+01
         0.27500E+01
         0.27500E+01
         0.27500E+01
         0.27500E+01
         0.27500E+01
         0.27500E+01
         0.27500E+01
         0.27500E+01
         0.27500E+01
         0.27500E+01
         0.27500E+01
         0.27500E+01
         0.27500E+01
         0.27500E+01
         0.27500E+01
         0.27500E+01
         0.27500E+01
         0.27500E+01
         0.27500E+01
         0.27500E+01
         0.27500E+01
         0.27500E+01
         0.27500E+01
         0.27500E+01
         0.27500E+01
         0.27500E+01
         0.27500E+01
         0.27500E+01
         0.27500E+01
         0.27500E+01
         0.27500E+01
         0.27500E+01
         0.27500E+01
         0.27500E+01
         0.27500E+01
         0.27500E+01
         0.27500E+01
         0.27500E+01
         0.27500E+01
         0.27500E+01
         0.27500E+01
         0.27500E+01
         0.27500E+01
         0.27500E+01
         0.27500E+01
         0.27500E+01
         0.27500E+01
         0.27500E+01
         0.27500E+01
         0.27500E+01
         0.27500E+01
         0.27500E+01
         0.27500E+01
         0.27500E+01
         0.27500E+01
         0.27500E+01
         0.27500E+01
         0.27500E+01
         0.27500E+01
         0.27500E+01
         0.27500E+01
         0.27500E+01
         0.27500E+01
         0.27500E+01
         0.27500E+01
         0.27500E+01
         0.27500E+01
         0.27500E+01
         0.27500E+01
         0.27500E+01
         0.27500E+01
         0.27500E+01
         0.27500E+01
         0.27500E+01
         0.27500E+01
         0.27500E+01
         0.27500E+01
         0.27500E+01
         0.27500E+01
         0.27500E+01
         0.27500E+01
         0.27500E+01
         0.27500E+01
         0.27500E+01
         0.27500E+01
         0.27500E+01
         0.27500E+01
         0.27500E+01
         0.27500E+01
         0.27500E+01
         0.27500E+01
         0.27500E+01
         0.27500E+01
         0.27500E+01
         0.27500E+01
         0.27500E+01
         0.27500E+01
         0.27500E+01
         0.27500E+01
         0.27500E+01
         0.27500E+01
         0.27500E+01
         0.27500E+01
         0.27500E+01
         0.27500E+01
         0.27500E+01
         0.27500E+01
         0.27500E+01
         0.27500E+01
         0.27500E+01
         0.27500E+01
         0.27500E+01
         0.27500E+01
         0.27500E+01
         0.27500E+01
         0.27500E+01
         0.27500E+01
         0.27500E+01
         0.27500E+01
         0.27500E+01
         0.27500E+01
         0.27500E+01
         0.27500E+01
         0.27500E+01
         0.27500E+01
         0.27500E+01
         0.27500E+01
         0.27500E+01
         0.27500E+01
         0.27500E+01
         0.27500E+01
         0.27500E+01
         0.27500E+01
         0.27500E+01
         0.27500E+01
         0.27500E+01
         0.27500E+01
         0.27500E+01
         0.27500E+01
         0.27500E+01
         0.27500E+01
         0.27500E+01
         0.27500E+01
         0.27500E+01
         0.27500E+01
         0.27500E+01
         0.27500E+01
         0.27500E+01
         0.27500E+01
         0.27500E+01
         0.27500E+01
         0.27500E+01
         0.27500E+01
         0.27500E+01
         0.27500E+01
         0.27500E+01
         0.27500E+01
         0.27500E+01
         0.27500E+01
         0.27500E+01
         0.27500E+01
         0.27500E+01
         0.27500E+01
         0.27500E+01
         0.27500E+01
         0.27500E+01
         0.27500E+01
         0.27500E+01
         0.27500E+01
         0.27500E+01
         0.27500E+01
         0.27500E+01
         0.27500E+01
         0.27500E+01
         0.27500E+01
         0.27500E+01
         0.27500E+01
         0.27500E+01
         0.27500E+01
         0.27500E+01
         0.27500E+01
         0.27500E+01
         0.27500E+01
         0.27500E+01
         0.27500E+01
         0.27500E+01
         0.27500E+01
         0.27500E+01
         0.27500E+01
         0.27500E+01
         0.27500E+01
         0.27500E+01
         0.27500E+01
         0.27500E+01
         0.27500E+01
         0.27500E+01
         0.27500E+01
         0.27500E+01
         0.27500E+01
         0.27500E+01
         0.27500E+01
         0.27500E+01
         0.27500E+01
         0.27500E+01
         0.27500E+01
         0.27500E+01
         0.27500E+01
         0.27500E+01
         0.27500E+01
         0.27500E+01
         0.27500E+01
         0.27500E+01
         0.27500E+01
         0.27500E+01
         0.27500E+01
         0.27500E+01
         0.27500E+01
         0.27500E+01
         0.27500E+01
         0.27500E+01
         0.27500E+01
         0.27500E+01
         0.27500E+01
         0.27500E+01
         0.27500E+01
         0.27500E+01
         0.27500E+01
         0.27500E+01
         0.27500E+01
         0.27500E+01
         0.27500E+01
         0.27500E+01
         0.27500E+01
         0.27500E+01
         0.27500E+01
         0.27500E+01
         0.27500E+01
         0.27500E+01
         0.27500E+01
         0.27500E+01
         0.27500E+01
         0.27500E+01
         0.27500E+01
         0.27500E+01
         0.27500E+01
         0.27500E+01
         0.27500E+01
         0.27500E+01
         0.27500E+01
         0.27500E+01
         0.27500E+01
         0.27500E+01
         0.27500E+01
         0.27500E+01
         0.27500E+01
         0.27500E+01
         0.27500E+01
         0.27500E+01
         0.27500E+01
         0.27500E+01
         0.27500E+01
         0.27500E+01
         0.27500E+01
         0.27500E+01
         0.27500E+01
         0.27500E+01
         0.27500E+01
         0.27500E+01
         0.27500E+01
         0.27500E+01
         0.27500E+01
         0.27500E+01
         0.27500E+01
         0.27500E+01
         0.27500E+01
         0.27500E+01
         0.27500E+01
         0.27500E+01
         0.27500E+01
         0.27500E+01
         0.27500E+01
         0.27500E+01
         0.27500E+01
         0.27500E+01
         0.27500E+01
         0.27500E+01
         0.27500E+01
         0.27500E+01
         0.27500E+01
         0.27500E+01
         0.27500E+01
         0.27500E+01
         0.27500E+01
         0.27500E+01
         0.27500E+01
         0.27500E+01
         0.27500E+01
         0.27500E+01
         0.27500E+01
         0.27500E+01
         0.27500E+01
         0.27500E+01
         0.27500E+01
         0.27500E+01
         0.27500E+01
         0.27500E+01
         0.27500E+01
         0.27500E+01
         0.27500E+01
         0.27500E+01
         0.27500E+01
         0.27500E+01
         0.27500E+01
         0.27500E+01
         0.27500E+01
         0.27500E+01
         0.27500E+01
         0.27500E+01
         0.27500E+01
         0.27500E+01
         0.27500E+01
         0.27500E+01
         0.27500E+01
         0.27500E+01
         0.27500E+01
         0.27500E+01
         0.27500E+01
         0.27500E+01
         0.27500E+01
         0.27500E+01
         0.27500E+01
         0.27500E+01
         0.27500E+01
         0.27500E+01
         0.27500E+01
         0.27500E+01
         0.27500E+01
         0.27500E+01
         0.27500E+01
         0.27500E+01
         0.27500E+01
         0.27500E+01
         0.27500E+01
         0.27500E+01
         0.27500E+01
         0.27500E+01
         0.27500E+01
         0.27500E+01
         0.27500E+01
         0.27500E+01
         0.27500E+01
         0.27500E+01
         0.27500E+01
         0.27500E+01
         0.27500E+01
         0.27500E+01
         0.27500E+01
         0.27500E+01
         0.27500E+01
         0.27500E+01
         0.27500E+01
         0.27500E+01
         0.27500E+01
         0.27500E+01
         0.27500E+01
         0.27500E+01
         0.27500E+01
         0.27500E+01
         0.27500E+01
         0.27500E+01
         0.27500E+01
         0.27500E+01
         0.27500E+01
         0.27500E+01
         0.27500E+01
         0.27500E+01
         0.27500E+01
         0.27500E+01
         0.27500E+01
         0.27500E+01
         0.27500E+01
         0.27500E+01
         0.27500E+01
         0.27500E+01
         0.27500E+01
         0.27500E+01
         0.27500E+01
         0.27500E+01
         0.27500E+01
         0.27500E+01
         0.27500E+01
         0.27500E+01
         0.27500E+01
         0.27500E+01
         0.27500E+01
         0.27500E+01
         0.27500E+01
         0.27500E+01
         0.27500E+01
         0.27500E+01
         0.27500E+01
         0.27500E+01
         0.27500E+01
         0.27500E+01
         0.27500E+01
         0.27500E+01
         0.27500E+01
         0.27500E+01
         0.27500E+01
         0.27500E+01
         0.27500E+01
         0.27500E+01
         0.27500E+01
         0.27500E+01
         0.27500E+01
         0.27500E+01
         0.27500E+01
         0.27500E+01
         0.27500E+01
         0.27500E+01
         0.27500E+01
         0.27500E+01
         0.27500E+01
         0.27500E+01
         0.27500E+01
         0.27500E+01
         0.27500E+01
         0.27500E+01
         0.27500E+01
         0.27500E+01
         0.27500E+01
         0.27500E+01
         0.27500E+01
         0.27500E+01
         0.27500E+01
         0.27500E+01
         0.27500E+01
         0.27500E+01
         0.27500E+01
         0.27500E+01
         0.27500E+01
         0.27500E+01
         0.27500E+01
         0.27500E+01
         0.27500E+01
         0.27500E+01
         0.27500E+01
         0.27500E+01
         0.27500E+01
         0.27500E+01
         0.27500E+01
         0.27500E+01
         0.27500E+01
         0.27500E+01
         0.27500E+01
         0.27500E+01
         0.27500E+01
         0.27500E+01
         0.27500E+01
         0.27500E+01
         0.27500E+01
         0.27500E+01
         0.27500E+01
         0.27500E+01
         0.27500E+01
         0.27500E+01
         0.27500E+01
         0.27500E+01
         0.27500E+01
         0.27500E+01
         0.27500E+01
         0.27500E+01
         0.27500E+01
         0.27500E+01
         0.27500E+01
         0.27500E+01
         0.27500E+01
         0.27500E+01
         0.27500E+01
         0.27500E+01
         0.27500E+01
         0.27500E+01
         0.27500E+01
         0.27500E+01
         0.27500E+01
         0.27500E+01
         0.27500E+01
         0.27500E+01
         0.27500E+01
         0.27500E+01
         0.27500E+01
         0.27500E+01
         0.27500E+01
         0.27500E+01
         0.27500E+01
         0.27500E+01
         0.27500E+01
         0.27500E+01
         0.27500E+01
         0.27500E+01
         0.27500E+01
         0.27500E+01
         0.27500E+01
         0.27500E+01
         0.27500E+01
         0.27500E+01
         0.27500E+01
         0.27500E+01
         0.27500E+01
         0.27500E+01
         0.27500E+01
         0.27500E+01
         0.27500E+01
         0.27500E+01
         0.27500E+01
         0.27500E+01
         0.27500E+01
         0.27500E+01
         0.27500E+01
         0.27500E+01
         0.27500E+01
         0.27500E+01
         0.27500E+01
         0.27500E+01
         0.27500E+01
         0.27500E+01
         0.27500E+01
         0.27500E+01
         0.27500E+01
         0.27500E+01
         0.27500E+01
         0.27500E+01
         0.27500E+01
         0.27500E+01
         0.27500E+01
         0.27500E+01
         0.27500E+01
         0.27500E+01
         0.27500E+01
         0.27500E+01
         0.27500E+01
         0.27500E+01
         0.27500E+01
         0.27500E+01
         0.27500E+01
         0.27500E+01
         0.27500E+01
         0.27500E+01
         0.27500E+01
         0.27500E+01
         0.27500E+01
         0.27500E+01
         0.27500E+01
         0.27500E+01
         0.27500E+01
         0.27500E+01
         0.27500E+01
         0.27500E+01
         0.27500E+01
         0.27500E+01
         0.27500E+01
         0.27500E+01
         0.27500E+01
         0.27500E+01
         0.27500E+01
         0.27500E+01
         0.27500E+01
         0.27500E+01
         0.27500E+01
         0.27500E+01
         0.27500E+01
         0.27500E+01
         0.27500E+01
         0.27500E+01
         0.27500E+01
         0.27500E+01
         0.27500E+01
         0.27500E+01
         0.27500E+01
         0.27500E+01
         0.27500E+01
         0.27500E+01
         0.27500E+01
         0.27500E+01
         0.27500E+01
         0.27500E+01
         0.27500E+01
         0.27500E+01
         0.27500E+01
         0.27500E+01
         0.27500E+01
         0.27500E+01
         0.27500E+01
         0.27500E+01
         0.27500E+01
         0.27500E+01
         0.27500E+01
         0.27500E+01
         0.27500E+01
         0.27500E+01
         0.27500E+01
         0.27500E+01
         0.27500E+01
         0.27500E+01
         0.27500E+01
         0.27500E+01
         0.27500E+01
         0.27500E+01
         0.27500E+01
         0.27500E+01
         0.27500E+01
         0.27500E+01
         0.27500E+01
         0.27500E+01
         0.27500E+01
         0.27500E+01
         0.27500E+01
         0.27500E+01
         0.27500E+01
         0.27500E+01
         0.27500E+01
         0.27500E+01
         0.27500E+01
         0.27500E+01
         0.27500E+01
         0.27500E+01
         0.27500E+01
         0.27500E+01
         0.27500E+01
         0.27500E+01
         0.27500E+01
         0.27500E+01
         0.27500E+01
         0.27500E+01
         0.27500E+01
         0.27500E+01
         0.27500E+01
         0.27500E+01
         0.27500E+01
         0.27500E+01
         0.27500E+01
         0.27500E+01
         0.27500E+01
         0.27500E+01
         0.27500E+01
         0.27500E+01
         0.27500E+01
         0.27500E+01
         0.27500E+01
         0.27500E+01
         0.27500E+01
         0.27500E+01
         0.27500E+01
         0.27500E+01
         0.27500E+01
         0.27500E+01
         0.27500E+01
         0.27500E+01
         0.27500E+01
         0.27500E+01
         0.27500E+01
         0.27500E+01
         0.27500E+01
         0.27500E+01
         0.27500E+01
         0.27500E+01
         0.27500E+01
         0.27500E+01
         0.27500E+01
         0.27500E+01
         0.27500E+01
         0.27500E+01
         0.27500E+01
         0.27500E+01
         0.27500E+01
         0.27500E+01
         0.27500E+01
         0.27500E+01
         0.27500E+01
  
SCALARS              physical_window_x  double 1
LOOKUP_TABLE default
         0.42419E-02
         0.35201E-02
         0.37624E-02
         0.42419E-02
         0.42417E-02
         0.35201E-02
         0.37618E-02
         0.42417E-02
         0.37624E-02
         0.37624E-02
         0.37618E-02
         0.37618E-02
         0.30086E-02
         0.32069E-02
         0.30084E-02
         0.32067E-02
         0.42419E-02
         0.32069E-02
         0.42417E-02
         0.32067E-02
         0.24180E-02
         0.29942E-02
         0.32396E-02
         0.24180E-02
         0.29933E-02
         0.32385E-02
         0.26608E-02
         0.27190E-02
         0.26608E-02
         0.27190E-02
         0.42687E-02
         0.36511E-02
         0.42687E-02
         0.42687E-02
         0.36511E-02
         0.42687E-02
         0.32069E-02
         0.29739E-02
         0.32066E-02
         0.29739E-02
         0.34652E-02
         0.32621E-02
         0.34652E-02
         0.32621E-02
         0.37123E-02
         0.32069E-02
         0.37123E-02
         0.32066E-02
         0.30844E-02
         0.30844E-02
         0.35191E-02
         0.35189E-02
         0.26925E-02
         0.26925E-02
         0.26925E-02
         0.26925E-02
         0.24643E-02
         0.27651E-02
         0.24643E-02
         0.27651E-02
         0.42687E-02
         0.35191E-02
         0.42687E-02
         0.35189E-02
         0.42687E-02
         0.42687E-02
         0.34658E-02
         0.34648E-02
         0.27274E-02
         0.31799E-02
         0.27273E-02
         0.31796E-02
         0.32396E-02
         0.32385E-02
         0.26964E-02
         0.26960E-02
         0.27828E-02
         0.27828E-02
         0.27828E-02
         0.27828E-02
         0.27004E-02
         0.31883E-02
         0.27003E-02
         0.31880E-02
         0.31883E-02
         0.31880E-02
         0.37123E-02
         0.37123E-02
         0.36245E-02
         0.36245E-02
         0.28253E-02
         0.31642E-02
         0.28253E-02
         0.31636E-02
         0.33485E-02
         0.33485E-02
         0.33485E-02
         0.33485E-02
         0.31978E-02
         0.31969E-02
         0.29849E-02
         0.32843E-02
         0.29849E-02
         0.32843E-02
         0.27274E-02
         0.31109E-02
         0.27273E-02
         0.31109E-02
         0.31799E-02
         0.31796E-02
         0.32396E-02
         0.32385E-02
         0.32396E-02
         0.32385E-02
         0.29942E-02
         0.29933E-02
         0.27190E-02
         0.27190E-02
         0.26964E-02
         0.26960E-02
         0.27828E-02
         0.27828E-02
         0.27828E-02
         0.27828E-02
         0.27004E-02
         0.27003E-02
         0.31883E-02
         0.31880E-02
         0.31883E-02
         0.31880E-02
         0.32621E-02
         0.32621E-02
         0.34652E-02
         0.34652E-02
         0.37123E-02
         0.37123E-02
         0.37123E-02
         0.37123E-02
         0.36245E-02
         0.36245E-02
         0.28253E-02
         0.28253E-02
         0.29097E-02
         0.29087E-02
         0.32389E-02
         0.32378E-02
         0.32389E-02
         0.32378E-02
         0.31978E-02
         0.31969E-02
         0.29849E-02
         0.29849E-02
         0.32843E-02
         0.32843E-02
         0.32843E-02
         0.32843E-02
         0.42420E-02
         0.35201E-02
         0.37629E-02
         0.42420E-02
         0.37629E-02
         0.37629E-02
         0.30087E-02
         0.32071E-02
         0.42420E-02
         0.32071E-02
         0.24178E-02
         0.29952E-02
         0.32407E-02
         0.26596E-02
         0.27191E-02
         0.42679E-02
         0.36502E-02
         0.42679E-02
         0.32071E-02
         0.29727E-02
         0.34648E-02
         0.32622E-02
         0.37119E-02
         0.32071E-02
         0.30833E-02
         0.35193E-02
         0.26910E-02
         0.26910E-02
         0.24638E-02
         0.27644E-02
         0.42679E-02
         0.35193E-02
         0.42679E-02
         0.34670E-02
         0.27274E-02
         0.31802E-02
         0.32407E-02
         0.26968E-02
         0.27828E-02
         0.27828E-02
         0.27005E-02
         0.31885E-02
         0.31885E-02
         0.37119E-02
         0.36244E-02
         0.28250E-02
         0.31647E-02
         0.33484E-02
         0.33484E-02
         0.31986E-02
         0.29848E-02
         0.32841E-02
         0.27274E-02
         0.31099E-02
         0.31802E-02
         0.32407E-02
         0.32407E-02
         0.29952E-02
         0.27191E-02
         0.26968E-02
         0.27828E-02
         0.27828E-02
         0.27005E-02
         0.31885E-02
         0.31885E-02
         0.32622E-02
         0.34648E-02
         0.37119E-02
         0.37119E-02
         0.36244E-02
         0.28250E-02
         0.29106E-02
         0.32401E-02
         0.32401E-02
         0.31986E-02
         0.29848E-02
         0.32841E-02
         0.32841E-02
         0.42421E-02
         0.35201E-02
         0.37634E-02
         0.42421E-02
         0.37634E-02
         0.37634E-02
         0.30089E-02
         0.32073E-02
         0.42421E-02
         0.32073E-02
         0.24177E-02
         0.29961E-02
         0.32418E-02
         0.26584E-02
         0.27191E-02
         0.42670E-02
         0.36493E-02
         0.42670E-02
         0.32073E-02
         0.29714E-02
         0.34644E-02
         0.32623E-02
         0.37115E-02
         0.32073E-02
         0.30822E-02
         0.35195E-02
         0.26896E-02
         0.26896E-02
         0.24633E-02
         0.27638E-02
         0.42670E-02
         0.35195E-02
         0.42670E-02
         0.34681E-02
         0.27275E-02
         0.31805E-02
         0.32418E-02
         0.26972E-02
         0.27828E-02
         0.27828E-02
         0.27006E-02
         0.31888E-02
         0.31888E-02
         0.37115E-02
         0.36243E-02
         0.28247E-02
         0.31652E-02
         0.33483E-02
         0.33483E-02
         0.31995E-02
         0.29847E-02
         0.32839E-02
         0.27275E-02
         0.31090E-02
         0.31805E-02
         0.32418E-02
         0.32418E-02
         0.29961E-02
         0.27191E-02
         0.26972E-02
         0.27828E-02
         0.27828E-02
         0.27006E-02
         0.31888E-02
         0.31888E-02
         0.32623E-02
         0.34644E-02
         0.37115E-02
         0.37115E-02
         0.36243E-02
         0.28247E-02
         0.29116E-02
         0.32412E-02
         0.32412E-02
         0.31995E-02
         0.29847E-02
         0.32839E-02
         0.32839E-02
         0.42423E-02
         0.35200E-02
         0.37639E-02
         0.42423E-02
         0.37639E-02
         0.37639E-02
         0.30091E-02
         0.32075E-02
         0.42423E-02
         0.32075E-02
         0.24176E-02
         0.29970E-02
         0.32428E-02
         0.26572E-02
         0.27192E-02
         0.42662E-02
         0.36483E-02
         0.42662E-02
         0.32075E-02
         0.29702E-02
         0.34639E-02
         0.32624E-02
         0.37111E-02
         0.32075E-02
         0.30811E-02
         0.35197E-02
         0.26881E-02
         0.26881E-02
         0.24628E-02
         0.27631E-02
         0.42662E-02
         0.35197E-02
         0.42662E-02
         0.34692E-02
         0.27276E-02
         0.31808E-02
         0.32428E-02
         0.26975E-02
         0.27828E-02
         0.27828E-02
         0.27007E-02
         0.31890E-02
         0.31890E-02
         0.37111E-02
         0.36242E-02
         0.28243E-02
         0.31658E-02
         0.33482E-02
         0.33482E-02
         0.32003E-02
         0.29846E-02
         0.32837E-02
         0.27276E-02
         0.31081E-02
         0.31808E-02
         0.32428E-02
         0.32428E-02
         0.29970E-02
         0.27192E-02
         0.26975E-02
         0.27828E-02
         0.27828E-02
         0.27007E-02
         0.31890E-02
         0.31890E-02
         0.32624E-02
         0.34639E-02
         0.37111E-02
         0.37111E-02
         0.36242E-02
         0.28243E-02
         0.29125E-02
         0.32423E-02
         0.32423E-02
         0.32003E-02
         0.29846E-02
         0.32837E-02
         0.32837E-02
         0.42424E-02
         0.35200E-02
         0.37644E-02
         0.42424E-02
         0.37644E-02
         0.37644E-02
         0.30093E-02
         0.32077E-02
         0.42424E-02
         0.32077E-02
         0.24174E-02
         0.29979E-02
         0.32439E-02
         0.26559E-02
         0.27192E-02
         0.42653E-02
         0.36474E-02
         0.42653E-02
         0.32077E-02
         0.29690E-02
         0.34635E-02
         0.32624E-02
         0.37108E-02
         0.32077E-02
         0.30799E-02
         0.35199E-02
         0.26867E-02
         0.26867E-02
         0.24623E-02
         0.27625E-02
         0.42653E-02
         0.35199E-02
         0.42653E-02
         0.34703E-02
         0.27276E-02
         0.31812E-02
         0.32439E-02
         0.26979E-02
         0.27828E-02
         0.27828E-02
         0.27008E-02
         0.31893E-02
         0.31893E-02
         0.37108E-02
         0.36241E-02
         0.28240E-02
         0.31663E-02
         0.33481E-02
         0.33481E-02
         0.32012E-02
         0.29844E-02
         0.32835E-02
         0.27276E-02
         0.31071E-02
         0.31812E-02
         0.32439E-02
         0.32439E-02
         0.29979E-02
         0.27192E-02
         0.26979E-02
         0.27828E-02
         0.27828E-02
         0.27008E-02
         0.31893E-02
         0.31893E-02
         0.32624E-02
         0.34635E-02
         0.37108E-02
         0.37108E-02
         0.36241E-02
         0.28240E-02
         0.29135E-02
         0.32434E-02
         0.32434E-02
         0.32012E-02
         0.29844E-02
         0.32835E-02
         0.32835E-02
         0.42425E-02
         0.35200E-02
         0.37649E-02
         0.42425E-02
         0.37649E-02
         0.37649E-02
         0.30095E-02
         0.32079E-02
         0.42425E-02
         0.32079E-02
         0.24173E-02
         0.29989E-02
         0.32450E-02
         0.26547E-02
         0.27193E-02
         0.42645E-02
         0.36465E-02
         0.42645E-02
         0.32079E-02
         0.29677E-02
         0.34631E-02
         0.32625E-02
         0.37104E-02
         0.32079E-02
         0.30788E-02
         0.35201E-02
         0.26852E-02
         0.26852E-02
         0.24618E-02
         0.27618E-02
         0.42645E-02
         0.35201E-02
         0.42645E-02
         0.34715E-02
         0.27277E-02
         0.31815E-02
         0.32450E-02
         0.26983E-02
         0.27828E-02
         0.27828E-02
         0.27009E-02
         0.31895E-02
         0.31895E-02
         0.37104E-02
         0.36239E-02
         0.28237E-02
         0.31668E-02
         0.33480E-02
         0.33480E-02
         0.32020E-02
         0.29843E-02
         0.32833E-02
         0.27277E-02
         0.31062E-02
         0.31815E-02
         0.32450E-02
         0.32450E-02
         0.29989E-02
         0.27193E-02
         0.26983E-02
         0.27828E-02
         0.27828E-02
         0.27009E-02
         0.31895E-02
         0.31895E-02
         0.32625E-02
         0.34631E-02
         0.37104E-02
         0.37104E-02
         0.36239E-02
         0.28237E-02
         0.29145E-02
         0.32445E-02
         0.32445E-02
         0.32020E-02
         0.29843E-02
         0.32833E-02
         0.32833E-02
         0.42427E-02
         0.35200E-02
         0.37654E-02
         0.42427E-02
         0.37654E-02
         0.37654E-02
         0.30097E-02
         0.32081E-02
         0.42427E-02
         0.32081E-02
         0.24171E-02
         0.29998E-02
         0.32461E-02
         0.26535E-02
         0.27193E-02
         0.42636E-02
         0.36455E-02
         0.42636E-02
         0.32081E-02
         0.29665E-02
         0.34626E-02
         0.32626E-02
         0.37100E-02
         0.32081E-02
         0.30777E-02
         0.35203E-02
         0.26838E-02
         0.26838E-02
         0.24613E-02
         0.27611E-02
         0.42636E-02
         0.35203E-02
         0.42636E-02
         0.34726E-02
         0.27278E-02
         0.31818E-02
         0.32461E-02
         0.26987E-02
         0.27827E-02
         0.27827E-02
         0.27010E-02
         0.31898E-02
         0.31898E-02
         0.37100E-02
         0.36238E-02
         0.28234E-02
         0.31673E-02
         0.33479E-02
         0.33479E-02
         0.32029E-02
         0.29842E-02
         0.32831E-02
         0.27278E-02
         0.31052E-02
         0.31818E-02
         0.32461E-02
         0.32461E-02
         0.29998E-02
         0.27193E-02
         0.26987E-02
         0.27827E-02
         0.27827E-02
         0.27010E-02
         0.31898E-02
         0.31898E-02
         0.32626E-02
         0.34626E-02
         0.37100E-02
         0.37100E-02
         0.36238E-02
         0.28234E-02
         0.29154E-02
         0.32457E-02
         0.32457E-02
         0.32029E-02
         0.29842E-02
         0.32831E-02
         0.32831E-02
         0.42428E-02
         0.35199E-02
         0.37660E-02
         0.42428E-02
         0.37660E-02
         0.37660E-02
         0.30099E-02
         0.32083E-02
         0.42428E-02
         0.32083E-02
         0.24170E-02
         0.30007E-02
         0.32471E-02
         0.26523E-02
         0.27194E-02
         0.42628E-02
         0.36446E-02
         0.42628E-02
         0.32083E-02
         0.29652E-02
         0.34622E-02
         0.32627E-02
         0.37096E-02
         0.32083E-02
         0.30766E-02
         0.35205E-02
         0.26823E-02
         0.26823E-02
         0.24608E-02
         0.27605E-02
         0.42628E-02
         0.35205E-02
         0.42628E-02
         0.34737E-02
         0.27279E-02
         0.31821E-02
         0.32471E-02
         0.26991E-02
         0.27827E-02
         0.27827E-02
         0.27011E-02
         0.31900E-02
         0.31900E-02
         0.37096E-02
         0.36237E-02
         0.28231E-02
         0.31679E-02
         0.33478E-02
         0.33478E-02
         0.32038E-02
         0.29841E-02
         0.32829E-02
         0.27279E-02
         0.31043E-02
         0.31821E-02
         0.32471E-02
         0.32471E-02
         0.30007E-02
         0.27194E-02
         0.26991E-02
         0.27827E-02
         0.27827E-02
         0.27011E-02
         0.31900E-02
         0.31900E-02
         0.32627E-02
         0.34622E-02
         0.37096E-02
         0.37096E-02
         0.36237E-02
         0.28231E-02
         0.29164E-02
         0.32468E-02
         0.32468E-02
         0.32038E-02
         0.29841E-02
         0.32829E-02
         0.32829E-02
         0.42429E-02
         0.35199E-02
         0.37665E-02
         0.42429E-02
         0.37665E-02
         0.37665E-02
         0.30101E-02
         0.32085E-02
         0.42429E-02
         0.32085E-02
         0.24168E-02
         0.30017E-02
         0.32482E-02
         0.26510E-02
         0.27194E-02
         0.42619E-02
         0.36437E-02
         0.42619E-02
         0.32085E-02
         0.29640E-02
         0.34618E-02
         0.32627E-02
         0.37092E-02
         0.32085E-02
         0.30755E-02
         0.35207E-02
         0.26808E-02
         0.26808E-02
         0.24603E-02
         0.27599E-02
         0.42619E-02
         0.35207E-02
         0.42619E-02
         0.34748E-02
         0.27279E-02
         0.31824E-02
         0.32482E-02
         0.26994E-02
         0.27827E-02
         0.27827E-02
         0.27012E-02
         0.31902E-02
         0.31902E-02
         0.37092E-02
         0.36236E-02
         0.28227E-02
         0.31684E-02
         0.33477E-02
         0.33477E-02
         0.32046E-02
         0.29840E-02
         0.32827E-02
         0.27279E-02
         0.31034E-02
         0.31824E-02
         0.32482E-02
         0.32482E-02
         0.30017E-02
         0.27194E-02
         0.26994E-02
         0.27827E-02
         0.27827E-02
         0.27012E-02
         0.31902E-02
         0.31902E-02
         0.32627E-02
         0.34618E-02
         0.37092E-02
         0.37092E-02
         0.36236E-02
         0.28227E-02
         0.29173E-02
         0.32479E-02
         0.32479E-02
         0.32046E-02
         0.29840E-02
         0.32827E-02
         0.32827E-02
         0.42431E-02
         0.35199E-02
         0.37670E-02
         0.42431E-02
         0.37670E-02
         0.37670E-02
         0.30102E-02
         0.32087E-02
         0.42431E-02
         0.32087E-02
         0.24167E-02
         0.30026E-02
         0.32493E-02
         0.26498E-02
         0.27194E-02
         0.42611E-02
         0.36427E-02
         0.42611E-02
         0.32087E-02
         0.29628E-02
         0.34613E-02
         0.32628E-02
         0.37089E-02
         0.32087E-02
         0.30744E-02
         0.35209E-02
         0.26794E-02
         0.26794E-02
         0.24598E-02
         0.27592E-02
         0.42611E-02
         0.35209E-02
         0.42611E-02
         0.34759E-02
         0.27280E-02
         0.31827E-02
         0.32493E-02
         0.26998E-02
         0.27827E-02
         0.27827E-02
         0.27013E-02
         0.31905E-02
         0.31905E-02
         0.37089E-02
         0.36235E-02
         0.28224E-02
         0.31689E-02
         0.33476E-02
         0.33476E-02
         0.32055E-02
         0.29839E-02
         0.32825E-02
         0.27280E-02
         0.31024E-02
         0.31827E-02
         0.32493E-02
         0.32493E-02
         0.30026E-02
         0.27194E-02
         0.26998E-02
         0.27827E-02
         0.27827E-02
         0.27013E-02
         0.31905E-02
         0.31905E-02
         0.32628E-02
         0.34613E-02
         0.37089E-02
         0.37089E-02
         0.36235E-02
         0.28224E-02
         0.29183E-02
         0.32490E-02
         0.32490E-02
         0.32055E-02
         0.29839E-02
         0.32825E-02
         0.32825E-02
         0.42432E-02
         0.35199E-02
         0.37675E-02
         0.42432E-02
         0.37675E-02
         0.37675E-02
         0.30104E-02
         0.32089E-02
         0.42432E-02
         0.32089E-02
         0.24166E-02
         0.30035E-02
         0.32504E-02
         0.26486E-02
         0.27195E-02
         0.42603E-02
         0.36418E-02
         0.42603E-02
         0.32089E-02
         0.29615E-02
         0.34609E-02
         0.32629E-02
         0.37085E-02
         0.32089E-02
         0.30732E-02
         0.35211E-02
         0.26779E-02
         0.26779E-02
         0.24593E-02
         0.27585E-02
         0.42603E-02
         0.35211E-02
         0.42603E-02
         0.34771E-02
         0.27281E-02
         0.31830E-02
         0.32504E-02
         0.27002E-02
         0.27827E-02
         0.27827E-02
         0.27014E-02
         0.31907E-02
         0.31907E-02
         0.37085E-02
         0.36233E-02
         0.28221E-02
         0.31694E-02
         0.33475E-02
         0.33475E-02
         0.32063E-02
         0.29838E-02
         0.32823E-02
         0.27281E-02
         0.31015E-02
         0.31830E-02
         0.32504E-02
         0.32504E-02
         0.30035E-02
         0.27195E-02
         0.27002E-02
         0.27827E-02
         0.27827E-02
         0.27014E-02
         0.31907E-02
         0.31907E-02
         0.32629E-02
         0.34609E-02
         0.37085E-02
         0.37085E-02
         0.36233E-02
         0.28221E-02
         0.29193E-02
         0.32501E-02
         0.32501E-02
         0.32063E-02
         0.29838E-02
         0.32823E-02
         0.32823E-02
         0.42433E-02
         0.35199E-02
         0.37680E-02
         0.42433E-02
         0.37680E-02
         0.37680E-02
         0.30106E-02
         0.32091E-02
         0.42433E-02
         0.32091E-02
         0.24164E-02
         0.30045E-02
         0.32514E-02
         0.26474E-02
         0.27195E-02
         0.42594E-02
         0.36409E-02
         0.42594E-02
         0.32091E-02
         0.29603E-02
         0.34605E-02
         0.32630E-02
         0.37081E-02
         0.32091E-02
         0.30721E-02
         0.35213E-02
         0.26765E-02
         0.26765E-02
         0.24588E-02
         0.27579E-02
         0.42594E-02
         0.35213E-02
         0.42594E-02
         0.34782E-02
         0.27281E-02
         0.31833E-02
         0.32514E-02
         0.27006E-02
         0.27826E-02
         0.27826E-02
         0.27015E-02
         0.31910E-02
         0.31910E-02
         0.37081E-02
         0.36232E-02
         0.28218E-02
         0.31700E-02
         0.33474E-02
         0.33474E-02
         0.32072E-02
         0.29836E-02
         0.32821E-02
         0.27281E-02
         0.31005E-02
         0.31833E-02
         0.32514E-02
         0.32514E-02
         0.30045E-02
         0.27195E-02
         0.27006E-02
         0.27826E-02
         0.27826E-02
         0.27015E-02
         0.31910E-02
         0.31910E-02
         0.32630E-02
         0.34605E-02
         0.37081E-02
         0.37081E-02
         0.36232E-02
         0.28218E-02
         0.29202E-02
         0.32512E-02
         0.32512E-02
         0.32072E-02
         0.29836E-02
         0.32821E-02
         0.32821E-02
         0.42435E-02
         0.35199E-02
         0.37685E-02
         0.42435E-02
         0.37685E-02
         0.37685E-02
         0.30108E-02
         0.32093E-02
         0.42435E-02
         0.32093E-02
         0.24163E-02
         0.30054E-02
         0.32525E-02
         0.26461E-02
         0.27196E-02
         0.42586E-02
         0.36399E-02
         0.42586E-02
         0.32093E-02
         0.29591E-02
         0.34601E-02
         0.32630E-02
         0.37077E-02
         0.32093E-02
         0.30710E-02
         0.35215E-02
         0.26750E-02
         0.26750E-02
         0.24583E-02
         0.27572E-02
         0.42586E-02
         0.35215E-02
         0.42586E-02
         0.34793E-02
         0.27282E-02
         0.31836E-02
         0.32525E-02
         0.27010E-02
         0.27826E-02
         0.27826E-02
         0.27016E-02
         0.31912E-02
         0.31912E-02
         0.37077E-02
         0.36231E-02
         0.28215E-02
         0.31705E-02
         0.33473E-02
         0.33473E-02
         0.32080E-02
         0.29835E-02
         0.32819E-02
         0.27282E-02
         0.30996E-02
         0.31836E-02
         0.32525E-02
         0.32525E-02
         0.30054E-02
         0.27196E-02
         0.27010E-02
         0.27826E-02
         0.27826E-02
         0.27016E-02
         0.31912E-02
         0.31912E-02
         0.32630E-02
         0.34601E-02
         0.37077E-02
         0.37077E-02
         0.36231E-02
         0.28215E-02
         0.29212E-02
         0.32524E-02
         0.32524E-02
         0.32080E-02
         0.29835E-02
         0.32819E-02
         0.32819E-02
         0.42436E-02
         0.35198E-02
         0.37690E-02
         0.42436E-02
         0.37690E-02
         0.37690E-02
         0.30110E-02
         0.32095E-02
         0.42436E-02
         0.32095E-02
         0.24162E-02
         0.30064E-02
         0.32536E-02
         0.26449E-02
         0.27196E-02
         0.42577E-02
         0.36390E-02
         0.42577E-02
         0.32096E-02
         0.29578E-02
         0.34596E-02
         0.32631E-02
         0.37074E-02
         0.32096E-02
         0.30699E-02
         0.35217E-02
         0.26735E-02
         0.26735E-02
         0.24578E-02
         0.27566E-02
         0.42577E-02
         0.35217E-02
         0.42577E-02
         0.34804E-02
         0.27283E-02
         0.31839E-02
         0.32536E-02
         0.27013E-02
         0.27826E-02
         0.27826E-02
         0.27017E-02
         0.31915E-02
         0.31915E-02
         0.37074E-02
         0.36230E-02
         0.28211E-02
         0.31710E-02
         0.33472E-02
         0.33472E-02
         0.32089E-02
         0.29834E-02
         0.32817E-02
         0.27283E-02
         0.30986E-02
         0.31839E-02
         0.32536E-02
         0.32536E-02
         0.30064E-02
         0.27196E-02
         0.27013E-02
         0.27826E-02
         0.27826E-02
         0.27017E-02
         0.31915E-02
         0.31915E-02
         0.32631E-02
         0.34596E-02
         0.37074E-02
         0.37074E-02
         0.36230E-02
         0.28211E-02
         0.29221E-02
         0.32535E-02
         0.32535E-02
         0.32089E-02
         0.29834E-02
         0.32817E-02
         0.32817E-02
         0.42437E-02
         0.35198E-02
         0.37695E-02
         0.42437E-02
         0.37695E-02
         0.37695E-02
         0.30112E-02
         0.32097E-02
         0.42437E-02
         0.32097E-02
         0.24160E-02
         0.30073E-02
         0.32547E-02
         0.26437E-02
         0.27197E-02
         0.42569E-02
         0.36381E-02
         0.42569E-02
         0.32098E-02
         0.29566E-02
         0.34592E-02
         0.32632E-02
         0.37070E-02
         0.32098E-02
         0.30688E-02
         0.35219E-02
         0.26721E-02
         0.26721E-02
         0.24573E-02
         0.27560E-02
         0.42569E-02
         0.35219E-02
         0.42569E-02
         0.34815E-02
         0.27284E-02
         0.31843E-02
         0.32547E-02
         0.27017E-02
         0.27826E-02
         0.27826E-02
         0.27018E-02
         0.31917E-02
         0.31917E-02
         0.37070E-02
         0.36229E-02
         0.28208E-02
         0.31716E-02
         0.33471E-02
         0.33471E-02
         0.32097E-02
         0.29833E-02
         0.32815E-02
         0.27284E-02
         0.30977E-02
         0.31843E-02
         0.32547E-02
         0.32547E-02
         0.30073E-02
         0.27197E-02
         0.27017E-02
         0.27826E-02
         0.27826E-02
         0.27018E-02
         0.31917E-02
         0.31917E-02
         0.32632E-02
         0.34592E-02
         0.37070E-02
         0.37070E-02
         0.36229E-02
         0.28208E-02
         0.29231E-02
         0.32546E-02
         0.32546E-02
         0.32097E-02
         0.29833E-02
         0.32815E-02
         0.32815E-02
         0.42439E-02
         0.35198E-02
         0.37701E-02
         0.42439E-02
         0.37701E-02
         0.37701E-02
         0.30113E-02
         0.32099E-02
         0.42439E-02
         0.32099E-02
         0.24159E-02
         0.30082E-02
         0.32558E-02
         0.26425E-02
         0.27197E-02
         0.42560E-02
         0.36371E-02
         0.42560E-02
         0.32100E-02
         0.29554E-02
         0.34588E-02
         0.32633E-02
         0.37066E-02
         0.32100E-02
         0.30677E-02
         0.35221E-02
         0.26706E-02
         0.26706E-02
         0.24568E-02
         0.27553E-02
         0.42560E-02
         0.35221E-02
         0.42560E-02
         0.34827E-02
         0.27284E-02
         0.31846E-02
         0.32558E-02
         0.27021E-02
         0.27826E-02
         0.27826E-02
         0.27019E-02
         0.31920E-02
         0.31920E-02
         0.37066E-02
         0.36227E-02
         0.28205E-02
         0.31721E-02
         0.33470E-02
         0.33470E-02
         0.32106E-02
         0.29831E-02
         0.32813E-02
         0.27284E-02
         0.30968E-02
         0.31846E-02
         0.32558E-02
         0.32558E-02
         0.30082E-02
         0.27197E-02
         0.27021E-02
         0.27826E-02
         0.27826E-02
         0.27019E-02
         0.31920E-02
         0.31920E-02
         0.32633E-02
         0.34588E-02
         0.37066E-02
         0.37066E-02
         0.36227E-02
         0.28205E-02
         0.29241E-02
         0.32557E-02
         0.32557E-02
         0.32106E-02
         0.29831E-02
         0.32813E-02
         0.32813E-02
         0.42440E-02
         0.35198E-02
         0.37706E-02
         0.42440E-02
         0.37706E-02
         0.37706E-02
         0.30115E-02
         0.32101E-02
         0.42440E-02
         0.32101E-02
         0.24158E-02
         0.30091E-02
         0.32568E-02
         0.26412E-02
         0.27198E-02
         0.42552E-02
         0.36362E-02
         0.42552E-02
         0.32102E-02
         0.29541E-02
         0.34583E-02
         0.32633E-02
         0.37062E-02
         0.32102E-02
         0.30665E-02
         0.35223E-02
         0.26692E-02
         0.26692E-02
         0.24563E-02
         0.27546E-02
         0.42552E-02
         0.35223E-02
         0.42552E-02
         0.34838E-02
         0.27285E-02
         0.31849E-02
         0.32568E-02
         0.27025E-02
         0.27826E-02
         0.27826E-02
         0.27020E-02
         0.31922E-02
         0.31922E-02
         0.37062E-02
         0.36226E-02
         0.28202E-02
         0.31726E-02
         0.33469E-02
         0.33469E-02
         0.32114E-02
         0.29830E-02
         0.32811E-02
         0.27285E-02
         0.30958E-02
         0.31849E-02
         0.32568E-02
         0.32568E-02
         0.30091E-02
         0.27198E-02
         0.27025E-02
         0.27826E-02
         0.27826E-02
         0.27020E-02
         0.31922E-02
         0.31922E-02
         0.32633E-02
         0.34583E-02
         0.37062E-02
         0.37062E-02
         0.36226E-02
         0.28202E-02
         0.29250E-02
         0.32568E-02
         0.32568E-02
         0.32114E-02
         0.29830E-02
         0.32811E-02
         0.32811E-02
         0.42441E-02
         0.35198E-02
         0.37711E-02
         0.42441E-02
         0.37711E-02
         0.37711E-02
         0.30117E-02
         0.32103E-02
         0.42441E-02
         0.32103E-02
         0.24156E-02
         0.30101E-02
         0.32579E-02
         0.26400E-02
         0.27198E-02
         0.42543E-02
         0.36353E-02
         0.42543E-02
         0.32104E-02
         0.29529E-02
         0.34579E-02
         0.32634E-02
         0.37058E-02
         0.32104E-02
         0.30654E-02
         0.35225E-02
         0.26677E-02
         0.26677E-02
         0.24558E-02
         0.27540E-02
         0.42543E-02
         0.35225E-02
         0.42543E-02
         0.34849E-02
         0.27286E-02
         0.31852E-02
         0.32579E-02
         0.27029E-02
         0.27826E-02
         0.27826E-02
         0.27021E-02
         0.31924E-02
         0.31924E-02
         0.37058E-02
         0.36225E-02
         0.28198E-02
         0.31731E-02
         0.33468E-02
         0.33468E-02
         0.32123E-02
         0.29829E-02
         0.32809E-02
         0.27286E-02
         0.30949E-02
         0.31852E-02
         0.32579E-02
         0.32579E-02
         0.30101E-02
         0.27198E-02
         0.27029E-02
         0.27826E-02
         0.27826E-02
         0.27021E-02
         0.31924E-02
         0.31924E-02
         0.32634E-02
         0.34579E-02
         0.37058E-02
         0.37058E-02
         0.36225E-02
         0.28198E-02
         0.29260E-02
         0.32579E-02
         0.32579E-02
         0.32123E-02
         0.29829E-02
         0.32809E-02
         0.32809E-02
         0.42443E-02
         0.35197E-02
         0.37716E-02
         0.42443E-02
         0.37716E-02
         0.37716E-02
         0.30119E-02
         0.32105E-02
         0.42443E-02
         0.32105E-02
         0.24155E-02
         0.30110E-02
         0.32590E-02
         0.26388E-02
         0.27199E-02
         0.42535E-02
         0.36343E-02
         0.42535E-02
         0.32106E-02
         0.29517E-02
         0.34575E-02
         0.32635E-02
         0.37055E-02
         0.32106E-02
         0.30643E-02
         0.35227E-02
         0.26663E-02
         0.26663E-02
         0.24553E-02
         0.27533E-02
         0.42535E-02
         0.35227E-02
         0.42535E-02
         0.34860E-02
         0.27286E-02
         0.31855E-02
         0.32590E-02
         0.27032E-02
         0.27826E-02
         0.27826E-02
         0.27022E-02
         0.31927E-02
         0.31927E-02
         0.37055E-02
         0.36224E-02
         0.28195E-02
         0.31737E-02
         0.33467E-02
         0.33467E-02
         0.32132E-02
         0.29828E-02
         0.32807E-02
         0.27286E-02
         0.30939E-02
         0.31855E-02
         0.32590E-02
         0.32590E-02
         0.30110E-02
         0.27199E-02
         0.27032E-02
         0.27826E-02
         0.27826E-02
         0.27022E-02
         0.31927E-02
         0.31927E-02
         0.32635E-02
         0.34575E-02
         0.37055E-02
         0.37055E-02
         0.36224E-02
         0.28195E-02
         0.29269E-02
         0.32591E-02
         0.32591E-02
         0.32132E-02
         0.29828E-02
         0.32807E-02
         0.32807E-02
         0.42444E-02
         0.35197E-02
         0.37721E-02
         0.42444E-02
         0.37721E-02
         0.37721E-02
         0.30121E-02
         0.32107E-02
         0.42444E-02
         0.32107E-02
         0.24154E-02
         0.30119E-02
         0.32601E-02
         0.26376E-02
         0.27199E-02
         0.42527E-02
         0.36334E-02
         0.42527E-02
         0.32108E-02
         0.29504E-02
         0.34571E-02
         0.32636E-02
         0.37051E-02
         0.32108E-02
         0.30632E-02
         0.35229E-02
         0.26648E-02
         0.26648E-02
         0.24552E-02
         0.27527E-02
         0.42527E-02
         0.35229E-02
         0.42527E-02
         0.34871E-02
         0.27287E-02
         0.31858E-02
         0.32601E-02
         0.27036E-02
         0.27825E-02
         0.27825E-02
         0.27023E-02
         0.31929E-02
         0.31929E-02
         0.37051E-02
         0.36223E-02
         0.28192E-02
         0.31742E-02
         0.33466E-02
         0.33466E-02
         0.32140E-02
         0.29827E-02
         0.32805E-02
         0.27287E-02
         0.30930E-02
         0.31858E-02
         0.32601E-02
         0.32601E-02
         0.30119E-02
         0.27199E-02
         0.27036E-02
         0.27825E-02
         0.27825E-02
         0.27023E-02
         0.31929E-02
         0.31929E-02
         0.32636E-02
         0.34571E-02
         0.37051E-02
         0.37051E-02
         0.36223E-02
         0.28192E-02
         0.29279E-02
         0.32602E-02
         0.32602E-02
         0.32140E-02
         0.29827E-02
         0.32805E-02
         0.32805E-02
         0.42445E-02
         0.35197E-02
         0.37726E-02
         0.42445E-02
         0.37726E-02
         0.37726E-02
         0.30123E-02
         0.32108E-02
         0.42445E-02
         0.32108E-02
         0.24152E-02
         0.30129E-02
         0.32611E-02
         0.26363E-02
         0.27200E-02
         0.42518E-02
         0.36325E-02
         0.42518E-02
         0.32110E-02
         0.29492E-02
         0.34566E-02
         0.32636E-02
         0.37047E-02
         0.32110E-02
         0.30621E-02
         0.35231E-02
         0.26633E-02
         0.26633E-02
         0.24554E-02
         0.27520E-02
         0.42518E-02
         0.35231E-02
         0.42518E-02
         0.34882E-02
         0.27288E-02
         0.31861E-02
         0.32611E-02
         0.27040E-02
         0.27825E-02
         0.27825E-02
         0.27024E-02
         0.31932E-02
         0.31932E-02
         0.37047E-02
         0.36222E-02
         0.28189E-02
         0.31747E-02
         0.33465E-02
         0.33465E-02
         0.32149E-02
         0.29826E-02
         0.32803E-02
         0.27288E-02
         0.30921E-02
         0.31861E-02
         0.32611E-02
         0.32611E-02
         0.30129E-02
         0.27200E-02
         0.27040E-02
         0.27825E-02
         0.27825E-02
         0.27024E-02
         0.31932E-02
         0.31932E-02
         0.32636E-02
         0.34566E-02
         0.37047E-02
         0.37047E-02
         0.36222E-02
         0.28189E-02
         0.29289E-02
         0.32613E-02
         0.32613E-02
         0.32149E-02
         0.29826E-02
         0.32803E-02
         0.32803E-02
         0.42447E-02
         0.35196E-02
         0.37732E-02
         0.42447E-02
         0.37732E-02
         0.37732E-02
         0.30125E-02
         0.32111E-02
         0.42447E-02
         0.32111E-02
         0.24151E-02
         0.30138E-02
         0.32622E-02
         0.26351E-02
         0.27200E-02
         0.42510E-02
         0.36315E-02
         0.42510E-02
         0.32112E-02
         0.29480E-02
         0.34562E-02
         0.32637E-02
         0.37043E-02
         0.32112E-02
         0.30610E-02
         0.35233E-02
         0.26619E-02
         0.26619E-02
         0.24557E-02
         0.27514E-02
         0.42510E-02
         0.35233E-02
         0.42510E-02
         0.34894E-02
         0.27289E-02
         0.31864E-02
         0.32622E-02
         0.27044E-02
         0.27825E-02
         0.27825E-02
         0.27025E-02
         0.31934E-02
         0.31934E-02
         0.37043E-02
         0.36220E-02
         0.28186E-02
         0.31753E-02
         0.33464E-02
         0.33464E-02
         0.32157E-02
         0.29824E-02
         0.32801E-02
         0.27289E-02
         0.30911E-02
         0.31864E-02
         0.32622E-02
         0.32622E-02
         0.30138E-02
         0.27200E-02
         0.27044E-02
         0.27825E-02
         0.27825E-02
         0.27025E-02
         0.31934E-02
         0.31934E-02
         0.32637E-02
         0.34562E-02
         0.37043E-02
         0.37043E-02
         0.36220E-02
         0.28186E-02
         0.29298E-02
         0.32624E-02
         0.32624E-02
         0.32157E-02
         0.29824E-02
         0.32801E-02
         0.32801E-02
         0.42448E-02
         0.35196E-02
         0.37737E-02
         0.42448E-02
         0.37737E-02
         0.37737E-02
         0.30126E-02
         0.32112E-02
         0.42448E-02
         0.32112E-02
         0.24150E-02
         0.30147E-02
         0.32633E-02
         0.26339E-02
         0.27200E-02
         0.42501E-02
         0.36306E-02
         0.42501E-02
         0.32114E-02
         0.29467E-02
         0.34558E-02
         0.32638E-02
         0.37039E-02
         0.32114E-02
         0.30598E-02
         0.35235E-02
         0.26604E-02
         0.26604E-02
         0.24559E-02
         0.27507E-02
         0.42501E-02
         0.35235E-02
         0.42501E-02
         0.34905E-02
         0.27289E-02
         0.31867E-02
         0.32633E-02
         0.27048E-02
         0.27825E-02
         0.27825E-02
         0.27026E-02
         0.31937E-02
         0.31937E-02
         0.37039E-02
         0.36219E-02
         0.28183E-02
         0.31758E-02
         0.33463E-02
         0.33463E-02
         0.32166E-02
         0.29823E-02
         0.32799E-02
         0.27289E-02
         0.30902E-02
         0.31867E-02
         0.32633E-02
         0.32633E-02
         0.30147E-02
         0.27200E-02
         0.27048E-02
         0.27825E-02
         0.27825E-02
         0.27026E-02
         0.31937E-02
         0.31937E-02
         0.32638E-02
         0.34558E-02
         0.37039E-02
         0.37039E-02
         0.36219E-02
         0.28183E-02
         0.29308E-02
         0.32635E-02
         0.32635E-02
         0.32166E-02
         0.29823E-02
         0.32799E-02
         0.32799E-02
         0.42448E-02
         0.35196E-02
         0.37737E-02
         0.42448E-02
         0.37737E-02
         0.37737E-02
         0.30126E-02
         0.32112E-02
         0.42448E-02
         0.32112E-02
         0.24148E-02
         0.30147E-02
         0.32633E-02
         0.26327E-02
         0.27200E-02
         0.42493E-02
         0.36297E-02
         0.42493E-02
         0.32114E-02
         0.29455E-02
         0.34553E-02
         0.32638E-02
         0.37036E-02
         0.32114E-02
         0.30587E-02
         0.35235E-02
         0.26590E-02
         0.26590E-02
         0.24559E-02
         0.27501E-02
         0.42493E-02
         0.35235E-02
         0.42493E-02
         0.34905E-02
         0.27289E-02
         0.31867E-02
         0.32633E-02
         0.27048E-02
         0.27825E-02
         0.27825E-02
         0.27026E-02
         0.31937E-02
         0.31937E-02
         0.37036E-02
         0.36218E-02
         0.28180E-02
         0.31758E-02
         0.33462E-02
         0.33462E-02
         0.32166E-02
         0.29822E-02
         0.32797E-02
         0.27289E-02
         0.30892E-02
         0.31867E-02
         0.32633E-02
         0.32633E-02
         0.30147E-02
         0.27200E-02
         0.27048E-02
         0.27825E-02
         0.27825E-02
         0.27026E-02
         0.31937E-02
         0.31937E-02
         0.32638E-02
         0.34553E-02
         0.37036E-02
         0.37036E-02
         0.36218E-02
         0.28180E-02
         0.29308E-02
         0.32635E-02
         0.32635E-02
         0.32166E-02
         0.29822E-02
         0.32797E-02
         0.32797E-02
  
SCALARS              physical_window_y  double 1
LOOKUP_TABLE default
         0.43155E-02
         0.43155E-02
         0.43155E-02
         0.43155E-02
         0.43155E-02
         0.43155E-02
         0.43155E-02
         0.43155E-02
         0.34883E-02
         0.34883E-02
         0.34882E-02
         0.34882E-02
         0.32826E-02
         0.32142E-02
         0.32826E-02
         0.32142E-02
         0.37863E-02
         0.31884E-02
         0.37863E-02
         0.31884E-02
         0.27172E-02
         0.33887E-02
         0.37164E-02
         0.27172E-02
         0.33887E-02
         0.37164E-02
         0.27582E-02
         0.28966E-02
         0.27582E-02
         0.28954E-02
         0.37007E-02
         0.35859E-02
         0.37863E-02
         0.37007E-02
         0.35824E-02
         0.37863E-02
         0.29875E-02
         0.29875E-02
         0.29867E-02
         0.29867E-02
         0.28561E-02
         0.26860E-02
         0.28556E-02
         0.26852E-02
         0.29518E-02
         0.28068E-02
         0.29517E-02
         0.28066E-02
         0.29975E-02
         0.29949E-02
         0.37007E-02
         0.37007E-02
         0.28693E-02
         0.28693E-02
         0.28693E-02
         0.28693E-02
         0.27602E-02
         0.26193E-02
         0.27602E-02
         0.26193E-02
         0.37007E-02
         0.37007E-02
         0.37007E-02
         0.37007E-02
         0.37685E-02
         0.37665E-02
         0.37685E-02
         0.37665E-02
         0.30230E-02
         0.37003E-02
         0.30229E-02
         0.37003E-02
         0.37164E-02
         0.37164E-02
         0.31934E-02
         0.31921E-02
         0.32777E-02
         0.32771E-02
         0.32777E-02
         0.32771E-02
         0.27006E-02
         0.25920E-02
         0.27006E-02
         0.25920E-02
         0.25916E-02
         0.25916E-02
         0.29715E-02
         0.29715E-02
         0.29715E-02
         0.29715E-02
         0.26477E-02
         0.29102E-02
         0.26477E-02
         0.29102E-02
         0.34085E-02
         0.34085E-02
         0.35350E-02
         0.35350E-02
         0.35350E-02
         0.35350E-02
         0.29766E-02
         0.32272E-02
         0.29763E-02
         0.32254E-02
         0.29087E-02
         0.29835E-02
         0.29087E-02
         0.29825E-02
         0.37003E-02
         0.37003E-02
         0.37164E-02
         0.37164E-02
         0.37164E-02
         0.37164E-02
         0.33887E-02
         0.33887E-02
         0.28966E-02
         0.28954E-02
         0.31934E-02
         0.31921E-02
         0.32777E-02
         0.32771E-02
         0.32777E-02
         0.32771E-02
         0.27006E-02
         0.27006E-02
         0.25920E-02
         0.25920E-02
         0.25916E-02
         0.25916E-02
         0.26860E-02
         0.26852E-02
         0.28561E-02
         0.28556E-02
         0.29518E-02
         0.29517E-02
         0.29715E-02
         0.29715E-02
         0.29715E-02
         0.29715E-02
         0.26477E-02
         0.26477E-02
         0.27685E-02
         0.27685E-02
         0.34085E-02
         0.34085E-02
         0.35350E-02
         0.35350E-02
         0.35350E-02
         0.35350E-02
         0.29766E-02
         0.29763E-02
         0.31381E-02
         0.31368E-02
         0.31381E-02
         0.31368E-02
         0.43153E-02
         0.43153E-02
         0.43153E-02
         0.43153E-02
         0.34883E-02
         0.34883E-02
         0.32812E-02
         0.32132E-02
         0.37858E-02
         0.31880E-02
         0.27155E-02
         0.33883E-02
         0.37163E-02
         0.27535E-02
         0.28978E-02
         0.37004E-02
         0.35894E-02
         0.37858E-02
         0.29882E-02
         0.29882E-02
         0.28566E-02
         0.26867E-02
         0.29519E-02
         0.28071E-02
         0.30001E-02
         0.37004E-02
         0.28667E-02
         0.28667E-02
         0.27589E-02
         0.26183E-02
         0.37004E-02
         0.37004E-02
         0.37706E-02
         0.37706E-02
         0.30232E-02
         0.36991E-02
         0.37163E-02
         0.31947E-02
         0.32784E-02
         0.32784E-02
         0.27006E-02
         0.25920E-02
         0.25909E-02
         0.29715E-02
         0.29715E-02
         0.26476E-02
         0.29101E-02
         0.34078E-02
         0.35344E-02
         0.35344E-02
         0.29769E-02
         0.32290E-02
         0.29059E-02
         0.29845E-02
         0.36991E-02
         0.37163E-02
         0.37163E-02
         0.33883E-02
         0.28978E-02
         0.31947E-02
         0.32784E-02
         0.32784E-02
         0.27006E-02
         0.25920E-02
         0.25909E-02
         0.26867E-02
         0.28566E-02
         0.29519E-02
         0.29715E-02
         0.29715E-02
         0.26476E-02
         0.27685E-02
         0.34078E-02
         0.35344E-02
         0.35344E-02
         0.29769E-02
         0.31395E-02
         0.31395E-02
         0.43150E-02
         0.43150E-02
         0.43150E-02
         0.43150E-02
         0.34884E-02
         0.34884E-02
         0.32798E-02
         0.32122E-02
         0.37853E-02
         0.31876E-02
         0.27137E-02
         0.33879E-02
         0.37162E-02
         0.27488E-02
         0.28990E-02
         0.37001E-02
         0.35930E-02
         0.37853E-02
         0.29889E-02
         0.29889E-02
         0.28571E-02
         0.26875E-02
         0.29521E-02
         0.28074E-02
         0.30027E-02
         0.37001E-02
         0.28641E-02
         0.28641E-02
         0.27576E-02
         0.26173E-02
         0.37001E-02
         0.37001E-02
         0.37727E-02
         0.37727E-02
         0.30234E-02
         0.36979E-02
         0.37162E-02
         0.31960E-02
         0.32790E-02
         0.32790E-02
         0.27006E-02
         0.25920E-02
         0.25902E-02
         0.29715E-02
         0.29715E-02
         0.26476E-02
         0.29100E-02
         0.34071E-02
         0.35339E-02
         0.35339E-02
         0.29772E-02
         0.32307E-02
         0.29032E-02
         0.29855E-02
         0.36979E-02
         0.37162E-02
         0.37162E-02
         0.33879E-02
         0.28990E-02
         0.31960E-02
         0.32790E-02
         0.32790E-02
         0.27006E-02
         0.25920E-02
         0.25902E-02
         0.26875E-02
         0.28571E-02
         0.29521E-02
         0.29715E-02
         0.29715E-02
         0.26476E-02
         0.27684E-02
         0.34071E-02
         0.35339E-02
         0.35339E-02
         0.29772E-02
         0.31408E-02
         0.31408E-02
         0.43148E-02
         0.43148E-02
         0.43148E-02
         0.43148E-02
         0.34885E-02
         0.34885E-02
         0.32783E-02
         0.32112E-02
         0.37849E-02
         0.31872E-02
         0.27120E-02
         0.33875E-02
         0.37161E-02
         0.27441E-02
         0.29003E-02
         0.36998E-02
         0.35965E-02
         0.37849E-02
         0.29896E-02
         0.29896E-02
         0.28575E-02
         0.26882E-02
         0.29522E-02
         0.28077E-02
         0.30053E-02
         0.36998E-02
         0.28615E-02
         0.28615E-02
         0.27563E-02
         0.26163E-02
         0.36998E-02
         0.36998E-02
         0.37747E-02
         0.37747E-02
         0.30236E-02
         0.36967E-02
         0.37161E-02
         0.31973E-02
         0.32796E-02
         0.32796E-02
         0.27006E-02
         0.25920E-02
         0.25895E-02
         0.29714E-02
         0.29714E-02
         0.26475E-02
         0.29099E-02
         0.34063E-02
         0.35333E-02
         0.35333E-02
         0.29775E-02
         0.32325E-02
         0.29004E-02
         0.29865E-02
         0.36967E-02
         0.37161E-02
         0.37161E-02
         0.33875E-02
         0.29003E-02
         0.31973E-02
         0.32796E-02
         0.32796E-02
         0.27006E-02
         0.25920E-02
         0.25895E-02
         0.26882E-02
         0.28575E-02
         0.29522E-02
         0.29714E-02
         0.29714E-02
         0.26475E-02
         0.27684E-02
         0.34063E-02
         0.35333E-02
         0.35333E-02
         0.29775E-02
         0.31422E-02
         0.31422E-02
         0.43145E-02
         0.43145E-02
         0.43145E-02
         0.43145E-02
         0.34886E-02
         0.34886E-02
         0.32769E-02
         0.32102E-02
         0.37844E-02
         0.31868E-02
         0.27103E-02
         0.33871E-02
         0.37160E-02
         0.27394E-02
         0.29015E-02
         0.36995E-02
         0.36000E-02
         0.37844E-02
         0.29903E-02
         0.29903E-02
         0.28580E-02
         0.26890E-02
         0.29523E-02
         0.28079E-02
         0.30079E-02
         0.36995E-02
         0.28589E-02
         0.28589E-02
         0.27550E-02
         0.26152E-02
         0.36995E-02
         0.36995E-02
         0.37768E-02
         0.37768E-02
         0.30238E-02
         0.36956E-02
         0.37160E-02
         0.31986E-02
         0.32802E-02
         0.32802E-02
         0.27006E-02
         0.25920E-02
         0.25887E-02
         0.29714E-02
         0.29714E-02
         0.26475E-02
         0.29098E-02
         0.34056E-02
         0.35327E-02
         0.35327E-02
         0.29778E-02
         0.32342E-02
         0.28977E-02
         0.29875E-02
         0.36956E-02
         0.37160E-02
         0.37160E-02
         0.33871E-02
         0.29015E-02
         0.31986E-02
         0.32802E-02
         0.32802E-02
         0.27006E-02
         0.25920E-02
         0.25887E-02
         0.26890E-02
         0.28580E-02
         0.29523E-02
         0.29714E-02
         0.29714E-02
         0.26475E-02
         0.27683E-02
         0.34056E-02
         0.35327E-02
         0.35327E-02
         0.29778E-02
         0.31435E-02
         0.31435E-02
         0.43143E-02
         0.43143E-02
         0.43143E-02
         0.43143E-02
         0.34887E-02
         0.34887E-02
         0.32755E-02
         0.32091E-02
         0.37839E-02
         0.31864E-02
         0.27086E-02
         0.33867E-02
         0.37159E-02
         0.27347E-02
         0.29027E-02
         0.36991E-02
         0.36036E-02
         0.37839E-02
         0.29920E-02
         0.29920E-02
         0.28585E-02
         0.26897E-02
         0.29525E-02
         0.28082E-02
         0.30105E-02
         0.36991E-02
         0.28563E-02
         0.28563E-02
         0.27537E-02
         0.26142E-02
         0.36991E-02
         0.36991E-02
         0.37789E-02
         0.37789E-02
         0.30240E-02
         0.36944E-02
         0.37159E-02
         0.31999E-02
         0.32808E-02
         0.32808E-02
         0.27006E-02
         0.25920E-02
         0.25880E-02
         0.29714E-02
         0.29714E-02
         0.26474E-02
         0.29097E-02
         0.34049E-02
         0.35322E-02
         0.35322E-02
         0.29781E-02
         0.32360E-02
         0.28949E-02
         0.29885E-02
         0.36944E-02
         0.37159E-02
         0.37159E-02
         0.33867E-02
         0.29027E-02
         0.31999E-02
         0.32808E-02
         0.32808E-02
         0.27006E-02
         0.25920E-02
         0.25880E-02
         0.26897E-02
         0.28585E-02
         0.29525E-02
         0.29714E-02
         0.29714E-02
         0.26474E-02
         0.27683E-02
         0.34049E-02
         0.35322E-02
         0.35322E-02
         0.29781E-02
         0.31449E-02
         0.31449E-02
         0.43140E-02
         0.43140E-02
         0.43140E-02
         0.43140E-02
         0.34888E-02
         0.34888E-02
         0.32740E-02
         0.32081E-02
         0.37834E-02
         0.31860E-02
         0.27069E-02
         0.33863E-02
         0.37158E-02
         0.27299E-02
         0.29039E-02
         0.36988E-02
         0.36071E-02
         0.37834E-02
         0.29946E-02
         0.29946E-02
         0.28589E-02
         0.26905E-02
         0.29526E-02
         0.28085E-02
         0.30131E-02
         0.36988E-02
         0.28538E-02
         0.28538E-02
         0.27524E-02
         0.26132E-02
         0.36988E-02
         0.36988E-02
         0.37809E-02
         0.37809E-02
         0.30241E-02
         0.36932E-02
         0.37158E-02
         0.32012E-02
         0.32814E-02
         0.32814E-02
         0.27006E-02
         0.25920E-02
         0.25873E-02
         0.29714E-02
         0.29714E-02
         0.26473E-02
         0.29097E-02
         0.34041E-02
         0.35316E-02
         0.35316E-02
         0.29784E-02
         0.32378E-02
         0.28921E-02
         0.29895E-02
         0.36932E-02
         0.37158E-02
         0.37158E-02
         0.33863E-02
         0.29039E-02
         0.32012E-02
         0.32814E-02
         0.32814E-02
         0.27006E-02
         0.25920E-02
         0.25873E-02
         0.26905E-02
         0.28589E-02
         0.29526E-02
         0.29714E-02
         0.29714E-02
         0.26473E-02
         0.27683E-02
         0.34041E-02
         0.35316E-02
         0.35316E-02
         0.29784E-02
         0.31463E-02
         0.31463E-02
         0.43138E-02
         0.43138E-02
         0.43138E-02
         0.43138E-02
         0.34888E-02
         0.34888E-02
         0.32726E-02
         0.32071E-02
         0.37830E-02
         0.31856E-02
         0.27051E-02
         0.33859E-02
         0.37157E-02
         0.27252E-02
         0.29051E-02
         0.36985E-02
         0.36106E-02
         0.37830E-02
         0.29972E-02
         0.29972E-02
         0.28594E-02
         0.26912E-02
         0.29528E-02
         0.28087E-02
         0.30156E-02
         0.36985E-02
         0.28512E-02
         0.28512E-02
         0.27512E-02
         0.26122E-02
         0.36985E-02
         0.36985E-02
         0.37830E-02
         0.37830E-02
         0.30243E-02
         0.36920E-02
         0.37157E-02
         0.32025E-02
         0.32821E-02
         0.32821E-02
         0.27006E-02
         0.25920E-02
         0.25866E-02
         0.29714E-02
         0.29714E-02
         0.26473E-02
         0.29096E-02
         0.34034E-02
         0.35310E-02
         0.35310E-02
         0.29787E-02
         0.32396E-02
         0.28894E-02
         0.29905E-02
         0.36920E-02
         0.37157E-02
         0.37157E-02
         0.33859E-02
         0.29051E-02
         0.32025E-02
         0.32821E-02
         0.32821E-02
         0.27006E-02
         0.25920E-02
         0.25866E-02
         0.26912E-02
         0.28594E-02
         0.29528E-02
         0.29714E-02
         0.29714E-02
         0.26473E-02
         0.27682E-02
         0.34034E-02
         0.35310E-02
         0.35310E-02
         0.29787E-02
         0.31476E-02
         0.31476E-02
         0.43135E-02
         0.43135E-02
         0.43135E-02
         0.43135E-02
         0.34889E-02
         0.34889E-02
         0.32712E-02
         0.32061E-02
         0.37825E-02
         0.31852E-02
         0.27034E-02
         0.33856E-02
         0.37156E-02
         0.27205E-02
         0.29063E-02
         0.36982E-02
         0.36142E-02
         0.37851E-02
         0.29998E-02
         0.29998E-02
         0.28599E-02
         0.26920E-02
         0.29529E-02
         0.28090E-02
         0.30182E-02
         0.36982E-02
         0.28486E-02
         0.28486E-02
         0.27499E-02
         0.26112E-02
         0.36982E-02
         0.36982E-02
         0.37851E-02
         0.37851E-02
         0.30245E-02
         0.36908E-02
         0.37156E-02
         0.32038E-02
         0.32827E-02
         0.32827E-02
         0.27006E-02
         0.25920E-02
         0.25859E-02
         0.29714E-02
         0.29714E-02
         0.26472E-02
         0.29095E-02
         0.34027E-02
         0.35304E-02
         0.35304E-02
         0.29790E-02
         0.32413E-02
         0.28866E-02
         0.29915E-02
         0.36908E-02
         0.37156E-02
         0.37156E-02
         0.33856E-02
         0.29063E-02
         0.32038E-02
         0.32827E-02
         0.32827E-02
         0.27006E-02
         0.25920E-02
         0.25859E-02
         0.26920E-02
         0.28599E-02
         0.29529E-02
         0.29714E-02
         0.29714E-02
         0.26472E-02
         0.27682E-02
         0.34027E-02
         0.35304E-02
         0.35304E-02
         0.29790E-02
         0.31490E-02
         0.31490E-02
         0.43133E-02
         0.43133E-02
         0.43133E-02
         0.43133E-02
         0.34890E-02
         0.34890E-02
         0.32698E-02
         0.32051E-02
         0.37820E-02
         0.31848E-02
         0.27017E-02
         0.33851E-02
         0.37155E-02
         0.27158E-02
         0.29075E-02
         0.36979E-02
         0.36177E-02
         0.37871E-02
         0.30024E-02
         0.30024E-02
         0.28603E-02
         0.26927E-02
         0.29530E-02
         0.28093E-02
         0.30208E-02
         0.36979E-02
         0.28460E-02
         0.28460E-02
         0.27486E-02
         0.26101E-02
         0.36979E-02
         0.36979E-02
         0.37871E-02
         0.37871E-02
         0.30247E-02
         0.36896E-02
         0.37155E-02
         0.32051E-02
         0.32833E-02
         0.32833E-02
         0.27006E-02
         0.25920E-02
         0.25851E-02
         0.29714E-02
         0.29714E-02
         0.26472E-02
         0.29094E-02
         0.34019E-02
         0.35299E-02
         0.35299E-02
         0.29793E-02
         0.32431E-02
         0.28838E-02
         0.29925E-02
         0.36896E-02
         0.37155E-02
         0.37155E-02
         0.33851E-02
         0.29075E-02
         0.32051E-02
         0.32833E-02
         0.32833E-02
         0.27006E-02
         0.25920E-02
         0.25851E-02
         0.26927E-02
         0.28603E-02
         0.29530E-02
         0.29714E-02
         0.29714E-02
         0.26472E-02
         0.27681E-02
         0.34019E-02
         0.35299E-02
         0.35299E-02
         0.29793E-02
         0.31503E-02
         0.31503E-02
         0.43130E-02
         0.43130E-02
         0.43130E-02
         0.43130E-02
         0.34891E-02
         0.34891E-02
         0.32683E-02
         0.32041E-02
         0.37816E-02
         0.31844E-02
         0.27000E-02
         0.33848E-02
         0.37154E-02
         0.27111E-02
         0.29087E-02
         0.36976E-02
         0.36213E-02
         0.37892E-02
         0.30050E-02
         0.30050E-02
         0.28608E-02
         0.26935E-02
         0.29532E-02
         0.28096E-02
         0.30234E-02
         0.36976E-02
         0.28434E-02
         0.28434E-02
         0.27472E-02
         0.26091E-02
         0.36976E-02
         0.36976E-02
         0.37892E-02
         0.37892E-02
         0.30249E-02
         0.36885E-02
         0.37154E-02
         0.32064E-02
         0.32839E-02
         0.32839E-02
         0.27006E-02
         0.25920E-02
         0.25844E-02
         0.29714E-02
         0.29714E-02
         0.26471E-02
         0.29094E-02
         0.34012E-02
         0.35293E-02
         0.35293E-02
         0.29797E-02
         0.32449E-02
         0.28811E-02
         0.29935E-02
         0.36885E-02
         0.37154E-02
         0.37154E-02
         0.33848E-02
         0.29087E-02
         0.32064E-02
         0.32839E-02
         0.32839E-02
         0.27006E-02
         0.25920E-02
         0.25844E-02
         0.26935E-02
         0.28608E-02
         0.29532E-02
         0.29714E-02
         0.29714E-02
         0.26471E-02
         0.27681E-02
         0.34012E-02
         0.35293E-02
         0.35293E-02
         0.29797E-02
         0.31517E-02
         0.31517E-02
         0.43128E-02
         0.43128E-02
         0.43128E-02
         0.43128E-02
         0.34892E-02
         0.34892E-02
         0.32669E-02
         0.32031E-02
         0.37811E-02
         0.31840E-02
         0.26982E-02
         0.33844E-02
         0.37152E-02
         0.27063E-02
         0.29099E-02
         0.36973E-02
         0.36248E-02
         0.37913E-02
         0.30076E-02
         0.30076E-02
         0.28613E-02
         0.26942E-02
         0.29533E-02
         0.28099E-02
         0.30260E-02
         0.36973E-02
         0.28408E-02
         0.28408E-02
         0.27460E-02
         0.26081E-02
         0.36973E-02
         0.36973E-02
         0.37913E-02
         0.37913E-02
         0.30250E-02
         0.36873E-02
         0.37152E-02
         0.32077E-02
         0.32845E-02
         0.32845E-02
         0.27006E-02
         0.25920E-02
         0.25837E-02
         0.29714E-02
         0.29714E-02
         0.26471E-02
         0.29093E-02
         0.34005E-02
         0.35287E-02
         0.35287E-02
         0.29800E-02
         0.32467E-02
         0.28783E-02
         0.29945E-02
         0.36873E-02
         0.37152E-02
         0.37152E-02
         0.33844E-02
         0.29099E-02
         0.32077E-02
         0.32845E-02
         0.32845E-02
         0.27006E-02
         0.25920E-02
         0.25837E-02
         0.26942E-02
         0.28613E-02
         0.29533E-02
         0.29714E-02
         0.29714E-02
         0.26471E-02
         0.27681E-02
         0.34005E-02
         0.35287E-02
         0.35287E-02
         0.29800E-02
         0.31530E-02
         0.31530E-02
         0.43125E-02
         0.43125E-02
         0.43125E-02
         0.43125E-02
         0.34893E-02
         0.34893E-02
         0.32655E-02
         0.32021E-02
         0.37806E-02
         0.31836E-02
         0.26965E-02
         0.33840E-02
         0.37151E-02
         0.27016E-02
         0.29111E-02
         0.36969E-02
         0.36283E-02
         0.37933E-02
         0.30102E-02
         0.30102E-02
         0.28617E-02
         0.26950E-02
         0.29535E-02
         0.28101E-02
         0.30286E-02
         0.36969E-02
         0.28382E-02
         0.28382E-02
         0.27447E-02
         0.26071E-02
         0.36969E-02
         0.36969E-02
         0.37933E-02
         0.37933E-02
         0.30252E-02
         0.36861E-02
         0.37151E-02
         0.32090E-02
         0.32852E-02
         0.32852E-02
         0.27006E-02
         0.25920E-02
         0.25830E-02
         0.29714E-02
         0.29714E-02
         0.26470E-02
         0.29092E-02
         0.33997E-02
         0.35282E-02
         0.35282E-02
         0.29803E-02
         0.32484E-02
         0.28755E-02
         0.29955E-02
         0.36861E-02
         0.37151E-02
         0.37151E-02
         0.33840E-02
         0.29111E-02
         0.32090E-02
         0.32852E-02
         0.32852E-02
         0.27006E-02
         0.25920E-02
         0.25830E-02
         0.26950E-02
         0.28617E-02
         0.29535E-02
         0.29714E-02
         0.29714E-02
         0.26470E-02
         0.27680E-02
         0.33997E-02
         0.35282E-02
         0.35282E-02
         0.29803E-02
         0.31544E-02
         0.31544E-02
         0.43123E-02
         0.43123E-02
         0.43123E-02
         0.43123E-02
         0.34893E-02
         0.34893E-02
         0.32640E-02
         0.32011E-02
         0.37801E-02
         0.31832E-02
         0.26948E-02
         0.33836E-02
         0.37150E-02
         0.26969E-02
         0.29123E-02
         0.36966E-02
         0.36319E-02
         0.37954E-02
         0.30128E-02
         0.30128E-02
         0.28622E-02
         0.26957E-02
         0.29536E-02
         0.28104E-02
         0.30312E-02
         0.36966E-02
         0.28357E-02
         0.28357E-02
         0.27434E-02
         0.26061E-02
         0.36966E-02
         0.36966E-02
         0.37954E-02
         0.37954E-02
         0.30254E-02
         0.36849E-02
         0.37150E-02
         0.32103E-02
         0.32858E-02
         0.32858E-02
         0.27006E-02
         0.25920E-02
         0.25823E-02
         0.29714E-02
         0.29714E-02
         0.26470E-02
         0.29091E-02
         0.33990E-02
         0.35276E-02
         0.35276E-02
         0.29806E-02
         0.32502E-02
         0.28728E-02
         0.29965E-02
         0.36849E-02
         0.37150E-02
         0.37150E-02
         0.33836E-02
         0.29123E-02
         0.32103E-02
         0.32858E-02
         0.32858E-02
         0.27006E-02
         0.25920E-02
         0.25823E-02
         0.26957E-02
         0.28622E-02
         0.29536E-02
         0.29714E-02
         0.29714E-02
         0.26470E-02
         0.27680E-02
         0.33990E-02
         0.35276E-02
         0.35276E-02
         0.29806E-02
         0.31557E-02
         0.31557E-02
         0.43120E-02
         0.43120E-02
         0.43120E-02
         0.43120E-02
         0.34894E-02
         0.34894E-02
         0.32626E-02
         0.32001E-02
         0.37797E-02
         0.31828E-02
         0.26931E-02
         0.33832E-02
         0.37149E-02
         0.26922E-02
         0.29135E-02
         0.36963E-02
         0.36354E-02
         0.37975E-02
         0.30154E-02
         0.30154E-02
         0.28627E-02
         0.26965E-02
         0.29537E-02
         0.28107E-02
         0.30338E-02
         0.36963E-02
         0.28331E-02
         0.28331E-02
         0.27421E-02
         0.26051E-02
         0.36963E-02
         0.36963E-02
         0.37975E-02
         0.37975E-02
         0.30256E-02
         0.36838E-02
         0.37149E-02
         0.32116E-02
         0.32864E-02
         0.32864E-02
         0.27006E-02
         0.25920E-02
         0.25815E-02
         0.29714E-02
         0.29714E-02
         0.26469E-02
         0.29090E-02
         0.33983E-02
         0.35270E-02
         0.35270E-02
         0.29809E-02
         0.32519E-02
         0.28700E-02
         0.29975E-02
         0.36838E-02
         0.37149E-02
         0.37149E-02
         0.33832E-02
         0.29135E-02
         0.32116E-02
         0.32864E-02
         0.32864E-02
         0.27006E-02
         0.25920E-02
         0.25815E-02
         0.26965E-02
         0.28627E-02
         0.29537E-02
         0.29714E-02
         0.29714E-02
         0.26469E-02
         0.27680E-02
         0.33983E-02
         0.35270E-02
         0.35270E-02
         0.29809E-02
         0.31571E-02
         0.31571E-02
         0.43118E-02
         0.43118E-02
         0.43118E-02
         0.43118E-02
         0.34895E-02
         0.34895E-02
         0.32612E-02
         0.31990E-02
         0.37792E-02
         0.31824E-02
         0.26913E-02
         0.33828E-02
         0.37148E-02
         0.26875E-02
         0.29148E-02
         0.36960E-02
         0.36390E-02
         0.37995E-02
         0.30180E-02
         0.30180E-02
         0.28631E-02
         0.26972E-02
         0.29539E-02
         0.28110E-02
         0.30364E-02
         0.36960E-02
         0.28305E-02
         0.28305E-02
         0.27408E-02
         0.26040E-02
         0.36960E-02
         0.36960E-02
         0.37995E-02
         0.37995E-02
         0.30258E-02
         0.36826E-02
         0.37148E-02
         0.32129E-02
         0.32870E-02
         0.32870E-02
         0.27006E-02
         0.25920E-02
         0.25808E-02
         0.29713E-02
         0.29713E-02
         0.26468E-02
         0.29089E-02
         0.33975E-02
         0.35264E-02
         0.35264E-02
         0.29812E-02
         0.32537E-02
         0.28672E-02
         0.29985E-02
         0.36826E-02
         0.37148E-02
         0.37148E-02
         0.33828E-02
         0.29148E-02
         0.32129E-02
         0.32870E-02
         0.32870E-02
         0.27006E-02
         0.25920E-02
         0.25808E-02
         0.26972E-02
         0.28631E-02
         0.29539E-02
         0.29713E-02
         0.29713E-02
         0.26468E-02
         0.27679E-02
         0.33975E-02
         0.35264E-02
         0.35264E-02
         0.29812E-02
         0.31585E-02
         0.31585E-02
         0.43115E-02
         0.43115E-02
         0.43115E-02
         0.43115E-02
         0.34896E-02
         0.34896E-02
         0.32597E-02
         0.31980E-02
         0.37787E-02
         0.31820E-02
         0.26896E-02
         0.33824E-02
         0.37147E-02
         0.26827E-02
         0.29160E-02
         0.36957E-02
         0.36425E-02
         0.38016E-02
         0.30206E-02
         0.30206E-02
         0.28636E-02
         0.26980E-02
         0.29540E-02
         0.28112E-02
         0.30390E-02
         0.36957E-02
         0.28279E-02
         0.28279E-02
         0.27395E-02
         0.26030E-02
         0.36957E-02
         0.36957E-02
         0.38016E-02
         0.38016E-02
         0.30260E-02
         0.36814E-02
         0.37147E-02
         0.32141E-02
         0.32876E-02
         0.32876E-02
         0.27006E-02
         0.25920E-02
         0.25801E-02
         0.29713E-02
         0.29713E-02
         0.26468E-02
         0.29089E-02
         0.33968E-02
         0.35259E-02
         0.35259E-02
         0.29815E-02
         0.32555E-02
         0.28645E-02
         0.29995E-02
         0.36814E-02
         0.37147E-02
         0.37147E-02
         0.33824E-02
         0.29160E-02
         0.32141E-02
         0.32876E-02
         0.32876E-02
         0.27006E-02
         0.25920E-02
         0.25801E-02
         0.26980E-02
         0.28636E-02
         0.29540E-02
         0.29713E-02
         0.29713E-02
         0.26468E-02
         0.27679E-02
         0.33968E-02
         0.35259E-02
         0.35259E-02
         0.29815E-02
         0.31598E-02
         0.31598E-02
         0.43113E-02
         0.43113E-02
         0.43113E-02
         0.43113E-02
         0.34897E-02
         0.34897E-02
         0.32583E-02
         0.31970E-02
         0.37783E-02
         0.31816E-02
         0.26879E-02
         0.33820E-02
         0.37146E-02
         0.26780E-02
         0.29172E-02
         0.36954E-02
         0.36460E-02
         0.38037E-02
         0.30232E-02
         0.30232E-02
         0.28641E-02
         0.26987E-02
         0.29542E-02
         0.28115E-02
         0.30416E-02
         0.36954E-02
         0.28253E-02
         0.28253E-02
         0.27382E-02
         0.26020E-02
         0.36954E-02
         0.36954E-02
         0.38037E-02
         0.38037E-02
         0.30261E-02
         0.36802E-02
         0.37146E-02
         0.32154E-02
         0.32882E-02
         0.32882E-02
         0.27006E-02
         0.25921E-02
         0.25794E-02
         0.29713E-02
         0.29713E-02
         0.26467E-02
         0.29088E-02
         0.33961E-02
         0.35253E-02
         0.35253E-02
         0.29818E-02
         0.32573E-02
         0.28617E-02
         0.30005E-02
         0.36802E-02
         0.37146E-02
         0.37146E-02
         0.33820E-02
         0.29172E-02
         0.32154E-02
         0.32882E-02
         0.32882E-02
         0.27006E-02
         0.25921E-02
         0.25794E-02
         0.26987E-02
         0.28641E-02
         0.29542E-02
         0.29713E-02
         0.29713E-02
         0.26467E-02
         0.27678E-02
         0.33961E-02
         0.35253E-02
         0.35253E-02
         0.29818E-02
         0.31612E-02
         0.31612E-02
         0.43110E-02
         0.43110E-02
         0.43110E-02
         0.43110E-02
         0.34898E-02
         0.34898E-02
         0.32569E-02
         0.31960E-02
         0.37778E-02
         0.31812E-02
         0.26862E-02
         0.33816E-02
         0.37145E-02
         0.26733E-02
         0.29184E-02
         0.36950E-02
         0.36495E-02
         0.38057E-02
         0.30258E-02
         0.30258E-02
         0.28645E-02
         0.26995E-02
         0.29543E-02
         0.28118E-02
         0.30442E-02
         0.36950E-02
         0.28227E-02
         0.28227E-02
         0.27369E-02
         0.26010E-02
         0.36950E-02
         0.36950E-02
         0.38057E-02
         0.38057E-02
         0.30263E-02
         0.36790E-02
         0.37145E-02
         0.32167E-02
         0.32889E-02
         0.32889E-02
         0.27006E-02
         0.25921E-02
         0.25787E-02
         0.29713E-02
         0.29713E-02
         0.26467E-02
         0.29087E-02
         0.33953E-02
         0.35247E-02
         0.35247E-02
         0.29821E-02
         0.32590E-02
         0.28589E-02
         0.30015E-02
         0.36790E-02
         0.37145E-02
         0.37145E-02
         0.33816E-02
         0.29184E-02
         0.32167E-02
         0.32889E-02
         0.32889E-02
         0.27006E-02
         0.25921E-02
         0.25787E-02
         0.26995E-02
         0.28645E-02
         0.29543E-02
         0.29713E-02
         0.29713E-02
         0.26467E-02
         0.27678E-02
         0.33953E-02
         0.35247E-02
         0.35247E-02
         0.29821E-02
         0.31625E-02
         0.31625E-02
         0.43108E-02
         0.43108E-02
         0.43108E-02
         0.43108E-02
         0.34898E-02
         0.34898E-02
         0.32555E-02
         0.31950E-02
         0.37773E-02
         0.31808E-02
         0.26845E-02
         0.33812E-02
         0.37144E-02
         0.26686E-02
         0.29196E-02
         0.36948E-02
         0.36531E-02
         0.38078E-02
         0.30285E-02
         0.30285E-02
         0.28650E-02
         0.27002E-02
         0.29544E-02
         0.28120E-02
         0.30467E-02
         0.36948E-02
         0.28201E-02
         0.28201E-02
         0.27356E-02
         0.26000E-02
         0.36948E-02
         0.36948E-02
         0.38078E-02
         0.38078E-02
         0.30265E-02
         0.36779E-02
         0.37144E-02
         0.32181E-02
         0.32895E-02
         0.32895E-02
         0.27006E-02
         0.25921E-02
         0.25779E-02
         0.29713E-02
         0.29713E-02
         0.26466E-02
         0.29086E-02
         0.33946E-02
         0.35242E-02
         0.35242E-02
         0.29824E-02
         0.32608E-02
         0.28562E-02
         0.30025E-02
         0.36779E-02
         0.37144E-02
         0.37144E-02
         0.33812E-02
         0.29196E-02
         0.32181E-02
         0.32895E-02
         0.32895E-02
         0.27006E-02
         0.25921E-02
         0.25779E-02
         0.27002E-02
         0.28650E-02
         0.29544E-02
         0.29713E-02
         0.29713E-02
         0.26466E-02
         0.27678E-02
         0.33946E-02
         0.35242E-02
         0.35242E-02
         0.29824E-02
         0.31639E-02
         0.31639E-02
         0.43105E-02
         0.43105E-02
         0.43105E-02
         0.43105E-02
         0.34899E-02
         0.34899E-02
         0.32540E-02
         0.31940E-02
         0.37768E-02
         0.31804E-02
         0.26827E-02
         0.33808E-02
         0.37143E-02
         0.26639E-02
         0.29208E-02
         0.36944E-02
         0.36566E-02
         0.38099E-02
         0.30311E-02
         0.30311E-02
         0.28655E-02
         0.27010E-02
         0.29546E-02
         0.28123E-02
         0.30493E-02
         0.36944E-02
         0.28175E-02
         0.28175E-02
         0.27343E-02
         0.25990E-02
         0.36944E-02
         0.36944E-02
         0.38099E-02
         0.38099E-02
         0.30267E-02
         0.36767E-02
         0.37143E-02
         0.32193E-02
         0.32901E-02
         0.32901E-02
         0.27006E-02
         0.25921E-02
         0.25772E-02
         0.29713E-02
         0.29713E-02
         0.26466E-02
         0.29085E-02
         0.33939E-02
         0.35236E-02
         0.35236E-02
         0.29827E-02
         0.32626E-02
         0.28534E-02
         0.30035E-02
         0.36767E-02
         0.37143E-02
         0.37143E-02
         0.33808E-02
         0.29208E-02
         0.32193E-02
         0.32901E-02
         0.32901E-02
         0.27006E-02
         0.25921E-02
         0.25772E-02
         0.27010E-02
         0.28655E-02
         0.29546E-02
         0.29713E-02
         0.29713E-02
         0.26466E-02
         0.27677E-02
         0.33939E-02
         0.35236E-02
         0.35236E-02
         0.29827E-02
         0.31652E-02
         0.31652E-02
         0.43103E-02
         0.43103E-02
         0.43103E-02
         0.43103E-02
         0.34900E-02
         0.34900E-02
         0.32526E-02
         0.31930E-02
         0.37764E-02
         0.31800E-02
         0.26810E-02
         0.33804E-02
         0.37142E-02
         0.26591E-02
         0.29220E-02
         0.36941E-02
         0.36602E-02
         0.38119E-02
         0.30337E-02
         0.30337E-02
         0.28660E-02
         0.27017E-02
         0.29547E-02
         0.28126E-02
         0.30519E-02
         0.36941E-02
         0.28150E-02
         0.28150E-02
         0.27330E-02
         0.25979E-02
         0.36941E-02
         0.36941E-02
         0.38119E-02
         0.38119E-02
         0.30269E-02
         0.36755E-02
         0.37142E-02
         0.32206E-02
         0.32907E-02
         0.32907E-02
         0.27006E-02
         0.25921E-02
         0.25765E-02
         0.29713E-02
         0.29713E-02
         0.26465E-02
         0.29085E-02
         0.33931E-02
         0.35230E-02
         0.35230E-02
         0.29830E-02
         0.32643E-02
         0.28507E-02
         0.30045E-02
         0.36755E-02
         0.37142E-02
         0.37142E-02
         0.33804E-02
         0.29220E-02
         0.32206E-02
         0.32907E-02
         0.32907E-02
         0.27006E-02
         0.25921E-02
         0.25765E-02
         0.27017E-02
         0.28660E-02
         0.29547E-02
         0.29713E-02
         0.29713E-02
         0.26465E-02
         0.27677E-02
         0.33931E-02
         0.35230E-02
         0.35230E-02
         0.29830E-02
         0.31666E-02
         0.31666E-02
         0.43100E-02
         0.43100E-02
         0.43100E-02
         0.43100E-02
         0.34901E-02
         0.34901E-02
         0.32512E-02
         0.31920E-02
         0.37759E-02
         0.31796E-02
         0.26793E-02
         0.33800E-02
         0.37141E-02
         0.26544E-02
         0.29232E-02
         0.36938E-02
         0.36637E-02
         0.38140E-02
         0.30363E-02
         0.30363E-02
         0.28664E-02
         0.27025E-02
         0.29548E-02
         0.28129E-02
         0.30545E-02
         0.36938E-02
         0.28124E-02
         0.28124E-02
         0.27317E-02
         0.25969E-02
         0.36938E-02
         0.36938E-02
         0.38140E-02
         0.38140E-02
         0.30271E-02
         0.36743E-02
         0.37141E-02
         0.32219E-02
         0.32913E-02
         0.32913E-02
         0.27006E-02
         0.25921E-02
         0.25758E-02
         0.29713E-02
         0.29713E-02
         0.26465E-02
         0.29084E-02
         0.33924E-02
         0.35224E-02
         0.35224E-02
         0.29833E-02
         0.32661E-02
         0.28479E-02
         0.30055E-02
         0.36743E-02
         0.37141E-02
         0.37141E-02
         0.33800E-02
         0.29232E-02
         0.32219E-02
         0.32913E-02
         0.32913E-02
         0.27006E-02
         0.25921E-02
         0.25758E-02
         0.27025E-02
         0.28664E-02
         0.29548E-02
         0.29713E-02
         0.29713E-02
         0.26465E-02
         0.27677E-02
         0.33924E-02
         0.35224E-02
         0.35224E-02
         0.29833E-02
         0.31680E-02
         0.31680E-02
         0.43098E-02
         0.43098E-02
         0.43098E-02
         0.43098E-02
         0.34901E-02
         0.34901E-02
         0.32498E-02
         0.31910E-02
         0.37754E-02
         0.31792E-02
         0.26776E-02
         0.33796E-02
         0.37140E-02
         0.26497E-02
         0.29232E-02
         0.36935E-02
         0.36637E-02
         0.38140E-02
         0.30363E-02
         0.30363E-02
         0.28664E-02
         0.27025E-02
         0.29548E-02
         0.28129E-02
         0.30545E-02
         0.36935E-02
         0.28098E-02
         0.28098E-02
         0.27304E-02
         0.25959E-02
         0.36935E-02
         0.36935E-02
         0.38140E-02
         0.38140E-02
         0.30271E-02
         0.36731E-02
         0.37140E-02
         0.32219E-02
         0.32913E-02
         0.32913E-02
         0.27006E-02
         0.25921E-02
         0.25751E-02
         0.29713E-02
         0.29713E-02
         0.26464E-02
         0.29083E-02
         0.33916E-02
         0.35219E-02
         0.35219E-02
         0.29833E-02
         0.32661E-02
         0.28451E-02
         0.30055E-02
         0.36731E-02
         0.37140E-02
         0.37140E-02
         0.33796E-02
         0.29232E-02
         0.32219E-02
         0.32913E-02
         0.32913E-02
         0.27006E-02
         0.25921E-02
         0.25751E-02
         0.27025E-02
         0.28664E-02
         0.29548E-02
         0.29713E-02
         0.29713E-02
         0.26464E-02
         0.27676E-02
         0.33916E-02
         0.35219E-02
         0.35219E-02
         0.29833E-02
         0.31680E-02
         0.31680E-02
  
SCALARS              physical_window_z  double 1
LOOKUP_TABLE default
         0.26928E-02
         0.26928E-02
         0.26928E-02
         0.26928E-02
         0.26928E-02
         0.26928E-02
         0.26928E-02
         0.26928E-02
         0.26928E-02
         0.26928E-02
         0.26928E-02
         0.26928E-02
         0.26928E-02
         0.26928E-02
         0.26928E-02
         0.26928E-02
         0.26928E-02
         0.26928E-02
         0.26928E-02
         0.26928E-02
         0.26928E-02
         0.26928E-02
         0.26928E-02
         0.26928E-02
         0.26928E-02
         0.26928E-02
         0.26928E-02
         0.26928E-02
         0.26928E-02
         0.26928E-02
         0.26928E-02
         0.26928E-02
         0.26928E-02
         0.26928E-02
         0.26928E-02
         0.26928E-02
         0.26928E-02
         0.26928E-02
         0.26928E-02
         0.26928E-02
         0.26928E-02
         0.26928E-02
         0.26928E-02
         0.26928E-02
         0.26928E-02
         0.26928E-02
         0.26928E-02
         0.26928E-02
         0.26928E-02
         0.26928E-02
         0.26928E-02
         0.26928E-02
         0.26928E-02
         0.26928E-02
         0.26928E-02
         0.26928E-02
         0.26928E-02
         0.26928E-02
         0.26928E-02
         0.26928E-02
         0.26928E-02
         0.26928E-02
         0.26928E-02
         0.26928E-02
         0.26928E-02
         0.26928E-02
         0.26928E-02
         0.26928E-02
         0.26928E-02
         0.26928E-02
         0.26928E-02
         0.26928E-02
         0.26928E-02
         0.26928E-02
         0.26928E-02
         0.26928E-02
         0.26928E-02
         0.26928E-02
         0.26928E-02
         0.26928E-02
         0.26928E-02
         0.26928E-02
         0.26928E-02
         0.26928E-02
         0.26928E-02
         0.26928E-02
         0.26928E-02
         0.26928E-02
         0.26928E-02
         0.26928E-02
         0.26928E-02
         0.26928E-02
         0.26928E-02
         0.26928E-02
         0.26928E-02
         0.26928E-02
         0.26928E-02
         0.26928E-02
         0.26928E-02
         0.26928E-02
         0.26928E-02
         0.26928E-02
         0.26928E-02
         0.26928E-02
         0.26928E-02
         0.26928E-02
         0.26928E-02
         0.26928E-02
         0.26928E-02
         0.26928E-02
         0.26928E-02
         0.26928E-02
         0.26928E-02
         0.26928E-02
         0.26928E-02
         0.26928E-02
         0.26928E-02
         0.26928E-02
         0.26928E-02
         0.26928E-02
         0.26928E-02
         0.26928E-02
         0.26928E-02
         0.26928E-02
         0.26928E-02
         0.26928E-02
         0.26928E-02
         0.26928E-02
         0.26928E-02
         0.26928E-02
         0.26928E-02
         0.26928E-02
         0.26928E-02
         0.26928E-02
         0.26928E-02
         0.26928E-02
         0.26928E-02
         0.26928E-02
         0.26928E-02
         0.26928E-02
         0.26928E-02
         0.26928E-02
         0.26928E-02
         0.26928E-02
         0.26928E-02
         0.26928E-02
         0.26928E-02
         0.26928E-02
         0.26928E-02
         0.26928E-02
         0.26928E-02
         0.26928E-02
         0.26928E-02
         0.26928E-02
         0.26928E-02
         0.26928E-02
         0.26927E-02
         0.26927E-02
         0.26927E-02
         0.26927E-02
         0.26927E-02
         0.26927E-02
         0.26927E-02
         0.26927E-02
         0.26927E-02
         0.26927E-02
         0.26927E-02
         0.26927E-02
         0.26927E-02
         0.26927E-02
         0.26927E-02
         0.26927E-02
         0.26927E-02
         0.26927E-02
         0.26927E-02
         0.26927E-02
         0.26927E-02
         0.26927E-02
         0.26927E-02
         0.26927E-02
         0.26927E-02
         0.26927E-02
         0.26927E-02
         0.26927E-02
         0.26927E-02
         0.26927E-02
         0.26927E-02
         0.26927E-02
         0.26927E-02
         0.26927E-02
         0.26927E-02
         0.26927E-02
         0.26927E-02
         0.26927E-02
         0.26927E-02
         0.26927E-02
         0.26927E-02
         0.26927E-02
         0.26927E-02
         0.26927E-02
         0.26927E-02
         0.26927E-02
         0.26927E-02
         0.26927E-02
         0.26927E-02
         0.26927E-02
         0.26927E-02
         0.26927E-02
         0.26927E-02
         0.26927E-02
         0.26927E-02
         0.26927E-02
         0.26927E-02
         0.26927E-02
         0.26927E-02
         0.26927E-02
         0.26927E-02
         0.26927E-02
         0.26927E-02
         0.26927E-02
         0.26927E-02
         0.26927E-02
         0.26927E-02
         0.26927E-02
         0.26927E-02
         0.26927E-02
         0.26927E-02
         0.26927E-02
         0.26927E-02
         0.26927E-02
         0.26927E-02
         0.26927E-02
         0.26927E-02
         0.26927E-02
         0.26927E-02
         0.26927E-02
         0.26927E-02
         0.26927E-02
         0.26927E-02
         0.26927E-02
         0.26927E-02
         0.26927E-02
         0.26927E-02
         0.26927E-02
         0.26927E-02
         0.26927E-02
         0.26927E-02
         0.26927E-02
         0.26927E-02
         0.26927E-02
         0.26927E-02
         0.26927E-02
         0.26927E-02
         0.26927E-02
         0.26927E-02
         0.26927E-02
         0.26927E-02
         0.26927E-02
         0.26927E-02
         0.26927E-02
         0.26927E-02
         0.26927E-02
         0.26927E-02
         0.26927E-02
         0.26927E-02
         0.26927E-02
         0.26927E-02
         0.26927E-02
         0.26927E-02
         0.26927E-02
         0.26927E-02
         0.26927E-02
         0.26927E-02
         0.26927E-02
         0.26927E-02
         0.26927E-02
         0.26927E-02
         0.26927E-02
         0.26927E-02
         0.26927E-02
         0.26927E-02
         0.26927E-02
         0.26927E-02
         0.26927E-02
         0.26927E-02
         0.26927E-02
         0.26927E-02
         0.26927E-02
         0.26927E-02
         0.26927E-02
         0.26927E-02
         0.26927E-02
         0.26927E-02
         0.26927E-02
         0.26927E-02
         0.26927E-02
         0.26927E-02
         0.26927E-02
         0.26927E-02
         0.26927E-02
         0.26927E-02
         0.26927E-02
         0.26927E-02
         0.26927E-02
         0.26927E-02
         0.26927E-02
         0.26927E-02
         0.26927E-02
         0.26927E-02
         0.26927E-02
         0.26927E-02
         0.26927E-02
         0.26927E-02
         0.26927E-02
         0.26927E-02
         0.26927E-02
         0.26927E-02
         0.26927E-02
         0.26927E-02
         0.26927E-02
         0.26927E-02
         0.26927E-02
         0.26927E-02
         0.26927E-02
         0.26927E-02
         0.26927E-02
         0.26927E-02
         0.26927E-02
         0.26927E-02
         0.26927E-02
         0.26927E-02
         0.26927E-02
         0.26927E-02
         0.26927E-02
         0.26927E-02
         0.26927E-02
         0.26927E-02
         0.26927E-02
         0.26927E-02
         0.26927E-02
         0.26927E-02
         0.26927E-02
         0.26927E-02
         0.26927E-02
         0.26927E-02
         0.26927E-02
         0.26927E-02
         0.26927E-02
         0.26927E-02
         0.26927E-02
         0.26927E-02
         0.26927E-02
         0.26927E-02
         0.26927E-02
         0.26927E-02
         0.26927E-02
         0.26927E-02
         0.26927E-02
         0.26927E-02
         0.26927E-02
         0.26927E-02
         0.26927E-02
         0.26927E-02
         0.26927E-02
         0.26927E-02
         0.26927E-02
         0.26927E-02
         0.26927E-02
         0.26927E-02
         0.26927E-02
         0.26927E-02
         0.26927E-02
         0.26927E-02
         0.26927E-02
         0.26927E-02
         0.26927E-02
         0.26927E-02
         0.26927E-02
         0.26927E-02
         0.26927E-02
         0.26927E-02
         0.26927E-02
         0.26927E-02
         0.26927E-02
         0.26927E-02
         0.26927E-02
         0.26927E-02
         0.26927E-02
         0.26927E-02
         0.26927E-02
         0.26927E-02
         0.26927E-02
         0.26927E-02
         0.26927E-02
         0.26927E-02
         0.26927E-02
         0.26927E-02
         0.26927E-02
         0.26927E-02
         0.26927E-02
         0.26927E-02
         0.26927E-02
         0.26927E-02
         0.26927E-02
         0.26927E-02
         0.26927E-02
         0.26927E-02
         0.26927E-02
         0.26927E-02
         0.26927E-02
         0.26927E-02
         0.26927E-02
         0.26927E-02
         0.26927E-02
         0.26927E-02
         0.26927E-02
         0.26927E-02
         0.26927E-02
         0.26927E-02
         0.26927E-02
         0.26927E-02
         0.26927E-02
         0.26927E-02
         0.26927E-02
         0.26927E-02
         0.26927E-02
         0.26927E-02
         0.26927E-02
         0.26927E-02
         0.26927E-02
         0.26927E-02
         0.26927E-02
         0.26927E-02
         0.26927E-02
         0.26927E-02
         0.26927E-02
         0.26927E-02
         0.26927E-02
         0.26927E-02
         0.26927E-02
         0.26927E-02
         0.26927E-02
         0.26927E-02
         0.26927E-02
         0.26927E-02
         0.26927E-02
         0.26927E-02
         0.26927E-02
         0.26927E-02
         0.26927E-02
         0.26927E-02
         0.26927E-02
         0.26927E-02
         0.26927E-02
         0.26927E-02
         0.26927E-02
         0.26927E-02
         0.26927E-02
         0.26927E-02
         0.26927E-02
         0.26927E-02
         0.26927E-02
         0.26927E-02
         0.26927E-02
         0.26927E-02
         0.26927E-02
         0.26927E-02
         0.26927E-02
         0.26927E-02
         0.26927E-02
         0.26927E-02
         0.26927E-02
         0.26927E-02
         0.26927E-02
         0.26927E-02
         0.26927E-02
         0.26927E-02
         0.26927E-02
         0.26927E-02
         0.26927E-02
         0.26927E-02
         0.26927E-02
         0.26927E-02
         0.26927E-02
         0.26927E-02
         0.26927E-02
         0.26927E-02
         0.26927E-02
         0.26927E-02
         0.26927E-02
         0.26927E-02
         0.26927E-02
         0.26927E-02
         0.26927E-02
         0.26927E-02
         0.26927E-02
         0.26927E-02
         0.26927E-02
         0.26927E-02
         0.26927E-02
         0.26927E-02
         0.26927E-02
         0.26927E-02
         0.26927E-02
         0.26927E-02
         0.26927E-02
         0.26927E-02
         0.26927E-02
         0.26927E-02
         0.26927E-02
         0.26927E-02
         0.26927E-02
         0.26927E-02
         0.26927E-02
         0.26927E-02
         0.26927E-02
         0.26927E-02
         0.26927E-02
         0.26927E-02
         0.26927E-02
         0.26927E-02
         0.26927E-02
         0.26927E-02
         0.26927E-02
         0.26927E-02
         0.26927E-02
         0.26927E-02
         0.26927E-02
         0.26927E-02
         0.26927E-02
         0.26927E-02
         0.26927E-02
         0.26927E-02
         0.26927E-02
         0.26927E-02
         0.26927E-02
         0.26927E-02
         0.26927E-02
         0.26927E-02
         0.26927E-02
         0.26927E-02
         0.26927E-02
         0.26927E-02
         0.26927E-02
         0.26927E-02
         0.26927E-02
         0.26927E-02
         0.26927E-02
         0.26927E-02
         0.26927E-02
         0.26927E-02
         0.26927E-02
         0.26927E-02
         0.26927E-02
         0.26927E-02
         0.26927E-02
         0.26927E-02
         0.26927E-02
         0.26927E-02
         0.26927E-02
         0.26927E-02
         0.26927E-02
         0.26927E-02
         0.26927E-02
         0.26927E-02
         0.26927E-02
         0.26927E-02
         0.26927E-02
         0.26927E-02
         0.26927E-02
         0.26927E-02
         0.26927E-02
         0.26927E-02
         0.26927E-02
         0.26927E-02
         0.26927E-02
         0.26927E-02
         0.26927E-02
         0.26927E-02
         0.26927E-02
         0.26927E-02
         0.26927E-02
         0.26927E-02
         0.26927E-02
         0.26927E-02
         0.26927E-02
         0.26927E-02
         0.26927E-02
         0.26927E-02
         0.26927E-02
         0.26927E-02
         0.26927E-02
         0.26927E-02
         0.26927E-02
         0.26927E-02
         0.26927E-02
         0.26927E-02
         0.26927E-02
         0.26927E-02
         0.26927E-02
         0.26927E-02
         0.26927E-02
         0.26927E-02
         0.26927E-02
         0.26927E-02
         0.26927E-02
         0.26927E-02
         0.26927E-02
         0.26927E-02
         0.26927E-02
         0.26927E-02
         0.26927E-02
         0.26927E-02
         0.26927E-02
         0.26927E-02
         0.26927E-02
         0.26927E-02
         0.26927E-02
         0.26927E-02
         0.26927E-02
         0.26927E-02
         0.26927E-02
         0.26927E-02
         0.26927E-02
         0.26927E-02
         0.26927E-02
         0.26927E-02
         0.26927E-02
         0.26927E-02
         0.26927E-02
         0.26927E-02
         0.26927E-02
         0.26927E-02
         0.26927E-02
         0.26927E-02
         0.26927E-02
         0.26927E-02
         0.26927E-02
         0.26927E-02
         0.26927E-02
         0.26927E-02
         0.26927E-02
         0.26927E-02
         0.26927E-02
         0.26927E-02
         0.26927E-02
         0.26927E-02
         0.26927E-02
         0.26927E-02
         0.26927E-02
         0.26927E-02
         0.26927E-02
         0.26927E-02
         0.26927E-02
         0.26927E-02
         0.26927E-02
         0.26927E-02
         0.26927E-02
         0.26927E-02
         0.26927E-02
         0.26927E-02
         0.26927E-02
         0.26927E-02
         0.26927E-02
         0.26927E-02
         0.26927E-02
         0.26927E-02
         0.26927E-02
         0.26927E-02
         0.26927E-02
         0.26927E-02
         0.26927E-02
         0.26927E-02
         0.26927E-02
         0.26927E-02
         0.26927E-02
         0.26927E-02
         0.26927E-02
         0.26927E-02
         0.26927E-02
         0.26927E-02
         0.26927E-02
         0.26927E-02
         0.26927E-02
         0.26927E-02
         0.26927E-02
         0.26927E-02
         0.26927E-02
         0.26927E-02
         0.26927E-02
         0.26927E-02
         0.26927E-02
         0.26927E-02
         0.26927E-02
         0.26927E-02
         0.26927E-02
         0.26927E-02
         0.26927E-02
         0.26927E-02
         0.26927E-02
         0.26927E-02
         0.26927E-02
         0.26927E-02
         0.26927E-02
         0.26927E-02
         0.26927E-02
         0.26927E-02
         0.26927E-02
         0.26927E-02
         0.26927E-02
         0.26927E-02
         0.26927E-02
         0.26927E-02
         0.26927E-02
         0.26927E-02
         0.26927E-02
         0.26927E-02
         0.26927E-02
         0.26927E-02
         0.26927E-02
         0.26927E-02
         0.26927E-02
         0.26927E-02
         0.26927E-02
         0.26927E-02
         0.26927E-02
         0.26927E-02
         0.26927E-02
         0.26927E-02
         0.26927E-02
         0.26927E-02
         0.26927E-02
         0.26927E-02
         0.26927E-02
         0.26927E-02
         0.26927E-02
         0.26927E-02
         0.26927E-02
         0.26927E-02
         0.26927E-02
         0.26927E-02
         0.26927E-02
         0.26927E-02
         0.26927E-02
         0.26927E-02
         0.26927E-02
         0.26927E-02
         0.26927E-02
         0.26927E-02
         0.26927E-02
         0.26927E-02
         0.26927E-02
         0.26927E-02
         0.26927E-02
         0.26927E-02
         0.26927E-02
         0.26927E-02
         0.26927E-02
         0.26927E-02
         0.26927E-02
         0.26927E-02
         0.26927E-02
         0.26927E-02
         0.26927E-02
         0.26927E-02
         0.26927E-02
         0.26927E-02
         0.26927E-02
         0.26927E-02
         0.26927E-02
         0.26927E-02
         0.26927E-02
         0.26927E-02
         0.26927E-02
         0.26927E-02
         0.26927E-02
         0.26927E-02
         0.26927E-02
         0.26927E-02
         0.26927E-02
         0.26927E-02
         0.26927E-02
         0.26927E-02
         0.26927E-02
         0.26927E-02
         0.26927E-02
         0.26927E-02
         0.26927E-02
         0.26927E-02
         0.26927E-02
         0.26927E-02
         0.26927E-02
         0.26927E-02
         0.26927E-02
         0.26927E-02
         0.26927E-02
         0.26927E-02
         0.26927E-02
         0.26927E-02
         0.26927E-02
         0.26927E-02
         0.26927E-02
         0.26927E-02
         0.26927E-02
         0.26927E-02
         0.26927E-02
         0.26927E-02
         0.26927E-02
         0.26927E-02
         0.26927E-02
         0.26927E-02
         0.26927E-02
         0.26927E-02
         0.26927E-02
         0.26927E-02
         0.26927E-02
         0.26927E-02
         0.26927E-02
         0.26927E-02
         0.26927E-02
         0.26927E-02
         0.26927E-02
         0.26927E-02
         0.26927E-02
         0.26927E-02
         0.26927E-02
         0.26927E-02
         0.26927E-02
         0.26927E-02
         0.26927E-02
         0.26927E-02
         0.26927E-02
         0.26927E-02
         0.26927E-02
         0.26927E-02
         0.26927E-02
         0.26927E-02
         0.26927E-02
         0.26927E-02
         0.26927E-02
         0.26927E-02
         0.26927E-02
         0.26927E-02
         0.26927E-02
         0.26927E-02
         0.26927E-02
         0.26927E-02
         0.26927E-02
         0.26927E-02
         0.26927E-02
         0.26927E-02
         0.26927E-02
         0.26927E-02
         0.26927E-02
         0.26927E-02
         0.26927E-02
         0.26927E-02
         0.26927E-02
         0.26927E-02
         0.26927E-02
         0.26927E-02
         0.26927E-02
         0.26927E-02
         0.26927E-02
         0.26927E-02
         0.26927E-02
         0.26927E-02
         0.26927E-02
         0.26927E-02
         0.26927E-02
         0.26927E-02
         0.26927E-02
         0.26927E-02
         0.26927E-02
         0.26927E-02
         0.26927E-02
         0.26927E-02
         0.26927E-02
         0.26927E-02
         0.26927E-02
         0.26927E-02
         0.26927E-02
         0.26927E-02
         0.26927E-02
         0.26927E-02
         0.26927E-02
         0.26927E-02
         0.26927E-02
         0.26927E-02
         0.26927E-02
         0.26927E-02
         0.26927E-02
         0.26927E-02
         0.26927E-02
         0.26927E-02
         0.26927E-02
         0.26927E-02
         0.26927E-02
         0.26927E-02
         0.26927E-02
         0.26927E-02
         0.26927E-02
         0.26927E-02
         0.26927E-02
         0.26927E-02
         0.26927E-02
         0.26927E-02
         0.26927E-02
         0.26927E-02
         0.26927E-02
         0.26927E-02
         0.26927E-02
         0.26927E-02
         0.26927E-02
         0.26927E-02
         0.26927E-02
         0.26927E-02
         0.26927E-02
         0.26927E-02
         0.26927E-02
         0.26927E-02
         0.26927E-02
         0.26927E-02
         0.26927E-02
         0.26927E-02
         0.26927E-02
         0.26927E-02
         0.26927E-02
         0.26927E-02
         0.26927E-02
         0.26927E-02
         0.26927E-02
         0.26927E-02
         0.26927E-02
         0.26927E-02
         0.26927E-02
         0.26927E-02
         0.26927E-02
         0.26927E-02
         0.26927E-02
         0.26927E-02
         0.26927E-02
         0.26927E-02
         0.26927E-02
         0.26927E-02
         0.26927E-02
         0.26927E-02
         0.26927E-02
         0.26927E-02
         0.26927E-02
         0.26927E-02
         0.26927E-02
         0.26927E-02
         0.26927E-02
         0.26927E-02
         0.26927E-02
         0.26927E-02
         0.26927E-02
         0.26927E-02
         0.26927E-02
         0.26927E-02
         0.26927E-02
         0.26927E-02
         0.26927E-02
         0.26927E-02
         0.26927E-02
         0.26927E-02
         0.26927E-02
         0.26927E-02
         0.26927E-02
         0.26927E-02
         0.26927E-02
         0.26927E-02
         0.26927E-02
         0.26927E-02
         0.26927E-02
         0.26927E-02
         0.26927E-02
         0.26927E-02
         0.26927E-02
         0.26927E-02
         0.26927E-02
         0.26927E-02
         0.26927E-02
         0.26927E-02
         0.26927E-02
         0.26927E-02
         0.26927E-02
         0.26927E-02
         0.26927E-02
         0.26927E-02
         0.26927E-02
         0.26927E-02
         0.26927E-02
         0.26927E-02
         0.26927E-02
         0.26927E-02
         0.26927E-02
         0.26927E-02
         0.26927E-02
         0.26927E-02
         0.26927E-02
         0.26927E-02
         0.26927E-02
         0.26927E-02
         0.26927E-02
         0.26927E-02
         0.26927E-02
         0.26927E-02
         0.26927E-02
         0.26927E-02
         0.26927E-02
         0.26927E-02
         0.26927E-02
         0.26927E-02
         0.26927E-02
         0.26927E-02
         0.26927E-02
         0.26927E-02
         0.26927E-02
         0.26927E-02
         0.26927E-02
         0.26927E-02
         0.26927E-02
         0.26927E-02
         0.26927E-02
         0.26927E-02
         0.26927E-02
         0.26927E-02
         0.26927E-02
         0.26927E-02
         0.26927E-02
         0.26927E-02
         0.26927E-02
         0.26927E-02
         0.26927E-02
         0.26927E-02
         0.26927E-02
         0.26927E-02
         0.26927E-02
         0.26927E-02
         0.26927E-02
         0.26927E-02
         0.26927E-02
         0.26927E-02
         0.26927E-02
         0.26927E-02
         0.26927E-02
         0.26927E-02
         0.26927E-02
         0.26927E-02
         0.26927E-02
         0.26927E-02
         0.26927E-02
         0.26927E-02
         0.26927E-02
         0.26927E-02
         0.26927E-02
         0.26927E-02
         0.26927E-02
         0.26927E-02
         0.26927E-02
         0.26927E-02
         0.26927E-02
         0.26927E-02
         0.26927E-02
         0.26927E-02
         0.26927E-02
         0.26927E-02
         0.26927E-02
         0.26927E-02
         0.26927E-02
         0.26927E-02
         0.26927E-02
         0.26927E-02
         0.26927E-02
         0.26927E-02
         0.26927E-02
         0.26927E-02
         0.26927E-02
         0.26927E-02
         0.26927E-02
         0.26927E-02
         0.26927E-02
         0.26927E-02
         0.26927E-02
         0.26927E-02
         0.26927E-02
         0.26927E-02
         0.26927E-02
         0.26927E-02
         0.26927E-02
         0.26927E-02
         0.26927E-02
         0.26927E-02
         0.26927E-02
         0.26927E-02
         0.26927E-02
         0.26927E-02
         0.26927E-02
         0.26927E-02
         0.26927E-02
         0.26927E-02
         0.26927E-02
         0.26927E-02
         0.26927E-02
         0.26927E-02
         0.26927E-02
         0.26927E-02
         0.26927E-02
         0.26927E-02
         0.26927E-02
         0.26927E-02
         0.26927E-02
         0.26927E-02
         0.26927E-02
         0.26927E-02
         0.26927E-02
         0.26927E-02
         0.26927E-02
         0.26927E-02
         0.26927E-02
         0.26927E-02
         0.26927E-02
         0.26927E-02
         0.26927E-02
         0.26927E-02
         0.26927E-02
         0.26927E-02
         0.26927E-02
         0.26927E-02
         0.26927E-02
         0.26927E-02
         0.26927E-02
         0.26927E-02
         0.26927E-02
         0.26927E-02
         0.26927E-02
         0.26927E-02
         0.26927E-02
         0.26927E-02
         0.26927E-02
         0.26927E-02
         0.26927E-02
         0.26927E-02
         0.26927E-02
         0.26927E-02
         0.26927E-02
         0.26927E-02
         0.26927E-02
         0.26927E-02
         0.26927E-02
         0.26927E-02
         0.26927E-02
         0.26927E-02
         0.26927E-02
         0.26927E-02
         0.26927E-02
         0.26927E-02
         0.26927E-02
         0.26927E-02
         0.26927E-02
         0.26927E-02
         0.26927E-02
         0.26927E-02
         0.26927E-02
         0.26927E-02
         0.26927E-02
         0.26927E-02
         0.26927E-02
         0.26927E-02
         0.26927E-02
         0.26927E-02
         0.26927E-02
         0.26927E-02
         0.26927E-02
         0.26927E-02
         0.26927E-02
         0.26927E-02
         0.26927E-02
         0.26927E-02
         0.26927E-02
         0.26927E-02
         0.26927E-02
         0.26927E-02
         0.26927E-02
         0.26927E-02
         0.26927E-02
         0.26927E-02
         0.26927E-02
         0.26927E-02
         0.26927E-02
         0.26927E-02
         0.26927E-02
         0.26927E-02
         0.26927E-02
         0.26927E-02
         0.26927E-02
         0.26927E-02
         0.26927E-02
         0.26927E-02
         0.26927E-02
         0.26927E-02
         0.26927E-02
         0.26927E-02
         0.26927E-02
         0.26927E-02
         0.26927E-02
         0.26927E-02
         0.26927E-02
         0.26927E-02
         0.26927E-02
         0.26927E-02
         0.26927E-02
         0.26927E-02
         0.26927E-02
         0.26927E-02
         0.26927E-02
         0.26927E-02
         0.26927E-02
         0.26927E-02
         0.26927E-02
         0.26927E-02
         0.26927E-02
         0.26927E-02
         0.26927E-02
         0.26927E-02
         0.26927E-02
         0.26927E-02
         0.26927E-02
         0.26927E-02
         0.26927E-02
         0.26927E-02
         0.26927E-02
         0.26927E-02
         0.26927E-02
         0.26927E-02
         0.26927E-02
         0.26927E-02
         0.26927E-02
         0.26927E-02
         0.26927E-02
         0.26927E-02
         0.26927E-02
         0.26927E-02
         0.26927E-02
         0.26927E-02
         0.26927E-02
         0.26927E-02
         0.26927E-02
         0.26927E-02
         0.26927E-02
         0.26927E-02
         0.26927E-02
         0.26927E-02
         0.26927E-02
         0.26927E-02
         0.26927E-02
         0.26927E-02
         0.26927E-02
         0.26927E-02
         0.26927E-02
         0.26927E-02
         0.26927E-02
         0.26927E-02
         0.26927E-02
         0.26927E-02
         0.26927E-02
         0.26927E-02
         0.26927E-02
         0.26927E-02
         0.26927E-02
         0.26927E-02
         0.26927E-02
         0.26927E-02
         0.26927E-02
         0.26927E-02
         0.26927E-02
         0.26927E-02
         0.26927E-02
         0.26927E-02
         0.26927E-02
         0.26927E-02
         0.26927E-02
         0.26927E-02
         0.26927E-02
         0.26927E-02
         0.26927E-02
         0.26927E-02
         0.26927E-02
         0.26927E-02
         0.26927E-02
         0.26927E-02
         0.26927E-02
         0.26927E-02
         0.26927E-02
         0.26927E-02
         0.26927E-02
         0.26927E-02
         0.26927E-02
         0.26927E-02
         0.26927E-02
         0.26927E-02
         0.26927E-02
         0.26927E-02
         0.26927E-02
         0.26927E-02
         0.26927E-02
         0.26927E-02
         0.26927E-02
         0.26927E-02
         0.26927E-02
         0.26927E-02
         0.26927E-02
         0.26927E-02
         0.26927E-02
         0.26927E-02
         0.26927E-02
         0.26927E-02
         0.26927E-02
         0.26927E-02
         0.26927E-02
         0.26927E-02
         0.26927E-02
         0.26927E-02
         0.26927E-02
         0.26927E-02
         0.26927E-02
         0.26927E-02
         0.26927E-02
         0.26927E-02
         0.26927E-02
         0.26927E-02
         0.26927E-02
         0.26927E-02
         0.26927E-02
         0.26927E-02
         0.26927E-02
         0.26927E-02
         0.26927E-02
         0.26927E-02
         0.26927E-02
         0.26927E-02
         0.26927E-02
         0.26927E-02
         0.26927E-02
         0.26927E-02
         0.26927E-02
         0.26927E-02
         0.26927E-02
         0.26927E-02
         0.26927E-02
         0.26927E-02
         0.26927E-02
         0.26927E-02
         0.26927E-02
         0.26927E-02
         0.26927E-02
         0.26927E-02
         0.26927E-02
         0.26927E-02
         0.26927E-02
         0.26927E-02
         0.26927E-02
         0.26927E-02
         0.26927E-02
         0.26927E-02
         0.26927E-02
         0.26927E-02
         0.26927E-02
         0.26927E-02
         0.26927E-02
         0.26927E-02
         0.26927E-02
         0.26927E-02
         0.26927E-02
         0.26927E-02
         0.26927E-02
         0.26927E-02
         0.26927E-02
         0.26927E-02
         0.26927E-02
         0.26927E-02
         0.26927E-02
         0.26927E-02
         0.26927E-02
         0.26927E-02
         0.26927E-02
         0.26927E-02
         0.26927E-02
         0.26927E-02
         0.26927E-02
         0.26927E-02
         0.26927E-02
         0.26927E-02
         0.26927E-02
         0.26927E-02
         0.26927E-02
         0.26927E-02
         0.26927E-02
         0.26927E-02
         0.26927E-02
         0.26927E-02
         0.26927E-02
         0.26927E-02
         0.26927E-02
         0.26927E-02
         0.26927E-02
         0.26927E-02
         0.26927E-02
         0.26927E-02
         0.26927E-02
         0.26927E-02
         0.26927E-02
         0.26927E-02
         0.26927E-02
         0.26927E-02
         0.26927E-02
         0.26927E-02
         0.26927E-02
         0.26927E-02
         0.26927E-02
         0.26927E-02
         0.26927E-02
         0.26927E-02
         0.26927E-02
         0.26927E-02
         0.26927E-02
         0.26927E-02
         0.26927E-02
         0.26927E-02
         0.26927E-02
         0.26927E-02
         0.26927E-02
         0.26927E-02
         0.26927E-02
         0.26927E-02
         0.26927E-02
         0.26927E-02
         0.26927E-02
         0.26927E-02
         0.26927E-02
         0.26927E-02
         0.26927E-02
         0.26927E-02
         0.26927E-02
         0.26927E-02
         0.26927E-02
         0.26927E-02
         0.26927E-02
         0.26927E-02
         0.26927E-02
         0.26927E-02
         0.26927E-02
         0.26927E-02
         0.26927E-02
         0.26927E-02
         0.26927E-02
         0.26927E-02
         0.26927E-02
         0.26927E-02
         0.26927E-02
         0.26927E-02
         0.26927E-02
         0.26927E-02
         0.26927E-02
         0.26927E-02
         0.26927E-02
         0.26927E-02
         0.26927E-02
         0.26927E-02
         0.26927E-02
         0.26927E-02
         0.26927E-02
         0.26927E-02
         0.26927E-02
         0.26927E-02
         0.26927E-02
         0.26927E-02
         0.26927E-02
         0.26927E-02
         0.26927E-02
         0.26927E-02
         0.26927E-02
         0.26927E-02
         0.26927E-02
         0.26927E-02
         0.26927E-02
         0.26927E-02
         0.26927E-02
         0.26927E-02
         0.26927E-02
         0.26927E-02
         0.26927E-02
         0.26927E-02
         0.26927E-02
         0.26927E-02
         0.26927E-02
         0.26927E-02
         0.26927E-02
         0.26927E-02
         0.26927E-02
         0.26927E-02
         0.26927E-02
         0.26927E-02
         0.26927E-02
         0.26927E-02
         0.26927E-02
         0.26927E-02
         0.26927E-02
         0.26927E-02
         0.26927E-02
         0.26927E-02
         0.26927E-02
         0.26927E-02
         0.26927E-02
         0.26927E-02
         0.26927E-02
         0.26927E-02
         0.26927E-02
         0.26927E-02
         0.26927E-02
         0.26927E-02
         0.26927E-02
         0.26927E-02
         0.26927E-02
         0.26927E-02
         0.26927E-02
         0.26927E-02
         0.26927E-02
         0.26927E-02
         0.26927E-02
         0.26927E-02
         0.26927E-02
         0.26927E-02
         0.26927E-02
         0.26927E-02
         0.26927E-02
         0.26927E-02
         0.26927E-02
         0.26927E-02
         0.26927E-02
         0.26927E-02
         0.26927E-02
         0.26927E-02
         0.26927E-02
         0.26927E-02
         0.26927E-02
         0.26927E-02
         0.26927E-02
         0.26927E-02
         0.26927E-02
         0.26927E-02
         0.26927E-02
         0.26927E-02
         0.26927E-02
         0.26927E-02
         0.26927E-02
         0.26927E-02
         0.26927E-02
         0.26927E-02
         0.26927E-02
         0.26927E-02
         0.26927E-02
         0.26927E-02
         0.26927E-02
         0.26927E-02
         0.26927E-02
         0.26927E-02
         0.26927E-02
         0.26927E-02
         0.26927E-02
         0.26927E-02
         0.26927E-02
         0.26927E-02
         0.26927E-02
         0.26927E-02
         0.26927E-02
         0.26927E-02
         0.26927E-02
         0.26927E-02
         0.26927E-02
         0.26927E-02
         0.26927E-02
         0.26927E-02
         0.26927E-02
         0.26927E-02
         0.26927E-02
         0.26927E-02
         0.26927E-02
         0.26927E-02
         0.26927E-02
         0.26927E-02
         0.26927E-02
         0.26927E-02
         0.26927E-02
         0.26927E-02
         0.26927E-02
         0.26927E-02
         0.26927E-02
         0.26927E-02
         0.26927E-02
         0.26927E-02
         0.26927E-02
         0.26927E-02
         0.26927E-02
         0.26927E-02
         0.26927E-02
         0.26927E-02
         0.26927E-02
         0.26927E-02
         0.26927E-02
         0.26927E-02
         0.26927E-02
         0.26927E-02
         0.26927E-02
         0.26927E-02
         0.26927E-02
         0.26927E-02
         0.26927E-02
         0.26927E-02
         0.26927E-02
         0.26927E-02
         0.26927E-02
         0.26927E-02
         0.26927E-02
         0.26927E-02
         0.26927E-02
         0.26927E-02
         0.26927E-02
         0.26927E-02
         0.26927E-02
         0.26927E-02
         0.26927E-02
         0.26927E-02
         0.26927E-02
         0.26927E-02
         0.26927E-02
         0.26927E-02
         0.26927E-02
         0.26927E-02
         0.26927E-02
         0.26927E-02
         0.26927E-02
         0.26927E-02
         0.26927E-02
         0.26927E-02
         0.26927E-02
         0.26927E-02
         0.26927E-02
         0.26927E-02
         0.26927E-02
         0.26927E-02
         0.26927E-02
         0.26927E-02
         0.26927E-02
         0.26927E-02
         0.26927E-02
         0.26927E-02
         0.26927E-02
         0.26927E-02
         0.26927E-02
         0.26927E-02
         0.26927E-02
         0.26927E-02
         0.26927E-02
         0.26927E-02
         0.26927E-02
         0.26927E-02
         0.26927E-02
         0.26927E-02
         0.26927E-02
         0.26927E-02
         0.26927E-02
         0.26927E-02
         0.26927E-02
         0.26927E-02
         0.26927E-02
         0.26927E-02
         0.26927E-02
         0.26927E-02
         0.26927E-02
         0.26927E-02
         0.26927E-02
         0.26927E-02
         0.26927E-02
         0.26927E-02
         0.26927E-02
         0.26927E-02
         0.26927E-02
         0.26927E-02
         0.26927E-02
         0.26927E-02
         0.26927E-02
         0.26927E-02
         0.26927E-02
         0.26927E-02
         0.26927E-02
         0.26927E-02
         0.26927E-02
         0.26927E-02
         0.26927E-02
         0.26927E-02
         0.26927E-02
         0.26927E-02
         0.26927E-02
         0.26927E-02
         0.26927E-02
         0.26927E-02
         0.26927E-02
         0.26927E-02
         0.26927E-02
         0.26927E-02
         0.26927E-02
         0.26927E-02
         0.26927E-02
         0.26927E-02
         0.26927E-02
         0.26927E-02
         0.26927E-02
         0.26927E-02
         0.26927E-02
         0.26927E-02
         0.26927E-02
         0.26927E-02
         0.26927E-02
         0.26927E-02
         0.26927E-02
         0.26927E-02
         0.26927E-02
         0.26927E-02
         0.26927E-02
         0.26927E-02
         0.26927E-02
         0.26927E-02
         0.26927E-02
         0.26927E-02
         0.26927E-02
         0.26927E-02
         0.26927E-02
         0.26927E-02
         0.26927E-02
         0.26927E-02
         0.26927E-02
         0.26927E-02
         0.26927E-02
         0.26927E-02
         0.26927E-02
         0.26927E-02
         0.26927E-02
         0.26927E-02
         0.26927E-02
         0.26927E-02
         0.26927E-02
         0.26927E-02
         0.26927E-02
         0.26927E-02
         0.26927E-02
         0.26927E-02
         0.26927E-02
         0.26927E-02
         0.26927E-02
         0.26927E-02
         0.26927E-02
         0.26927E-02
         0.26927E-02
         0.26927E-02
         0.26927E-02
         0.26927E-02
         0.26927E-02
         0.26927E-02
         0.26927E-02
         0.26927E-02
         0.26927E-02
         0.26927E-02
         0.26927E-02
         0.26927E-02
         0.26927E-02
         0.26927E-02
         0.26927E-02
         0.26927E-02
         0.26927E-02
         0.26927E-02
         0.26927E-02
         0.26927E-02
         0.26927E-02
         0.26927E-02
         0.26927E-02
         0.26927E-02
         0.26927E-02
         0.26927E-02
         0.26927E-02
         0.26927E-02
         0.26927E-02
         0.26928E-02
         0.26928E-02
         0.26928E-02
         0.26928E-02
         0.26928E-02
         0.26928E-02
         0.26928E-02
         0.26928E-02
         0.26928E-02
         0.26928E-02
         0.26928E-02
         0.26928E-02
         0.26928E-02
         0.26928E-02
         0.26928E-02
         0.26928E-02
         0.26928E-02
         0.26928E-02
         0.26928E-02
         0.26928E-02
         0.26928E-02
         0.26928E-02
         0.26928E-02
         0.26928E-02
         0.26928E-02
         0.26928E-02
         0.26928E-02
         0.26928E-02
         0.26928E-02
         0.26928E-02
         0.26928E-02
         0.26928E-02
         0.26928E-02
         0.26928E-02
         0.26928E-02
         0.26928E-02
         0.26928E-02
         0.26928E-02
         0.26928E-02
         0.26928E-02
         0.26928E-02
         0.26928E-02
         0.26928E-02
         0.26928E-02
         0.26928E-02
         0.26928E-02
         0.26928E-02
         0.26928E-02
         0.26928E-02
         0.26928E-02
         0.26928E-02
         0.26928E-02
         0.26928E-02
         0.26928E-02
         0.26928E-02
         0.26928E-02
         0.26928E-02
         0.26928E-02
         0.26928E-02
         0.26928E-02
         0.26928E-02
         0.26928E-02
         0.26928E-02
         0.26928E-02
         0.26928E-02
         0.26928E-02
         0.26928E-02
         0.26928E-02
         0.26928E-02
         0.26928E-02
         0.26928E-02
         0.26928E-02
         0.26928E-02
         0.26928E-02
         0.26928E-02
         0.26928E-02
         0.26928E-02
         0.26928E-02
         0.26928E-02
         0.26928E-02
         0.26928E-02
         0.26928E-02
         0.26928E-02
         0.26928E-02
         0.26928E-02
         0.26928E-02
         0.26928E-02
         0.26928E-02
         0.26928E-02
         0.26928E-02
         0.26928E-02
         0.26928E-02
         0.26928E-02
         0.26928E-02
         0.26928E-02
         0.26928E-02
         0.26928E-02
         0.26928E-02
         0.26928E-02
         0.26928E-02
         0.26928E-02
         0.26928E-02
         0.26928E-02
         0.26928E-02
         0.26928E-02
         0.26928E-02
         0.26928E-02
         0.26928E-02
         0.26928E-02
         0.26928E-02
         0.26928E-02
         0.26928E-02
         0.26928E-02
         0.26928E-02
         0.26928E-02
         0.26928E-02
         0.26928E-02
         0.26928E-02
         0.26928E-02
         0.26928E-02
         0.26928E-02
         0.26928E-02
         0.26928E-02
         0.26928E-02
         0.26928E-02
         0.26928E-02
         0.26928E-02
         0.26928E-02
         0.26928E-02
         0.26928E-02
         0.26928E-02
         0.26928E-02
         0.26928E-02
         0.26928E-02
         0.26928E-02
         0.26928E-02
         0.26928E-02
         0.26928E-02
         0.26928E-02
         0.26928E-02
         0.26928E-02
         0.26928E-02
         0.26928E-02
         0.26928E-02
         0.26928E-02
         0.26928E-02
         0.26928E-02
         0.26928E-02
         0.26928E-02
         0.26928E-02
         0.26928E-02
         0.26928E-02
         0.26928E-02
         0.26928E-02
         0.26928E-02
         0.26928E-02
  
SCALARS                   nodal_volume  double 1
LOOKUP_TABLE default
         0.91140E-09
         0.72412E-09
         0.77574E-09
         0.13316E-08
         0.45570E-09
         0.36211E-09
         0.38787E-09
         0.66566E-09
         0.71537E-09
         0.91211E-09
         0.35767E-09
         0.45600E-09
         0.51195E-09
         0.61532E-09
         0.25605E-09
         0.30776E-09
         0.10101E-08
         0.74536E-09
         0.50500E-09
         0.37281E-09
         0.30273E-09
         0.57012E-09
         0.62699E-09
         0.15144E-09
         0.28509E-09
         0.31352E-09
         0.51329E-09
         0.64933E-09
         0.25683E-09
         0.32471E-09
         0.12026E-08
         0.93909E-09
         0.11935E-08
         0.60122E-09
         0.46945E-09
         0.59663E-09
         0.70296E-09
         0.80270E-09
         0.35149E-09
         0.40134E-09
         0.75859E-09
         0.84013E-09
         0.37932E-09
         0.42007E-09
         0.64542E-09
         0.40086E-09
         0.32274E-09
         0.20045E-09
         0.76288E-09
         0.38153E-09
         0.63346E-09
         0.31675E-09
         0.66583E-09
         0.33318E-09
         0.68008E-09
         0.34022E-09
         0.58930E-09
         0.71738E-09
         0.29472E-09
         0.35874E-09
         0.90938E-09
         0.64302E-09
         0.45469E-09
         0.32154E-09
         0.10152E-08
         0.50747E-09
         0.88120E-09
         0.44042E-09
         0.40077E-09
         0.61872E-09
         0.20039E-09
         0.30940E-09
         0.70206E-09
         0.35106E-09
         0.74172E-09
         0.37089E-09
         0.71539E-09
         0.35770E-09
         0.56226E-09
         0.28113E-09
         0.35349E-09
         0.58452E-09
         0.17675E-09
         0.29229E-09
         0.77354E-09
         0.38679E-09
         0.62469E-09
         0.31238E-09
         0.54957E-09
         0.27483E-09
         0.36009E-09
         0.61365E-09
         0.18007E-09
         0.30685E-09
         0.83268E-09
         0.41635E-09
         0.87287E-09
         0.43642E-09
         0.70438E-09
         0.35217E-09
         0.43365E-09
         0.74413E-09
         0.21683E-09
         0.37198E-09
         0.27660E-09
         0.35144E-09
         0.13833E-09
         0.17573E-09
         0.32921E-09
         0.16465E-09
         0.38764E-09
         0.19382E-09
         0.37797E-09
         0.18897E-09
         0.36707E-09
         0.18352E-09
         0.39112E-09
         0.19552E-09
         0.41268E-09
         0.20627E-09
         0.38876E-09
         0.19433E-09
         0.30402E-09
         0.15200E-09
         0.24796E-09
         0.12398E-09
         0.31999E-09
         0.16000E-09
         0.42608E-09
         0.21303E-09
         0.46805E-09
         0.23401E-09
         0.44933E-09
         0.22466E-09
         0.40550E-09
         0.20276E-09
         0.36826E-09
         0.18414E-09
         0.29911E-09
         0.14956E-09
         0.25178E-09
         0.12591E-09
         0.32888E-09
         0.16445E-09
         0.43529E-09
         0.21765E-09
         0.44963E-09
         0.22482E-09
         0.36384E-09
         0.18194E-09
         0.29543E-09
         0.14774E-09
         0.36126E-09
         0.18063E-09
         0.42771E-09
         0.21386E-09
         0.91143E-09
         0.72396E-09
         0.77579E-09
         0.13322E-08
         0.71547E-09
         0.91237E-09
         0.51167E-09
         0.61494E-09
         0.10105E-08
         0.74486E-09
         0.30244E-09
         0.57001E-09
         0.62694E-09
         0.51257E-09
         0.64918E-09
         0.12029E-08
         0.93950E-09
         0.11941E-08
         0.70298E-09
         0.80279E-09
         0.75855E-09
         0.84015E-09
         0.64535E-09
         0.40081E-09
         0.76254E-09
         0.63339E-09
         0.66483E-09
         0.67941E-09
         0.58904E-09
         0.71721E-09
         0.90946E-09
         0.64293E-09
         0.10157E-08
         0.88199E-09
         0.40076E-09
         0.61859E-09
         0.70195E-09
         0.74166E-09
         0.71543E-09
         0.56228E-09
         0.35349E-09
         0.58443E-09
         0.77349E-09
         0.62459E-09
         0.54943E-09
         0.35999E-09
         0.61359E-09
         0.83268E-09
         0.87299E-09
         0.70451E-09
         0.43366E-09
         0.74449E-09
         0.27651E-09
         0.35143E-09
         0.32904E-09
         0.38765E-09
         0.37805E-09
         0.36714E-09
         0.39129E-09
         0.41297E-09
         0.38899E-09
         0.30408E-09
         0.24798E-09
         0.31999E-09
         0.42613E-09
         0.46815E-09
         0.44938E-09
         0.40548E-09
         0.36823E-09
         0.29908E-09
         0.25174E-09
         0.32885E-09
         0.43527E-09
         0.44962E-09
         0.36376E-09
         0.29536E-09
         0.36130E-09
         0.42769E-09
         0.91151E-09
         0.72383E-09
         0.77587E-09
         0.13329E-08
         0.71560E-09
         0.91267E-09
         0.51142E-09
         0.61459E-09
         0.10109E-08
         0.74439E-09
         0.30216E-09
         0.56992E-09
         0.62691E-09
         0.51187E-09
         0.64906E-09
         0.12033E-08
         0.93995E-09
         0.11947E-08
         0.70302E-09
         0.80291E-09
         0.75853E-09
         0.84020E-09
         0.64530E-09
         0.40078E-09
         0.76223E-09
         0.63335E-09
         0.66385E-09
         0.67875E-09
         0.58880E-09
         0.71706E-09
         0.90957E-09
         0.64286E-09
         0.10162E-08
         0.88281E-09
         0.40076E-09
         0.61849E-09
         0.70188E-09
         0.74162E-09
         0.71550E-09
         0.56232E-09
         0.35350E-09
         0.58436E-09
         0.77347E-09
         0.62452E-09
         0.54931E-09
         0.35990E-09
         0.61355E-09
         0.83270E-09
         0.87315E-09
         0.70467E-09
         0.43368E-09
         0.74487E-09
         0.27643E-09
         0.35143E-09
         0.32889E-09
         0.38767E-09
         0.37814E-09
         0.36723E-09
         0.39147E-09
         0.41328E-09
         0.38923E-09
         0.30416E-09
         0.24800E-09
         0.32001E-09
         0.42620E-09
         0.46826E-09
         0.44944E-09
         0.40548E-09
         0.36821E-09
         0.29906E-09
         0.25171E-09
         0.32883E-09
         0.43527E-09
         0.44963E-09
         0.36369E-09
         0.29530E-09
         0.36135E-09
         0.42769E-09
         0.91156E-09
         0.72368E-09
         0.77594E-09
         0.13335E-08
         0.71571E-09
         0.91295E-09
         0.51115E-09
         0.61422E-09
         0.10112E-08
         0.74389E-09
         0.30187E-09
         0.56982E-09
         0.62686E-09
         0.51116E-09
         0.64892E-09
         0.12036E-08
         0.94038E-09
         0.11953E-08
         0.70304E-09
         0.80300E-09
         0.75850E-09
         0.84023E-09
         0.64523E-09
         0.40073E-09
         0.76190E-09
         0.63330E-09
         0.66285E-09
         0.67809E-09
         0.58855E-09
         0.71689E-09
         0.90966E-09
         0.64278E-09
         0.10168E-08
         0.88361E-09
         0.40076E-09
         0.61837E-09
         0.70178E-09
         0.74156E-09
         0.71554E-09
         0.56234E-09
         0.35350E-09
         0.58428E-09
         0.77343E-09
         0.62442E-09
         0.54918E-09
         0.35981E-09
         0.61349E-09
         0.83271E-09
         0.87328E-09
         0.70481E-09
         0.43369E-09
         0.74524E-09
         0.27634E-09
         0.35142E-09
         0.32873E-09
         0.38768E-09
         0.37823E-09
         0.36731E-09
         0.39163E-09
         0.41358E-09
         0.38945E-09
         0.30422E-09
         0.24802E-09
         0.32001E-09
         0.42625E-09
         0.46837E-09
         0.44949E-09
         0.40546E-09
         0.36819E-09
         0.29904E-09
         0.25167E-09
         0.32881E-09
         0.43526E-09
         0.44963E-09
         0.36362E-09
         0.29523E-09
         0.36139E-09
         0.42768E-09
         0.91161E-09
         0.72353E-09
         0.77600E-09
         0.13341E-08
         0.71583E-09
         0.91323E-09
         0.51088E-09
         0.61386E-09
         0.10116E-08
         0.74341E-09
         0.30158E-09
         0.56972E-09
         0.62682E-09
         0.51045E-09
         0.64879E-09
         0.12040E-08
         0.94081E-09
         0.11959E-08
         0.70307E-09
         0.80310E-09
         0.75847E-09
         0.84027E-09
         0.64517E-09
         0.40069E-09
         0.76158E-09
         0.63325E-09
         0.66186E-09
         0.67742E-09
         0.58831E-09
         0.71673E-09
         0.90975E-09
         0.64270E-09
         0.10173E-08
         0.88441E-09
         0.40075E-09
         0.61825E-09
         0.70169E-09
         0.74151E-09
         0.71559E-09
         0.56237E-09
         0.35350E-09
         0.58420E-09
         0.77339E-09
         0.62433E-09
         0.54905E-09
         0.35972E-09
         0.61344E-09
         0.83272E-09
         0.87341E-09
         0.70496E-09
         0.43370E-09
         0.74562E-09
         0.27626E-09
         0.35142E-09
         0.32857E-09
         0.38770E-09
         0.37832E-09
         0.36739E-09
         0.39181E-09
         0.41387E-09
         0.38968E-09
         0.30429E-09
         0.24804E-09
         0.32002E-09
         0.42631E-09
         0.46847E-09
         0.44954E-09
         0.40545E-09
         0.36816E-09
         0.29901E-09
         0.25163E-09
         0.32878E-09
         0.43525E-09
         0.44963E-09
         0.36354E-09
         0.29517E-09
         0.36144E-09
         0.42766E-09
         0.91167E-09
         0.72338E-09
         0.77607E-09
         0.13348E-08
         0.71594E-09
         0.91351E-09
         0.51062E-09
         0.61349E-09
         0.10119E-08
         0.74292E-09
         0.30129E-09
         0.56962E-09
         0.62678E-09
         0.50974E-09
         0.64865E-09
         0.12044E-08
         0.94125E-09
         0.11965E-08
         0.70310E-09
         0.80321E-09
         0.75844E-09
         0.84031E-09
         0.64511E-09
         0.40065E-09
         0.76125E-09
         0.63320E-09
         0.66087E-09
         0.67676E-09
         0.58806E-09
         0.71657E-09
         0.90984E-09
         0.64263E-09
         0.10179E-08
         0.88522E-09
         0.40075E-09
         0.61813E-09
         0.70160E-09
         0.74146E-09
         0.71564E-09
         0.56240E-09
         0.35350E-09
         0.58412E-09
         0.77336E-09
         0.62425E-09
         0.54892E-09
         0.35963E-09
         0.61339E-09
         0.83274E-09
         0.87355E-09
         0.70511E-09
         0.43371E-09
         0.74599E-09
         0.27618E-09
         0.35141E-09
         0.32841E-09
         0.38771E-09
         0.37841E-09
         0.36747E-09
         0.39198E-09
         0.41417E-09
         0.38992E-09
         0.30436E-09
         0.24806E-09
         0.32003E-09
         0.42637E-09
         0.46858E-09
         0.44960E-09
         0.40544E-09
         0.36814E-09
         0.29899E-09
         0.25159E-09
         0.32876E-09
         0.43525E-09
         0.44963E-09
         0.36347E-09
         0.29511E-09
         0.36148E-09
         0.42766E-09
         0.91171E-09
         0.72323E-09
         0.77613E-09
         0.13354E-08
         0.71606E-09
         0.91379E-09
         0.51035E-09
         0.61313E-09
         0.10123E-08
         0.74243E-09
         0.30101E-09
         0.56952E-09
         0.62674E-09
         0.50903E-09
         0.64851E-09
         0.12047E-08
         0.94167E-09
         0.11971E-08
         0.70312E-09
         0.80331E-09
         0.75840E-09
         0.84034E-09
         0.64504E-09
         0.40061E-09
         0.76092E-09
         0.63314E-09
         0.65988E-09
         0.67609E-09
         0.58781E-09
         0.71641E-09
         0.90993E-09
         0.64255E-09
         0.10184E-08
         0.88601E-09
         0.40075E-09
         0.61801E-09
         0.70151E-09
         0.74140E-09
         0.71569E-09
         0.56243E-09
         0.35350E-09
         0.58404E-09
         0.77332E-09
         0.62416E-09
         0.54879E-09
         0.35953E-09
         0.61334E-09
         0.83274E-09
         0.87368E-09
         0.70525E-09
         0.43372E-09
         0.74636E-09
         0.27609E-09
         0.35141E-09
         0.32825E-09
         0.38772E-09
         0.37849E-09
         0.36754E-09
         0.39215E-09
         0.41447E-09
         0.39014E-09
         0.30443E-09
         0.24808E-09
         0.32004E-09
         0.42642E-09
         0.46868E-09
         0.44965E-09
         0.40543E-09
         0.36812E-09
         0.29897E-09
         0.25155E-09
         0.32874E-09
         0.43524E-09
         0.44963E-09
         0.36340E-09
         0.29504E-09
         0.36153E-09
         0.42764E-09
         0.91176E-09
         0.72308E-09
         0.77620E-09
         0.13360E-08
         0.71617E-09
         0.91407E-09
         0.51008E-09
         0.61276E-09
         0.10126E-08
         0.74195E-09
         0.30072E-09
         0.56942E-09
         0.62670E-09
         0.50832E-09
         0.64838E-09
         0.12051E-08
         0.94210E-09
         0.11977E-08
         0.70314E-09
         0.80341E-09
         0.75837E-09
         0.84038E-09
         0.64498E-09
         0.40056E-09
         0.76060E-09
         0.63309E-09
         0.65888E-09
         0.67542E-09
         0.58756E-09
         0.71624E-09
         0.91002E-09
         0.64247E-09
         0.10189E-08
         0.88682E-09
         0.40074E-09
         0.61790E-09
         0.70142E-09
         0.74135E-09
         0.71574E-09
         0.56245E-09
         0.35351E-09
         0.58396E-09
         0.77328E-09
         0.62407E-09
         0.54866E-09
         0.35944E-09
         0.61329E-09
         0.83275E-09
         0.87382E-09
         0.70539E-09
         0.43373E-09
         0.74673E-09
         0.27601E-09
         0.35140E-09
         0.32809E-09
         0.38774E-09
         0.37858E-09
         0.36762E-09
         0.39232E-09
         0.41477E-09
         0.39037E-09
         0.30450E-09
         0.24810E-09
         0.32005E-09
         0.42648E-09
         0.46879E-09
         0.44970E-09
         0.40541E-09
         0.36809E-09
         0.29894E-09
         0.25151E-09
         0.32871E-09
         0.43523E-09
         0.44963E-09
         0.36333E-09
         0.29497E-09
         0.36157E-09
         0.42763E-09
         0.91182E-09
         0.72293E-09
         0.77627E-09
         0.13367E-08
         0.71629E-09
         0.91436E-09
         0.50982E-09
         0.61240E-09
         0.10130E-08
         0.74146E-09
         0.30043E-09
         0.56932E-09
         0.62666E-09
         0.50762E-09
         0.64825E-09
         0.12054E-08
         0.94253E-09
         0.11983E-08
         0.70317E-09
         0.80351E-09
         0.75834E-09
         0.84041E-09
         0.64491E-09
         0.40053E-09
         0.76028E-09
         0.63304E-09
         0.65790E-09
         0.67476E-09
         0.58731E-09
         0.71609E-09
         0.91012E-09
         0.64239E-09
         0.10195E-08
         0.88762E-09
         0.40074E-09
         0.61778E-09
         0.70133E-09
         0.74130E-09
         0.71579E-09
         0.56249E-09
         0.35351E-09
         0.58388E-09
         0.77324E-09
         0.62398E-09
         0.54853E-09
         0.35935E-09
         0.61324E-09
         0.83277E-09
         0.87396E-09
         0.70554E-09
         0.43375E-09
         0.74711E-09
         0.27592E-09
         0.35140E-09
         0.32793E-09
         0.38775E-09
         0.37867E-09
         0.36770E-09
         0.39249E-09
         0.41507E-09
         0.39061E-09
         0.30457E-09
         0.24812E-09
         0.32006E-09
         0.42654E-09
         0.46890E-09
         0.44975E-09
         0.40540E-09
         0.36807E-09
         0.29892E-09
         0.25148E-09
         0.32869E-09
         0.43522E-09
         0.44963E-09
         0.36325E-09
         0.29491E-09
         0.36162E-09
         0.42762E-09
         0.91187E-09
         0.72278E-09
         0.77633E-09
         0.13373E-08
         0.71640E-09
         0.91463E-09
         0.50955E-09
         0.61204E-09
         0.10134E-08
         0.74098E-09
         0.30015E-09
         0.56922E-09
         0.62662E-09
         0.50691E-09
         0.64811E-09
         0.12058E-08
         0.94296E-09
         0.11989E-08
         0.70320E-09
         0.80361E-09
         0.75831E-09
         0.84045E-09
         0.64485E-09
         0.40048E-09
         0.75995E-09
         0.63298E-09
         0.65690E-09
         0.67409E-09
         0.58706E-09
         0.71592E-09
         0.91020E-09
         0.64231E-09
         0.10200E-08
         0.88843E-09
         0.40074E-09
         0.61766E-09
         0.70124E-09
         0.74124E-09
         0.71584E-09
         0.56251E-09
         0.35351E-09
         0.58380E-09
         0.77320E-09
         0.62389E-09
         0.54840E-09
         0.35926E-09
         0.61318E-09
         0.83277E-09
         0.87409E-09
         0.70568E-09
         0.43376E-09
         0.74748E-09
         0.27584E-09
         0.35139E-09
         0.32777E-09
         0.38777E-09
         0.37876E-09
         0.36778E-09
         0.39266E-09
         0.41536E-09
         0.39084E-09
         0.30464E-09
         0.24814E-09
         0.32006E-09
         0.42659E-09
         0.46900E-09
         0.44980E-09
         0.40539E-09
         0.36805E-09
         0.29890E-09
         0.25144E-09
         0.32867E-09
         0.43521E-09
         0.44963E-09
         0.36318E-09
         0.29485E-09
         0.36166E-09
         0.42761E-09
         0.91192E-09
         0.72263E-09
         0.77640E-09
         0.13380E-08
         0.71652E-09
         0.91491E-09
         0.50928E-09
         0.61167E-09
         0.10137E-08
         0.74049E-09
         0.29986E-09
         0.56912E-09
         0.62657E-09
         0.50620E-09
         0.64797E-09
         0.12061E-08
         0.94339E-09
         0.11995E-08
         0.70322E-09
         0.80371E-09
         0.75827E-09
         0.84048E-09
         0.64478E-09
         0.40044E-09
         0.75962E-09
         0.63293E-09
         0.65591E-09
         0.67343E-09
         0.58681E-09
         0.71576E-09
         0.91029E-09
         0.64223E-09
         0.10205E-08
         0.88923E-09
         0.40073E-09
         0.61754E-09
         0.70114E-09
         0.74119E-09
         0.71588E-09
         0.56254E-09
         0.35351E-09
         0.58372E-09
         0.77316E-09
         0.62380E-09
         0.54827E-09
         0.35917E-09
         0.61313E-09
         0.83278E-09
         0.87422E-09
         0.70582E-09
         0.43377E-09
         0.74785E-09
         0.27575E-09
         0.35138E-09
         0.32761E-09
         0.38778E-09
         0.37885E-09
         0.36786E-09
         0.39283E-09
         0.41566E-09
         0.39107E-09
         0.30470E-09
         0.24816E-09
         0.32007E-09
         0.42665E-09
         0.46911E-09
         0.44985E-09
         0.40538E-09
         0.36802E-09
         0.29887E-09
         0.25140E-09
         0.32864E-09
         0.43520E-09
         0.44963E-09
         0.36310E-09
         0.29478E-09
         0.36170E-09
         0.42760E-09
         0.91198E-09
         0.72248E-09
         0.77646E-09
         0.13386E-08
         0.71663E-09
         0.91520E-09
         0.50901E-09
         0.61131E-09
         0.10141E-08
         0.74000E-09
         0.29957E-09
         0.56902E-09
         0.62653E-09
         0.50549E-09
         0.64784E-09
         0.12065E-08
         0.94382E-09
         0.12002E-08
         0.70325E-09
         0.80381E-09
         0.75824E-09
         0.84052E-09
         0.64472E-09
         0.40040E-09
         0.75929E-09
         0.63288E-09
         0.65492E-09
         0.67276E-09
         0.58657E-09
         0.71560E-09
         0.91038E-09
         0.64216E-09
         0.10211E-08
         0.89003E-09
         0.40073E-09
         0.61742E-09
         0.70105E-09
         0.74114E-09
         0.71593E-09
         0.56257E-09
         0.35351E-09
         0.58364E-09
         0.77313E-09
         0.62371E-09
         0.54814E-09
         0.35908E-09
         0.61308E-09
         0.83280E-09
         0.87436E-09
         0.70597E-09
         0.43378E-09
         0.74823E-09
         0.27567E-09
         0.35138E-09
         0.32745E-09
         0.38779E-09
         0.37893E-09
         0.36794E-09
         0.39300E-09
         0.41596E-09
         0.39130E-09
         0.30477E-09
         0.24818E-09
         0.32008E-09
         0.42671E-09
         0.46921E-09
         0.44991E-09
         0.40537E-09
         0.36800E-09
         0.29885E-09
         0.25136E-09
         0.32862E-09
         0.43520E-09
         0.44963E-09
         0.36303E-09
         0.29472E-09
         0.36175E-09
         0.42759E-09
         0.91203E-09
         0.72233E-09
         0.77653E-09
         0.13392E-08
         0.71675E-09
         0.91547E-09
         0.50875E-09
         0.61094E-09
         0.10144E-08
         0.73952E-09
         0.29928E-09
         0.56892E-09
         0.62649E-09
         0.50478E-09
         0.64770E-09
         0.12068E-08
         0.94424E-09
         0.12008E-08
         0.70327E-09
         0.80391E-09
         0.75821E-09
         0.84055E-09
         0.64465E-09
         0.40035E-09
         0.75896E-09
         0.63282E-09
         0.65393E-09
         0.67210E-09
         0.58632E-09
         0.71543E-09
         0.91047E-09
         0.64208E-09
         0.10216E-08
         0.89084E-09
         0.40073E-09
         0.61730E-09
         0.70096E-09
         0.74108E-09
         0.71598E-09
         0.56259E-09
         0.35351E-09
         0.58356E-09
         0.77309E-09
         0.62362E-09
         0.54801E-09
         0.35898E-09
         0.61303E-09
         0.83281E-09
         0.87449E-09
         0.70611E-09
         0.43379E-09
         0.74860E-09
         0.27558E-09
         0.35137E-09
         0.32729E-09
         0.38781E-09
         0.37902E-09
         0.36802E-09
         0.39317E-09
         0.41625E-09
         0.39153E-09
         0.30484E-09
         0.24820E-09
         0.32009E-09
         0.42677E-09
         0.46932E-09
         0.44996E-09
         0.40536E-09
         0.36798E-09
         0.29883E-09
         0.25132E-09
         0.32859E-09
         0.43519E-09
         0.44963E-09
         0.36296E-09
         0.29465E-09
         0.36179E-09
         0.42758E-09
         0.91208E-09
         0.72218E-09
         0.77659E-09
         0.13399E-08
         0.71686E-09
         0.91576E-09
         0.50848E-09
         0.61058E-09
         0.10148E-08
         0.73903E-09
         0.29900E-09
         0.56882E-09
         0.62645E-09
         0.50408E-09
         0.64757E-09
         0.12072E-08
         0.94467E-09
         0.12014E-08
         0.70330E-09
         0.80401E-09
         0.75818E-09
         0.84059E-09
         0.64459E-09
         0.40031E-09
         0.75864E-09
         0.63277E-09
         0.65294E-09
         0.67143E-09
         0.58607E-09
         0.71527E-09
         0.91057E-09
         0.64200E-09
         0.10221E-08
         0.89164E-09
         0.40072E-09
         0.61719E-09
         0.70087E-09
         0.74103E-09
         0.71603E-09
         0.56262E-09
         0.35352E-09
         0.58348E-09
         0.77305E-09
         0.62354E-09
         0.54788E-09
         0.35889E-09
         0.61298E-09
         0.83282E-09
         0.87463E-09
         0.70626E-09
         0.43380E-09
         0.74897E-09
         0.27550E-09
         0.35137E-09
         0.32713E-09
         0.38782E-09
         0.37911E-09
         0.36810E-09
         0.39334E-09
         0.41655E-09
         0.39176E-09
         0.30491E-09
         0.24822E-09
         0.32010E-09
         0.42682E-09
         0.46942E-09
         0.45001E-09
         0.40534E-09
         0.36796E-09
         0.29881E-09
         0.25128E-09
         0.32857E-09
         0.43518E-09
         0.44963E-09
         0.36288E-09
         0.29459E-09
         0.36184E-09
         0.42757E-09
         0.91214E-09
         0.72204E-09
         0.77666E-09
         0.13405E-08
         0.71698E-09
         0.91604E-09
         0.50822E-09
         0.61022E-09
         0.10151E-08
         0.73855E-09
         0.29871E-09
         0.56872E-09
         0.62641E-09
         0.50337E-09
         0.64743E-09
         0.12075E-08
         0.94510E-09
         0.12020E-08
         0.70333E-09
         0.80411E-09
         0.75815E-09
         0.84063E-09
         0.64453E-09
         0.40027E-09
         0.75831E-09
         0.63272E-09
         0.65196E-09
         0.67077E-09
         0.58582E-09
         0.71511E-09
         0.91066E-09
         0.64192E-09
         0.10227E-08
         0.89245E-09
         0.40072E-09
         0.61707E-09
         0.70078E-09
         0.74098E-09
         0.71608E-09
         0.56265E-09
         0.35352E-09
         0.58340E-09
         0.77301E-09
         0.62345E-09
         0.54775E-09
         0.35880E-09
         0.61293E-09
         0.83283E-09
         0.87476E-09
         0.70641E-09
         0.43382E-09
         0.74935E-09
         0.27541E-09
         0.35136E-09
         0.32697E-09
         0.38784E-09
         0.37920E-09
         0.36818E-09
         0.39352E-09
         0.41685E-09
         0.39199E-09
         0.30498E-09
         0.24824E-09
         0.32011E-09
         0.42688E-09
         0.46953E-09
         0.45007E-09
         0.40533E-09
         0.36793E-09
         0.29878E-09
         0.25124E-09
         0.32855E-09
         0.43517E-09
         0.44963E-09
         0.36281E-09
         0.29452E-09
         0.36188E-09
         0.42756E-09
         0.91219E-09
         0.72188E-09
         0.77672E-09
         0.13412E-08
         0.71709E-09
         0.91632E-09
         0.50795E-09
         0.60986E-09
         0.10155E-08
         0.73806E-09
         0.29842E-09
         0.56862E-09
         0.62636E-09
         0.50266E-09
         0.64730E-09
         0.12079E-08
         0.94552E-09
         0.12026E-08
         0.70335E-09
         0.80421E-09
         0.75811E-09
         0.84066E-09
         0.64446E-09
         0.40023E-09
         0.75798E-09
         0.63267E-09
         0.65096E-09
         0.67010E-09
         0.58557E-09
         0.71494E-09
         0.91074E-09
         0.64184E-09
         0.10232E-08
         0.89325E-09
         0.40072E-09
         0.61695E-09
         0.70069E-09
         0.74092E-09
         0.71612E-09
         0.56268E-09
         0.35352E-09
         0.58332E-09
         0.77297E-09
         0.62336E-09
         0.54762E-09
         0.35871E-09
         0.61287E-09
         0.83284E-09
         0.87489E-09
         0.70655E-09
         0.43383E-09
         0.74972E-09
         0.27533E-09
         0.35136E-09
         0.32681E-09
         0.38785E-09
         0.37929E-09
         0.36825E-09
         0.39369E-09
         0.41715E-09
         0.39222E-09
         0.30505E-09
         0.24826E-09
         0.32011E-09
         0.42694E-09
         0.46963E-09
         0.45011E-09
         0.40532E-09
         0.36791E-09
         0.29876E-09
         0.25120E-09
         0.32853E-09
         0.43516E-09
         0.44962E-09
         0.36274E-09
         0.29445E-09
         0.36192E-09
         0.42755E-09
         0.91224E-09
         0.72173E-09
         0.77679E-09
         0.13418E-08
         0.71720E-09
         0.91660E-09
         0.50768E-09
         0.60949E-09
         0.10158E-08
         0.73758E-09
         0.29814E-09
         0.56852E-09
         0.62632E-09
         0.50195E-09
         0.64716E-09
         0.12082E-08
         0.94595E-09
         0.12032E-08
         0.70337E-09
         0.80431E-09
         0.75808E-09
         0.84069E-09
         0.64440E-09
         0.40018E-09
         0.75766E-09
         0.63262E-09
         0.64998E-09
         0.66943E-09
         0.58532E-09
         0.71478E-09
         0.91083E-09
         0.64176E-09
         0.10238E-08
         0.89406E-09
         0.40071E-09
         0.61683E-09
         0.70059E-09
         0.74087E-09
         0.71617E-09
         0.56270E-09
         0.35352E-09
         0.58324E-09
         0.77294E-09
         0.62327E-09
         0.54749E-09
         0.35861E-09
         0.61282E-09
         0.83284E-09
         0.87503E-09
         0.70669E-09
         0.43384E-09
         0.75009E-09
         0.27524E-09
         0.35135E-09
         0.32665E-09
         0.38786E-09
         0.37937E-09
         0.36833E-09
         0.39386E-09
         0.41745E-09
         0.39245E-09
         0.30512E-09
         0.24828E-09
         0.32012E-09
         0.42699E-09
         0.46974E-09
         0.45017E-09
         0.40531E-09
         0.36788E-09
         0.29873E-09
         0.25117E-09
         0.32850E-09
         0.43515E-09
         0.44962E-09
         0.36266E-09
         0.29439E-09
         0.36197E-09
         0.42754E-09
         0.91230E-09
         0.72159E-09
         0.77686E-09
         0.13425E-08
         0.71732E-09
         0.91688E-09
         0.50742E-09
         0.60913E-09
         0.10162E-08
         0.73710E-09
         0.29785E-09
         0.56842E-09
         0.62628E-09
         0.50125E-09
         0.64703E-09
         0.12086E-08
         0.94638E-09
         0.12038E-08
         0.70340E-09
         0.80441E-09
         0.75805E-09
         0.84073E-09
         0.64433E-09
         0.40014E-09
         0.75733E-09
         0.63257E-09
         0.64899E-09
         0.66877E-09
         0.58508E-09
         0.71462E-09
         0.91093E-09
         0.64169E-09
         0.10243E-08
         0.89487E-09
         0.40071E-09
         0.61671E-09
         0.70051E-09
         0.74082E-09
         0.71622E-09
         0.56273E-09
         0.35352E-09
         0.58316E-09
         0.77290E-09
         0.62318E-09
         0.54737E-09
         0.35852E-09
         0.61277E-09
         0.83286E-09
         0.87517E-09
         0.70684E-09
         0.43385E-09
         0.75047E-09
         0.27516E-09
         0.35135E-09
         0.32649E-09
         0.38788E-09
         0.37946E-09
         0.36841E-09
         0.39403E-09
         0.41775E-09
         0.39268E-09
         0.30519E-09
         0.24830E-09
         0.32013E-09
         0.42705E-09
         0.46985E-09
         0.45022E-09
         0.40530E-09
         0.36786E-09
         0.29871E-09
         0.25113E-09
         0.32848E-09
         0.43515E-09
         0.44962E-09
         0.36259E-09
         0.29433E-09
         0.36201E-09
         0.42753E-09
         0.91235E-09
         0.72143E-09
         0.77692E-09
         0.13431E-08
         0.71743E-09
         0.91716E-09
         0.50715E-09
         0.60877E-09
         0.10165E-08
         0.73661E-09
         0.29757E-09
         0.56832E-09
         0.62624E-09
         0.50054E-09
         0.64689E-09
         0.12089E-08
         0.94680E-09
         0.12044E-08
         0.70342E-09
         0.80450E-09
         0.75802E-09
         0.84076E-09
         0.64427E-09
         0.40010E-09
         0.75700E-09
         0.63251E-09
         0.64800E-09
         0.66810E-09
         0.58482E-09
         0.71445E-09
         0.91101E-09
         0.64161E-09
         0.10248E-08
         0.89567E-09
         0.40071E-09
         0.61659E-09
         0.70041E-09
         0.74077E-09
         0.71627E-09
         0.56276E-09
         0.35352E-09
         0.58308E-09
         0.77286E-09
         0.62309E-09
         0.54723E-09
         0.35843E-09
         0.61272E-09
         0.83287E-09
         0.87530E-09
         0.70698E-09
         0.43386E-09
         0.75084E-09
         0.27507E-09
         0.35134E-09
         0.32633E-09
         0.38789E-09
         0.37955E-09
         0.36849E-09
         0.39420E-09
         0.41804E-09
         0.39291E-09
         0.30525E-09
         0.24832E-09
         0.32014E-09
         0.42711E-09
         0.46995E-09
         0.45027E-09
         0.40528E-09
         0.36784E-09
         0.29869E-09
         0.25109E-09
         0.32845E-09
         0.43514E-09
         0.44962E-09
         0.36252E-09
         0.29426E-09
         0.36206E-09
         0.42751E-09
         0.91240E-09
         0.72128E-09
         0.77698E-09
         0.13437E-08
         0.71755E-09
         0.91744E-09
         0.50688E-09
         0.60841E-09
         0.10169E-08
         0.73612E-09
         0.29728E-09
         0.56822E-09
         0.62619E-09
         0.49984E-09
         0.64676E-09
         0.12093E-08
         0.94723E-09
         0.12050E-08
         0.70345E-09
         0.80460E-09
         0.75798E-09
         0.84080E-09
         0.64420E-09
         0.40006E-09
         0.75667E-09
         0.63246E-09
         0.64701E-09
         0.66744E-09
         0.58457E-09
         0.71429E-09
         0.91110E-09
         0.64153E-09
         0.10254E-08
         0.89648E-09
         0.40070E-09
         0.61647E-09
         0.70032E-09
         0.74071E-09
         0.71632E-09
         0.56279E-09
         0.35353E-09
         0.58300E-09
         0.77282E-09
         0.62300E-09
         0.54710E-09
         0.35834E-09
         0.61266E-09
         0.83288E-09
         0.87543E-09
         0.70713E-09
         0.43387E-09
         0.75122E-09
         0.27499E-09
         0.35133E-09
         0.32617E-09
         0.38790E-09
         0.37964E-09
         0.36857E-09
         0.39437E-09
         0.41834E-09
         0.39314E-09
         0.30532E-09
         0.24834E-09
         0.32014E-09
         0.42716E-09
         0.47005E-09
         0.45032E-09
         0.40527E-09
         0.36781E-09
         0.29866E-09
         0.25105E-09
         0.32843E-09
         0.43513E-09
         0.44962E-09
         0.36244E-09
         0.29419E-09
         0.36210E-09
         0.42750E-09
         0.91246E-09
         0.72114E-09
         0.77705E-09
         0.13444E-08
         0.71767E-09
         0.91773E-09
         0.50662E-09
         0.60805E-09
         0.10173E-08
         0.73564E-09
         0.29700E-09
         0.56812E-09
         0.62616E-09
         0.49914E-09
         0.64663E-09
         0.12097E-08
         0.94766E-09
         0.12056E-08
         0.70348E-09
         0.80471E-09
         0.75796E-09
         0.84084E-09
         0.64414E-09
         0.40002E-09
         0.75635E-09
         0.63241E-09
         0.64603E-09
         0.66678E-09
         0.58433E-09
         0.71413E-09
         0.91120E-09
         0.64146E-09
         0.10259E-08
         0.89729E-09
         0.40070E-09
         0.61636E-09
         0.70023E-09
         0.74067E-09
         0.71637E-09
         0.56282E-09
         0.35353E-09
         0.58293E-09
         0.77279E-09
         0.62291E-09
         0.54698E-09
         0.35825E-09
         0.61261E-09
         0.83289E-09
         0.87557E-09
         0.70728E-09
         0.43389E-09
         0.75160E-09
         0.27491E-09
         0.35133E-09
         0.32601E-09
         0.38792E-09
         0.37972E-09
         0.36865E-09
         0.39454E-09
         0.41864E-09
         0.39337E-09
         0.30539E-09
         0.24836E-09
         0.32015E-09
         0.42722E-09
         0.47016E-09
         0.45038E-09
         0.40526E-09
         0.36779E-09
         0.29864E-09
         0.25101E-09
         0.32841E-09
         0.43512E-09
         0.44962E-09
         0.36237E-09
         0.29413E-09
         0.36215E-09
         0.42750E-09
         0.91249E-09
         0.72097E-09
         0.77710E-09
         0.13450E-08
         0.71777E-09
         0.91799E-09
         0.50634E-09
         0.60767E-09
         0.10176E-08
         0.73514E-09
         0.29670E-09
         0.56801E-09
         0.62610E-09
         0.49842E-09
         0.64648E-09
         0.12100E-08
         0.94806E-09
         0.12062E-08
         0.70349E-09
         0.80479E-09
         0.75791E-09
         0.84086E-09
         0.64406E-09
         0.39997E-09
         0.75600E-09
         0.63234E-09
         0.64503E-09
         0.66610E-09
         0.58407E-09
         0.71395E-09
         0.91127E-09
         0.64136E-09
         0.10264E-08
         0.89808E-09
         0.40069E-09
         0.61622E-09
         0.70012E-09
         0.74060E-09
         0.71641E-09
         0.56283E-09
         0.35352E-09
         0.58283E-09
         0.77273E-09
         0.62281E-09
         0.54684E-09
         0.35815E-09
         0.61255E-09
         0.83288E-09
         0.87569E-09
         0.70741E-09
         0.43389E-09
         0.75195E-09
         0.27482E-09
         0.35132E-09
         0.32584E-09
         0.38793E-09
         0.37980E-09
         0.36872E-09
         0.39470E-09
         0.41893E-09
         0.39360E-09
         0.30545E-09
         0.24837E-09
         0.32016E-09
         0.42727E-09
         0.47026E-09
         0.45042E-09
         0.40524E-09
         0.36776E-09
         0.29861E-09
         0.25097E-09
         0.32838E-09
         0.43510E-09
         0.44961E-09
         0.36229E-09
         0.29406E-09
         0.36218E-09
         0.42748E-09
         0.91256E-09
         0.72083E-09
         0.77718E-09
         0.13457E-08
         0.71789E-09
         0.91829E-09
         0.50608E-09
         0.60732E-09
         0.10180E-08
         0.73467E-09
         0.29642E-09
         0.56792E-09
         0.62607E-09
         0.49772E-09
         0.64636E-09
         0.12103E-08
         0.94850E-09
         0.12068E-08
         0.70352E-09
         0.80490E-09
         0.75789E-09
         0.84091E-09
         0.64401E-09
         0.39993E-09
         0.75569E-09
         0.63230E-09
         0.64405E-09
         0.66544E-09
         0.58382E-09
         0.71379E-09
         0.91137E-09
         0.64129E-09
         0.10270E-08
         0.89890E-09
         0.40069E-09
         0.61611E-09
         0.70004E-09
         0.74056E-09
         0.71646E-09
         0.56287E-09
         0.35353E-09
         0.58276E-09
         0.77271E-09
         0.62273E-09
         0.54672E-09
         0.35806E-09
         0.61251E-09
         0.83291E-09
         0.87583E-09
         0.70756E-09
         0.43391E-09
         0.75234E-09
         0.27474E-09
         0.35132E-09
         0.32569E-09
         0.38794E-09
         0.37990E-09
         0.36881E-09
         0.39488E-09
         0.41923E-09
         0.39383E-09
         0.30553E-09
         0.24840E-09
         0.32017E-09
         0.42734E-09
         0.47037E-09
         0.45048E-09
         0.40524E-09
         0.36774E-09
         0.29859E-09
         0.25093E-09
         0.32836E-09
         0.43510E-09
         0.44962E-09
         0.36222E-09
         0.29400E-09
         0.36223E-09
         0.42747E-09
         0.45631E-09
         0.36039E-09
         0.38862E-09
         0.67302E-09
         0.35899E-09
         0.45923E-09
         0.25298E-09
         0.30358E-09
         0.50909E-09
         0.36723E-09
         0.14815E-09
         0.28394E-09
         0.31303E-09
         0.24869E-09
         0.32316E-09
         0.60528E-09
         0.47437E-09
         0.60357E-09
         0.35178E-09
         0.40249E-09
         0.37895E-09
         0.42048E-09
         0.32200E-09
         0.19996E-09
         0.37777E-09
         0.31615E-09
         0.32179E-09
         0.33257E-09
         0.29186E-09
         0.35687E-09
         0.45572E-09
         0.32064E-09
         0.51365E-09
         0.44967E-09
         0.20035E-09
         0.30804E-09
         0.35001E-09
         0.37028E-09
         0.35826E-09
         0.28145E-09
         0.17677E-09
         0.29137E-09
         0.38636E-09
         0.31135E-09
         0.27333E-09
         0.17901E-09
         0.30625E-09
         0.41647E-09
         0.43797E-09
         0.35383E-09
         0.21697E-09
         0.37628E-09
         0.13735E-09
         0.17566E-09
         0.16281E-09
         0.19398E-09
         0.18998E-09
         0.18443E-09
         0.19749E-09
         0.20970E-09
         0.19698E-09
         0.15279E-09
         0.12421E-09
         0.16009E-09
         0.21369E-09
         0.23522E-09
         0.22526E-09
         0.20262E-09
         0.18387E-09
         0.14930E-09
         0.12546E-09
         0.16418E-09
         0.21756E-09
         0.22482E-09
         0.18110E-09
         0.14699E-09
         0.18113E-09
         0.21374E-09
  
SCALARS               pre_disp_force_x  double 1
LOOKUP_TABLE default
         0.00000E+00
         0.00000E+00
         0.00000E+00
         0.00000E+00
         0.00000E+00
         0.00000E+00
         0.00000E+00
         0.00000E+00
         0.00000E+00
         0.00000E+00
         0.00000E+00
         0.00000E+00
         0.00000E+00
         0.00000E+00
         0.00000E+00
         0.00000E+00
         0.00000E+00
         0.00000E+00
         0.00000E+00
         0.00000E+00
         0.00000E+00
         0.00000E+00
         0.00000E+00
         0.00000E+00
         0.00000E+00
         0.00000E+00
         0.00000E+00
         0.00000E+00
         0.00000E+00
         0.00000E+00
         0.00000E+00
         0.00000E+00
         0.00000E+00
         0.00000E+00
         0.00000E+00
         0.00000E+00
         0.00000E+00
         0.00000E+00
         0.00000E+00
         0.00000E+00
         0.00000E+00
         0.00000E+00
         0.00000E+00
         0.00000E+00
         0.00000E+00
         0.00000E+00
         0.00000E+00
         0.00000E+00
         0.00000E+00
         0.00000E+00
         0.00000E+00
         0.00000E+00
         0.00000E+00
         0.00000E+00
         0.00000E+00
         0.00000E+00
         0.00000E+00
         0.00000E+00
         0.00000E+00
         0.00000E+00
         0.00000E+00
         0.00000E+00
         0.00000E+00
         0.00000E+00
         0.00000E+00
         0.00000E+00
         0.00000E+00
         0.00000E+00
         0.00000E+00
         0.00000E+00
         0.00000E+00
         0.00000E+00
         0.00000E+00
         0.00000E+00
         0.00000E+00
         0.00000E+00
         0.00000E+00
         0.00000E+00
         0.00000E+00
         0.00000E+00
         0.00000E+00
         0.00000E+00
         0.00000E+00
         0.00000E+00
         0.00000E+00
         0.00000E+00
         0.00000E+00
         0.00000E+00
         0.00000E+00
         0.00000E+00
         0.00000E+00
         0.00000E+00
         0.00000E+00
         0.00000E+00
         0.00000E+00
         0.00000E+00
         0.00000E+00
         0.00000E+00
         0.00000E+00
         0.00000E+00
         0.00000E+00
         0.00000E+00
         0.00000E+00
         0.00000E+00
         0.00000E+00
         0.00000E+00
         0.00000E+00
         0.00000E+00
         0.00000E+00
         0.00000E+00
         0.00000E+00
         0.00000E+00
         0.00000E+00
         0.00000E+00
         0.00000E+00
         0.00000E+00
         0.00000E+00
         0.00000E+00
         0.00000E+00
         0.00000E+00
         0.00000E+00
         0.00000E+00
         0.00000E+00
         0.00000E+00
         0.00000E+00
         0.00000E+00
         0.00000E+00
         0.00000E+00
         0.00000E+00
         0.00000E+00
         0.00000E+00
         0.00000E+00
         0.00000E+00
         0.00000E+00
         0.00000E+00
         0.00000E+00
         0.00000E+00
         0.00000E+00
         0.00000E+00
         0.00000E+00
         0.00000E+00
         0.00000E+00
         0.00000E+00
         0.00000E+00
         0.00000E+00
         0.00000E+00
         0.00000E+00
         0.00000E+00
         0.00000E+00
         0.00000E+00
         0.00000E+00
         0.00000E+00
         0.00000E+00
         0.00000E+00
         0.00000E+00
         0.00000E+00
         0.00000E+00
         0.00000E+00
         0.00000E+00
         0.00000E+00
         0.00000E+00
         0.00000E+00
         0.00000E+00
         0.00000E+00
         0.00000E+00
         0.00000E+00
         0.00000E+00
         0.00000E+00
         0.00000E+00
         0.00000E+00
         0.00000E+00
         0.00000E+00
         0.00000E+00
         0.00000E+00
         0.00000E+00
         0.00000E+00
         0.00000E+00
         0.00000E+00
         0.00000E+00
         0.00000E+00
         0.00000E+00
         0.00000E+00
         0.00000E+00
         0.00000E+00
         0.00000E+00
         0.00000E+00
         0.00000E+00
         0.00000E+00
         0.00000E+00
         0.00000E+00
         0.00000E+00
         0.00000E+00
         0.00000E+00
         0.00000E+00
         0.00000E+00
         0.00000E+00
         0.00000E+00
         0.00000E+00
         0.00000E+00
         0.00000E+00
         0.00000E+00
         0.00000E+00
         0.00000E+00
         0.00000E+00
         0.00000E+00
         0.00000E+00
         0.00000E+00
         0.00000E+00
         0.00000E+00
         0.00000E+00
         0.00000E+00
         0.00000E+00
         0.00000E+00
         0.00000E+00
         0.00000E+00
         0.00000E+00
         0.00000E+00
         0.00000E+00
         0.00000E+00
         0.00000E+00
         0.00000E+00
         0.00000E+00
         0.00000E+00
         0.00000E+00
         0.00000E+00
         0.00000E+00
         0.00000E+00
         0.00000E+00
         0.00000E+00
         0.00000E+00
         0.00000E+00
         0.00000E+00
         0.00000E+00
         0.00000E+00
         0.00000E+00
         0.00000E+00
         0.00000E+00
         0.00000E+00
         0.00000E+00
         0.00000E+00
         0.00000E+00
         0.00000E+00
         0.00000E+00
         0.00000E+00
         0.00000E+00
         0.00000E+00
         0.00000E+00
         0.00000E+00
         0.00000E+00
         0.00000E+00
         0.00000E+00
         0.00000E+00
         0.00000E+00
         0.00000E+00
         0.00000E+00
         0.00000E+00
         0.00000E+00
         0.00000E+00
         0.00000E+00
         0.00000E+00
         0.00000E+00
         0.00000E+00
         0.00000E+00
         0.00000E+00
         0.00000E+00
         0.00000E+00
         0.00000E+00
         0.00000E+00
         0.00000E+00
         0.00000E+00
         0.00000E+00
         0.00000E+00
         0.00000E+00
         0.00000E+00
         0.00000E+00
         0.00000E+00
         0.00000E+00
         0.00000E+00
         0.00000E+00
         0.00000E+00
         0.00000E+00
         0.00000E+00
         0.00000E+00
         0.00000E+00
         0.00000E+00
         0.00000E+00
         0.00000E+00
         0.00000E+00
         0.00000E+00
         0.00000E+00
         0.00000E+00
         0.00000E+00
         0.00000E+00
         0.00000E+00
         0.00000E+00
         0.00000E+00
         0.00000E+00
         0.00000E+00
         0.00000E+00
         0.00000E+00
         0.00000E+00
         0.00000E+00
         0.00000E+00
         0.00000E+00
         0.00000E+00
         0.00000E+00
         0.00000E+00
         0.00000E+00
         0.00000E+00
         0.00000E+00
         0.00000E+00
         0.00000E+00
         0.00000E+00
         0.00000E+00
         0.00000E+00
         0.00000E+00
         0.00000E+00
         0.00000E+00
         0.00000E+00
         0.00000E+00
         0.00000E+00
         0.00000E+00
         0.00000E+00
         0.00000E+00
         0.00000E+00
         0.00000E+00
         0.00000E+00
         0.00000E+00
         0.00000E+00
         0.00000E+00
         0.00000E+00
         0.00000E+00
         0.00000E+00
         0.00000E+00
         0.00000E+00
         0.00000E+00
         0.00000E+00
         0.00000E+00
         0.00000E+00
         0.00000E+00
         0.00000E+00
         0.00000E+00
         0.00000E+00
         0.00000E+00
         0.00000E+00
         0.00000E+00
         0.00000E+00
         0.00000E+00
         0.00000E+00
         0.00000E+00
         0.00000E+00
         0.00000E+00
         0.00000E+00
         0.00000E+00
         0.00000E+00
         0.00000E+00
         0.00000E+00
         0.00000E+00
         0.00000E+00
         0.00000E+00
         0.00000E+00
         0.00000E+00
         0.00000E+00
         0.00000E+00
         0.00000E+00
         0.00000E+00
         0.00000E+00
         0.00000E+00
         0.00000E+00
         0.00000E+00
         0.00000E+00
         0.00000E+00
         0.00000E+00
         0.00000E+00
         0.00000E+00
         0.00000E+00
         0.00000E+00
         0.00000E+00
         0.00000E+00
         0.00000E+00
         0.00000E+00
         0.00000E+00
         0.00000E+00
         0.00000E+00
         0.00000E+00
         0.00000E+00
         0.00000E+00
         0.00000E+00
         0.00000E+00
         0.00000E+00
         0.00000E+00
         0.00000E+00
         0.00000E+00
         0.00000E+00
         0.00000E+00
         0.00000E+00
         0.00000E+00
         0.00000E+00
         0.00000E+00
         0.00000E+00
         0.00000E+00
         0.00000E+00
         0.00000E+00
         0.00000E+00
         0.00000E+00
         0.00000E+00
         0.00000E+00
         0.00000E+00
         0.00000E+00
         0.00000E+00
         0.00000E+00
         0.00000E+00
         0.00000E+00
         0.00000E+00
         0.00000E+00
         0.00000E+00
         0.00000E+00
         0.00000E+00
         0.00000E+00
         0.00000E+00
         0.00000E+00
         0.00000E+00
         0.00000E+00
         0.00000E+00
         0.00000E+00
         0.00000E+00
         0.00000E+00
         0.00000E+00
         0.00000E+00
         0.00000E+00
         0.00000E+00
         0.00000E+00
         0.00000E+00
         0.00000E+00
         0.00000E+00
         0.00000E+00
         0.00000E+00
         0.00000E+00
         0.00000E+00
         0.00000E+00
         0.00000E+00
         0.00000E+00
         0.00000E+00
         0.00000E+00
         0.00000E+00
         0.00000E+00
         0.00000E+00
         0.00000E+00
         0.00000E+00
         0.00000E+00
         0.00000E+00
         0.00000E+00
         0.00000E+00
         0.00000E+00
         0.00000E+00
         0.00000E+00
         0.00000E+00
         0.00000E+00
         0.00000E+00
         0.00000E+00
         0.00000E+00
         0.00000E+00
         0.00000E+00
         0.00000E+00
         0.00000E+00
         0.00000E+00
         0.00000E+00
         0.00000E+00
         0.00000E+00
         0.00000E+00
         0.00000E+00
         0.00000E+00
         0.00000E+00
         0.00000E+00
         0.00000E+00
         0.00000E+00
         0.00000E+00
         0.00000E+00
         0.00000E+00
         0.00000E+00
         0.00000E+00
         0.00000E+00
         0.00000E+00
         0.00000E+00
         0.00000E+00
         0.00000E+00
         0.00000E+00
         0.00000E+00
         0.00000E+00
         0.00000E+00
         0.00000E+00
         0.00000E+00
         0.00000E+00
         0.00000E+00
         0.00000E+00
         0.00000E+00
         0.00000E+00
         0.00000E+00
         0.00000E+00
         0.00000E+00
         0.00000E+00
         0.00000E+00
         0.00000E+00
         0.00000E+00
         0.00000E+00
         0.00000E+00
         0.00000E+00
         0.00000E+00
         0.00000E+00
         0.00000E+00
         0.00000E+00
         0.00000E+00
         0.00000E+00
         0.00000E+00
         0.00000E+00
         0.00000E+00
         0.00000E+00
         0.00000E+00
         0.00000E+00
         0.00000E+00
         0.00000E+00
         0.00000E+00
         0.00000E+00
         0.00000E+00
         0.00000E+00
         0.00000E+00
         0.00000E+00
         0.00000E+00
         0.00000E+00
         0.00000E+00
         0.00000E+00
         0.00000E+00
         0.00000E+00
         0.00000E+00
         0.00000E+00
         0.00000E+00
         0.00000E+00
         0.00000E+00
         0.00000E+00
         0.00000E+00
         0.00000E+00
         0.00000E+00
         0.00000E+00
         0.00000E+00
         0.00000E+00
         0.00000E+00
         0.00000E+00
         0.00000E+00
         0.00000E+00
         0.00000E+00
         0.00000E+00
         0.00000E+00
         0.00000E+00
         0.00000E+00
         0.00000E+00
         0.00000E+00
         0.00000E+00
         0.00000E+00
         0.00000E+00
         0.00000E+00
         0.00000E+00
         0.00000E+00
         0.00000E+00
         0.00000E+00
         0.00000E+00
         0.00000E+00
         0.00000E+00
         0.00000E+00
         0.00000E+00
         0.00000E+00
         0.00000E+00
         0.00000E+00
         0.00000E+00
         0.00000E+00
         0.00000E+00
         0.00000E+00
         0.00000E+00
         0.00000E+00
         0.00000E+00
         0.00000E+00
         0.00000E+00
         0.00000E+00
         0.00000E+00
         0.00000E+00
         0.00000E+00
         0.00000E+00
         0.00000E+00
         0.00000E+00
         0.00000E+00
         0.00000E+00
         0.00000E+00
         0.00000E+00
         0.00000E+00
         0.00000E+00
         0.00000E+00
         0.00000E+00
         0.00000E+00
         0.00000E+00
         0.00000E+00
         0.00000E+00
         0.00000E+00
         0.00000E+00
         0.00000E+00
         0.00000E+00
         0.00000E+00
         0.00000E+00
         0.00000E+00
         0.00000E+00
         0.00000E+00
         0.00000E+00
         0.00000E+00
         0.00000E+00
         0.00000E+00
         0.00000E+00
         0.00000E+00
         0.00000E+00
         0.00000E+00
         0.00000E+00
         0.00000E+00
         0.00000E+00
         0.00000E+00
         0.00000E+00
         0.00000E+00
         0.00000E+00
         0.00000E+00
         0.00000E+00
         0.00000E+00
         0.00000E+00
         0.00000E+00
         0.00000E+00
         0.00000E+00
         0.00000E+00
         0.00000E+00
         0.00000E+00
         0.00000E+00
         0.00000E+00
         0.00000E+00
         0.00000E+00
         0.00000E+00
         0.00000E+00
         0.00000E+00
         0.00000E+00
         0.00000E+00
         0.00000E+00
         0.00000E+00
         0.00000E+00
         0.00000E+00
         0.00000E+00
         0.00000E+00
         0.00000E+00
         0.00000E+00
         0.00000E+00
         0.00000E+00
         0.00000E+00
         0.00000E+00
         0.00000E+00
         0.00000E+00
         0.00000E+00
         0.00000E+00
         0.00000E+00
         0.00000E+00
         0.00000E+00
         0.00000E+00
         0.00000E+00
         0.00000E+00
         0.00000E+00
         0.00000E+00
         0.00000E+00
         0.00000E+00
         0.00000E+00
         0.00000E+00
         0.00000E+00
         0.00000E+00
         0.00000E+00
         0.00000E+00
         0.00000E+00
         0.00000E+00
         0.00000E+00
         0.00000E+00
         0.00000E+00
         0.00000E+00
         0.00000E+00
         0.00000E+00
         0.00000E+00
         0.00000E+00
         0.00000E+00
         0.00000E+00
         0.00000E+00
         0.00000E+00
         0.00000E+00
         0.00000E+00
         0.00000E+00
         0.00000E+00
         0.00000E+00
         0.00000E+00
         0.00000E+00
         0.00000E+00
         0.00000E+00
         0.00000E+00
         0.00000E+00
         0.00000E+00
         0.00000E+00
         0.00000E+00
         0.00000E+00
         0.00000E+00
         0.00000E+00
         0.00000E+00
         0.00000E+00
         0.00000E+00
         0.00000E+00
         0.00000E+00
         0.00000E+00
         0.00000E+00
         0.00000E+00
         0.00000E+00
         0.00000E+00
         0.00000E+00
         0.00000E+00
         0.00000E+00
         0.00000E+00
         0.00000E+00
         0.00000E+00
         0.00000E+00
         0.00000E+00
         0.00000E+00
         0.00000E+00
         0.00000E+00
         0.00000E+00
         0.00000E+00
         0.00000E+00
         0.00000E+00
         0.00000E+00
         0.00000E+00
         0.00000E+00
         0.00000E+00
         0.00000E+00
         0.00000E+00
         0.00000E+00
         0.00000E+00
         0.00000E+00
         0.00000E+00
         0.00000E+00
         0.00000E+00
         0.00000E+00
         0.00000E+00
         0.00000E+00
         0.00000E+00
         0.00000E+00
         0.00000E+00
         0.00000E+00
         0.00000E+00
         0.00000E+00
         0.00000E+00
         0.00000E+00
         0.00000E+00
         0.00000E+00
         0.00000E+00
         0.00000E+00
         0.00000E+00
         0.00000E+00
         0.00000E+00
         0.00000E+00
         0.00000E+00
         0.00000E+00
         0.00000E+00
         0.00000E+00
         0.00000E+00
         0.00000E+00
         0.00000E+00
         0.00000E+00
         0.00000E+00
         0.00000E+00
         0.00000E+00
         0.00000E+00
         0.00000E+00
         0.00000E+00
         0.00000E+00
         0.00000E+00
         0.00000E+00
         0.00000E+00
         0.00000E+00
         0.00000E+00
         0.00000E+00
         0.00000E+00
         0.00000E+00
         0.00000E+00
         0.00000E+00
         0.00000E+00
         0.00000E+00
         0.00000E+00
         0.00000E+00
         0.00000E+00
         0.00000E+00
         0.00000E+00
         0.00000E+00
         0.00000E+00
         0.00000E+00
         0.00000E+00
         0.00000E+00
         0.00000E+00
         0.00000E+00
         0.00000E+00
         0.00000E+00
         0.00000E+00
         0.00000E+00
         0.00000E+00
         0.00000E+00
         0.00000E+00
         0.00000E+00
         0.00000E+00
         0.00000E+00
         0.00000E+00
         0.00000E+00
         0.00000E+00
         0.00000E+00
         0.00000E+00
         0.00000E+00
         0.00000E+00
         0.00000E+00
         0.00000E+00
         0.00000E+00
         0.00000E+00
         0.00000E+00
         0.00000E+00
         0.00000E+00
         0.00000E+00
         0.00000E+00
         0.00000E+00
         0.00000E+00
         0.00000E+00
         0.00000E+00
         0.00000E+00
         0.00000E+00
         0.00000E+00
         0.00000E+00
         0.00000E+00
         0.00000E+00
         0.00000E+00
         0.00000E+00
         0.00000E+00
         0.00000E+00
         0.00000E+00
         0.00000E+00
         0.00000E+00
         0.00000E+00
         0.00000E+00
         0.00000E+00
         0.00000E+00
         0.00000E+00
         0.00000E+00
         0.00000E+00
         0.00000E+00
         0.00000E+00
         0.00000E+00
         0.00000E+00
         0.00000E+00
         0.00000E+00
         0.00000E+00
         0.00000E+00
         0.00000E+00
         0.00000E+00
         0.00000E+00
         0.00000E+00
         0.00000E+00
         0.00000E+00
         0.00000E+00
         0.00000E+00
         0.00000E+00
         0.00000E+00
         0.00000E+00
         0.00000E+00
         0.00000E+00
         0.00000E+00
         0.00000E+00
         0.00000E+00
         0.00000E+00
         0.00000E+00
         0.00000E+00
         0.00000E+00
         0.00000E+00
         0.00000E+00
         0.00000E+00
         0.00000E+00
         0.00000E+00
         0.00000E+00
         0.00000E+00
         0.00000E+00
         0.00000E+00
         0.00000E+00
         0.00000E+00
         0.00000E+00
         0.00000E+00
         0.00000E+00
         0.00000E+00
         0.00000E+00
         0.00000E+00
         0.00000E+00
         0.00000E+00
         0.00000E+00
         0.00000E+00
         0.00000E+00
         0.00000E+00
         0.00000E+00
         0.00000E+00
         0.00000E+00
         0.00000E+00
         0.00000E+00
         0.00000E+00
         0.00000E+00
         0.00000E+00
         0.00000E+00
         0.00000E+00
         0.00000E+00
         0.00000E+00
         0.00000E+00
         0.00000E+00
         0.00000E+00
         0.00000E+00
         0.00000E+00
         0.00000E+00
         0.00000E+00
         0.00000E+00
         0.00000E+00
         0.00000E+00
         0.00000E+00
         0.00000E+00
         0.00000E+00
         0.00000E+00
         0.00000E+00
         0.00000E+00
         0.00000E+00
         0.00000E+00
         0.00000E+00
         0.00000E+00
         0.00000E+00
         0.00000E+00
         0.00000E+00
         0.00000E+00
         0.00000E+00
         0.00000E+00
         0.00000E+00
         0.00000E+00
         0.00000E+00
         0.00000E+00
         0.00000E+00
         0.00000E+00
         0.00000E+00
         0.00000E+00
         0.00000E+00
         0.00000E+00
         0.00000E+00
         0.00000E+00
         0.00000E+00
         0.00000E+00
         0.00000E+00
         0.00000E+00
         0.00000E+00
         0.00000E+00
         0.00000E+00
         0.00000E+00
         0.00000E+00
         0.00000E+00
         0.00000E+00
         0.00000E+00
         0.00000E+00
         0.00000E+00
         0.00000E+00
         0.00000E+00
         0.00000E+00
         0.00000E+00
         0.00000E+00
         0.00000E+00
         0.00000E+00
         0.00000E+00
         0.00000E+00
         0.00000E+00
         0.00000E+00
         0.00000E+00
         0.00000E+00
         0.00000E+00
         0.00000E+00
         0.00000E+00
         0.00000E+00
         0.00000E+00
         0.00000E+00
         0.00000E+00
         0.00000E+00
         0.00000E+00
         0.00000E+00
         0.00000E+00
         0.00000E+00
         0.00000E+00
         0.00000E+00
         0.00000E+00
         0.00000E+00
         0.00000E+00
         0.00000E+00
         0.00000E+00
         0.00000E+00
         0.00000E+00
         0.00000E+00
         0.00000E+00
         0.00000E+00
         0.00000E+00
         0.00000E+00
         0.00000E+00
         0.00000E+00
         0.00000E+00
         0.00000E+00
         0.00000E+00
         0.00000E+00
         0.00000E+00
         0.00000E+00
         0.00000E+00
         0.00000E+00
         0.00000E+00
         0.00000E+00
         0.00000E+00
         0.00000E+00
         0.00000E+00
         0.00000E+00
         0.00000E+00
         0.00000E+00
         0.00000E+00
         0.00000E+00
         0.00000E+00
         0.00000E+00
         0.00000E+00
         0.00000E+00
         0.00000E+00
         0.00000E+00
         0.00000E+00
         0.00000E+00
         0.00000E+00
         0.00000E+00
         0.00000E+00
         0.00000E+00
         0.00000E+00
         0.00000E+00
         0.00000E+00
         0.00000E+00
         0.00000E+00
         0.00000E+00
         0.00000E+00
         0.00000E+00
         0.00000E+00
         0.00000E+00
         0.00000E+00
         0.00000E+00
         0.00000E+00
         0.00000E+00
         0.00000E+00
         0.00000E+00
         0.00000E+00
         0.00000E+00
         0.00000E+00
         0.00000E+00
         0.00000E+00
         0.00000E+00
         0.00000E+00
         0.00000E+00
         0.00000E+00
         0.00000E+00
         0.00000E+00
         0.00000E+00
         0.00000E+00
         0.00000E+00
         0.00000E+00
         0.00000E+00
         0.00000E+00
         0.00000E+00
         0.00000E+00
         0.00000E+00
         0.00000E+00
         0.00000E+00
         0.00000E+00
         0.00000E+00
         0.00000E+00
         0.00000E+00
         0.00000E+00
         0.00000E+00
         0.00000E+00
         0.00000E+00
         0.00000E+00
         0.00000E+00
         0.00000E+00
         0.00000E+00
         0.00000E+00
         0.00000E+00
         0.00000E+00
         0.00000E+00
         0.00000E+00
         0.00000E+00
         0.00000E+00
         0.00000E+00
         0.00000E+00
         0.00000E+00
         0.00000E+00
         0.00000E+00
         0.00000E+00
         0.00000E+00
         0.00000E+00
         0.00000E+00
         0.00000E+00
         0.00000E+00
         0.00000E+00
         0.00000E+00
         0.00000E+00
         0.00000E+00
         0.00000E+00
         0.00000E+00
         0.00000E+00
         0.00000E+00
         0.00000E+00
         0.00000E+00
         0.00000E+00
         0.00000E+00
         0.00000E+00
         0.00000E+00
         0.00000E+00
         0.00000E+00
         0.00000E+00
         0.00000E+00
         0.00000E+00
         0.00000E+00
         0.00000E+00
         0.00000E+00
         0.00000E+00
         0.00000E+00
         0.00000E+00
         0.00000E+00
         0.00000E+00
         0.00000E+00
         0.00000E+00
         0.00000E+00
         0.00000E+00
         0.00000E+00
         0.00000E+00
         0.00000E+00
         0.00000E+00
         0.00000E+00
         0.00000E+00
         0.00000E+00
         0.00000E+00
         0.00000E+00
         0.00000E+00
         0.00000E+00
         0.00000E+00
         0.00000E+00
         0.00000E+00
         0.00000E+00
         0.00000E+00
         0.00000E+00
         0.00000E+00
         0.00000E+00
         0.00000E+00
         0.00000E+00
         0.00000E+00
         0.00000E+00
         0.00000E+00
         0.00000E+00
         0.00000E+00
         0.00000E+00
         0.00000E+00
         0.00000E+00
         0.00000E+00
         0.00000E+00
         0.00000E+00
         0.00000E+00
         0.00000E+00
         0.00000E+00
         0.00000E+00
         0.00000E+00
         0.00000E+00
         0.00000E+00
         0.00000E+00
         0.00000E+00
         0.00000E+00
         0.00000E+00
         0.00000E+00
         0.00000E+00
         0.00000E+00
         0.00000E+00
         0.00000E+00
         0.00000E+00
         0.00000E+00
         0.00000E+00
         0.00000E+00
         0.00000E+00
         0.00000E+00
         0.00000E+00
         0.00000E+00
         0.00000E+00
         0.00000E+00
         0.00000E+00
         0.00000E+00
         0.00000E+00
         0.00000E+00
         0.00000E+00
         0.00000E+00
         0.00000E+00
         0.00000E+00
         0.00000E+00
         0.00000E+00
         0.00000E+00
         0.00000E+00
         0.00000E+00
         0.00000E+00
         0.00000E+00
         0.00000E+00
         0.00000E+00
         0.00000E+00
         0.00000E+00
         0.00000E+00
         0.00000E+00
         0.00000E+00
         0.00000E+00
         0.00000E+00
         0.00000E+00
         0.00000E+00
         0.00000E+00
         0.00000E+00
         0.00000E+00
         0.00000E+00
         0.00000E+00
         0.00000E+00
         0.00000E+00
         0.00000E+00
         0.00000E+00
         0.00000E+00
         0.00000E+00
         0.00000E+00
         0.00000E+00
         0.00000E+00
         0.00000E+00
         0.00000E+00
         0.00000E+00
         0.00000E+00
         0.00000E+00
         0.00000E+00
         0.00000E+00
         0.00000E+00
         0.00000E+00
         0.00000E+00
         0.00000E+00
         0.00000E+00
         0.00000E+00
         0.00000E+00
         0.00000E+00
         0.00000E+00
         0.00000E+00
         0.00000E+00
         0.00000E+00
         0.00000E+00
         0.00000E+00
         0.00000E+00
         0.00000E+00
         0.00000E+00
         0.00000E+00
         0.00000E+00
         0.00000E+00
         0.00000E+00
         0.00000E+00
         0.00000E+00
         0.00000E+00
         0.00000E+00
         0.00000E+00
         0.00000E+00
         0.00000E+00
         0.00000E+00
         0.00000E+00
         0.00000E+00
         0.00000E+00
         0.00000E+00
         0.00000E+00
         0.00000E+00
         0.00000E+00
         0.00000E+00
         0.00000E+00
         0.00000E+00
         0.00000E+00
         0.00000E+00
         0.00000E+00
         0.00000E+00
         0.00000E+00
         0.00000E+00
         0.00000E+00
         0.00000E+00
         0.00000E+00
         0.00000E+00
         0.00000E+00
         0.00000E+00
         0.00000E+00
         0.00000E+00
         0.00000E+00
         0.00000E+00
         0.00000E+00
         0.00000E+00
         0.00000E+00
         0.00000E+00
         0.00000E+00
         0.00000E+00
         0.00000E+00
         0.00000E+00
         0.00000E+00
         0.00000E+00
         0.00000E+00
         0.00000E+00
         0.00000E+00
         0.00000E+00
         0.00000E+00
         0.00000E+00
         0.00000E+00
         0.00000E+00
         0.00000E+00
         0.00000E+00
         0.00000E+00
         0.00000E+00
         0.00000E+00
         0.00000E+00
         0.00000E+00
         0.00000E+00
         0.00000E+00
         0.00000E+00
         0.00000E+00
         0.00000E+00
         0.00000E+00
         0.00000E+00
         0.00000E+00
         0.00000E+00
         0.00000E+00
         0.00000E+00
         0.00000E+00
         0.00000E+00
         0.00000E+00
         0.00000E+00
         0.00000E+00
         0.00000E+00
         0.00000E+00
         0.00000E+00
         0.00000E+00
         0.00000E+00
         0.00000E+00
         0.00000E+00
         0.00000E+00
         0.00000E+00
         0.00000E+00
         0.00000E+00
         0.00000E+00
         0.00000E+00
         0.00000E+00
         0.00000E+00
         0.00000E+00
         0.00000E+00
         0.00000E+00
         0.00000E+00
         0.00000E+00
         0.00000E+00
         0.00000E+00
         0.00000E+00
         0.00000E+00
         0.00000E+00
         0.00000E+00
         0.00000E+00
         0.00000E+00
         0.00000E+00
         0.00000E+00
         0.00000E+00
         0.00000E+00
         0.00000E+00
         0.00000E+00
         0.00000E+00
         0.00000E+00
         0.00000E+00
         0.00000E+00
         0.00000E+00
         0.00000E+00
         0.00000E+00
         0.00000E+00
         0.00000E+00
         0.00000E+00
         0.00000E+00
         0.00000E+00
         0.00000E+00
         0.00000E+00
         0.00000E+00
         0.00000E+00
         0.00000E+00
         0.00000E+00
         0.00000E+00
         0.00000E+00
         0.00000E+00
         0.00000E+00
         0.00000E+00
         0.00000E+00
         0.00000E+00
         0.00000E+00
         0.00000E+00
         0.00000E+00
         0.00000E+00
         0.00000E+00
         0.00000E+00
         0.00000E+00
         0.00000E+00
         0.00000E+00
         0.00000E+00
         0.00000E+00
         0.00000E+00
         0.00000E+00
         0.00000E+00
         0.00000E+00
         0.00000E+00
         0.00000E+00
         0.00000E+00
         0.00000E+00
         0.00000E+00
         0.00000E+00
         0.00000E+00
         0.00000E+00
         0.00000E+00
         0.00000E+00
         0.00000E+00
         0.00000E+00
         0.00000E+00
         0.00000E+00
         0.00000E+00
         0.00000E+00
         0.00000E+00
         0.00000E+00
         0.00000E+00
         0.00000E+00
         0.00000E+00
         0.00000E+00
         0.00000E+00
         0.00000E+00
         0.00000E+00
         0.00000E+00
         0.00000E+00
         0.00000E+00
         0.00000E+00
         0.00000E+00
         0.00000E+00
         0.00000E+00
         0.00000E+00
         0.00000E+00
         0.00000E+00
         0.00000E+00
         0.00000E+00
         0.00000E+00
         0.00000E+00
         0.00000E+00
         0.00000E+00
         0.00000E+00
         0.00000E+00
         0.00000E+00
         0.00000E+00
         0.00000E+00
         0.00000E+00
         0.00000E+00
         0.00000E+00
         0.00000E+00
         0.00000E+00
         0.00000E+00
         0.00000E+00
         0.00000E+00
         0.00000E+00
         0.00000E+00
         0.00000E+00
         0.00000E+00
         0.00000E+00
         0.00000E+00
         0.00000E+00
         0.00000E+00
         0.00000E+00
         0.00000E+00
         0.00000E+00
         0.00000E+00
         0.00000E+00
         0.00000E+00
         0.00000E+00
         0.00000E+00
         0.00000E+00
         0.00000E+00
         0.00000E+00
         0.00000E+00
         0.00000E+00
         0.00000E+00
         0.00000E+00
         0.00000E+00
         0.00000E+00
         0.00000E+00
         0.00000E+00
         0.00000E+00
         0.00000E+00
         0.00000E+00
         0.00000E+00
         0.00000E+00
         0.00000E+00
         0.00000E+00
         0.00000E+00
         0.00000E+00
         0.00000E+00
         0.00000E+00
         0.00000E+00
         0.00000E+00
         0.00000E+00
         0.00000E+00
         0.00000E+00
         0.00000E+00
         0.00000E+00
         0.00000E+00
         0.00000E+00
         0.00000E+00
         0.00000E+00
         0.00000E+00
         0.00000E+00
         0.00000E+00
         0.00000E+00
         0.00000E+00
         0.00000E+00
         0.00000E+00
         0.00000E+00
         0.00000E+00
         0.00000E+00
         0.00000E+00
         0.00000E+00
         0.00000E+00
         0.00000E+00
         0.00000E+00
         0.00000E+00
         0.00000E+00
         0.00000E+00
         0.00000E+00
         0.00000E+00
         0.00000E+00
         0.00000E+00
         0.00000E+00
         0.00000E+00
         0.00000E+00
         0.00000E+00
         0.00000E+00
         0.00000E+00
         0.00000E+00
         0.00000E+00
         0.00000E+00
         0.00000E+00
         0.00000E+00
         0.00000E+00
         0.00000E+00
         0.00000E+00
         0.00000E+00
         0.00000E+00
         0.00000E+00
         0.00000E+00
         0.00000E+00
         0.00000E+00
         0.00000E+00
         0.00000E+00
         0.00000E+00
         0.00000E+00
         0.00000E+00
         0.00000E+00
         0.00000E+00
         0.00000E+00
         0.00000E+00
         0.00000E+00
         0.00000E+00
         0.00000E+00
         0.00000E+00
         0.00000E+00
         0.00000E+00
         0.00000E+00
         0.00000E+00
         0.00000E+00
         0.00000E+00
         0.00000E+00
         0.00000E+00
         0.00000E+00
         0.00000E+00
         0.00000E+00
         0.00000E+00
         0.00000E+00
         0.00000E+00
         0.00000E+00
         0.00000E+00
         0.00000E+00
         0.00000E+00
         0.00000E+00
         0.00000E+00
         0.00000E+00
         0.00000E+00
         0.00000E+00
         0.00000E+00
         0.00000E+00
         0.00000E+00
         0.00000E+00
         0.00000E+00
         0.00000E+00
         0.00000E+00
         0.00000E+00
         0.00000E+00
         0.00000E+00
         0.00000E+00
         0.00000E+00
         0.00000E+00
         0.00000E+00
         0.00000E+00
         0.00000E+00
         0.00000E+00
         0.00000E+00
         0.00000E+00
         0.00000E+00
         0.00000E+00
         0.00000E+00
         0.00000E+00
         0.00000E+00
         0.00000E+00
         0.00000E+00
         0.00000E+00
         0.00000E+00
         0.00000E+00
         0.00000E+00
         0.00000E+00
         0.00000E+00
         0.00000E+00
         0.00000E+00
         0.00000E+00
         0.00000E+00
         0.00000E+00
         0.00000E+00
         0.00000E+00
         0.00000E+00
         0.00000E+00
         0.00000E+00
         0.00000E+00
         0.00000E+00
         0.00000E+00
         0.00000E+00
         0.00000E+00
         0.00000E+00
         0.00000E+00
         0.00000E+00
         0.00000E+00
         0.00000E+00
         0.00000E+00
         0.00000E+00
         0.00000E+00
         0.00000E+00
         0.00000E+00
         0.00000E+00
         0.00000E+00
         0.00000E+00
         0.00000E+00
         0.00000E+00
         0.00000E+00
         0.00000E+00
         0.00000E+00
         0.00000E+00
         0.00000E+00
         0.00000E+00
         0.00000E+00
         0.00000E+00
         0.00000E+00
         0.00000E+00
         0.00000E+00
         0.00000E+00
         0.00000E+00
         0.00000E+00
         0.00000E+00
         0.00000E+00
         0.00000E+00
         0.00000E+00
         0.00000E+00
         0.00000E+00
         0.00000E+00
         0.00000E+00
         0.00000E+00
         0.00000E+00
         0.00000E+00
         0.00000E+00
         0.00000E+00
         0.00000E+00
         0.00000E+00
         0.00000E+00
         0.00000E+00
         0.00000E+00
         0.00000E+00
         0.00000E+00
         0.00000E+00
         0.00000E+00
         0.00000E+00
         0.00000E+00
         0.00000E+00
         0.00000E+00
         0.00000E+00
         0.00000E+00
         0.00000E+00
         0.00000E+00
         0.00000E+00
         0.00000E+00
         0.00000E+00
         0.00000E+00
         0.00000E+00
         0.00000E+00
         0.00000E+00
         0.00000E+00
         0.00000E+00
         0.00000E+00
         0.00000E+00
         0.00000E+00
         0.00000E+00
         0.00000E+00
         0.00000E+00
         0.00000E+00
         0.00000E+00
         0.00000E+00
         0.00000E+00
         0.00000E+00
         0.00000E+00
         0.00000E+00
         0.00000E+00
         0.00000E+00
         0.00000E+00
         0.00000E+00
         0.00000E+00
         0.00000E+00
         0.00000E+00
         0.00000E+00
         0.00000E+00
         0.00000E+00
         0.00000E+00
         0.00000E+00
         0.00000E+00
         0.00000E+00
         0.00000E+00
         0.00000E+00
         0.00000E+00
         0.00000E+00
         0.00000E+00
         0.00000E+00
         0.00000E+00
         0.00000E+00
         0.00000E+00
         0.00000E+00
         0.00000E+00
         0.00000E+00
         0.00000E+00
         0.00000E+00
         0.00000E+00
         0.00000E+00
         0.00000E+00
         0.00000E+00
         0.00000E+00
         0.00000E+00
         0.00000E+00
         0.00000E+00
         0.00000E+00
         0.00000E+00
         0.00000E+00
         0.00000E+00
         0.00000E+00
         0.00000E+00
         0.00000E+00
         0.00000E+00
         0.00000E+00
         0.00000E+00
         0.00000E+00
         0.00000E+00
         0.00000E+00
         0.00000E+00
         0.00000E+00
         0.00000E+00
         0.00000E+00
         0.00000E+00
         0.00000E+00
         0.00000E+00
         0.00000E+00
         0.00000E+00
         0.00000E+00
         0.00000E+00
         0.00000E+00
         0.00000E+00
         0.00000E+00
         0.00000E+00
         0.00000E+00
         0.00000E+00
         0.00000E+00
         0.00000E+00
         0.00000E+00
         0.00000E+00
         0.00000E+00
         0.00000E+00
         0.00000E+00
         0.00000E+00
         0.00000E+00
         0.00000E+00
         0.00000E+00
         0.00000E+00
         0.00000E+00
         0.00000E+00
         0.00000E+00
         0.00000E+00
         0.00000E+00
         0.00000E+00
         0.00000E+00
         0.00000E+00
         0.00000E+00
         0.00000E+00
         0.00000E+00
         0.00000E+00
         0.00000E+00
         0.00000E+00
         0.00000E+00
         0.00000E+00
         0.00000E+00
         0.00000E+00
         0.00000E+00
         0.00000E+00
         0.00000E+00
         0.00000E+00
         0.00000E+00
         0.00000E+00
         0.00000E+00
         0.00000E+00
         0.00000E+00
         0.00000E+00
         0.00000E+00
         0.00000E+00
         0.00000E+00
         0.00000E+00
         0.00000E+00
         0.00000E+00
         0.00000E+00
         0.00000E+00
         0.00000E+00
         0.00000E+00
         0.00000E+00
         0.00000E+00
         0.00000E+00
         0.00000E+00
         0.00000E+00
         0.00000E+00
         0.00000E+00
         0.00000E+00
         0.00000E+00
         0.00000E+00
         0.00000E+00
         0.00000E+00
         0.00000E+00
         0.00000E+00
         0.00000E+00
         0.00000E+00
         0.00000E+00
         0.00000E+00
         0.00000E+00
         0.00000E+00
         0.00000E+00
         0.00000E+00
         0.00000E+00
         0.00000E+00
         0.00000E+00
         0.00000E+00
         0.00000E+00
         0.00000E+00
         0.00000E+00
         0.00000E+00
         0.00000E+00
         0.00000E+00
         0.00000E+00
         0.00000E+00
         0.00000E+00
         0.00000E+00
         0.00000E+00
         0.00000E+00
         0.00000E+00
         0.00000E+00
         0.00000E+00
         0.00000E+00
         0.00000E+00
         0.00000E+00
         0.00000E+00
         0.00000E+00
         0.00000E+00
         0.00000E+00
         0.00000E+00
         0.00000E+00
         0.00000E+00
         0.00000E+00
         0.00000E+00
         0.00000E+00
         0.00000E+00
         0.00000E+00
         0.00000E+00
         0.00000E+00
         0.00000E+00
         0.00000E+00
         0.00000E+00
         0.00000E+00
         0.00000E+00
         0.00000E+00
         0.00000E+00
         0.00000E+00
         0.00000E+00
         0.00000E+00
         0.00000E+00
         0.00000E+00
         0.00000E+00
         0.00000E+00
         0.00000E+00
         0.00000E+00
         0.00000E+00
         0.00000E+00
         0.00000E+00
         0.00000E+00
         0.00000E+00
         0.00000E+00
         0.00000E+00
         0.00000E+00
         0.00000E+00
         0.00000E+00
         0.00000E+00
         0.00000E+00
         0.00000E+00
         0.00000E+00
         0.00000E+00
         0.00000E+00
         0.00000E+00
         0.00000E+00
         0.00000E+00
         0.00000E+00
         0.00000E+00
         0.00000E+00
         0.00000E+00
         0.00000E+00
         0.00000E+00
         0.00000E+00
         0.00000E+00
         0.00000E+00
         0.00000E+00
         0.00000E+00
         0.00000E+00
         0.00000E+00
         0.00000E+00
         0.00000E+00
         0.00000E+00
         0.00000E+00
         0.00000E+00
         0.00000E+00
         0.00000E+00
         0.00000E+00
  
SCALARS               pre_disp_force_y  double 1
LOOKUP_TABLE default
         0.00000E+00
         0.00000E+00
         0.00000E+00
         0.00000E+00
         0.00000E+00
         0.00000E+00
         0.00000E+00
         0.00000E+00
         0.00000E+00
         0.00000E+00
         0.00000E+00
         0.00000E+00
         0.00000E+00
         0.00000E+00
         0.00000E+00
         0.00000E+00
         0.00000E+00
         0.00000E+00
         0.00000E+00
         0.00000E+00
         0.00000E+00
         0.00000E+00
         0.00000E+00
         0.00000E+00
         0.00000E+00
         0.00000E+00
         0.00000E+00
         0.00000E+00
         0.00000E+00
         0.00000E+00
         0.00000E+00
         0.00000E+00
         0.00000E+00
         0.00000E+00
         0.00000E+00
         0.00000E+00
         0.00000E+00
         0.00000E+00
         0.00000E+00
         0.00000E+00
         0.00000E+00
         0.00000E+00
         0.00000E+00
         0.00000E+00
         0.00000E+00
         0.00000E+00
         0.00000E+00
         0.00000E+00
         0.00000E+00
         0.00000E+00
         0.00000E+00
         0.00000E+00
         0.00000E+00
         0.00000E+00
         0.00000E+00
         0.00000E+00
         0.00000E+00
         0.00000E+00
         0.00000E+00
         0.00000E+00
         0.00000E+00
         0.00000E+00
         0.00000E+00
         0.00000E+00
         0.00000E+00
         0.00000E+00
         0.00000E+00
         0.00000E+00
         0.00000E+00
         0.00000E+00
         0.00000E+00
         0.00000E+00
         0.00000E+00
         0.00000E+00
         0.00000E+00
         0.00000E+00
         0.00000E+00
         0.00000E+00
         0.00000E+00
         0.00000E+00
         0.00000E+00
         0.00000E+00
         0.00000E+00
         0.00000E+00
         0.00000E+00
         0.00000E+00
         0.00000E+00
         0.00000E+00
         0.00000E+00
         0.00000E+00
         0.00000E+00
         0.00000E+00
         0.00000E+00
         0.00000E+00
         0.00000E+00
         0.00000E+00
         0.00000E+00
         0.00000E+00
         0.00000E+00
         0.00000E+00
         0.00000E+00
         0.00000E+00
         0.00000E+00
         0.00000E+00
         0.00000E+00
         0.00000E+00
         0.00000E+00
         0.00000E+00
         0.00000E+00
         0.00000E+00
         0.00000E+00
         0.00000E+00
         0.00000E+00
         0.00000E+00
         0.00000E+00
         0.00000E+00
         0.00000E+00
         0.00000E+00
         0.00000E+00
         0.00000E+00
         0.00000E+00
         0.00000E+00
         0.00000E+00
         0.00000E+00
         0.00000E+00
         0.00000E+00
         0.00000E+00
         0.00000E+00
         0.00000E+00
         0.00000E+00
         0.00000E+00
         0.00000E+00
         0.00000E+00
         0.00000E+00
         0.00000E+00
         0.00000E+00
         0.00000E+00
         0.00000E+00
         0.00000E+00
         0.00000E+00
         0.00000E+00
         0.00000E+00
         0.00000E+00
         0.00000E+00
         0.00000E+00
         0.00000E+00
         0.00000E+00
         0.00000E+00
         0.00000E+00
         0.00000E+00
         0.00000E+00
         0.00000E+00
         0.00000E+00
         0.00000E+00
         0.00000E+00
         0.00000E+00
         0.00000E+00
         0.00000E+00
         0.00000E+00
         0.00000E+00
         0.00000E+00
         0.00000E+00
         0.00000E+00
         0.00000E+00
         0.00000E+00
         0.00000E+00
         0.00000E+00
         0.00000E+00
         0.00000E+00
         0.00000E+00
         0.00000E+00
         0.00000E+00
         0.00000E+00
         0.00000E+00
         0.00000E+00
         0.00000E+00
         0.00000E+00
         0.00000E+00
         0.00000E+00
         0.00000E+00
         0.00000E+00
         0.00000E+00
         0.00000E+00
         0.00000E+00
         0.00000E+00
         0.00000E+00
         0.00000E+00
         0.00000E+00
         0.00000E+00
         0.00000E+00
         0.00000E+00
         0.00000E+00
         0.00000E+00
         0.00000E+00
         0.00000E+00
         0.00000E+00
         0.00000E+00
         0.00000E+00
         0.00000E+00
         0.00000E+00
         0.00000E+00
         0.00000E+00
         0.00000E+00
         0.00000E+00
         0.00000E+00
         0.00000E+00
         0.00000E+00
         0.00000E+00
         0.00000E+00
         0.00000E+00
         0.00000E+00
         0.00000E+00
         0.00000E+00
         0.00000E+00
         0.00000E+00
         0.00000E+00
         0.00000E+00
         0.00000E+00
         0.00000E+00
         0.00000E+00
         0.00000E+00
         0.00000E+00
         0.00000E+00
         0.00000E+00
         0.00000E+00
         0.00000E+00
         0.00000E+00
         0.00000E+00
         0.00000E+00
         0.00000E+00
         0.00000E+00
         0.00000E+00
         0.00000E+00
         0.00000E+00
         0.00000E+00
         0.00000E+00
         0.00000E+00
         0.00000E+00
         0.00000E+00
         0.00000E+00
         0.00000E+00
         0.00000E+00
         0.00000E+00
         0.00000E+00
         0.00000E+00
         0.00000E+00
         0.00000E+00
         0.00000E+00
         0.00000E+00
         0.00000E+00
         0.00000E+00
         0.00000E+00
         0.00000E+00
         0.00000E+00
         0.00000E+00
         0.00000E+00
         0.00000E+00
         0.00000E+00
         0.00000E+00
         0.00000E+00
         0.00000E+00
         0.00000E+00
         0.00000E+00
         0.00000E+00
         0.00000E+00
         0.00000E+00
         0.00000E+00
         0.00000E+00
         0.00000E+00
         0.00000E+00
         0.00000E+00
         0.00000E+00
         0.00000E+00
         0.00000E+00
         0.00000E+00
         0.00000E+00
         0.00000E+00
         0.00000E+00
         0.00000E+00
         0.00000E+00
         0.00000E+00
         0.00000E+00
         0.00000E+00
         0.00000E+00
         0.00000E+00
         0.00000E+00
         0.00000E+00
         0.00000E+00
         0.00000E+00
         0.00000E+00
         0.00000E+00
         0.00000E+00
         0.00000E+00
         0.00000E+00
         0.00000E+00
         0.00000E+00
         0.00000E+00
         0.00000E+00
         0.00000E+00
         0.00000E+00
         0.00000E+00
         0.00000E+00
         0.00000E+00
         0.00000E+00
         0.00000E+00
         0.00000E+00
         0.00000E+00
         0.00000E+00
         0.00000E+00
         0.00000E+00
         0.00000E+00
         0.00000E+00
         0.00000E+00
         0.00000E+00
         0.00000E+00
         0.00000E+00
         0.00000E+00
         0.00000E+00
         0.00000E+00
         0.00000E+00
         0.00000E+00
         0.00000E+00
         0.00000E+00
         0.00000E+00
         0.00000E+00
         0.00000E+00
         0.00000E+00
         0.00000E+00
         0.00000E+00
         0.00000E+00
         0.00000E+00
         0.00000E+00
         0.00000E+00
         0.00000E+00
         0.00000E+00
         0.00000E+00
         0.00000E+00
         0.00000E+00
         0.00000E+00
         0.00000E+00
         0.00000E+00
         0.00000E+00
         0.00000E+00
         0.00000E+00
         0.00000E+00
         0.00000E+00
         0.00000E+00
         0.00000E+00
         0.00000E+00
         0.00000E+00
         0.00000E+00
         0.00000E+00
         0.00000E+00
         0.00000E+00
         0.00000E+00
         0.00000E+00
         0.00000E+00
         0.00000E+00
         0.00000E+00
         0.00000E+00
         0.00000E+00
         0.00000E+00
         0.00000E+00
         0.00000E+00
         0.00000E+00
         0.00000E+00
         0.00000E+00
         0.00000E+00
         0.00000E+00
         0.00000E+00
         0.00000E+00
         0.00000E+00
         0.00000E+00
         0.00000E+00
         0.00000E+00
         0.00000E+00
         0.00000E+00
         0.00000E+00
         0.00000E+00
         0.00000E+00
         0.00000E+00
         0.00000E+00
         0.00000E+00
         0.00000E+00
         0.00000E+00
         0.00000E+00
         0.00000E+00
         0.00000E+00
         0.00000E+00
         0.00000E+00
         0.00000E+00
         0.00000E+00
         0.00000E+00
         0.00000E+00
         0.00000E+00
         0.00000E+00
         0.00000E+00
         0.00000E+00
         0.00000E+00
         0.00000E+00
         0.00000E+00
         0.00000E+00
         0.00000E+00
         0.00000E+00
         0.00000E+00
         0.00000E+00
         0.00000E+00
         0.00000E+00
         0.00000E+00
         0.00000E+00
         0.00000E+00
         0.00000E+00
         0.00000E+00
         0.00000E+00
         0.00000E+00
         0.00000E+00
         0.00000E+00
         0.00000E+00
         0.00000E+00
         0.00000E+00
         0.00000E+00
         0.00000E+00
         0.00000E+00
         0.00000E+00
         0.00000E+00
         0.00000E+00
         0.00000E+00
         0.00000E+00
         0.00000E+00
         0.00000E+00
         0.00000E+00
         0.00000E+00
         0.00000E+00
         0.00000E+00
         0.00000E+00
         0.00000E+00
         0.00000E+00
         0.00000E+00
         0.00000E+00
         0.00000E+00
         0.00000E+00
         0.00000E+00
         0.00000E+00
         0.00000E+00
         0.00000E+00
         0.00000E+00
         0.00000E+00
         0.00000E+00
         0.00000E+00
         0.00000E+00
         0.00000E+00
         0.00000E+00
         0.00000E+00
         0.00000E+00
         0.00000E+00
         0.00000E+00
         0.00000E+00
         0.00000E+00
         0.00000E+00
         0.00000E+00
         0.00000E+00
         0.00000E+00
         0.00000E+00
         0.00000E+00
         0.00000E+00
         0.00000E+00
         0.00000E+00
         0.00000E+00
         0.00000E+00
         0.00000E+00
         0.00000E+00
         0.00000E+00
         0.00000E+00
         0.00000E+00
         0.00000E+00
         0.00000E+00
         0.00000E+00
         0.00000E+00
         0.00000E+00
         0.00000E+00
         0.00000E+00
         0.00000E+00
         0.00000E+00
         0.00000E+00
         0.00000E+00
         0.00000E+00
         0.00000E+00
         0.00000E+00
         0.00000E+00
         0.00000E+00
         0.00000E+00
         0.00000E+00
         0.00000E+00
         0.00000E+00
         0.00000E+00
         0.00000E+00
         0.00000E+00
         0.00000E+00
         0.00000E+00
         0.00000E+00
         0.00000E+00
         0.00000E+00
         0.00000E+00
         0.00000E+00
         0.00000E+00
         0.00000E+00
         0.00000E+00
         0.00000E+00
         0.00000E+00
         0.00000E+00
         0.00000E+00
         0.00000E+00
         0.00000E+00
         0.00000E+00
         0.00000E+00
         0.00000E+00
         0.00000E+00
         0.00000E+00
         0.00000E+00
         0.00000E+00
         0.00000E+00
         0.00000E+00
         0.00000E+00
         0.00000E+00
         0.00000E+00
         0.00000E+00
         0.00000E+00
         0.00000E+00
         0.00000E+00
         0.00000E+00
         0.00000E+00
         0.00000E+00
         0.00000E+00
         0.00000E+00
         0.00000E+00
         0.00000E+00
         0.00000E+00
         0.00000E+00
         0.00000E+00
         0.00000E+00
         0.00000E+00
         0.00000E+00
         0.00000E+00
         0.00000E+00
         0.00000E+00
         0.00000E+00
         0.00000E+00
         0.00000E+00
         0.00000E+00
         0.00000E+00
         0.00000E+00
         0.00000E+00
         0.00000E+00
         0.00000E+00
         0.00000E+00
         0.00000E+00
         0.00000E+00
         0.00000E+00
         0.00000E+00
         0.00000E+00
         0.00000E+00
         0.00000E+00
         0.00000E+00
         0.00000E+00
         0.00000E+00
         0.00000E+00
         0.00000E+00
         0.00000E+00
         0.00000E+00
         0.00000E+00
         0.00000E+00
         0.00000E+00
         0.00000E+00
         0.00000E+00
         0.00000E+00
         0.00000E+00
         0.00000E+00
         0.00000E+00
         0.00000E+00
         0.00000E+00
         0.00000E+00
         0.00000E+00
         0.00000E+00
         0.00000E+00
         0.00000E+00
         0.00000E+00
         0.00000E+00
         0.00000E+00
         0.00000E+00
         0.00000E+00
         0.00000E+00
         0.00000E+00
         0.00000E+00
         0.00000E+00
         0.00000E+00
         0.00000E+00
         0.00000E+00
         0.00000E+00
         0.00000E+00
         0.00000E+00
         0.00000E+00
         0.00000E+00
         0.00000E+00
         0.00000E+00
         0.00000E+00
         0.00000E+00
         0.00000E+00
         0.00000E+00
         0.00000E+00
         0.00000E+00
         0.00000E+00
         0.00000E+00
         0.00000E+00
         0.00000E+00
         0.00000E+00
         0.00000E+00
         0.00000E+00
         0.00000E+00
         0.00000E+00
         0.00000E+00
         0.00000E+00
         0.00000E+00
         0.00000E+00
         0.00000E+00
         0.00000E+00
         0.00000E+00
         0.00000E+00
         0.00000E+00
         0.00000E+00
         0.00000E+00
         0.00000E+00
         0.00000E+00
         0.00000E+00
         0.00000E+00
         0.00000E+00
         0.00000E+00
         0.00000E+00
         0.00000E+00
         0.00000E+00
         0.00000E+00
         0.00000E+00
         0.00000E+00
         0.00000E+00
         0.00000E+00
         0.00000E+00
         0.00000E+00
         0.00000E+00
         0.00000E+00
         0.00000E+00
         0.00000E+00
         0.00000E+00
         0.00000E+00
         0.00000E+00
         0.00000E+00
         0.00000E+00
         0.00000E+00
         0.00000E+00
         0.00000E+00
         0.00000E+00
         0.00000E+00
         0.00000E+00
         0.00000E+00
         0.00000E+00
         0.00000E+00
         0.00000E+00
         0.00000E+00
         0.00000E+00
         0.00000E+00
         0.00000E+00
         0.00000E+00
         0.00000E+00
         0.00000E+00
         0.00000E+00
         0.00000E+00
         0.00000E+00
         0.00000E+00
         0.00000E+00
         0.00000E+00
         0.00000E+00
         0.00000E+00
         0.00000E+00
         0.00000E+00
         0.00000E+00
         0.00000E+00
         0.00000E+00
         0.00000E+00
         0.00000E+00
         0.00000E+00
         0.00000E+00
         0.00000E+00
         0.00000E+00
         0.00000E+00
         0.00000E+00
         0.00000E+00
         0.00000E+00
         0.00000E+00
         0.00000E+00
         0.00000E+00
         0.00000E+00
         0.00000E+00
         0.00000E+00
         0.00000E+00
         0.00000E+00
         0.00000E+00
         0.00000E+00
         0.00000E+00
         0.00000E+00
         0.00000E+00
         0.00000E+00
         0.00000E+00
         0.00000E+00
         0.00000E+00
         0.00000E+00
         0.00000E+00
         0.00000E+00
         0.00000E+00
         0.00000E+00
         0.00000E+00
         0.00000E+00
         0.00000E+00
         0.00000E+00
         0.00000E+00
         0.00000E+00
         0.00000E+00
         0.00000E+00
         0.00000E+00
         0.00000E+00
         0.00000E+00
         0.00000E+00
         0.00000E+00
         0.00000E+00
         0.00000E+00
         0.00000E+00
         0.00000E+00
         0.00000E+00
         0.00000E+00
         0.00000E+00
         0.00000E+00
         0.00000E+00
         0.00000E+00
         0.00000E+00
         0.00000E+00
         0.00000E+00
         0.00000E+00
         0.00000E+00
         0.00000E+00
         0.00000E+00
         0.00000E+00
         0.00000E+00
         0.00000E+00
         0.00000E+00
         0.00000E+00
         0.00000E+00
         0.00000E+00
         0.00000E+00
         0.00000E+00
         0.00000E+00
         0.00000E+00
         0.00000E+00
         0.00000E+00
         0.00000E+00
         0.00000E+00
         0.00000E+00
         0.00000E+00
         0.00000E+00
         0.00000E+00
         0.00000E+00
         0.00000E+00
         0.00000E+00
         0.00000E+00
         0.00000E+00
         0.00000E+00
         0.00000E+00
         0.00000E+00
         0.00000E+00
         0.00000E+00
         0.00000E+00
         0.00000E+00
         0.00000E+00
         0.00000E+00
         0.00000E+00
         0.00000E+00
         0.00000E+00
         0.00000E+00
         0.00000E+00
         0.00000E+00
         0.00000E+00
         0.00000E+00
         0.00000E+00
         0.00000E+00
         0.00000E+00
         0.00000E+00
         0.00000E+00
         0.00000E+00
         0.00000E+00
         0.00000E+00
         0.00000E+00
         0.00000E+00
         0.00000E+00
         0.00000E+00
         0.00000E+00
         0.00000E+00
         0.00000E+00
         0.00000E+00
         0.00000E+00
         0.00000E+00
         0.00000E+00
         0.00000E+00
         0.00000E+00
         0.00000E+00
         0.00000E+00
         0.00000E+00
         0.00000E+00
         0.00000E+00
         0.00000E+00
         0.00000E+00
         0.00000E+00
         0.00000E+00
         0.00000E+00
         0.00000E+00
         0.00000E+00
         0.00000E+00
         0.00000E+00
         0.00000E+00
         0.00000E+00
         0.00000E+00
         0.00000E+00
         0.00000E+00
         0.00000E+00
         0.00000E+00
         0.00000E+00
         0.00000E+00
         0.00000E+00
         0.00000E+00
         0.00000E+00
         0.00000E+00
         0.00000E+00
         0.00000E+00
         0.00000E+00
         0.00000E+00
         0.00000E+00
         0.00000E+00
         0.00000E+00
         0.00000E+00
         0.00000E+00
         0.00000E+00
         0.00000E+00
         0.00000E+00
         0.00000E+00
         0.00000E+00
         0.00000E+00
         0.00000E+00
         0.00000E+00
         0.00000E+00
         0.00000E+00
         0.00000E+00
         0.00000E+00
         0.00000E+00
         0.00000E+00
         0.00000E+00
         0.00000E+00
         0.00000E+00
         0.00000E+00
         0.00000E+00
         0.00000E+00
         0.00000E+00
         0.00000E+00
         0.00000E+00
         0.00000E+00
         0.00000E+00
         0.00000E+00
         0.00000E+00
         0.00000E+00
         0.00000E+00
         0.00000E+00
         0.00000E+00
         0.00000E+00
         0.00000E+00
         0.00000E+00
         0.00000E+00
         0.00000E+00
         0.00000E+00
         0.00000E+00
         0.00000E+00
         0.00000E+00
         0.00000E+00
         0.00000E+00
         0.00000E+00
         0.00000E+00
         0.00000E+00
         0.00000E+00
         0.00000E+00
         0.00000E+00
         0.00000E+00
         0.00000E+00
         0.00000E+00
         0.00000E+00
         0.00000E+00
         0.00000E+00
         0.00000E+00
         0.00000E+00
         0.00000E+00
         0.00000E+00
         0.00000E+00
         0.00000E+00
         0.00000E+00
         0.00000E+00
         0.00000E+00
         0.00000E+00
         0.00000E+00
         0.00000E+00
         0.00000E+00
         0.00000E+00
         0.00000E+00
         0.00000E+00
         0.00000E+00
         0.00000E+00
         0.00000E+00
         0.00000E+00
         0.00000E+00
         0.00000E+00
         0.00000E+00
         0.00000E+00
         0.00000E+00
         0.00000E+00
         0.00000E+00
         0.00000E+00
         0.00000E+00
         0.00000E+00
         0.00000E+00
         0.00000E+00
         0.00000E+00
         0.00000E+00
         0.00000E+00
         0.00000E+00
         0.00000E+00
         0.00000E+00
         0.00000E+00
         0.00000E+00
         0.00000E+00
         0.00000E+00
         0.00000E+00
         0.00000E+00
         0.00000E+00
         0.00000E+00
         0.00000E+00
         0.00000E+00
         0.00000E+00
         0.00000E+00
         0.00000E+00
         0.00000E+00
         0.00000E+00
         0.00000E+00
         0.00000E+00
         0.00000E+00
         0.00000E+00
         0.00000E+00
         0.00000E+00
         0.00000E+00
         0.00000E+00
         0.00000E+00
         0.00000E+00
         0.00000E+00
         0.00000E+00
         0.00000E+00
         0.00000E+00
         0.00000E+00
         0.00000E+00
         0.00000E+00
         0.00000E+00
         0.00000E+00
         0.00000E+00
         0.00000E+00
         0.00000E+00
         0.00000E+00
         0.00000E+00
         0.00000E+00
         0.00000E+00
         0.00000E+00
         0.00000E+00
         0.00000E+00
         0.00000E+00
         0.00000E+00
         0.00000E+00
         0.00000E+00
         0.00000E+00
         0.00000E+00
         0.00000E+00
         0.00000E+00
         0.00000E+00
         0.00000E+00
         0.00000E+00
         0.00000E+00
         0.00000E+00
         0.00000E+00
         0.00000E+00
         0.00000E+00
         0.00000E+00
         0.00000E+00
         0.00000E+00
         0.00000E+00
         0.00000E+00
         0.00000E+00
         0.00000E+00
         0.00000E+00
         0.00000E+00
         0.00000E+00
         0.00000E+00
         0.00000E+00
         0.00000E+00
         0.00000E+00
         0.00000E+00
         0.00000E+00
         0.00000E+00
         0.00000E+00
         0.00000E+00
         0.00000E+00
         0.00000E+00
         0.00000E+00
         0.00000E+00
         0.00000E+00
         0.00000E+00
         0.00000E+00
         0.00000E+00
         0.00000E+00
         0.00000E+00
         0.00000E+00
         0.00000E+00
         0.00000E+00
         0.00000E+00
         0.00000E+00
         0.00000E+00
         0.00000E+00
         0.00000E+00
         0.00000E+00
         0.00000E+00
         0.00000E+00
         0.00000E+00
         0.00000E+00
         0.00000E+00
         0.00000E+00
         0.00000E+00
         0.00000E+00
         0.00000E+00
         0.00000E+00
         0.00000E+00
         0.00000E+00
         0.00000E+00
         0.00000E+00
         0.00000E+00
         0.00000E+00
         0.00000E+00
         0.00000E+00
         0.00000E+00
         0.00000E+00
         0.00000E+00
         0.00000E+00
         0.00000E+00
         0.00000E+00
         0.00000E+00
         0.00000E+00
         0.00000E+00
         0.00000E+00
         0.00000E+00
         0.00000E+00
         0.00000E+00
         0.00000E+00
         0.00000E+00
         0.00000E+00
         0.00000E+00
         0.00000E+00
         0.00000E+00
         0.00000E+00
         0.00000E+00
         0.00000E+00
         0.00000E+00
         0.00000E+00
         0.00000E+00
         0.00000E+00
         0.00000E+00
         0.00000E+00
         0.00000E+00
         0.00000E+00
         0.00000E+00
         0.00000E+00
         0.00000E+00
         0.00000E+00
         0.00000E+00
         0.00000E+00
         0.00000E+00
         0.00000E+00
         0.00000E+00
         0.00000E+00
         0.00000E+00
         0.00000E+00
         0.00000E+00
         0.00000E+00
         0.00000E+00
         0.00000E+00
         0.00000E+00
         0.00000E+00
         0.00000E+00
         0.00000E+00
         0.00000E+00
         0.00000E+00
         0.00000E+00
         0.00000E+00
         0.00000E+00
         0.00000E+00
         0.00000E+00
         0.00000E+00
         0.00000E+00
         0.00000E+00
         0.00000E+00
         0.00000E+00
         0.00000E+00
         0.00000E+00
         0.00000E+00
         0.00000E+00
         0.00000E+00
         0.00000E+00
         0.00000E+00
         0.00000E+00
         0.00000E+00
         0.00000E+00
         0.00000E+00
         0.00000E+00
         0.00000E+00
         0.00000E+00
         0.00000E+00
         0.00000E+00
         0.00000E+00
         0.00000E+00
         0.00000E+00
         0.00000E+00
         0.00000E+00
         0.00000E+00
         0.00000E+00
         0.00000E+00
         0.00000E+00
         0.00000E+00
         0.00000E+00
         0.00000E+00
         0.00000E+00
         0.00000E+00
         0.00000E+00
         0.00000E+00
         0.00000E+00
         0.00000E+00
         0.00000E+00
         0.00000E+00
         0.00000E+00
         0.00000E+00
         0.00000E+00
         0.00000E+00
         0.00000E+00
         0.00000E+00
         0.00000E+00
         0.00000E+00
         0.00000E+00
         0.00000E+00
         0.00000E+00
         0.00000E+00
         0.00000E+00
         0.00000E+00
         0.00000E+00
         0.00000E+00
         0.00000E+00
         0.00000E+00
         0.00000E+00
         0.00000E+00
         0.00000E+00
         0.00000E+00
         0.00000E+00
         0.00000E+00
         0.00000E+00
         0.00000E+00
         0.00000E+00
         0.00000E+00
         0.00000E+00
         0.00000E+00
         0.00000E+00
         0.00000E+00
         0.00000E+00
         0.00000E+00
         0.00000E+00
         0.00000E+00
         0.00000E+00
         0.00000E+00
         0.00000E+00
         0.00000E+00
         0.00000E+00
         0.00000E+00
         0.00000E+00
         0.00000E+00
         0.00000E+00
         0.00000E+00
         0.00000E+00
         0.00000E+00
         0.00000E+00
         0.00000E+00
         0.00000E+00
         0.00000E+00
         0.00000E+00
         0.00000E+00
         0.00000E+00
         0.00000E+00
         0.00000E+00
         0.00000E+00
         0.00000E+00
         0.00000E+00
         0.00000E+00
         0.00000E+00
         0.00000E+00
         0.00000E+00
         0.00000E+00
         0.00000E+00
         0.00000E+00
         0.00000E+00
         0.00000E+00
         0.00000E+00
         0.00000E+00
         0.00000E+00
         0.00000E+00
         0.00000E+00
         0.00000E+00
         0.00000E+00
         0.00000E+00
         0.00000E+00
         0.00000E+00
         0.00000E+00
         0.00000E+00
         0.00000E+00
         0.00000E+00
         0.00000E+00
         0.00000E+00
         0.00000E+00
         0.00000E+00
         0.00000E+00
         0.00000E+00
         0.00000E+00
         0.00000E+00
         0.00000E+00
         0.00000E+00
         0.00000E+00
         0.00000E+00
         0.00000E+00
         0.00000E+00
         0.00000E+00
         0.00000E+00
         0.00000E+00
         0.00000E+00
         0.00000E+00
         0.00000E+00
         0.00000E+00
         0.00000E+00
         0.00000E+00
         0.00000E+00
         0.00000E+00
         0.00000E+00
         0.00000E+00
         0.00000E+00
         0.00000E+00
         0.00000E+00
         0.00000E+00
         0.00000E+00
         0.00000E+00
         0.00000E+00
         0.00000E+00
         0.00000E+00
         0.00000E+00
         0.00000E+00
         0.00000E+00
         0.00000E+00
         0.00000E+00
         0.00000E+00
         0.00000E+00
         0.00000E+00
         0.00000E+00
         0.00000E+00
         0.00000E+00
         0.00000E+00
         0.00000E+00
         0.00000E+00
         0.00000E+00
         0.00000E+00
         0.00000E+00
         0.00000E+00
         0.00000E+00
         0.00000E+00
         0.00000E+00
         0.00000E+00
         0.00000E+00
         0.00000E+00
         0.00000E+00
         0.00000E+00
         0.00000E+00
         0.00000E+00
         0.00000E+00
         0.00000E+00
         0.00000E+00
         0.00000E+00
         0.00000E+00
         0.00000E+00
         0.00000E+00
         0.00000E+00
         0.00000E+00
         0.00000E+00
         0.00000E+00
         0.00000E+00
         0.00000E+00
         0.00000E+00
         0.00000E+00
         0.00000E+00
         0.00000E+00
         0.00000E+00
         0.00000E+00
         0.00000E+00
         0.00000E+00
         0.00000E+00
         0.00000E+00
         0.00000E+00
         0.00000E+00
         0.00000E+00
         0.00000E+00
         0.00000E+00
         0.00000E+00
         0.00000E+00
         0.00000E+00
         0.00000E+00
         0.00000E+00
         0.00000E+00
         0.00000E+00
         0.00000E+00
         0.00000E+00
         0.00000E+00
         0.00000E+00
         0.00000E+00
         0.00000E+00
         0.00000E+00
         0.00000E+00
         0.00000E+00
         0.00000E+00
         0.00000E+00
         0.00000E+00
         0.00000E+00
         0.00000E+00
         0.00000E+00
         0.00000E+00
         0.00000E+00
         0.00000E+00
         0.00000E+00
         0.00000E+00
         0.00000E+00
         0.00000E+00
         0.00000E+00
         0.00000E+00
         0.00000E+00
         0.00000E+00
         0.00000E+00
         0.00000E+00
         0.00000E+00
         0.00000E+00
         0.00000E+00
         0.00000E+00
         0.00000E+00
         0.00000E+00
         0.00000E+00
         0.00000E+00
         0.00000E+00
         0.00000E+00
         0.00000E+00
         0.00000E+00
         0.00000E+00
         0.00000E+00
         0.00000E+00
         0.00000E+00
         0.00000E+00
         0.00000E+00
         0.00000E+00
         0.00000E+00
         0.00000E+00
         0.00000E+00
         0.00000E+00
         0.00000E+00
         0.00000E+00
         0.00000E+00
         0.00000E+00
         0.00000E+00
         0.00000E+00
         0.00000E+00
         0.00000E+00
         0.00000E+00
         0.00000E+00
         0.00000E+00
         0.00000E+00
         0.00000E+00
         0.00000E+00
         0.00000E+00
         0.00000E+00
         0.00000E+00
         0.00000E+00
         0.00000E+00
         0.00000E+00
         0.00000E+00
         0.00000E+00
         0.00000E+00
         0.00000E+00
         0.00000E+00
         0.00000E+00
         0.00000E+00
         0.00000E+00
         0.00000E+00
         0.00000E+00
         0.00000E+00
         0.00000E+00
         0.00000E+00
         0.00000E+00
         0.00000E+00
         0.00000E+00
         0.00000E+00
         0.00000E+00
         0.00000E+00
         0.00000E+00
         0.00000E+00
         0.00000E+00
         0.00000E+00
         0.00000E+00
         0.00000E+00
         0.00000E+00
         0.00000E+00
         0.00000E+00
         0.00000E+00
         0.00000E+00
         0.00000E+00
         0.00000E+00
         0.00000E+00
         0.00000E+00
         0.00000E+00
         0.00000E+00
         0.00000E+00
         0.00000E+00
         0.00000E+00
         0.00000E+00
         0.00000E+00
         0.00000E+00
         0.00000E+00
         0.00000E+00
         0.00000E+00
         0.00000E+00
         0.00000E+00
         0.00000E+00
         0.00000E+00
         0.00000E+00
         0.00000E+00
         0.00000E+00
         0.00000E+00
         0.00000E+00
         0.00000E+00
         0.00000E+00
         0.00000E+00
         0.00000E+00
         0.00000E+00
         0.00000E+00
         0.00000E+00
         0.00000E+00
         0.00000E+00
         0.00000E+00
         0.00000E+00
         0.00000E+00
         0.00000E+00
         0.00000E+00
         0.00000E+00
         0.00000E+00
         0.00000E+00
         0.00000E+00
         0.00000E+00
         0.00000E+00
         0.00000E+00
         0.00000E+00
         0.00000E+00
         0.00000E+00
         0.00000E+00
         0.00000E+00
         0.00000E+00
         0.00000E+00
         0.00000E+00
         0.00000E+00
         0.00000E+00
         0.00000E+00
         0.00000E+00
         0.00000E+00
         0.00000E+00
         0.00000E+00
         0.00000E+00
         0.00000E+00
         0.00000E+00
         0.00000E+00
         0.00000E+00
         0.00000E+00
         0.00000E+00
         0.00000E+00
         0.00000E+00
         0.00000E+00
         0.00000E+00
         0.00000E+00
         0.00000E+00
         0.00000E+00
         0.00000E+00
         0.00000E+00
         0.00000E+00
         0.00000E+00
         0.00000E+00
         0.00000E+00
         0.00000E+00
         0.00000E+00
         0.00000E+00
         0.00000E+00
         0.00000E+00
         0.00000E+00
         0.00000E+00
         0.00000E+00
         0.00000E+00
         0.00000E+00
         0.00000E+00
         0.00000E+00
         0.00000E+00
         0.00000E+00
         0.00000E+00
         0.00000E+00
         0.00000E+00
         0.00000E+00
         0.00000E+00
         0.00000E+00
         0.00000E+00
         0.00000E+00
         0.00000E+00
         0.00000E+00
         0.00000E+00
         0.00000E+00
         0.00000E+00
         0.00000E+00
         0.00000E+00
         0.00000E+00
         0.00000E+00
         0.00000E+00
         0.00000E+00
         0.00000E+00
         0.00000E+00
         0.00000E+00
         0.00000E+00
         0.00000E+00
         0.00000E+00
         0.00000E+00
         0.00000E+00
         0.00000E+00
         0.00000E+00
         0.00000E+00
         0.00000E+00
         0.00000E+00
         0.00000E+00
         0.00000E+00
         0.00000E+00
         0.00000E+00
         0.00000E+00
         0.00000E+00
         0.00000E+00
         0.00000E+00
         0.00000E+00
         0.00000E+00
         0.00000E+00
         0.00000E+00
         0.00000E+00
         0.00000E+00
         0.00000E+00
         0.00000E+00
         0.00000E+00
         0.00000E+00
         0.00000E+00
         0.00000E+00
         0.00000E+00
         0.00000E+00
         0.00000E+00
         0.00000E+00
         0.00000E+00
         0.00000E+00
         0.00000E+00
         0.00000E+00
         0.00000E+00
         0.00000E+00
         0.00000E+00
         0.00000E+00
         0.00000E+00
         0.00000E+00
         0.00000E+00
         0.00000E+00
         0.00000E+00
         0.00000E+00
         0.00000E+00
         0.00000E+00
         0.00000E+00
         0.00000E+00
         0.00000E+00
         0.00000E+00
         0.00000E+00
         0.00000E+00
         0.00000E+00
         0.00000E+00
         0.00000E+00
         0.00000E+00
         0.00000E+00
         0.00000E+00
         0.00000E+00
         0.00000E+00
         0.00000E+00
         0.00000E+00
         0.00000E+00
         0.00000E+00
         0.00000E+00
         0.00000E+00
         0.00000E+00
         0.00000E+00
         0.00000E+00
         0.00000E+00
         0.00000E+00
         0.00000E+00
         0.00000E+00
         0.00000E+00
         0.00000E+00
         0.00000E+00
         0.00000E+00
         0.00000E+00
         0.00000E+00
         0.00000E+00
         0.00000E+00
         0.00000E+00
         0.00000E+00
         0.00000E+00
         0.00000E+00
         0.00000E+00
         0.00000E+00
         0.00000E+00
         0.00000E+00
         0.00000E+00
         0.00000E+00
         0.00000E+00
         0.00000E+00
         0.00000E+00
         0.00000E+00
         0.00000E+00
         0.00000E+00
         0.00000E+00
         0.00000E+00
         0.00000E+00
         0.00000E+00
         0.00000E+00
         0.00000E+00
         0.00000E+00
         0.00000E+00
         0.00000E+00
         0.00000E+00
         0.00000E+00
         0.00000E+00
         0.00000E+00
         0.00000E+00
         0.00000E+00
         0.00000E+00
         0.00000E+00
         0.00000E+00
         0.00000E+00
         0.00000E+00
         0.00000E+00
         0.00000E+00
         0.00000E+00
         0.00000E+00
         0.00000E+00
         0.00000E+00
         0.00000E+00
         0.00000E+00
         0.00000E+00
         0.00000E+00
         0.00000E+00
         0.00000E+00
         0.00000E+00
         0.00000E+00
         0.00000E+00
         0.00000E+00
         0.00000E+00
         0.00000E+00
         0.00000E+00
         0.00000E+00
         0.00000E+00
         0.00000E+00
         0.00000E+00
         0.00000E+00
         0.00000E+00
         0.00000E+00
         0.00000E+00
         0.00000E+00
         0.00000E+00
         0.00000E+00
         0.00000E+00
         0.00000E+00
         0.00000E+00
         0.00000E+00
         0.00000E+00
         0.00000E+00
         0.00000E+00
         0.00000E+00
         0.00000E+00
         0.00000E+00
         0.00000E+00
         0.00000E+00
         0.00000E+00
         0.00000E+00
         0.00000E+00
         0.00000E+00
         0.00000E+00
         0.00000E+00
         0.00000E+00
         0.00000E+00
         0.00000E+00
         0.00000E+00
         0.00000E+00
         0.00000E+00
         0.00000E+00
         0.00000E+00
         0.00000E+00
         0.00000E+00
         0.00000E+00
         0.00000E+00
         0.00000E+00
         0.00000E+00
         0.00000E+00
         0.00000E+00
         0.00000E+00
         0.00000E+00
         0.00000E+00
         0.00000E+00
         0.00000E+00
         0.00000E+00
         0.00000E+00
         0.00000E+00
         0.00000E+00
         0.00000E+00
         0.00000E+00
         0.00000E+00
         0.00000E+00
         0.00000E+00
         0.00000E+00
         0.00000E+00
         0.00000E+00
         0.00000E+00
         0.00000E+00
         0.00000E+00
         0.00000E+00
         0.00000E+00
         0.00000E+00
         0.00000E+00
         0.00000E+00
         0.00000E+00
         0.00000E+00
         0.00000E+00
         0.00000E+00
         0.00000E+00
         0.00000E+00
         0.00000E+00
         0.00000E+00
         0.00000E+00
         0.00000E+00
         0.00000E+00
         0.00000E+00
         0.00000E+00
         0.00000E+00
         0.00000E+00
         0.00000E+00
         0.00000E+00
         0.00000E+00
         0.00000E+00
         0.00000E+00
         0.00000E+00
         0.00000E+00
         0.00000E+00
         0.00000E+00
         0.00000E+00
         0.00000E+00
         0.00000E+00
         0.00000E+00
         0.00000E+00
         0.00000E+00
         0.00000E+00
         0.00000E+00
         0.00000E+00
         0.00000E+00
         0.00000E+00
         0.00000E+00
         0.00000E+00
         0.00000E+00
         0.00000E+00
         0.00000E+00
         0.00000E+00
         0.00000E+00
         0.00000E+00
         0.00000E+00
         0.00000E+00
         0.00000E+00
         0.00000E+00
         0.00000E+00
         0.00000E+00
         0.00000E+00
         0.00000E+00
         0.00000E+00
         0.00000E+00
         0.00000E+00
         0.00000E+00
         0.00000E+00
         0.00000E+00
         0.00000E+00
         0.00000E+00
         0.00000E+00
         0.00000E+00
         0.00000E+00
         0.00000E+00
         0.00000E+00
         0.00000E+00
         0.00000E+00
         0.00000E+00
         0.00000E+00
         0.00000E+00
         0.00000E+00
         0.00000E+00
         0.00000E+00
         0.00000E+00
         0.00000E+00
         0.00000E+00
         0.00000E+00
         0.00000E+00
         0.00000E+00
         0.00000E+00
         0.00000E+00
         0.00000E+00
         0.00000E+00
         0.00000E+00
         0.00000E+00
         0.00000E+00
         0.00000E+00
         0.00000E+00
         0.00000E+00
         0.00000E+00
         0.00000E+00
         0.00000E+00
         0.00000E+00
         0.00000E+00
         0.00000E+00
         0.00000E+00
         0.00000E+00
         0.00000E+00
         0.00000E+00
         0.00000E+00
         0.00000E+00
         0.00000E+00
         0.00000E+00
         0.00000E+00
         0.00000E+00
         0.00000E+00
         0.00000E+00
         0.00000E+00
         0.00000E+00
         0.00000E+00
         0.00000E+00
         0.00000E+00
         0.00000E+00
         0.00000E+00
         0.00000E+00
         0.00000E+00
         0.00000E+00
         0.00000E+00
         0.00000E+00
         0.00000E+00
         0.00000E+00
         0.00000E+00
         0.00000E+00
         0.00000E+00
         0.00000E+00
         0.00000E+00
         0.00000E+00
         0.00000E+00
         0.00000E+00
         0.00000E+00
         0.00000E+00
         0.00000E+00
         0.00000E+00
         0.00000E+00
         0.00000E+00
         0.00000E+00
         0.00000E+00
         0.00000E+00
         0.00000E+00
         0.00000E+00
         0.00000E+00
         0.00000E+00
         0.00000E+00
         0.00000E+00
         0.00000E+00
         0.00000E+00
         0.00000E+00
         0.00000E+00
         0.00000E+00
         0.00000E+00
         0.00000E+00
         0.00000E+00
         0.00000E+00
         0.00000E+00
         0.00000E+00
         0.00000E+00
         0.00000E+00
         0.00000E+00
         0.00000E+00
         0.00000E+00
         0.00000E+00
         0.00000E+00
         0.00000E+00
         0.00000E+00
         0.00000E+00
         0.00000E+00
         0.00000E+00
         0.00000E+00
         0.00000E+00
         0.00000E+00
         0.00000E+00
         0.00000E+00
         0.00000E+00
         0.00000E+00
         0.00000E+00
         0.00000E+00
         0.00000E+00
         0.00000E+00
         0.00000E+00
         0.00000E+00
         0.00000E+00
         0.00000E+00
         0.00000E+00
         0.00000E+00
         0.00000E+00
         0.00000E+00
         0.00000E+00
         0.00000E+00
         0.00000E+00
         0.00000E+00
         0.00000E+00
  
SCALARS               pre_disp_force_z  double 1
LOOKUP_TABLE default
         0.00000E+00
         0.00000E+00
         0.00000E+00
         0.00000E+00
        -0.00000E+00
        -0.00000E+00
        -0.00000E+00
        -0.00000E+00
         0.00000E+00
         0.00000E+00
        -0.00000E+00
        -0.00000E+00
         0.00000E+00
         0.00000E+00
        -0.00000E+00
        -0.00000E+00
         0.00000E+00
         0.00000E+00
        -0.00000E+00
        -0.00000E+00
         0.00000E+00
         0.00000E+00
         0.00000E+00
        -0.00000E+00
        -0.00000E+00
        -0.00000E+00
         0.00000E+00
         0.00000E+00
        -0.00000E+00
        -0.00000E+00
         0.00000E+00
         0.00000E+00
         0.00000E+00
        -0.00000E+00
        -0.00000E+00
        -0.00000E+00
         0.00000E+00
         0.00000E+00
        -0.00000E+00
        -0.00000E+00
         0.00000E+00
         0.00000E+00
        -0.00000E+00
        -0.00000E+00
         0.00000E+00
         0.00000E+00
        -0.00000E+00
        -0.00000E+00
         0.00000E+00
        -0.00000E+00
         0.00000E+00
        -0.00000E+00
         0.00000E+00
        -0.00000E+00
         0.00000E+00
        -0.00000E+00
         0.00000E+00
         0.00000E+00
        -0.00000E+00
        -0.00000E+00
         0.00000E+00
         0.00000E+00
        -0.00000E+00
        -0.00000E+00
         0.00000E+00
        -0.00000E+00
         0.00000E+00
        -0.00000E+00
         0.00000E+00
         0.00000E+00
        -0.00000E+00
        -0.00000E+00
         0.00000E+00
        -0.00000E+00
         0.00000E+00
        -0.00000E+00
         0.00000E+00
        -0.00000E+00
         0.00000E+00
        -0.00000E+00
         0.00000E+00
         0.00000E+00
        -0.00000E+00
        -0.00000E+00
         0.00000E+00
        -0.00000E+00
         0.00000E+00
        -0.00000E+00
         0.00000E+00
        -0.00000E+00
         0.00000E+00
         0.00000E+00
        -0.00000E+00
        -0.00000E+00
         0.00000E+00
        -0.00000E+00
         0.00000E+00
        -0.00000E+00
         0.00000E+00
        -0.00000E+00
         0.00000E+00
         0.00000E+00
        -0.00000E+00
        -0.00000E+00
         0.00000E+00
         0.00000E+00
        -0.00000E+00
        -0.00000E+00
         0.00000E+00
        -0.00000E+00
         0.00000E+00
        -0.00000E+00
         0.00000E+00
        -0.00000E+00
         0.00000E+00
        -0.00000E+00
         0.00000E+00
        -0.00000E+00
         0.00000E+00
        -0.00000E+00
         0.00000E+00
        -0.00000E+00
         0.00000E+00
        -0.00000E+00
         0.00000E+00
        -0.00000E+00
         0.00000E+00
        -0.00000E+00
         0.00000E+00
        -0.00000E+00
         0.00000E+00
        -0.00000E+00
         0.00000E+00
        -0.00000E+00
         0.00000E+00
        -0.00000E+00
         0.00000E+00
        -0.00000E+00
         0.00000E+00
        -0.00000E+00
         0.00000E+00
        -0.00000E+00
         0.00000E+00
        -0.00000E+00
         0.00000E+00
        -0.00000E+00
         0.00000E+00
        -0.00000E+00
         0.00000E+00
        -0.00000E+00
         0.00000E+00
        -0.00000E+00
         0.00000E+00
        -0.00000E+00
         0.00000E+00
        -0.00000E+00
         0.00000E+00
         0.00000E+00
         0.00000E+00
         0.00000E+00
         0.00000E+00
         0.00000E+00
         0.00000E+00
         0.00000E+00
         0.00000E+00
         0.00000E+00
         0.00000E+00
         0.00000E+00
         0.00000E+00
         0.00000E+00
         0.00000E+00
         0.00000E+00
         0.00000E+00
         0.00000E+00
         0.00000E+00
         0.00000E+00
         0.00000E+00
         0.00000E+00
         0.00000E+00
         0.00000E+00
         0.00000E+00
         0.00000E+00
         0.00000E+00
         0.00000E+00
         0.00000E+00
         0.00000E+00
         0.00000E+00
         0.00000E+00
         0.00000E+00
         0.00000E+00
         0.00000E+00
         0.00000E+00
         0.00000E+00
         0.00000E+00
         0.00000E+00
         0.00000E+00
         0.00000E+00
         0.00000E+00
         0.00000E+00
         0.00000E+00
         0.00000E+00
         0.00000E+00
         0.00000E+00
         0.00000E+00
         0.00000E+00
         0.00000E+00
         0.00000E+00
         0.00000E+00
         0.00000E+00
         0.00000E+00
         0.00000E+00
         0.00000E+00
         0.00000E+00
         0.00000E+00
         0.00000E+00
         0.00000E+00
         0.00000E+00
         0.00000E+00
         0.00000E+00
         0.00000E+00
         0.00000E+00
         0.00000E+00
         0.00000E+00
         0.00000E+00
         0.00000E+00
         0.00000E+00
         0.00000E+00
         0.00000E+00
         0.00000E+00
         0.00000E+00
         0.00000E+00
         0.00000E+00
         0.00000E+00
         0.00000E+00
         0.00000E+00
         0.00000E+00
         0.00000E+00
         0.00000E+00
         0.00000E+00
         0.00000E+00
         0.00000E+00
         0.00000E+00
         0.00000E+00
         0.00000E+00
         0.00000E+00
         0.00000E+00
         0.00000E+00
         0.00000E+00
         0.00000E+00
         0.00000E+00
         0.00000E+00
         0.00000E+00
         0.00000E+00
         0.00000E+00
         0.00000E+00
         0.00000E+00
         0.00000E+00
         0.00000E+00
         0.00000E+00
         0.00000E+00
         0.00000E+00
         0.00000E+00
         0.00000E+00
         0.00000E+00
         0.00000E+00
         0.00000E+00
         0.00000E+00
         0.00000E+00
         0.00000E+00
         0.00000E+00
         0.00000E+00
         0.00000E+00
         0.00000E+00
         0.00000E+00
         0.00000E+00
         0.00000E+00
         0.00000E+00
         0.00000E+00
         0.00000E+00
         0.00000E+00
         0.00000E+00
         0.00000E+00
         0.00000E+00
         0.00000E+00
         0.00000E+00
         0.00000E+00
         0.00000E+00
         0.00000E+00
         0.00000E+00
         0.00000E+00
         0.00000E+00
         0.00000E+00
         0.00000E+00
         0.00000E+00
         0.00000E+00
         0.00000E+00
         0.00000E+00
         0.00000E+00
         0.00000E+00
         0.00000E+00
         0.00000E+00
         0.00000E+00
         0.00000E+00
         0.00000E+00
         0.00000E+00
         0.00000E+00
         0.00000E+00
         0.00000E+00
         0.00000E+00
         0.00000E+00
         0.00000E+00
         0.00000E+00
         0.00000E+00
         0.00000E+00
         0.00000E+00
         0.00000E+00
         0.00000E+00
         0.00000E+00
         0.00000E+00
         0.00000E+00
         0.00000E+00
         0.00000E+00
         0.00000E+00
         0.00000E+00
         0.00000E+00
         0.00000E+00
         0.00000E+00
         0.00000E+00
         0.00000E+00
         0.00000E+00
         0.00000E+00
         0.00000E+00
         0.00000E+00
         0.00000E+00
         0.00000E+00
         0.00000E+00
         0.00000E+00
         0.00000E+00
         0.00000E+00
         0.00000E+00
         0.00000E+00
         0.00000E+00
         0.00000E+00
         0.00000E+00
         0.00000E+00
         0.00000E+00
         0.00000E+00
         0.00000E+00
         0.00000E+00
         0.00000E+00
         0.00000E+00
         0.00000E+00
         0.00000E+00
         0.00000E+00
         0.00000E+00
         0.00000E+00
         0.00000E+00
         0.00000E+00
         0.00000E+00
         0.00000E+00
         0.00000E+00
         0.00000E+00
         0.00000E+00
         0.00000E+00
         0.00000E+00
         0.00000E+00
         0.00000E+00
         0.00000E+00
         0.00000E+00
         0.00000E+00
         0.00000E+00
         0.00000E+00
         0.00000E+00
         0.00000E+00
         0.00000E+00
         0.00000E+00
         0.00000E+00
         0.00000E+00
         0.00000E+00
         0.00000E+00
         0.00000E+00
         0.00000E+00
         0.00000E+00
         0.00000E+00
         0.00000E+00
         0.00000E+00
         0.00000E+00
         0.00000E+00
         0.00000E+00
         0.00000E+00
         0.00000E+00
         0.00000E+00
         0.00000E+00
         0.00000E+00
         0.00000E+00
         0.00000E+00
         0.00000E+00
         0.00000E+00
         0.00000E+00
         0.00000E+00
         0.00000E+00
         0.00000E+00
         0.00000E+00
         0.00000E+00
         0.00000E+00
         0.00000E+00
         0.00000E+00
         0.00000E+00
         0.00000E+00
         0.00000E+00
         0.00000E+00
         0.00000E+00
         0.00000E+00
         0.00000E+00
         0.00000E+00
         0.00000E+00
         0.00000E+00
         0.00000E+00
         0.00000E+00
         0.00000E+00
         0.00000E+00
         0.00000E+00
         0.00000E+00
         0.00000E+00
         0.00000E+00
         0.00000E+00
         0.00000E+00
         0.00000E+00
         0.00000E+00
         0.00000E+00
         0.00000E+00
         0.00000E+00
         0.00000E+00
         0.00000E+00
         0.00000E+00
         0.00000E+00
         0.00000E+00
         0.00000E+00
         0.00000E+00
         0.00000E+00
         0.00000E+00
         0.00000E+00
         0.00000E+00
         0.00000E+00
         0.00000E+00
         0.00000E+00
         0.00000E+00
         0.00000E+00
         0.00000E+00
         0.00000E+00
         0.00000E+00
         0.00000E+00
         0.00000E+00
         0.00000E+00
         0.00000E+00
         0.00000E+00
         0.00000E+00
         0.00000E+00
         0.00000E+00
         0.00000E+00
         0.00000E+00
         0.00000E+00
         0.00000E+00
         0.00000E+00
         0.00000E+00
         0.00000E+00
         0.00000E+00
         0.00000E+00
         0.00000E+00
         0.00000E+00
         0.00000E+00
         0.00000E+00
         0.00000E+00
         0.00000E+00
         0.00000E+00
         0.00000E+00
         0.00000E+00
         0.00000E+00
         0.00000E+00
         0.00000E+00
         0.00000E+00
         0.00000E+00
         0.00000E+00
         0.00000E+00
         0.00000E+00
         0.00000E+00
         0.00000E+00
         0.00000E+00
         0.00000E+00
         0.00000E+00
         0.00000E+00
         0.00000E+00
         0.00000E+00
         0.00000E+00
         0.00000E+00
         0.00000E+00
         0.00000E+00
         0.00000E+00
         0.00000E+00
         0.00000E+00
         0.00000E+00
         0.00000E+00
         0.00000E+00
         0.00000E+00
         0.00000E+00
         0.00000E+00
         0.00000E+00
         0.00000E+00
         0.00000E+00
         0.00000E+00
         0.00000E+00
         0.00000E+00
         0.00000E+00
         0.00000E+00
         0.00000E+00
         0.00000E+00
         0.00000E+00
         0.00000E+00
         0.00000E+00
         0.00000E+00
         0.00000E+00
         0.00000E+00
         0.00000E+00
         0.00000E+00
         0.00000E+00
         0.00000E+00
         0.00000E+00
         0.00000E+00
         0.00000E+00
         0.00000E+00
         0.00000E+00
         0.00000E+00
         0.00000E+00
         0.00000E+00
         0.00000E+00
         0.00000E+00
         0.00000E+00
         0.00000E+00
         0.00000E+00
         0.00000E+00
         0.00000E+00
         0.00000E+00
         0.00000E+00
         0.00000E+00
         0.00000E+00
         0.00000E+00
         0.00000E+00
         0.00000E+00
         0.00000E+00
         0.00000E+00
         0.00000E+00
         0.00000E+00
         0.00000E+00
         0.00000E+00
         0.00000E+00
         0.00000E+00
         0.00000E+00
         0.00000E+00
         0.00000E+00
         0.00000E+00
         0.00000E+00
         0.00000E+00
         0.00000E+00
         0.00000E+00
         0.00000E+00
         0.00000E+00
         0.00000E+00
         0.00000E+00
         0.00000E+00
         0.00000E+00
         0.00000E+00
         0.00000E+00
         0.00000E+00
         0.00000E+00
         0.00000E+00
         0.00000E+00
         0.00000E+00
         0.00000E+00
         0.00000E+00
         0.00000E+00
         0.00000E+00
         0.00000E+00
         0.00000E+00
         0.00000E+00
         0.00000E+00
         0.00000E+00
         0.00000E+00
         0.00000E+00
         0.00000E+00
         0.00000E+00
         0.00000E+00
         0.00000E+00
         0.00000E+00
         0.00000E+00
         0.00000E+00
         0.00000E+00
         0.00000E+00
         0.00000E+00
         0.00000E+00
         0.00000E+00
         0.00000E+00
         0.00000E+00
         0.00000E+00
         0.00000E+00
         0.00000E+00
         0.00000E+00
         0.00000E+00
         0.00000E+00
         0.00000E+00
         0.00000E+00
         0.00000E+00
         0.00000E+00
         0.00000E+00
         0.00000E+00
         0.00000E+00
         0.00000E+00
         0.00000E+00
         0.00000E+00
         0.00000E+00
         0.00000E+00
         0.00000E+00
         0.00000E+00
         0.00000E+00
         0.00000E+00
         0.00000E+00
         0.00000E+00
         0.00000E+00
         0.00000E+00
         0.00000E+00
         0.00000E+00
         0.00000E+00
         0.00000E+00
         0.00000E+00
         0.00000E+00
         0.00000E+00
         0.00000E+00
         0.00000E+00
         0.00000E+00
         0.00000E+00
         0.00000E+00
         0.00000E+00
         0.00000E+00
         0.00000E+00
         0.00000E+00
         0.00000E+00
         0.00000E+00
         0.00000E+00
         0.00000E+00
         0.00000E+00
         0.00000E+00
         0.00000E+00
         0.00000E+00
         0.00000E+00
         0.00000E+00
         0.00000E+00
         0.00000E+00
         0.00000E+00
         0.00000E+00
         0.00000E+00
         0.00000E+00
         0.00000E+00
         0.00000E+00
         0.00000E+00
         0.00000E+00
         0.00000E+00
         0.00000E+00
         0.00000E+00
         0.00000E+00
         0.00000E+00
         0.00000E+00
         0.00000E+00
         0.00000E+00
         0.00000E+00
         0.00000E+00
         0.00000E+00
         0.00000E+00
         0.00000E+00
         0.00000E+00
         0.00000E+00
         0.00000E+00
         0.00000E+00
         0.00000E+00
         0.00000E+00
         0.00000E+00
         0.00000E+00
         0.00000E+00
         0.00000E+00
         0.00000E+00
         0.00000E+00
         0.00000E+00
         0.00000E+00
         0.00000E+00
         0.00000E+00
         0.00000E+00
         0.00000E+00
         0.00000E+00
         0.00000E+00
         0.00000E+00
         0.00000E+00
         0.00000E+00
         0.00000E+00
         0.00000E+00
         0.00000E+00
         0.00000E+00
         0.00000E+00
         0.00000E+00
         0.00000E+00
         0.00000E+00
         0.00000E+00
         0.00000E+00
         0.00000E+00
         0.00000E+00
         0.00000E+00
         0.00000E+00
         0.00000E+00
         0.00000E+00
         0.00000E+00
         0.00000E+00
         0.00000E+00
         0.00000E+00
         0.00000E+00
         0.00000E+00
         0.00000E+00
         0.00000E+00
         0.00000E+00
         0.00000E+00
         0.00000E+00
         0.00000E+00
         0.00000E+00
         0.00000E+00
         0.00000E+00
         0.00000E+00
         0.00000E+00
         0.00000E+00
         0.00000E+00
         0.00000E+00
         0.00000E+00
         0.00000E+00
         0.00000E+00
         0.00000E+00
         0.00000E+00
         0.00000E+00
         0.00000E+00
         0.00000E+00
         0.00000E+00
         0.00000E+00
         0.00000E+00
         0.00000E+00
         0.00000E+00
         0.00000E+00
         0.00000E+00
         0.00000E+00
         0.00000E+00
         0.00000E+00
         0.00000E+00
         0.00000E+00
         0.00000E+00
         0.00000E+00
         0.00000E+00
         0.00000E+00
         0.00000E+00
         0.00000E+00
         0.00000E+00
         0.00000E+00
         0.00000E+00
         0.00000E+00
         0.00000E+00
         0.00000E+00
         0.00000E+00
         0.00000E+00
         0.00000E+00
         0.00000E+00
         0.00000E+00
         0.00000E+00
         0.00000E+00
         0.00000E+00
         0.00000E+00
         0.00000E+00
         0.00000E+00
         0.00000E+00
         0.00000E+00
         0.00000E+00
         0.00000E+00
         0.00000E+00
         0.00000E+00
         0.00000E+00
         0.00000E+00
         0.00000E+00
         0.00000E+00
         0.00000E+00
         0.00000E+00
         0.00000E+00
         0.00000E+00
         0.00000E+00
         0.00000E+00
         0.00000E+00
         0.00000E+00
         0.00000E+00
         0.00000E+00
         0.00000E+00
         0.00000E+00
         0.00000E+00
         0.00000E+00
         0.00000E+00
         0.00000E+00
         0.00000E+00
         0.00000E+00
         0.00000E+00
         0.00000E+00
         0.00000E+00
         0.00000E+00
         0.00000E+00
         0.00000E+00
         0.00000E+00
         0.00000E+00
         0.00000E+00
         0.00000E+00
         0.00000E+00
         0.00000E+00
         0.00000E+00
         0.00000E+00
         0.00000E+00
         0.00000E+00
         0.00000E+00
         0.00000E+00
         0.00000E+00
         0.00000E+00
         0.00000E+00
         0.00000E+00
         0.00000E+00
         0.00000E+00
         0.00000E+00
         0.00000E+00
         0.00000E+00
         0.00000E+00
         0.00000E+00
         0.00000E+00
         0.00000E+00
         0.00000E+00
         0.00000E+00
         0.00000E+00
         0.00000E+00
         0.00000E+00
         0.00000E+00
         0.00000E+00
         0.00000E+00
         0.00000E+00
         0.00000E+00
         0.00000E+00
         0.00000E+00
         0.00000E+00
         0.00000E+00
         0.00000E+00
         0.00000E+00
         0.00000E+00
         0.00000E+00
         0.00000E+00
         0.00000E+00
         0.00000E+00
         0.00000E+00
         0.00000E+00
         0.00000E+00
         0.00000E+00
         0.00000E+00
         0.00000E+00
         0.00000E+00
         0.00000E+00
         0.00000E+00
         0.00000E+00
         0.00000E+00
         0.00000E+00
         0.00000E+00
         0.00000E+00
         0.00000E+00
         0.00000E+00
         0.00000E+00
         0.00000E+00
         0.00000E+00
         0.00000E+00
         0.00000E+00
         0.00000E+00
         0.00000E+00
         0.00000E+00
         0.00000E+00
         0.00000E+00
         0.00000E+00
         0.00000E+00
         0.00000E+00
         0.00000E+00
         0.00000E+00
         0.00000E+00
         0.00000E+00
         0.00000E+00
         0.00000E+00
         0.00000E+00
         0.00000E+00
         0.00000E+00
         0.00000E+00
         0.00000E+00
         0.00000E+00
         0.00000E+00
         0.00000E+00
         0.00000E+00
         0.00000E+00
         0.00000E+00
         0.00000E+00
         0.00000E+00
         0.00000E+00
         0.00000E+00
         0.00000E+00
         0.00000E+00
         0.00000E+00
         0.00000E+00
         0.00000E+00
         0.00000E+00
         0.00000E+00
         0.00000E+00
         0.00000E+00
         0.00000E+00
         0.00000E+00
         0.00000E+00
         0.00000E+00
         0.00000E+00
         0.00000E+00
         0.00000E+00
         0.00000E+00
         0.00000E+00
         0.00000E+00
         0.00000E+00
         0.00000E+00
         0.00000E+00
         0.00000E+00
         0.00000E+00
         0.00000E+00
         0.00000E+00
         0.00000E+00
         0.00000E+00
         0.00000E+00
         0.00000E+00
         0.00000E+00
         0.00000E+00
         0.00000E+00
         0.00000E+00
         0.00000E+00
         0.00000E+00
         0.00000E+00
         0.00000E+00
         0.00000E+00
         0.00000E+00
         0.00000E+00
         0.00000E+00
         0.00000E+00
         0.00000E+00
         0.00000E+00
         0.00000E+00
         0.00000E+00
         0.00000E+00
         0.00000E+00
         0.00000E+00
         0.00000E+00
         0.00000E+00
         0.00000E+00
         0.00000E+00
         0.00000E+00
         0.00000E+00
         0.00000E+00
         0.00000E+00
         0.00000E+00
         0.00000E+00
         0.00000E+00
         0.00000E+00
         0.00000E+00
         0.00000E+00
         0.00000E+00
         0.00000E+00
         0.00000E+00
         0.00000E+00
         0.00000E+00
         0.00000E+00
         0.00000E+00
         0.00000E+00
         0.00000E+00
         0.00000E+00
         0.00000E+00
         0.00000E+00
         0.00000E+00
         0.00000E+00
         0.00000E+00
         0.00000E+00
         0.00000E+00
         0.00000E+00
         0.00000E+00
         0.00000E+00
         0.00000E+00
         0.00000E+00
         0.00000E+00
         0.00000E+00
         0.00000E+00
         0.00000E+00
         0.00000E+00
         0.00000E+00
         0.00000E+00
         0.00000E+00
         0.00000E+00
         0.00000E+00
         0.00000E+00
         0.00000E+00
         0.00000E+00
         0.00000E+00
         0.00000E+00
         0.00000E+00
         0.00000E+00
         0.00000E+00
         0.00000E+00
         0.00000E+00
         0.00000E+00
         0.00000E+00
         0.00000E+00
         0.00000E+00
         0.00000E+00
         0.00000E+00
         0.00000E+00
         0.00000E+00
         0.00000E+00
         0.00000E+00
         0.00000E+00
         0.00000E+00
         0.00000E+00
         0.00000E+00
         0.00000E+00
         0.00000E+00
         0.00000E+00
         0.00000E+00
         0.00000E+00
         0.00000E+00
         0.00000E+00
         0.00000E+00
         0.00000E+00
         0.00000E+00
         0.00000E+00
         0.00000E+00
         0.00000E+00
         0.00000E+00
         0.00000E+00
         0.00000E+00
         0.00000E+00
         0.00000E+00
         0.00000E+00
         0.00000E+00
         0.00000E+00
         0.00000E+00
         0.00000E+00
         0.00000E+00
         0.00000E+00
         0.00000E+00
         0.00000E+00
         0.00000E+00
         0.00000E+00
         0.00000E+00
         0.00000E+00
         0.00000E+00
         0.00000E+00
         0.00000E+00
         0.00000E+00
         0.00000E+00
         0.00000E+00
         0.00000E+00
         0.00000E+00
         0.00000E+00
         0.00000E+00
         0.00000E+00
         0.00000E+00
         0.00000E+00
         0.00000E+00
         0.00000E+00
         0.00000E+00
         0.00000E+00
         0.00000E+00
         0.00000E+00
         0.00000E+00
         0.00000E+00
         0.00000E+00
         0.00000E+00
         0.00000E+00
         0.00000E+00
         0.00000E+00
         0.00000E+00
         0.00000E+00
         0.00000E+00
         0.00000E+00
         0.00000E+00
         0.00000E+00
         0.00000E+00
         0.00000E+00
         0.00000E+00
         0.00000E+00
         0.00000E+00
         0.00000E+00
         0.00000E+00
         0.00000E+00
         0.00000E+00
         0.00000E+00
         0.00000E+00
         0.00000E+00
         0.00000E+00
         0.00000E+00
         0.00000E+00
         0.00000E+00
         0.00000E+00
         0.00000E+00
         0.00000E+00
         0.00000E+00
         0.00000E+00
         0.00000E+00
         0.00000E+00
         0.00000E+00
         0.00000E+00
         0.00000E+00
         0.00000E+00
         0.00000E+00
         0.00000E+00
         0.00000E+00
         0.00000E+00
         0.00000E+00
         0.00000E+00
         0.00000E+00
         0.00000E+00
         0.00000E+00
         0.00000E+00
         0.00000E+00
         0.00000E+00
         0.00000E+00
         0.00000E+00
         0.00000E+00
         0.00000E+00
         0.00000E+00
         0.00000E+00
         0.00000E+00
         0.00000E+00
         0.00000E+00
         0.00000E+00
         0.00000E+00
         0.00000E+00
         0.00000E+00
         0.00000E+00
         0.00000E+00
         0.00000E+00
         0.00000E+00
         0.00000E+00
         0.00000E+00
         0.00000E+00
         0.00000E+00
         0.00000E+00
         0.00000E+00
         0.00000E+00
         0.00000E+00
         0.00000E+00
         0.00000E+00
         0.00000E+00
         0.00000E+00
         0.00000E+00
         0.00000E+00
         0.00000E+00
         0.00000E+00
         0.00000E+00
         0.00000E+00
         0.00000E+00
         0.00000E+00
         0.00000E+00
         0.00000E+00
         0.00000E+00
         0.00000E+00
         0.00000E+00
         0.00000E+00
         0.00000E+00
         0.00000E+00
         0.00000E+00
         0.00000E+00
         0.00000E+00
         0.00000E+00
         0.00000E+00
         0.00000E+00
         0.00000E+00
         0.00000E+00
         0.00000E+00
         0.00000E+00
         0.00000E+00
         0.00000E+00
         0.00000E+00
         0.00000E+00
         0.00000E+00
         0.00000E+00
         0.00000E+00
         0.00000E+00
         0.00000E+00
         0.00000E+00
         0.00000E+00
         0.00000E+00
         0.00000E+00
         0.00000E+00
         0.00000E+00
         0.00000E+00
         0.00000E+00
         0.00000E+00
         0.00000E+00
         0.00000E+00
         0.00000E+00
         0.00000E+00
         0.00000E+00
         0.00000E+00
         0.00000E+00
         0.00000E+00
         0.00000E+00
         0.00000E+00
         0.00000E+00
         0.00000E+00
         0.00000E+00
         0.00000E+00
         0.00000E+00
         0.00000E+00
         0.00000E+00
         0.00000E+00
         0.00000E+00
         0.00000E+00
         0.00000E+00
         0.00000E+00
         0.00000E+00
         0.00000E+00
         0.00000E+00
         0.00000E+00
         0.00000E+00
         0.00000E+00
         0.00000E+00
         0.00000E+00
         0.00000E+00
         0.00000E+00
         0.00000E+00
         0.00000E+00
         0.00000E+00
         0.00000E+00
         0.00000E+00
         0.00000E+00
         0.00000E+00
         0.00000E+00
         0.00000E+00
         0.00000E+00
         0.00000E+00
         0.00000E+00
         0.00000E+00
         0.00000E+00
         0.00000E+00
         0.00000E+00
         0.00000E+00
         0.00000E+00
         0.00000E+00
         0.00000E+00
         0.00000E+00
         0.00000E+00
         0.00000E+00
         0.00000E+00
         0.00000E+00
         0.00000E+00
         0.00000E+00
         0.00000E+00
         0.00000E+00
         0.00000E+00
         0.00000E+00
         0.00000E+00
         0.00000E+00
         0.00000E+00
         0.00000E+00
         0.00000E+00
         0.00000E+00
         0.00000E+00
         0.00000E+00
         0.00000E+00
         0.00000E+00
         0.00000E+00
         0.00000E+00
         0.00000E+00
         0.00000E+00
         0.00000E+00
         0.00000E+00
         0.00000E+00
         0.00000E+00
         0.00000E+00
         0.00000E+00
         0.00000E+00
         0.00000E+00
         0.00000E+00
         0.00000E+00
         0.00000E+00
         0.00000E+00
         0.00000E+00
         0.00000E+00
         0.00000E+00
         0.00000E+00
         0.00000E+00
         0.00000E+00
         0.00000E+00
         0.00000E+00
         0.00000E+00
         0.00000E+00
         0.00000E+00
         0.00000E+00
         0.00000E+00
         0.00000E+00
         0.00000E+00
         0.00000E+00
         0.00000E+00
         0.00000E+00
         0.00000E+00
         0.00000E+00
         0.00000E+00
         0.00000E+00
         0.00000E+00
         0.00000E+00
         0.00000E+00
         0.00000E+00
         0.00000E+00
         0.00000E+00
         0.00000E+00
         0.00000E+00
         0.00000E+00
         0.00000E+00
         0.00000E+00
         0.00000E+00
         0.00000E+00
         0.00000E+00
         0.00000E+00
         0.00000E+00
         0.00000E+00
         0.00000E+00
         0.00000E+00
         0.00000E+00
         0.00000E+00
         0.00000E+00
         0.00000E+00
         0.00000E+00
         0.00000E+00
         0.00000E+00
         0.00000E+00
         0.00000E+00
         0.00000E+00
         0.00000E+00
         0.00000E+00
         0.00000E+00
         0.00000E+00
         0.00000E+00
         0.00000E+00
         0.00000E+00
         0.00000E+00
         0.00000E+00
         0.00000E+00
         0.00000E+00
         0.00000E+00
         0.00000E+00
         0.00000E+00
         0.00000E+00
         0.00000E+00
         0.00000E+00
         0.00000E+00
         0.00000E+00
         0.00000E+00
         0.00000E+00
         0.00000E+00
         0.00000E+00
         0.00000E+00
         0.00000E+00
         0.00000E+00
         0.00000E+00
         0.00000E+00
         0.00000E+00
         0.00000E+00
         0.00000E+00
         0.00000E+00
         0.00000E+00
         0.00000E+00
         0.00000E+00
         0.00000E+00
         0.00000E+00
         0.00000E+00
         0.00000E+00
         0.00000E+00
         0.00000E+00
         0.00000E+00
         0.00000E+00
         0.00000E+00
         0.00000E+00
         0.00000E+00
         0.00000E+00
         0.00000E+00
         0.00000E+00
         0.00000E+00
         0.00000E+00
         0.00000E+00
         0.00000E+00
         0.00000E+00
         0.00000E+00
         0.00000E+00
         0.00000E+00
         0.00000E+00
         0.00000E+00
         0.00000E+00
         0.00000E+00
         0.00000E+00
         0.00000E+00
         0.00000E+00
         0.00000E+00
         0.00000E+00
         0.00000E+00
         0.00000E+00
         0.00000E+00
         0.00000E+00
         0.00000E+00
         0.00000E+00
         0.00000E+00
         0.00000E+00
         0.00000E+00
         0.00000E+00
         0.00000E+00
         0.00000E+00
         0.00000E+00
         0.00000E+00
         0.00000E+00
         0.00000E+00
         0.00000E+00
         0.00000E+00
         0.00000E+00
         0.00000E+00
         0.00000E+00
         0.00000E+00
         0.00000E+00
         0.00000E+00
         0.00000E+00
         0.00000E+00
         0.00000E+00
         0.00000E+00
         0.00000E+00
         0.00000E+00
         0.00000E+00
         0.00000E+00
         0.00000E+00
         0.00000E+00
         0.00000E+00
         0.00000E+00
         0.00000E+00
         0.00000E+00
         0.00000E+00
         0.00000E+00
         0.00000E+00
         0.00000E+00
         0.00000E+00
         0.00000E+00
         0.00000E+00
         0.00000E+00
         0.00000E+00
         0.00000E+00
         0.00000E+00
         0.00000E+00
         0.00000E+00
         0.00000E+00
         0.00000E+00
         0.00000E+00
         0.00000E+00
         0.00000E+00
         0.00000E+00
         0.00000E+00
         0.00000E+00
         0.00000E+00
         0.00000E+00
         0.00000E+00
         0.00000E+00
         0.00000E+00
         0.00000E+00
         0.00000E+00
         0.00000E+00
         0.00000E+00
         0.00000E+00
         0.00000E+00
         0.00000E+00
         0.00000E+00
         0.00000E+00
         0.00000E+00
         0.00000E+00
         0.00000E+00
         0.00000E+00
         0.00000E+00
         0.00000E+00
         0.00000E+00
         0.00000E+00
         0.00000E+00
         0.00000E+00
         0.00000E+00
         0.00000E+00
         0.00000E+00
         0.00000E+00
         0.00000E+00
         0.00000E+00
         0.00000E+00
         0.00000E+00
         0.00000E+00
         0.00000E+00
         0.00000E+00
         0.00000E+00
         0.00000E+00
         0.00000E+00
         0.00000E+00
         0.00000E+00
         0.00000E+00
         0.00000E+00
         0.00000E+00
         0.00000E+00
         0.00000E+00
         0.00000E+00
         0.00000E+00
         0.00000E+00
         0.00000E+00
         0.00000E+00
         0.00000E+00
         0.00000E+00
         0.00000E+00
         0.00000E+00
         0.00000E+00
         0.00000E+00
         0.00000E+00
         0.00000E+00
         0.00000E+00
         0.00000E+00
         0.00000E+00
         0.00000E+00
         0.00000E+00
         0.00000E+00
         0.00000E+00
         0.00000E+00
         0.00000E+00
         0.00000E+00
         0.00000E+00
         0.00000E+00
         0.00000E+00
         0.00000E+00
         0.00000E+00
         0.00000E+00
         0.00000E+00
         0.00000E+00
         0.00000E+00
         0.00000E+00
         0.00000E+00
         0.00000E+00
         0.00000E+00
         0.00000E+00
         0.00000E+00
         0.00000E+00
         0.00000E+00
         0.00000E+00
         0.00000E+00
         0.00000E+00
         0.00000E+00
         0.00000E+00
         0.00000E+00
         0.00000E+00
         0.00000E+00
         0.00000E+00
         0.00000E+00
         0.00000E+00
         0.00000E+00
         0.00000E+00
         0.00000E+00
         0.00000E+00
         0.00000E+00
         0.00000E+00
         0.00000E+00
         0.00000E+00
         0.00000E+00
         0.00000E+00
         0.00000E+00
         0.00000E+00
         0.00000E+00
         0.00000E+00
         0.00000E+00
         0.00000E+00
         0.00000E+00
         0.00000E+00
         0.00000E+00
         0.00000E+00
         0.00000E+00
         0.00000E+00
         0.00000E+00
         0.00000E+00
         0.00000E+00
         0.00000E+00
         0.00000E+00
         0.00000E+00
         0.00000E+00
         0.00000E+00
         0.00000E+00
         0.00000E+00
         0.00000E+00
         0.00000E+00
         0.00000E+00
         0.00000E+00
         0.00000E+00
         0.00000E+00
         0.00000E+00
         0.00000E+00
         0.00000E+00
         0.00000E+00
         0.00000E+00
         0.00000E+00
         0.00000E+00
         0.00000E+00
         0.00000E+00
         0.00000E+00
         0.00000E+00
         0.00000E+00
         0.00000E+00
         0.00000E+00
         0.00000E+00
         0.00000E+00
         0.00000E+00
         0.00000E+00
         0.00000E+00
         0.00000E+00
         0.00000E+00
         0.00000E+00
         0.00000E+00
         0.00000E+00
         0.00000E+00
         0.00000E+00
         0.00000E+00
         0.00000E+00
         0.00000E+00
         0.00000E+00
         0.00000E+00
         0.00000E+00
         0.00000E+00
         0.00000E+00
         0.00000E+00
         0.00000E+00
         0.00000E+00
         0.00000E+00
         0.00000E+00
         0.00000E+00
         0.00000E+00
         0.00000E+00
         0.00000E+00
         0.00000E+00
         0.00000E+00
         0.00000E+00
         0.00000E+00
         0.00000E+00
         0.00000E+00
         0.00000E+00
         0.00000E+00
         0.00000E+00
         0.00000E+00
         0.00000E+00
         0.00000E+00
         0.00000E+00
         0.00000E+00
         0.00000E+00
         0.00000E+00
         0.00000E+00
         0.00000E+00
         0.00000E+00
         0.00000E+00
         0.00000E+00
         0.00000E+00
         0.00000E+00
         0.00000E+00
         0.00000E+00
         0.00000E+00
         0.00000E+00
         0.00000E+00
         0.00000E+00
         0.00000E+00
         0.00000E+00
         0.00000E+00
         0.00000E+00
         0.00000E+00
         0.00000E+00
         0.00000E+00
         0.00000E+00
         0.00000E+00
         0.00000E+00
         0.00000E+00
         0.00000E+00
         0.00000E+00
         0.00000E+00
         0.00000E+00
         0.00000E+00
         0.00000E+00
         0.00000E+00
         0.00000E+00
         0.00000E+00
         0.00000E+00
         0.00000E+00
         0.00000E+00
         0.00000E+00
         0.00000E+00
         0.00000E+00
         0.00000E+00
         0.00000E+00
         0.00000E+00
         0.00000E+00
         0.00000E+00
         0.00000E+00
         0.00000E+00
         0.00000E+00
         0.00000E+00
         0.00000E+00
         0.00000E+00
         0.00000E+00
         0.00000E+00
         0.00000E+00
         0.00000E+00
         0.00000E+00
         0.00000E+00
         0.00000E+00
         0.00000E+00
         0.00000E+00
         0.00000E+00
         0.00000E+00
         0.00000E+00
         0.00000E+00
         0.00000E+00
         0.00000E+00
         0.00000E+00
         0.00000E+00
         0.00000E+00
         0.00000E+00
         0.00000E+00
         0.00000E+00
         0.00000E+00
         0.00000E+00
         0.00000E+00
         0.00000E+00
         0.00000E+00
         0.00000E+00
         0.00000E+00
         0.00000E+00
         0.00000E+00
         0.00000E+00
         0.00000E+00
         0.00000E+00
         0.00000E+00
         0.00000E+00
         0.00000E+00
         0.00000E+00
         0.00000E+00
         0.00000E+00
         0.00000E+00
         0.00000E+00
         0.00000E+00
         0.00000E+00
         0.00000E+00
         0.00000E+00
         0.00000E+00
         0.00000E+00
         0.00000E+00
         0.00000E+00
         0.00000E+00
         0.00000E+00
         0.00000E+00
         0.00000E+00
         0.00000E+00
         0.00000E+00
         0.00000E+00
         0.00000E+00
         0.00000E+00
         0.00000E+00
         0.00000E+00
         0.00000E+00
         0.00000E+00
         0.00000E+00
         0.00000E+00
         0.00000E+00
         0.00000E+00
         0.00000E+00
         0.00000E+00
         0.00000E+00
         0.00000E+00
         0.00000E+00
         0.00000E+00
         0.00000E+00
         0.00000E+00
         0.00000E+00
         0.00000E+00
         0.00000E+00
         0.00000E+00
         0.00000E+00
         0.00000E+00
         0.00000E+00
         0.00000E+00
         0.00000E+00
         0.00000E+00
         0.00000E+00
         0.00000E+00
         0.00000E+00
         0.00000E+00
         0.00000E+00
         0.00000E+00
         0.00000E+00
         0.00000E+00
         0.00000E+00
         0.00000E+00
         0.00000E+00
         0.00000E+00
         0.00000E+00
         0.00000E+00
         0.00000E+00
         0.00000E+00
         0.00000E+00
         0.00000E+00
         0.00000E+00
         0.00000E+00
         0.00000E+00
         0.00000E+00
         0.00000E+00
         0.00000E+00
         0.00000E+00
         0.00000E+00
         0.00000E+00
         0.00000E+00
         0.00000E+00
         0.00000E+00
         0.00000E+00
         0.00000E+00
         0.00000E+00
         0.00000E+00
         0.00000E+00
         0.00000E+00
         0.00000E+00
         0.00000E+00
         0.00000E+00
         0.00000E+00
         0.00000E+00
         0.00000E+00
         0.00000E+00
         0.00000E+00
         0.00000E+00
         0.00000E+00
         0.00000E+00
         0.00000E+00
         0.00000E+00
         0.00000E+00
         0.00000E+00
         0.00000E+00
         0.00000E+00
         0.00000E+00
         0.00000E+00
         0.00000E+00
         0.00000E+00
         0.00000E+00
         0.00000E+00
         0.00000E+00
         0.00000E+00
         0.00000E+00
         0.00000E+00
         0.00000E+00
         0.00000E+00
         0.00000E+00
         0.00000E+00
         0.00000E+00
         0.00000E+00
         0.00000E+00
         0.00000E+00
         0.00000E+00
         0.00000E+00
         0.00000E+00
         0.00000E+00
         0.00000E+00
         0.00000E+00
         0.00000E+00
         0.00000E+00
         0.00000E+00
         0.00000E+00
         0.00000E+00
         0.00000E+00
         0.00000E+00
         0.00000E+00
         0.00000E+00
         0.00000E+00
         0.00000E+00
         0.00000E+00
         0.00000E+00
         0.00000E+00
         0.00000E+00
         0.00000E+00
         0.00000E+00
         0.00000E+00
         0.00000E+00
         0.00000E+00
         0.00000E+00
         0.00000E+00
         0.00000E+00
         0.00000E+00
         0.00000E+00
         0.00000E+00
         0.00000E+00
         0.00000E+00
         0.00000E+00
         0.00000E+00
         0.00000E+00
         0.00000E+00
         0.00000E+00
         0.00000E+00
         0.00000E+00
         0.00000E+00
         0.00000E+00
         0.00000E+00
         0.00000E+00
         0.00000E+00
         0.00000E+00
         0.00000E+00
         0.00000E+00
         0.00000E+00
         0.00000E+00
         0.00000E+00
         0.00000E+00
         0.00000E+00
         0.00000E+00
         0.00000E+00
         0.00000E+00
         0.00000E+00
         0.00000E+00
         0.00000E+00
         0.00000E+00
         0.00000E+00
         0.00000E+00
         0.00000E+00
         0.00000E+00
         0.00000E+00
         0.00000E+00
         0.00000E+00
         0.00000E+00
         0.00000E+00
         0.00000E+00
         0.00000E+00
         0.00000E+00
         0.00000E+00
         0.00000E+00
         0.00000E+00
         0.00000E+00
         0.00000E+00
         0.00000E+00
         0.00000E+00
         0.00000E+00
         0.00000E+00
         0.00000E+00
  
SCALARS                      stress_xx  double 1
LOOKUP_TABLE default
         0.11154E+13
         0.11011E+13
         0.11102E+13
         0.11265E+13
        -0.17730E+03
        -0.19882E+03
        -0.19037E+03
        -0.17295E+03
         0.11006E+13
         0.11054E+13
        -0.17879E+03
        -0.17302E+03
         0.10802E+13
         0.10794E+13
        -0.21244E+03
        -0.19974E+03
         0.11241E+13
         0.10806E+13
        -0.15697E+03
        -0.17410E+03
         0.10645E+13
         0.10521E+13
         0.10719E+13
        -0.21055E+03
        -0.18388E+03
        -0.18987E+03
         0.10525E+13
         0.10343E+13
        -0.20199E+03
        -0.17034E+03
         0.11233E+13
         0.11044E+13
         0.11417E+13
        -0.17237E+03
        -0.16024E+03
        -0.15580E+03
         0.11124E+13
         0.10882E+13
        -0.18236E+03
        -0.16641E+03
         0.11028E+13
         0.10842E+13
        -0.15761E+03
        -0.13953E+03
         0.11186E+13
         0.11256E+13
        -0.17272E+03
        -0.19299E+03
         0.10692E+13
        -0.16873E+03
         0.11242E+13
        -0.19827E+03
         0.10473E+13
        -0.17819E+03
         0.10416E+13
        -0.17092E+03
         0.10417E+13
         0.10620E+13
        -0.17415E+03
        -0.16960E+03
         0.11230E+13
         0.11157E+13
        -0.17462E+03
        -0.19741E+03
         0.11275E+13
        -0.16850E+03
         0.11189E+13
        -0.18390E+03
         0.10961E+13
         0.10938E+13
        -0.17702E+03
        -0.18548E+03
         0.10886E+13
        -0.18704E+03
         0.10279E+13
        -0.14778E+03
         0.10247E+13
        -0.14344E+03
         0.10263E+13
        -0.15124E+03
         0.10351E+13
         0.10442E+13
        -0.14410E+03
        -0.15023E+03
         0.10627E+13
        -0.13992E+03
         0.11182E+13
        -0.18349E+03
         0.11096E+13
        -0.18779E+03
         0.11025E+13
         0.10986E+13
        -0.18034E+03
        -0.18245E+03
         0.11034E+13
        -0.16572E+03
         0.11068E+13
        -0.16335E+03
         0.11037E+13
        -0.17487E+03
         0.11026E+13
         0.11057E+13
        -0.17149E+03
        -0.17652E+03
         0.10854E+13
         0.10937E+13
        -0.13314E+03
        -0.12523E+03
         0.10839E+13
        -0.12713E+03
         0.10934E+13
        -0.12190E+03
         0.10840E+13
        -0.12020E+03
         0.10632E+13
        -0.11359E+03
         0.10431E+13
        -0.10091E+03
         0.10310E+13
        -0.90867E+02
         0.10297E+13
        -0.90236E+02
         0.10301E+13
        -0.97856E+02
         0.10432E+13
        -0.10284E+03
         0.10677E+13
        -0.93907E+02
         0.10945E+13
        -0.84647E+02
         0.11102E+13
        -0.84551E+02
         0.11257E+13
        -0.94507E+02
         0.11360E+13
        -0.10776E+03
         0.11356E+13
        -0.11577E+03
         0.11107E+13
        -0.12503E+03
         0.10934E+13
        -0.13395E+03
         0.10874E+13
        -0.12271E+03
         0.10967E+13
        -0.10765E+03
         0.11016E+13
        -0.10731E+03
         0.10934E+13
        -0.11741E+03
         0.10936E+13
        -0.12517E+03
         0.10997E+13
        -0.11879E+03
         0.11077E+13
        -0.11484E+03
        -0.29839E+11
        -0.29332E+11
        -0.29403E+11
        -0.30045E+11
        -0.28807E+11
        -0.29462E+11
        -0.28642E+11
        -0.29080E+11
        -0.29948E+11
        -0.29421E+11
        -0.28147E+11
        -0.27992E+11
        -0.28402E+11
        -0.28429E+11
        -0.28167E+11
        -0.30016E+11
        -0.29901E+11
        -0.30219E+11
        -0.29275E+11
        -0.29457E+11
        -0.29195E+11
        -0.29369E+11
        -0.29044E+11
        -0.29130E+11
        -0.29442E+11
        -0.29420E+11
        -0.28878E+11
        -0.28928E+11
        -0.28504E+11
        -0.29138E+11
        -0.29960E+11
        -0.29324E+11
        -0.29955E+11
        -0.29545E+11
        -0.27882E+11
        -0.28449E+11
        -0.28708E+11
        -0.28403E+11
        -0.28363E+11
        -0.27841E+11
        -0.27446E+11
        -0.28386E+11
        -0.29206E+11
        -0.29099E+11
        -0.28683E+11
        -0.27904E+11
        -0.28572E+11
        -0.29239E+11
        -0.29195E+11
        -0.28680E+11
        -0.28123E+11
        -0.28867E+11
        -0.26432E+11
        -0.27201E+11
        -0.27077E+11
        -0.27252E+11
        -0.27207E+11
        -0.26798E+11
        -0.26365E+11
        -0.26222E+11
        -0.26284E+11
        -0.26239E+11
        -0.26050E+11
        -0.27169E+11
        -0.27565E+11
        -0.27715E+11
        -0.27965E+11
        -0.28152E+11
        -0.28143E+11
        -0.27824E+11
        -0.26694E+11
        -0.26972E+11
        -0.27364E+11
        -0.27360E+11
        -0.27293E+11
        -0.26915E+11
        -0.27468E+11
        -0.27666E+11
         0.13477E+07
         0.60265E+06
         0.76535E+06
         0.80284E+06
         0.51431E+06
         0.96772E+06
        -0.50943E+06
        -0.10289E+07
         0.17062E+07
        -0.11357E+07
        -0.13293E+07
        -0.46385E+05
        -0.19684E+05
        -0.38853E+07
        -0.12071E+07
        -0.20418E+06
         0.31061E+06
         0.75147E+06
        -0.16438E+05
        -0.21426E+06
        -0.12330E+07
        -0.50238E+06
        -0.18196E+07
        -0.75497E+06
        -0.12906E+07
        -0.20320E+06
        -0.49957E+07
        -0.26794E+07
        -0.16663E+07
        -0.12478E+07
        -0.99176E+05
        -0.52138E+06
         0.76607E+06
         0.13676E+07
        -0.99760E+06
        -0.69581E+06
        -0.27524E+06
        -0.15170E+07
        -0.10186E+07
        -0.62298E+06
        -0.76474E+06
        -0.14010E+07
        -0.11711E+07
        -0.14936E+07
        -0.11318E+07
        -0.51445E+06
        -0.19899E+06
        -0.20485E+06
         0.72365E+06
         0.11923E+07
         0.54732E+06
         0.73506E+06
        -0.30870E+07
        -0.45933E+06
        -0.17657E+07
         0.56122E+06
         0.25294E+07
         0.39291E+07
         0.32421E+07
         0.35341E+07
         0.28158E+07
         0.15324E+07
         0.50787E+06
        -0.31215E+06
        -0.11161E+07
        -0.64233E+05
        -0.18750E+07
        -0.30615E+07
        -0.25680E+07
        -0.22706E+07
        -0.12426E+07
         0.69363E+06
         0.69743E+06
         0.74864E+05
        -0.10146E+07
        -0.15701E+07
        -0.91707E+06
         0.10708E+06
         0.12656E+07
         0.52287E+06
         0.68726E+06
         0.73905E+06
         0.41709E+06
         0.88061E+06
        -0.58607E+06
        -0.11220E+07
         0.16245E+07
        -0.12371E+07
        -0.14210E+07
        -0.17410E+06
        -0.13007E+06
        -0.39833E+07
        -0.13336E+07
        -0.29050E+06
         0.22851E+06
         0.69566E+06
        -0.10621E+06
        -0.29237E+06
        -0.13421E+07
        -0.60879E+06
        -0.19319E+07
        -0.84016E+06
        -0.13973E+07
        -0.27726E+06
        -0.50920E+07
        -0.27573E+07
        -0.17562E+07
        -0.13584E+07
        -0.18101E+06
        -0.59591E+06
         0.70091E+06
         0.13045E+07
        -0.11094E+07
        -0.78921E+06
        -0.37150E+06
        -0.16449E+07
        -0.11373E+07
        -0.73970E+06
        -0.89069E+06
        -0.15240E+07
        -0.12878E+07
        -0.16011E+07
        -0.12330E+07
        -0.62709E+06
        -0.30028E+06
        -0.29963E+06
         0.63935E+06
         0.11059E+07
         0.44453E+06
         0.64319E+06
        -0.32925E+07
        -0.65974E+06
        -0.19629E+07
         0.37221E+06
         0.23295E+07
         0.37064E+07
         0.30197E+07
         0.33091E+07
         0.25886E+07
         0.13000E+07
         0.27660E+06
        -0.52594E+06
        -0.12947E+07
        -0.23102E+06
        -0.20498E+07
        -0.32481E+07
        -0.27586E+07
        -0.24698E+07
        -0.14426E+07
         0.48213E+06
         0.49788E+06
        -0.10543E+06
        -0.11950E+07
        -0.17549E+07
        -0.11040E+07
        -0.83247E+05
         0.12847E+07
         0.53851E+06
         0.70384E+06
         0.75721E+06
         0.44338E+06
         0.90486E+06
        -0.57293E+06
        -0.10998E+07
         0.16387E+07
        -0.12324E+07
        -0.14014E+07
        -0.14982E+06
        -0.10934E+06
        -0.39566E+07
        -0.13022E+07
        -0.30834E+06
         0.22423E+06
         0.71258E+06
        -0.12825E+06
        -0.30620E+06
        -0.13599E+07
        -0.61558E+06
        -0.20056E+07
        -0.90165E+06
        -0.14437E+07
        -0.32926E+06
        -0.50732E+07
        -0.27660E+07
        -0.17951E+07
        -0.14358E+07
        -0.18167E+06
        -0.61289E+06
         0.72094E+06
         0.13260E+07
        -0.10806E+07
        -0.76518E+06
        -0.34994E+06
        -0.16233E+07
        -0.11189E+07
        -0.73388E+06
        -0.89395E+06
        -0.15690E+07
        -0.13506E+07
        -0.16730E+07
        -0.12501E+07
        -0.61147E+06
        -0.28178E+06
        -0.27873E+06
         0.66253E+06
         0.11325E+07
         0.47396E+06
         0.66945E+06
        -0.32312E+07
        -0.60472E+06
        -0.19019E+07
         0.41904E+06
         0.23643E+07
         0.37410E+07
         0.30638E+07
         0.33533E+07
         0.26335E+07
         0.13466E+07
         0.30396E+06
        -0.52694E+06
        -0.12918E+07
        -0.20027E+06
        -0.20295E+07
        -0.32860E+07
        -0.27996E+07
        -0.24592E+07
        -0.13876E+07
         0.54574E+06
         0.55485E+06
        -0.47890E+05
        -0.11303E+07
        -0.17006E+07
        -0.10598E+07
        -0.40677E+05
         0.12729E+07
         0.53171E+06
         0.69728E+06
         0.74782E+06
         0.43481E+06
         0.89801E+06
        -0.58146E+06
        -0.11111E+07
         0.16154E+07
        -0.12755E+07
        -0.14102E+07
        -0.16314E+06
        -0.11839E+06
        -0.39663E+07
        -0.13176E+07
        -0.37721E+06
         0.17574E+06
         0.70378E+06
        -0.20673E+06
        -0.37173E+06
        -0.14426E+07
        -0.68909E+06
        -0.21771E+07
        -0.10391E+07
        -0.15705E+07
        -0.44735E+06
        -0.50995E+07
        -0.28288E+07
        -0.19047E+07
        -0.16213E+07
        -0.22194E+06
        -0.68020E+06
         0.71260E+06
         0.13162E+07
        -0.10953E+07
        -0.77423E+06
        -0.35745E+06
        -0.16473E+07
        -0.11485E+07
        -0.78723E+06
        -0.96530E+06
        -0.17083E+07
        -0.15212E+07
        -0.18427E+07
        -0.13337E+07
        -0.65676E+06
        -0.31428E+06
        -0.29666E+06
         0.64828E+06
         0.11162E+07
         0.45864E+06
         0.65959E+06
        -0.32598E+07
        -0.62439E+06
        -0.19330E+07
         0.39177E+06
         0.23461E+07
         0.37199E+07
         0.30284E+07
         0.33148E+07
         0.25965E+07
         0.13017E+07
         0.23272E+06
        -0.64194E+06
        -0.14000E+07
        -0.25158E+06
        -0.20872E+07
        -0.34447E+07
        -0.29677E+07
        -0.25379E+07
        -0.14249E+07
         0.51009E+06
         0.52777E+06
        -0.79948E+05
        -0.11636E+07
        -0.17233E+07
        -0.10771E+07
        -0.57909E+05
         0.12516E+07
         0.51796E+06
         0.68590E+06
         0.73810E+06
         0.42483E+06
         0.88821E+06
        -0.59363E+06
        -0.11305E+07
         0.15875E+07
        -0.13205E+07
        -0.14196E+07
        -0.17147E+06
        -0.12847E+06
        -0.39772E+07
        -0.13249E+07
        -0.42406E+06
         0.13727E+06
         0.69573E+06
        -0.25836E+06
        -0.41855E+06
        -0.14958E+07
        -0.74188E+06
        -0.22824E+07
        -0.11243E+07
        -0.16623E+07
        -0.52316E+06
        -0.51224E+07
        -0.28736E+07
        -0.19816E+07
        -0.17445E+07
        -0.26404E+06
        -0.72926E+06
         0.69439E+06
         0.13023E+07
        -0.11104E+07
        -0.78591E+06
        -0.36884E+06
        -0.16652E+07
        -0.11731E+07
        -0.82785E+06
        -0.10156E+07
        -0.18022E+07
        -0.16331E+07
        -0.19503E+07
        -0.13886E+07
        -0.68658E+06
        -0.34309E+06
        -0.32518E+06
         0.62341E+06
         0.10920E+07
         0.43461E+06
         0.64346E+06
        -0.32856E+07
        -0.64154E+06
        -0.19594E+07
         0.37056E+06
         0.23376E+07
         0.37137E+07
         0.30132E+07
         0.32894E+07
         0.25651E+07
         0.12739E+07
         0.18936E+06
        -0.72149E+06
        -0.14737E+07
        -0.29123E+06
        -0.21280E+07
        -0.35475E+07
        -0.30856E+07
        -0.25942E+07
        -0.14419E+07
         0.47770E+06
         0.49185E+06
        -0.11674E+06
        -0.12066E+07
        -0.17602E+07
        -0.10999E+07
        -0.75102E+05
         0.12001E+07
         0.49161E+06
         0.67465E+06
         0.74794E+06
         0.43873E+06
         0.90532E+06
        -0.60277E+06
        -0.11652E+07
         0.15481E+07
        -0.13815E+07
        -0.14109E+07
        -0.14308E+06
        -0.11771E+06
        -0.39708E+07
        -0.12889E+07
        -0.41640E+06
         0.12822E+06
         0.71303E+06
        -0.24770E+06
        -0.41026E+06
        -0.14800E+07
        -0.72323E+06
        -0.22801E+07
        -0.11261E+07
        -0.17021E+07
        -0.53415E+06
        -0.51278E+07
        -0.28770E+07
        -0.19822E+07
        -0.17491E+07
        -0.31418E+06
        -0.75524E+06
         0.66259E+06
         0.12994E+07
        -0.10979E+07
        -0.78426E+06
        -0.37077E+06
        -0.16433E+07
        -0.11544E+07
        -0.80699E+06
        -0.99113E+06
        -0.17879E+07
        -0.16212E+07
        -0.19568E+07
        -0.13952E+07
        -0.69144E+06
        -0.36800E+06
        -0.38218E+06
         0.56229E+06
         0.10592E+07
         0.42685E+06
         0.65141E+06
        -0.32352E+07
        -0.58943E+06
        -0.19169E+07
         0.39894E+06
         0.23674E+07
         0.37542E+07
         0.30591E+07
         0.33333E+07
         0.26157E+07
         0.13408E+07
         0.24780E+06
        -0.68621E+06
        -0.14348E+07
        -0.25061E+06
        -0.20889E+07
        -0.35163E+07
        -0.30628E+07
        -0.25716E+07
        -0.14146E+07
         0.49645E+06
         0.48782E+06
        -0.14232E+06
        -0.12233E+07
        -0.17515E+07
        -0.10746E+07
        -0.38920E+05
         0.11218E+07
         0.44499E+06
         0.64775E+06
         0.74243E+06
         0.42887E+06
         0.90502E+06
        -0.63529E+06
        -0.12337E+07
         0.14812E+07
        -0.14718E+07
        -0.14325E+07
        -0.15411E+06
        -0.13575E+06
        -0.40006E+07
        -0.12963E+07
        -0.43097E+06
         0.96592E+05
         0.71163E+06
        -0.25671E+06
        -0.42017E+06
        -0.14872E+07
        -0.72836E+06
        -0.22884E+07
        -0.11365E+07
        -0.17581E+07
        -0.55354E+06
        -0.51668E+07
        -0.28991E+07
        -0.19947E+07
        -0.17641E+07
        -0.38390E+06
        -0.79756E+06
         0.61310E+06
         0.12806E+07
        -0.11156E+07
        -0.80349E+06
        -0.39330E+06
        -0.16621E+07
        -0.11724E+07
        -0.81705E+06
        -0.99547E+06
        -0.17903E+07
        -0.16224E+07
        -0.19730E+07
        -0.14254E+07
        -0.73371E+06
        -0.42550E+06
        -0.46761E+06
         0.47510E+06
         0.10018E+07
         0.39465E+06
         0.64054E+06
        -0.32562E+07
        -0.60571E+06
        -0.19294E+07
         0.38463E+06
         0.23468E+07
         0.37294E+07
         0.30385E+07
         0.33156E+07
         0.25981E+07
         0.13276E+07
         0.23726E+06
        -0.69901E+06
        -0.14370E+07
        -0.25378E+06
        -0.20976E+07
        -0.35212E+07
        -0.30728E+07
        -0.26072E+07
        -0.14675E+07
         0.43807E+06
         0.42225E+06
        -0.22335E+06
        -0.12943E+07
        -0.17891E+07
        -0.10949E+07
        -0.54888E+05
         0.10989E+07
         0.42764E+06
         0.63669E+06
         0.73466E+06
         0.41819E+06
         0.89555E+06
        -0.65301E+06
        -0.12568E+07
         0.14619E+07
        -0.14986E+07
        -0.14476E+07
        -0.16958E+06
        -0.15352E+06
        -0.40159E+07
        -0.13092E+07
        -0.44415E+06
         0.83749E+05
         0.70571E+06
        -0.26496E+06
        -0.42773E+06
        -0.14986E+07
        -0.74048E+06
        -0.22994E+07
        -0.11445E+07
        -0.17786E+07
        -0.56470E+06
        -0.51835E+07
        -0.29099E+07
        -0.20129E+07
        -0.17784E+07
        -0.40729E+06
        -0.81437E+06
         0.59869E+06
         0.12705E+07
        -0.11306E+07
        -0.81375E+06
        -0.40697E+06
        -0.16857E+07
        -0.11931E+07
        -0.83779E+06
        -0.10166E+07
        -0.18075E+07
        -0.16332E+07
        -0.19874E+07
        -0.14433E+07
        -0.75345E+06
        -0.44435E+06
        -0.48899E+06
         0.45363E+06
         0.98190E+06
         0.37479E+06
         0.62690E+06
        -0.32850E+07
        -0.63401E+06
        -0.19485E+07
         0.36484E+06
         0.23229E+07
         0.37083E+07
         0.30169E+07
         0.32856E+07
         0.25586E+07
         0.12861E+07
         0.19967E+06
        -0.71601E+06
        -0.14505E+07
        -0.28262E+06
        -0.21280E+07
        -0.35501E+07
        -0.31102E+07
        -0.26431E+07
        -0.14976E+07
         0.41365E+06
         0.40233E+06
        -0.25035E+06
        -0.13299E+07
        -0.18223E+07
        -0.11229E+07
        -0.82708E+05
         0.11132E+07
         0.43922E+06
         0.64517E+06
         0.73841E+06
         0.43107E+06
         0.89931E+06
        -0.64494E+06
        -0.12382E+07
         0.14753E+07
        -0.14810E+07
        -0.14359E+07
        -0.15424E+06
        -0.14247E+06
        -0.39954E+07
        -0.12844E+07
        -0.42869E+06
         0.95859E+05
         0.71445E+06
        -0.24932E+06
        -0.41510E+06
        -0.14825E+07
        -0.72553E+06
        -0.22833E+07
        -0.11306E+07
        -0.17657E+07
        -0.55306E+06
        -0.51598E+07
        -0.28932E+07
        -0.20069E+07
        -0.17652E+07
        -0.39513E+06
        -0.80490E+06
         0.60921E+06
         0.12749E+07
        -0.11142E+07
        -0.80120E+06
        -0.39603E+06
        -0.16695E+07
        -0.11805E+07
        -0.82667E+06
        -0.10022E+07
        -0.17922E+07
        -0.16172E+07
        -0.19727E+07
        -0.14310E+07
        -0.74070E+06
        -0.43172E+06
        -0.47451E+06
         0.46806E+06
         0.99307E+06
         0.38345E+06
         0.63050E+06
        -0.32419E+07
        -0.59164E+06
        -0.19232E+07
         0.37520E+06
         0.23440E+07
         0.37412E+07
         0.30534E+07
         0.33117E+07
         0.25688E+07
         0.13016E+07
         0.22743E+06
        -0.67660E+06
        -0.14161E+07
        -0.26028E+06
        -0.21070E+07
        -0.35259E+07
        -0.30854E+07
        -0.26126E+07
        -0.14686E+07
         0.44764E+06
         0.43748E+06
        -0.21901E+06
        -0.13036E+07
        -0.17990E+07
        -0.10996E+07
        -0.57522E+05
         0.11093E+07
         0.43812E+06
         0.64295E+06
         0.73357E+06
         0.42936E+06
         0.89453E+06
        -0.64924E+06
        -0.12436E+07
         0.14659E+07
        -0.14912E+07
        -0.14421E+07
        -0.16365E+06
        -0.14537E+06
        -0.40019E+07
        -0.12979E+07
        -0.43710E+06
         0.87528E+05
         0.70798E+06
        -0.25612E+06
        -0.42072E+06
        -0.14883E+07
        -0.73324E+06
        -0.22890E+07
        -0.11359E+07
        -0.17725E+07
        -0.55785E+06
        -0.51651E+07
        -0.28929E+07
        -0.20154E+07
        -0.17720E+07
        -0.40306E+06
        -0.81010E+06
         0.60239E+06
         0.12676E+07
        -0.11199E+07
        -0.80562E+06
        -0.39907E+06
        -0.16899E+07
        -0.11924E+07
        -0.83747E+06
        -0.10125E+07
        -0.17991E+07
        -0.16264E+07
        -0.19766E+07
        -0.14348E+07
        -0.74694E+06
        -0.44038E+06
        -0.48440E+06
         0.45971E+06
         0.98529E+06
         0.37575E+06
         0.62273E+06
        -0.32543E+07
        -0.60141E+06
        -0.19432E+07
         0.35805E+06
         0.23417E+07
         0.37291E+07
         0.30253E+07
         0.32802E+07
         0.25505E+07
         0.12740E+07
         0.19730E+06
        -0.69161E+06
        -0.14338E+07
        -0.27000E+06
        -0.21163E+07
        -0.35345E+07
        -0.30867E+07
        -0.26186E+07
        -0.14771E+07
         0.42463E+06
         0.40906E+06
        -0.24094E+06
        -0.13146E+07
        -0.18043E+07
        -0.11122E+07
        -0.75316E+05
         0.10987E+07
         0.42921E+06
         0.63661E+06
         0.73122E+06
         0.42204E+06
         0.89172E+06
        -0.65791E+06
        -0.12521E+07
         0.14575E+07
        -0.15013E+07
        -0.14491E+07
        -0.17612E+06
        -0.15358E+06
        -0.40064E+07
        -0.13118E+07
        -0.44855E+06
         0.80918E+05
         0.70488E+06
        -0.26450E+06
        -0.42462E+06
        -0.14958E+07
        -0.74107E+06
        -0.22976E+07
        -0.11442E+07
        -0.17792E+07
        -0.56663E+06
        -0.51690E+07
        -0.28944E+07
        -0.20244E+07
        -0.17771E+07
        -0.41406E+06
        -0.81858E+06
         0.59951E+06
         0.12669E+07
        -0.11332E+07
        -0.81359E+06
        -0.40633E+06
        -0.17097E+07
        -0.12056E+07
        -0.84697E+06
        -0.10184E+07
        -0.18050E+07
        -0.16348E+07
        -0.19841E+07
        -0.14420E+07
        -0.75537E+06
        -0.44844E+06
        -0.49299E+06
         0.45174E+06
         0.97847E+06
         0.36844E+06
         0.61941E+06
        -0.32792E+07
        -0.62209E+06
        -0.19585E+07
         0.35285E+06
         0.23350E+07
         0.37046E+07
         0.29900E+07
         0.32518E+07
         0.25315E+07
         0.12541E+07
         0.18498E+06
        -0.70642E+06
        -0.14551E+07
        -0.28450E+06
        -0.21316E+07
        -0.35523E+07
        -0.30984E+07
        -0.26325E+07
        -0.14941E+07
         0.40566E+06
         0.38750E+06
        -0.26338E+06
        -0.13305E+07
        -0.18195E+07
        -0.11313E+07
        -0.95566E+05
         0.11054E+07
         0.43277E+06
         0.63973E+06
         0.73721E+06
         0.43096E+06
         0.89999E+06
        -0.65356E+06
        -0.12388E+07
         0.14639E+07
        -0.14937E+07
        -0.14381E+07
        -0.16566E+06
        -0.15036E+06
        -0.39874E+07
        -0.12888E+07
        -0.44019E+06
         0.85725E+05
         0.71358E+06
        -0.25507E+06
        -0.41431E+06
        -0.14829E+07
        -0.72771E+06
        -0.22868E+07
        -0.11357E+07
        -0.17737E+07
        -0.55937E+06
        -0.51539E+07
        -0.28831E+07
        -0.20171E+07
        -0.17627E+07
        -0.40465E+06
        -0.81216E+06
         0.61176E+06
         0.12767E+07
        -0.11232E+07
        -0.80541E+06
        -0.40165E+06
        -0.16968E+07
        -0.11931E+07
        -0.83039E+06
        -0.10024E+07
        -0.17934E+07
        -0.16219E+07
        -0.19750E+07
        -0.14344E+07
        -0.74825E+06
        -0.44068E+06
        -0.48430E+06
         0.46131E+06
         0.98799E+06
         0.37751E+06
         0.62903E+06
        -0.32477E+07
        -0.58793E+06
        -0.19263E+07
         0.36855E+06
         0.23300E+07
         0.37063E+07
         0.30153E+07
         0.32797E+07
         0.25506E+07
         0.12829E+07
         0.21226E+06
        -0.69345E+06
        -0.14321E+07
        -0.26108E+06
        -0.21104E+07
        -0.35359E+07
        -0.30872E+07
        -0.26186E+07
        -0.14809E+07
         0.42612E+06
         0.41177E+06
        -0.24008E+06
        -0.13102E+07
        -0.18023E+07
        -0.11060E+07
        -0.66014E+05
         0.11004E+07
         0.42562E+06
         0.63359E+06
         0.73163E+06
         0.42350E+06
         0.89292E+06
        -0.66392E+06
        -0.12465E+07
         0.14573E+07
        -0.15062E+07
        -0.14485E+07
        -0.18114E+06
        -0.16671E+06
        -0.39964E+07
        -0.12986E+07
        -0.44957E+06
         0.77226E+05
         0.70658E+06
        -0.26535E+06
        -0.42112E+06
        -0.14968E+07
        -0.74191E+06
        -0.23015E+07
        -0.11452E+07
        -0.17863E+07
        -0.56711E+06
        -0.51682E+07
        -0.28936E+07
        -0.20321E+07
        -0.17715E+07
        -0.41497E+06
        -0.82017E+06
         0.60307E+06
         0.12702E+07
        -0.11359E+07
        -0.81479E+06
        -0.41374E+06
        -0.17183E+07
        -0.12140E+07
        -0.84839E+06
        -0.10221E+07
        -0.18121E+07
        -0.16362E+07
        -0.19908E+07
        -0.14479E+07
        -0.76055E+06
        -0.45227E+06
        -0.49766E+06
         0.45097E+06
         0.98031E+06
         0.36772E+06
         0.62016E+06
        -0.32722E+07
        -0.60912E+06
        -0.19505E+07
         0.34055E+06
         0.22974E+07
         0.36751E+07
         0.29962E+07
         0.32551E+07
         0.25184E+07
         0.12510E+07
         0.17337E+06
        -0.73186E+06
        -0.14576E+07
        -0.28751E+06
        -0.21332E+07
        -0.35621E+07
        -0.31275E+07
        -0.26547E+07
        -0.14989E+07
         0.40106E+06
         0.38604E+06
        -0.25329E+06
        -0.13190E+07
        -0.18212E+07
        -0.11319E+07
        -0.91802E+05
         0.10994E+07
         0.42319E+06
         0.63173E+06
         0.73062E+06
         0.42317E+06
         0.89138E+06
        -0.66767E+06
        -0.12461E+07
         0.14582E+07
        -0.15062E+07
        -0.14497E+07
        -0.18334E+06
        -0.16952E+06
        -0.39929E+07
        -0.12975E+07
        -0.45193E+06
         0.77533E+05
         0.70627E+06
        -0.26629E+06
        -0.42060E+06
        -0.14995E+07
        -0.74404E+06
        -0.23048E+07
        -0.11470E+07
        -0.17884E+07
        -0.56956E+06
        -0.51652E+07
        -0.28936E+07
        -0.20398E+07
        -0.17736E+07
        -0.42088E+06
        -0.82338E+06
         0.60093E+06
         0.12694E+07
        -0.11391E+07
        -0.81751E+06
        -0.41724E+06
        -0.17289E+07
        -0.12262E+07
        -0.85600E+06
        -0.10243E+07
        -0.18142E+07
        -0.16382E+07
        -0.19932E+07
        -0.14500E+07
        -0.76341E+06
        -0.45586E+06
        -0.50301E+06
         0.44705E+06
         0.97873E+06
         0.36601E+06
         0.61820E+06
        -0.32728E+07
        -0.60859E+06
        -0.19569E+07
         0.32975E+06
         0.22968E+07
         0.36745E+07
         0.29884E+07
         0.32345E+07
         0.24952E+07
         0.12382E+07
         0.17211E+06
        -0.73562E+06
        -0.14640E+07
        -0.29778E+06
        -0.21452E+07
        -0.35706E+07
        -0.31329E+07
        -0.26594E+07
        -0.15039E+07
         0.39201E+06
         0.37473E+06
        -0.26054E+06
        -0.13196E+07
        -0.18235E+07
        -0.11434E+07
        -0.10229E+06
         0.11209E+07
         0.44532E+06
         0.65019E+06
         0.74464E+06
         0.44809E+06
         0.90960E+06
        -0.64754E+06
        -0.12194E+07
         0.14741E+07
        -0.14860E+07
        -0.14241E+07
        -0.15003E+06
        -0.14080E+06
        -0.39622E+07
        -0.12635E+07
        -0.43303E+06
         0.94221E+05
         0.72120E+06
        -0.24569E+06
        -0.40058E+06
        -0.14712E+07
        -0.71764E+06
        -0.22782E+07
        -0.11285E+07
        -0.17663E+07
        -0.55302E+06
        -0.51352E+07
        -0.28667E+07
        -0.20209E+07
        -0.17468E+07
        -0.40094E+06
        -0.80517E+06
         0.61861E+06
         0.12823E+07
        -0.11118E+07
        -0.79452E+06
        -0.39341E+06
        -0.17082E+07
        -0.12008E+07
        -0.82860E+06
        -0.99743E+06
        -0.17875E+07
        -0.16143E+07
        -0.19657E+07
        -0.14226E+07
        -0.73546E+06
        -0.43146E+06
        -0.48063E+06
         0.46618E+06
         0.99588E+06
         0.38476E+06
         0.63477E+06
        -0.32156E+07
        -0.55156E+06
        -0.19088E+07
         0.36447E+06
         0.23393E+07
         0.37282E+07
         0.30334E+07
         0.32686E+07
         0.25338E+07
         0.12803E+07
         0.21004E+06
        -0.69117E+06
        -0.14288E+07
        -0.25861E+06
        -0.21007E+07
        -0.35242E+07
        -0.30804E+07
        -0.26030E+07
        -0.14554E+07
         0.44259E+06
         0.41794E+06
        -0.22843E+06
        -0.12840E+07
        -0.17812E+07
        -0.10977E+07
        -0.56141E+05
         0.11117E+07
         0.43887E+06
         0.64448E+06
         0.73752E+06
         0.43856E+06
         0.90229E+06
        -0.65702E+06
        -0.12295E+07
         0.14643E+07
        -0.15018E+07
        -0.14343E+07
        -0.16194E+06
        -0.14815E+06
        -0.39719E+07
        -0.12777E+07
        -0.44490E+06
         0.83526E+05
         0.71573E+06
        -0.25929E+06
        -0.40926E+06
        -0.14803E+07
        -0.73060E+06
        -0.22873E+07
        -0.11399E+07
        -0.17809E+07
        -0.56385E+06
        -0.51480E+07
        -0.28734E+07
        -0.20280E+07
        -0.17531E+07
        -0.40872E+06
        -0.81423E+06
         0.61336E+06
         0.12742E+07
        -0.11280E+07
        -0.80298E+06
        -0.39919E+06
        -0.17325E+07
        -0.12179E+07
        -0.83684E+06
        -0.10099E+07
        -0.18021E+07
        -0.16307E+07
        -0.19774E+07
        -0.14343E+07
        -0.74703E+06
        -0.44107E+06
        -0.48821E+06
         0.45755E+06
         0.98433E+06
         0.37300E+06
         0.62565E+06
        -0.32519E+07
        -0.58216E+06
        -0.19368E+07
         0.34968E+06
         0.23343E+07
         0.37143E+07
         0.30027E+07
         0.32316E+07
         0.24981E+07
         0.12485E+07
         0.17256E+06
        -0.73408E+06
        -0.14591E+07
        -0.27368E+06
        -0.21078E+07
        -0.35288E+07
        -0.30950E+07
        -0.26285E+07
        -0.14742E+07
         0.42005E+06
         0.39734E+06
        -0.25165E+06
        -0.13088E+07
        -0.17969E+07
        -0.11123E+07
        -0.80536E+05
         0.10965E+07
         0.42255E+06
         0.62881E+06
         0.72764E+06
         0.42289E+06
         0.88787E+06
        -0.67125E+06
        -0.12418E+07
         0.14501E+07
        -0.15300E+07
        -0.14470E+07
        -0.18117E+06
        -0.16414E+06
        -0.39818E+07
        -0.12957E+07
        -0.45931E+06
         0.67245E+05
         0.70916E+06
        -0.27043E+06
        -0.41275E+06
        -0.14918E+07
        -0.74577E+06
        -0.22983E+07
        -0.11497E+07
        -0.18063E+07
        -0.57447E+06
        -0.51774E+07
        -0.28854E+07
        -0.20049E+07
        -0.17340E+07
        -0.42204E+06
        -0.82695E+06
         0.60817E+06
         0.12688E+07
        -0.11463E+07
        -0.81720E+06
        -0.41341E+06
        -0.17683E+07
        -0.12348E+07
        -0.81159E+06
        -0.10110E+07
        -0.18179E+07
        -0.16527E+07
        -0.19901E+07
        -0.14493E+07
        -0.76563E+06
        -0.45798E+06
        -0.50158E+06
         0.44753E+06
         0.97506E+06
         0.36260E+06
         0.61441E+06
        -0.32761E+07
        -0.60440E+06
        -0.19558E+07
         0.33302E+06
         0.23111E+07
         0.36765E+07
         0.29595E+07
         0.31903E+07
         0.24623E+07
         0.12402E+07
         0.10713E+06
        -0.83694E+06
        -0.15018E+07
        -0.29737E+06
        -0.21291E+07
        -0.35478E+07
        -0.31184E+07
        -0.26552E+07
        -0.15053E+07
         0.38481E+06
         0.37370E+06
        -0.27382E+06
        -0.13340E+07
        -0.18155E+07
        -0.11413E+07
        -0.11301E+06
         0.11169E+07
         0.44288E+06
         0.64886E+06
         0.74449E+06
         0.44933E+06
         0.90749E+06
        -0.65381E+06
        -0.12156E+07
         0.14612E+07
        -0.15343E+07
        -0.14239E+07
        -0.15631E+06
        -0.14291E+06
        -0.39526E+07
        -0.12652E+07
        -0.44018E+06
         0.78716E+05
         0.72325E+06
        -0.24666E+06
        -0.38073E+06
        -0.14681E+07
        -0.72270E+06
        -0.22769E+07
        -0.11297E+07
        -0.18015E+07
        -0.55645E+06
        -0.51822E+07
        -0.28680E+07
        -0.19225E+07
        -0.16508E+07
        -0.40516E+06
        -0.80844E+06
         0.62549E+06
         0.12857E+07
        -0.11170E+07
        -0.79162E+06
        -0.39089E+06
        -0.17668E+07
        -0.12056E+07
        -0.71486E+06
        -0.95919E+06
        -0.17908E+07
        -0.16387E+07
        -0.19664E+07
        -0.14225E+07
        -0.73456E+06
        -0.43254E+06
        -0.48112E+06
         0.46849E+06
         0.99838E+06
         0.38751E+06
         0.63401E+06
        -0.32172E+07
        -0.54648E+06
        -0.18965E+07
         0.37439E+06
         0.23376E+07
         0.37070E+07
         0.30017E+07
         0.32329E+07
         0.25093E+07
         0.13318E+07
         0.85929E+05
        -0.91972E+06
        -0.14987E+07
        -0.26489E+06
        -0.21019E+07
        -0.35251E+07
        -0.30900E+07
        -0.26080E+07
        -0.14473E+07
         0.43894E+06
         0.42056E+06
        -0.22558E+06
        -0.12794E+07
        -0.17651E+07
        -0.11004E+07
        -0.70270E+05
         0.10403E+07
         0.36776E+06
         0.57664E+06
         0.68150E+06
         0.35822E+06
         0.82470E+06
        -0.72776E+06
        -0.13040E+07
         0.13820E+07
        -0.16448E+07
        -0.15111E+07
        -0.27504E+06
        -0.25311E+06
        -0.40486E+07
        -0.13858E+07
        -0.51549E+06
         0.18139E+04
         0.66760E+06
        -0.32629E+06
        -0.44298E+06
        -0.15707E+07
        -0.82336E+06
        -0.23763E+07
        -0.12009E+07
        -0.19026E+07
        -0.61807E+06
        -0.52987E+07
        -0.29433E+07
        -0.19623E+07
        -0.17076E+07
        -0.47879E+06
        -0.87620E+06
         0.56066E+06
         0.12177E+07
        -0.12259E+07
        -0.88371E+06
        -0.48946E+06
        -0.19059E+07
        -0.13146E+07
        -0.77903E+06
        -0.10607E+07
        -0.19005E+07
        -0.17484E+07
        -0.20623E+07
        -0.15220E+07
        -0.85071E+06
        -0.53047E+06
        -0.56890E+06
         0.38497E+06
         0.90598E+06
         0.27696E+06
         0.53989E+06
        -0.34222E+07
        -0.74543E+06
        -0.21034E+07
         0.16362E+06
         0.21276E+07
         0.35046E+07
         0.27959E+07
         0.30120E+07
         0.23022E+07
         0.11432E+07
        -0.17688E+06
        -0.12057E+07
        -0.17013E+07
        -0.43296E+06
        -0.22782E+07
        -0.37082E+07
        -0.32791E+07
        -0.28196E+07
        -0.16646E+07
         0.23052E+06
         0.22734E+06
        -0.41062E+06
        -0.14687E+07
        -0.19597E+07
        -0.12874E+07
        -0.25600E+06
         0.10840E+07
         0.37286E+06
         0.59012E+06
         0.70683E+06
         0.38960E+06
         0.85256E+06
        -0.71985E+06
        -0.12485E+07
         0.14345E+07
        -0.15646E+07
        -0.14868E+07
        -0.27290E+06
        -0.28141E+06
        -0.39827E+07
        -0.13309E+07
        -0.45809E+06
         0.51831E+05
         0.69998E+06
        -0.28323E+06
        -0.40414E+06
        -0.15238E+07
        -0.78871E+06
        -0.23049E+07
        -0.11478E+07
        -0.18160E+07
        -0.57329E+06
        -0.51990E+07
        -0.28535E+07
        -0.18944E+07
        -0.16234E+07
        -0.43490E+06
        -0.84646E+06
         0.58187E+06
         0.12084E+07
        -0.12097E+07
        -0.89036E+06
        -0.51728E+06
        -0.18421E+07
        -0.12379E+07
        -0.71215E+06
        -0.10149E+07
        -0.18388E+07
        -0.16828E+07
        -0.19966E+07
        -0.14852E+07
        -0.83281E+06
        -0.51550E+06
        -0.53170E+06
         0.41319E+06
         0.90761E+06
         0.28422E+06
         0.54195E+06
        -0.33433E+07
        -0.64276E+06
        -0.20773E+07
         0.11814E+06
         0.20333E+07
         0.34471E+07
         0.28900E+07
         0.31087E+07
         0.23793E+07
         0.11890E+07
        -0.16408E+06
        -0.11665E+07
        -0.16247E+07
        -0.39504E+06
        -0.21983E+07
        -0.35940E+07
        -0.31816E+07
        -0.27449E+07
        -0.16323E+07
         0.22676E+06
         0.27037E+06
        -0.34914E+06
        -0.13710E+07
        -0.18411E+07
        -0.11941E+07
        -0.15942E+06
         0.30144E+09
         0.29818E+09
         0.29438E+09
         0.25566E+09
         0.36110E+09
         0.32636E+09
         0.30157E+09
         0.34213E+09
         0.28354E+09
         0.34217E+09
         0.34946E+09
         0.45473E+09
         0.40227E+09
         0.37522E+09
         0.46827E+09
         0.27976E+09
         0.27995E+09
         0.22387E+09
         0.30084E+09
         0.29290E+09
         0.36912E+09
         0.37139E+09
         0.35148E+09
         0.27524E+09
         0.32998E+09
         0.24266E+09
         0.36994E+09
         0.31172E+09
         0.33001E+09
         0.34315E+09
         0.27792E+09
         0.26910E+09
         0.25623E+09
         0.26573E+09
         0.40796E+09
         0.35124E+09
         0.35981E+09
         0.43997E+09
         0.41826E+09
         0.40995E+09
         0.43000E+09
         0.40331E+09
         0.38226E+09
         0.33798E+09
         0.35036E+09
         0.41263E+09
         0.36284E+09
         0.33279E+09
         0.31863E+09
         0.33735E+09
         0.38877E+09
         0.34344E+09
         0.74951E+09
         0.73430E+09
         0.74792E+09
         0.72441E+09
         0.74774E+09
         0.78479E+09
         0.78814E+09
         0.77946E+09
         0.78551E+09
         0.80709E+09
         0.78195E+09
         0.73665E+09
         0.65314E+09
         0.61652E+09
         0.62555E+09
         0.64016E+09
         0.64877E+09
         0.70725E+09
         0.75814E+09
         0.76180E+09
         0.69854E+09
         0.67365E+09
         0.69755E+09
         0.68970E+09
         0.68467E+09
         0.68611E+09
         0.34755E+10
         0.36415E+10
         0.35890E+10
         0.32747E+10
         0.40318E+10
         0.37868E+10
         0.39403E+10
         0.39704E+10
         0.33991E+10
         0.39683E+10
         0.43276E+10
         0.48486E+10
         0.43948E+10
         0.44533E+10
         0.50183E+10
         0.33305E+10
         0.35803E+10
         0.31242E+10
         0.36978E+10
         0.38910E+10
         0.40238E+10
         0.41122E+10
         0.38624E+10
         0.35563E+10
         0.40152E+10
         0.34315E+10
         0.44371E+10
         0.43624E+10
         0.43821E+10
         0.41574E+10
         0.33665E+10
         0.35408E+10
         0.33008E+10
         0.34521E+10
         0.44145E+10
         0.40507E+10
         0.40637E+10
         0.48595E+10
         0.47354E+10
         0.46787E+10
         0.47603E+10
         0.45200E+10
         0.42738E+10
         0.37709E+10
         0.39273E+10
         0.44128E+10
         0.40808E+10
         0.38370E+10
         0.37610E+10
         0.38996E+10
         0.42336E+10
         0.39109E+10
         0.70061E+10
         0.68241E+10
         0.69673E+10
         0.67473E+10
         0.69493E+10
         0.73086E+10
         0.74283E+10
         0.74138E+10
         0.74672E+10
         0.76387E+10
         0.74153E+10
         0.69671E+10
         0.62419E+10
         0.58973E+10
         0.59122E+10
         0.59877E+10
         0.60459E+10
         0.65600E+10
         0.70353E+10
         0.70638E+10
         0.65342E+10
         0.63311E+10
         0.65413E+10
         0.64944E+10
         0.64193E+10
         0.64013E+10
  
SCALARS                      stress_yy  double 1
LOOKUP_TABLE default
         0.11154E+13
         0.11011E+13
         0.11102E+13
         0.11265E+13
        -0.17730E+03
        -0.19882E+03
        -0.19037E+03
        -0.17295E+03
         0.11006E+13
         0.11054E+13
        -0.17879E+03
        -0.17302E+03
         0.10802E+13
         0.10794E+13
        -0.21244E+03
        -0.19974E+03
         0.11241E+13
         0.10806E+13
        -0.15697E+03
        -0.17410E+03
         0.10645E+13
         0.10521E+13
         0.10719E+13
        -0.21055E+03
        -0.18388E+03
        -0.18987E+03
         0.10525E+13
         0.10343E+13
        -0.20199E+03
        -0.17034E+03
         0.11233E+13
         0.11044E+13
         0.11417E+13
        -0.17237E+03
        -0.16024E+03
        -0.15580E+03
         0.11124E+13
         0.10882E+13
        -0.18236E+03
        -0.16641E+03
         0.11028E+13
         0.10842E+13
        -0.15761E+03
        -0.13953E+03
         0.11186E+13
         0.11256E+13
        -0.17272E+03
        -0.19299E+03
         0.10692E+13
        -0.16873E+03
         0.11242E+13
        -0.19827E+03
         0.10473E+13
        -0.17819E+03
         0.10416E+13
        -0.17092E+03
         0.10417E+13
         0.10620E+13
        -0.17415E+03
        -0.16960E+03
         0.11230E+13
         0.11157E+13
        -0.17462E+03
        -0.19741E+03
         0.11275E+13
        -0.16850E+03
         0.11189E+13
        -0.18390E+03
         0.10961E+13
         0.10938E+13
        -0.17702E+03
        -0.18548E+03
         0.10886E+13
        -0.18704E+03
         0.10279E+13
        -0.14778E+03
         0.10247E+13
        -0.14344E+03
         0.10263E+13
        -0.15124E+03
         0.10351E+13
         0.10442E+13
        -0.14410E+03
        -0.15023E+03
         0.10627E+13
        -0.13992E+03
         0.11182E+13
        -0.18349E+03
         0.11096E+13
        -0.18779E+03
         0.11025E+13
         0.10986E+13
        -0.18034E+03
        -0.18245E+03
         0.11034E+13
        -0.16572E+03
         0.11068E+13
        -0.16335E+03
         0.11037E+13
        -0.17487E+03
         0.11026E+13
         0.11057E+13
        -0.17149E+03
        -0.17652E+03
         0.10854E+13
         0.10937E+13
        -0.13314E+03
        -0.12523E+03
         0.10839E+13
        -0.12713E+03
         0.10934E+13
        -0.12190E+03
         0.10840E+13
        -0.12020E+03
         0.10632E+13
        -0.11359E+03
         0.10431E+13
        -0.10091E+03
         0.10310E+13
        -0.90867E+02
         0.10297E+13
        -0.90236E+02
         0.10301E+13
        -0.97856E+02
         0.10432E+13
        -0.10284E+03
         0.10677E+13
        -0.93907E+02
         0.10945E+13
        -0.84647E+02
         0.11102E+13
        -0.84551E+02
         0.11257E+13
        -0.94507E+02
         0.11360E+13
        -0.10776E+03
         0.11356E+13
        -0.11577E+03
         0.11107E+13
        -0.12503E+03
         0.10934E+13
        -0.13395E+03
         0.10874E+13
        -0.12271E+03
         0.10967E+13
        -0.10765E+03
         0.11016E+13
        -0.10731E+03
         0.10934E+13
        -0.11741E+03
         0.10936E+13
        -0.12517E+03
         0.10997E+13
        -0.11879E+03
         0.11077E+13
        -0.11484E+03
        -0.29839E+11
        -0.29332E+11
        -0.29403E+11
        -0.30045E+11
        -0.28807E+11
        -0.29462E+11
        -0.28642E+11
        -0.29080E+11
        -0.29948E+11
        -0.29421E+11
        -0.28147E+11
        -0.27992E+11
        -0.28402E+11
        -0.28429E+11
        -0.28167E+11
        -0.30016E+11
        -0.29901E+11
        -0.30219E+11
        -0.29275E+11
        -0.29457E+11
        -0.29195E+11
        -0.29369E+11
        -0.29044E+11
        -0.29130E+11
        -0.29442E+11
        -0.29420E+11
        -0.28878E+11
        -0.28928E+11
        -0.28504E+11
        -0.29138E+11
        -0.29960E+11
        -0.29324E+11
        -0.29955E+11
        -0.29545E+11
        -0.27882E+11
        -0.28449E+11
        -0.28708E+11
        -0.28403E+11
        -0.28363E+11
        -0.27841E+11
        -0.27446E+11
        -0.28386E+11
        -0.29206E+11
        -0.29099E+11
        -0.28683E+11
        -0.27904E+11
        -0.28572E+11
        -0.29239E+11
        -0.29195E+11
        -0.28680E+11
        -0.28123E+11
        -0.28867E+11
        -0.26432E+11
        -0.27201E+11
        -0.27077E+11
        -0.27252E+11
        -0.27207E+11
        -0.26798E+11
        -0.26365E+11
        -0.26222E+11
        -0.26284E+11
        -0.26239E+11
        -0.26050E+11
        -0.27169E+11
        -0.27565E+11
        -0.27715E+11
        -0.27965E+11
        -0.28152E+11
        -0.28143E+11
        -0.27824E+11
        -0.26694E+11
        -0.26972E+11
        -0.27364E+11
        -0.27360E+11
        -0.27293E+11
        -0.26915E+11
        -0.27468E+11
        -0.27666E+11
         0.54998E+06
        -0.20335E+06
         0.42867E+05
         0.12875E+07
         0.55955E+06
         0.15016E+07
        -0.67035E+06
        -0.16854E+07
         0.10247E+07
        -0.17744E+07
        -0.19865E+07
        -0.11632E+07
        -0.23097E+06
        -0.30674E+07
        -0.20685E+07
         0.25651E+06
         0.80660E+06
         0.95270E+06
        -0.62896E+06
         0.10805E+06
        -0.27406E+06
         0.50914E+06
        -0.75760E+06
        -0.33605E+06
        -0.19468E+07
        -0.22206E+06
        -0.41148E+07
        -0.26537E+07
        -0.14057E+07
        -0.16930E+07
         0.87633E+05
        -0.77931E+05
         0.91145E+06
         0.14938E+07
         0.72507E+05
        -0.48636E+05
         0.58321E+05
        -0.20875E+07
        -0.20648E+07
        -0.14360E+07
        -0.16732E+06
        -0.32631E+06
        -0.22017E+06
        -0.84425E+06
        -0.92528E+06
        -0.13747E+07
        -0.59849E+06
        -0.62089E+05
        -0.12092E+06
         0.28938E+06
         0.77205E+06
         0.16959E+07
        -0.17501E+07
         0.79662E+06
        -0.12112E+07
         0.49589E+06
         0.17509E+07
         0.25737E+07
         0.17793E+07
         0.22060E+07
         0.15849E+07
         0.67720E+06
         0.10095E+07
         0.10233E+07
         0.24899E+06
         0.12921E+07
        -0.47817E+06
        -0.18602E+07
        -0.19558E+07
        -0.21663E+07
        -0.22515E+07
        -0.72858E+06
        -0.55854E+06
        -0.11460E+07
        -0.19154E+07
        -0.13528E+07
         0.20130E+06
         0.12507E+07
         0.46824E+06
        -0.28309E+06
        -0.35233E+05
         0.12225E+07
         0.46123E+06
         0.14133E+07
        -0.74500E+06
        -0.17811E+07
         0.94226E+06
        -0.18790E+07
        -0.20800E+07
        -0.12906E+07
        -0.34100E+06
        -0.31667E+07
        -0.21962E+07
         0.17099E+06
         0.72430E+06
         0.89561E+06
        -0.71921E+06
         0.29181E+05
        -0.38392E+06
         0.40254E+06
        -0.86996E+06
        -0.42109E+06
        -0.20556E+07
        -0.29536E+06
        -0.42111E+07
        -0.27338E+07
        -0.14902E+07
        -0.18049E+07
         0.69114E+04
        -0.15220E+06
         0.84221E+06
         0.14301E+07
        -0.38930E+05
        -0.14265E+06
        -0.38217E+05
        -0.22156E+07
        -0.21836E+07
        -0.15522E+07
        -0.29330E+06
        -0.44897E+06
        -0.33715E+06
        -0.95218E+06
        -0.10269E+07
        -0.14876E+07
        -0.70004E+06
        -0.15602E+06
        -0.20499E+06
         0.20333E+06
         0.66901E+06
         0.16038E+07
        -0.19556E+07
         0.59605E+06
        -0.14088E+07
         0.30687E+06
         0.15509E+07
         0.23511E+07
         0.15571E+07
         0.19813E+07
         0.13575E+07
         0.44480E+06
         0.77826E+06
         0.80945E+06
         0.70428E+05
         0.11252E+07
        -0.65289E+06
        -0.20469E+07
        -0.21466E+07
        -0.23656E+07
        -0.24516E+07
        -0.94004E+06
        -0.75828E+06
        -0.13264E+07
        -0.20962E+07
        -0.15376E+07
         0.14618E+05
         0.10607E+07
         0.48760E+06
        -0.26740E+06
        -0.18676E+05
         0.12395E+07
         0.48640E+06
         0.14365E+07
        -0.72984E+06
        -0.17614E+07
         0.95562E+06
        -0.18774E+07
        -0.20620E+07
        -0.12661E+07
        -0.31991E+06
        -0.31411E+07
        -0.21659E+07
         0.15397E+06
         0.71982E+06
         0.91125E+06
        -0.74175E+06
         0.14653E+05
        -0.40241E+06
         0.39556E+06
        -0.94366E+06
        -0.48240E+06
        -0.21040E+07
        -0.34652E+06
        -0.41923E+07
        -0.27446E+07
        -0.15235E+07
        -0.18835E+07
         0.74040E+04
        -0.16882E+06
         0.85812E+06
         0.14511E+07
        -0.97812E+04
        -0.11923E+06
        -0.16911E+05
        -0.21941E+07
        -0.21653E+07
        -0.15458E+07
        -0.29662E+06
        -0.49350E+06
        -0.40022E+06
        -0.10246E+07
        -0.10444E+07
        -0.14722E+07
        -0.68176E+06
        -0.13425E+06
        -0.18158E+06
         0.23028E+06
         0.69819E+06
         0.16298E+07
        -0.18943E+07
         0.65090E+06
        -0.13482E+07
         0.35370E+06
         0.15855E+07
         0.23858E+07
         0.16014E+07
         0.20257E+07
         0.14022E+07
         0.49130E+06
         0.80568E+06
         0.80837E+06
         0.73323E+05
         0.11559E+07
        -0.63251E+06
        -0.20848E+07
        -0.21879E+07
        -0.23550E+07
        -0.23968E+07
        -0.87638E+06
        -0.70148E+06
        -0.12690E+07
        -0.20318E+07
        -0.14831E+07
         0.58992E+05
         0.11036E+07
         0.47611E+06
        -0.27415E+06
        -0.25247E+05
         0.12289E+07
         0.47671E+06
         0.14285E+07
        -0.73643E+06
        -0.17753E+07
         0.93156E+06
        -0.19237E+07
        -0.20723E+07
        -0.12792E+07
        -0.32861E+06
        -0.31520E+07
        -0.21825E+07
         0.85982E+05
         0.67115E+06
         0.90117E+06
        -0.82074E+06
        -0.51608E+05
        -0.48588E+06
         0.32189E+06
        -0.11152E+07
        -0.61957E+06
        -0.22327E+07
        -0.46353E+06
        -0.42186E+07
        -0.28096E+07
        -0.16272E+07
        -0.20700E+07
        -0.31546E+05
        -0.23555E+06
         0.84565E+06
         0.14408E+07
        -0.24091E+05
        -0.12888E+06
        -0.24679E+05
        -0.22182E+07
        -0.21951E+07
        -0.15986E+07
        -0.36812E+06
        -0.63238E+06
        -0.57095E+06
        -0.11949E+07
        -0.11287E+07
        -0.15177E+07
        -0.71453E+06
        -0.15132E+06
        -0.19561E+06
         0.21430E+06
         0.68263E+06
         0.16197E+07
        -0.19229E+07
         0.63107E+06
        -0.13796E+07
         0.32643E+06
         0.15671E+07
         0.23648E+07
         0.15661E+07
         0.19875E+07
         0.13650E+07
         0.44630E+06
         0.73446E+06
         0.69327E+06
        -0.34911E+05
         0.11045E+07
        -0.69017E+06
        -0.22436E+07
        -0.23563E+07
        -0.24339E+07
        -0.24343E+07
        -0.91199E+06
        -0.72875E+06
        -0.13011E+07
        -0.20655E+07
        -0.15057E+07
         0.41936E+05
         0.10867E+07
         0.45507E+06
        -0.28785E+06
        -0.36647E+05
         0.12180E+07
         0.46562E+06
         0.14176E+07
        -0.74657E+06
        -0.17973E+07
         0.90278E+06
        -0.19719E+07
        -0.20833E+07
        -0.12873E+07
        -0.33833E+06
        -0.31641E+07
        -0.21909E+07
         0.40070E+05
         0.63253E+06
         0.89184E+06
        -0.87291E+06
        -0.99141E+05
        -0.53977E+06
         0.26896E+06
        -0.12206E+07
        -0.70439E+06
        -0.23260E+07
        -0.53803E+06
        -0.42416E+07
        -0.28566E+07
        -0.16981E+07
        -0.21943E+07
        -0.72186E+05
        -0.28377E+06
         0.82330E+06
         0.14263E+07
        -0.38877E+05
        -0.14117E+06
        -0.36328E+05
        -0.22363E+07
        -0.22199E+07
        -0.16388E+07
        -0.41866E+06
        -0.72570E+06
        -0.68296E+06
        -0.13035E+07
        -0.11845E+07
        -0.15478E+07
        -0.74364E+06
        -0.17899E+06
        -0.22026E+06
         0.19049E+06
         0.65837E+06
         0.16033E+07
        -0.19487E+07
         0.61376E+06
        -0.14064E+07
         0.30521E+06
         0.15584E+07
         0.23587E+07
         0.15511E+07
         0.19623E+07
         0.13334E+07
         0.41844E+06
         0.69109E+06
         0.61360E+06
        -0.10870E+06
         0.10647E+07
        -0.73088E+06
        -0.23466E+07
        -0.24747E+07
        -0.24903E+07
        -0.24515E+07
        -0.94433E+06
        -0.76485E+06
        -0.13380E+07
        -0.21088E+07
        -0.15425E+07
         0.19294E+05
         0.10698E+07
         0.40389E+06
        -0.31411E+06
        -0.47930E+05
         0.12266E+07
         0.47841E+06
         0.14336E+07
        -0.75361E+06
        -0.18345E+07
         0.86252E+06
        -0.20360E+07
        -0.20763E+07
        -0.12586E+07
        -0.32723E+06
        -0.31590E+07
        -0.21561E+07
         0.48669E+05
         0.62328E+06
         0.90785E+06
        -0.86280E+06
        -0.91499E+05
        -0.52469E+06
         0.28748E+06
        -0.12184E+07
        -0.70575E+06
        -0.23674E+07
        -0.54764E+06
        -0.42470E+07
        -0.28623E+07
        -0.16925E+07
        -0.21997E+07
        -0.12083E+06
        -0.30885E+06
         0.78729E+06
         0.14228E+07
        -0.26009E+05
        -0.14013E+06
        -0.38542E+05
        -0.22146E+07
        -0.22014E+07
        -0.16174E+07
        -0.39442E+06
        -0.71085E+06
        -0.67111E+06
        -0.13109E+07
        -0.11921E+07
        -0.15530E+07
        -0.76890E+06
        -0.23525E+06
        -0.28118E+06
         0.15800E+06
         0.65038E+06
         0.16110E+07
        -0.18982E+07
         0.66570E+06
        -0.13642E+07
         0.33359E+06
         0.15881E+07
         0.23993E+07
         0.15970E+07
         0.20065E+07
         0.13839E+07
         0.48527E+06
         0.74951E+06
         0.64875E+06
        -0.69741E+05
         0.11053E+07
        -0.69165E+06
        -0.23154E+07
        -0.24524E+07
        -0.24679E+07
        -0.24244E+07
        -0.92554E+06
        -0.76906E+06
        -0.13637E+07
        -0.21259E+07
        -0.15337E+07
         0.44767E+05
         0.11063E+07
         0.32587E+06
        -0.36054E+06
        -0.74922E+05
         0.12198E+07
         0.46744E+06
         0.14321E+07
        -0.78383E+06
        -0.19055E+07
         0.79478E+06
        -0.21292E+07
        -0.20995E+07
        -0.12694E+07
        -0.34498E+06
        -0.31901E+07
        -0.21647E+07
         0.35009E+05
         0.59135E+06
         0.90515E+06
        -0.87234E+06
        -0.10203E+06
        -0.53262E+06
         0.28223E+06
        -0.12268E+07
        -0.71575E+06
        -0.24249E+07
        -0.56572E+06
        -0.42860E+07
        -0.28865E+07
        -0.16987E+07
        -0.22154E+07
        -0.18911E+06
        -0.35032E+06
         0.73348E+06
         0.14033E+07
        -0.43344E+05
        -0.15996E+06
        -0.61356E+05
        -0.22336E+07
        -0.22196E+07
        -0.16270E+07
        -0.39903E+06
        -0.71277E+06
        -0.67230E+06
        -0.13280E+07
        -0.12232E+07
        -0.15956E+07
        -0.82695E+06
        -0.32022E+06
        -0.36829E+06
         0.10100E+06
         0.61804E+06
         0.15999E+07
        -0.19192E+07
         0.64926E+06
        -0.13770E+07
         0.31926E+06
         0.15673E+07
         0.23746E+07
         0.15766E+07
         0.19891E+07
         0.13661E+07
         0.47202E+06
         0.73895E+06
         0.63582E+06
        -0.72008E+05
         0.11020E+07
        -0.70025E+06
        -0.23204E+07
        -0.24627E+07
        -0.25037E+07
        -0.24775E+07
        -0.98389E+06
        -0.83483E+06
        -0.14449E+07
        -0.21972E+07
        -0.15712E+07
         0.24712E+05
         0.10907E+07
         0.30319E+06
        -0.37768E+06
        -0.86079E+05
         0.12107E+07
         0.45569E+06
         0.14215E+07
        -0.79910E+06
        -0.19309E+07
         0.77458E+06
        -0.21589E+07
        -0.21163E+07
        -0.12846E+07
        -0.36245E+06
        -0.32068E+07
        -0.21787E+07
         0.22719E+05
         0.57815E+06
         0.89794E+06
        -0.88113E+06
        -0.11013E+06
        -0.54482E+06
         0.26997E+06
        -0.12378E+07
        -0.72333E+06
        -0.24470E+07
        -0.57559E+06
        -0.43028E+07
        -0.28996E+07
        -0.17105E+07
        -0.22304E+07
        -0.21109E+06
        -0.36630E+06
         0.71469E+06
         0.13924E+07
        -0.57982E+05
        -0.17083E+06
        -0.75322E+05
        -0.22574E+07
        -0.22405E+07
        -0.16473E+07
        -0.42046E+06
        -0.72933E+06
        -0.68308E+06
        -0.13433E+07
        -0.12420E+07
        -0.16156E+07
        -0.84643E+06
        -0.34123E+06
        -0.38973E+06
         0.81475E+05
         0.59803E+06
         0.15860E+07
        -0.19480E+07
         0.62080E+06
        -0.13965E+07
         0.29947E+06
         0.15432E+07
         0.23536E+07
         0.15552E+07
         0.19594E+07
         0.13265E+07
         0.43049E+06
         0.70134E+06
         0.61870E+06
        -0.85530E+05
         0.10731E+07
        -0.73053E+06
        -0.23493E+07
        -0.25006E+07
        -0.25398E+07
        -0.25078E+07
        -0.10083E+07
        -0.85495E+06
        -0.14720E+07
        -0.22331E+07
        -0.16043E+07
        -0.31058E+04
         0.10632E+07
         0.31777E+06
        -0.36589E+06
        -0.77709E+05
         0.12131E+07
         0.46748E+06
         0.14241E+07
        -0.78862E+06
        -0.19147E+07
         0.78707E+06
        -0.21441E+07
        -0.21062E+07
        -0.12690E+07
        -0.35110E+06
        -0.31877E+07
        -0.21551E+07
         0.39070E+05
         0.58989E+06
         0.90541E+06
        -0.86604E+06
        -0.98090E+05
        -0.52941E+06
         0.28479E+06
        -0.12218E+07
        -0.70898E+06
        -0.24356E+07
        -0.56268E+06
        -0.42792E+07
        -0.28852E+07
        -0.16982E+07
        -0.22180E+07
        -0.19751E+06
        -0.35602E+06
         0.72082E+06
         0.13960E+07
        -0.41275E+05
        -0.15887E+06
        -0.64666E+05
        -0.22413E+07
        -0.22281E+07
        -0.16357E+07
        -0.40630E+06
        -0.71351E+06
        -0.66712E+06
        -0.13295E+07
        -0.12307E+07
        -0.16031E+07
        -0.83441E+06
        -0.32640E+06
        -0.37527E+06
         0.93031E+05
         0.60655E+06
         0.15894E+07
        -0.19049E+07
         0.66301E+06
        -0.13715E+07
         0.30983E+06
         0.15642E+07
         0.23865E+07
         0.15918E+07
         0.19856E+07
         0.13364E+07
         0.44590E+06
         0.72909E+06
         0.65799E+06
        -0.51094E+05
         0.10954E+07
        -0.70947E+06
        -0.23251E+07
        -0.24763E+07
        -0.25094E+07
        -0.24789E+07
        -0.97423E+06
        -0.82001E+06
        -0.14408E+07
        -0.22071E+07
        -0.15808E+07
         0.20416E+05
         0.10887E+07
         0.31415E+06
        -0.36676E+06
        -0.80032E+05
         0.12069E+07
         0.46468E+06
         0.14182E+07
        -0.79047E+06
        -0.19224E+07
         0.77686E+06
        -0.21571E+07
        -0.21140E+07
        -0.12782E+07
        -0.35373E+06
        -0.31955E+07
        -0.21698E+07
         0.31534E+05
         0.58118E+06
         0.89768E+06
        -0.87338E+06
        -0.10426E+06
        -0.53594E+06
         0.27695E+06
        -0.12275E+07
        -0.71385E+06
        -0.24440E+07
        -0.56621E+06
        -0.42846E+07
        -0.28870E+07
        -0.17003E+07
        -0.22255E+07
        -0.20403E+06
        -0.36042E+06
         0.70963E+06
         0.13879E+07
        -0.46603E+05
        -0.16389E+06
        -0.68001E+05
        -0.22620E+07
        -0.22402E+07
        -0.16460E+07
        -0.41687E+06
        -0.71983E+06
        -0.67635E+06
        -0.13343E+07
        -0.12355E+07
        -0.16097E+07
        -0.84369E+06
        -0.33595E+06
        -0.38358E+06
         0.85629E+05
         0.59871E+06
         0.15814E+07
        -0.19173E+07
         0.65308E+06
        -0.13918E+07
         0.29267E+06
         0.15617E+07
         0.23745E+07
         0.15639E+07
         0.19544E+07
         0.13180E+07
         0.41826E+06
         0.69894E+06
         0.64286E+06
        -0.68868E+05
         0.10856E+07
        -0.71861E+06
        -0.23339E+07
        -0.24780E+07
        -0.25156E+07
        -0.24877E+07
        -0.99721E+06
        -0.84863E+06
        -0.14628E+07
        -0.22184E+07
        -0.15860E+07
         0.80537E+04
         0.10712E+07
         0.30380E+06
        -0.37545E+06
        -0.86471E+05
         0.12032E+07
         0.45630E+06
         0.14143E+07
        -0.79677E+06
        -0.19333E+07
         0.76755E+06
        -0.21700E+07
        -0.21226E+07
        -0.12904E+07
        -0.36163E+06
        -0.32014E+07
        -0.21847E+07
         0.20962E+05
         0.57416E+06
         0.89333E+06
        -0.88228E+06
        -0.10876E+06
        -0.54422E+06
         0.26899E+06
        -0.12362E+07
        -0.72164E+06
        -0.24522E+07
        -0.57373E+06
        -0.42886E+07
        -0.28906E+07
        -0.17029E+07
        -0.22313E+07
        -0.21364E+06
        -0.36809E+06
         0.70235E+06
         0.13864E+07
        -0.59511E+05
        -0.17246E+06
        -0.75564E+05
        -0.22821E+07
        -0.22536E+07
        -0.16550E+07
        -0.42304E+06
        -0.72519E+06
        -0.68477E+06
        -0.13428E+07
        -0.12436E+07
        -0.16184E+07
        -0.85239E+06
        -0.34418E+06
        -0.39152E+06
         0.79187E+05
         0.59126E+06
         0.15778E+07
        -0.19422E+07
         0.63224E+06
        -0.14074E+07
         0.28745E+06
         0.15548E+07
         0.23502E+07
         0.15287E+07
         0.19263E+07
         0.12989E+07
         0.39838E+06
         0.68661E+06
         0.62793E+06
        -0.90215E+05
         0.10710E+07
        -0.73384E+06
        -0.23517E+07
        -0.24901E+07
        -0.25297E+07
        -0.25048E+07
        -0.10161E+07
        -0.87040E+06
        -0.14854E+07
        -0.22347E+07
        -0.16011E+07
        -0.10896E+05
         0.10513E+07
         0.31077E+06
        -0.37167E+06
        -0.83465E+05
         0.12078E+07
         0.46413E+06
         0.14214E+07
        -0.78997E+06
        -0.19224E+07
         0.77310E+06
        -0.21651E+07
        -0.21131E+07
        -0.12797E+07
        -0.35812E+06
        -0.31838E+07
        -0.21630E+07
         0.30196E+05
         0.57856E+06
         0.90077E+06
        -0.87338E+06
        -0.99001E+05
        -0.53200E+06
         0.28223E+06
        -0.12254E+07
        -0.71270E+06
        -0.24482E+07
        -0.56521E+06
        -0.42736E+07
        -0.28815E+07
        -0.16893E+07
        -0.22176E+07
        -0.20280E+06
        -0.36087E+06
         0.71020E+06
         0.13955E+07
        -0.49184E+05
        -0.16489E+06
        -0.71164E+05
        -0.22693E+07
        -0.22412E+07
        -0.16379E+07
        -0.40722E+06
        -0.71312E+06
        -0.67195E+06
        -0.13346E+07
        -0.12370E+07
        -0.16115E+07
        -0.84523E+06
        -0.33516E+06
        -0.38191E+06
         0.89090E+05
         0.60018E+06
         0.15871E+07
        -0.19107E+07
         0.66624E+06
        -0.13755E+07
         0.30315E+06
         0.15496E+07
         0.23520E+07
         0.15542E+07
         0.19545E+07
         0.13177E+07
         0.42707E+06
         0.71387E+06
         0.64077E+06
        -0.67191E+05
         0.10943E+07
        -0.71254E+06
        -0.23354E+07
        -0.24794E+07
        -0.25159E+07
        -0.24918E+07
        -0.99565E+06
        -0.84634E+06
        -0.14622E+07
        -0.22147E+07
        -0.15837E+07
         0.14615E+05
         0.10812E+07
         0.30603E+06
        -0.37860E+06
        -0.89714E+05
         0.12009E+07
         0.45558E+06
         0.14132E+07
        -0.79789E+06
        -0.19324E+07
         0.76554E+06
        -0.21804E+07
        -0.21250E+07
        -0.12949E+07
        -0.37419E+06
        -0.31942E+07
        -0.21739E+07
         0.21690E+05
         0.56963E+06
         0.89251E+06
        -0.88419E+06
        -0.10640E+06
        -0.54663E+06
         0.26790E+06
        -0.12402E+07
        -0.72176E+06
        -0.24623E+07
        -0.57169E+06
        -0.42880E+07
        -0.28940E+07
        -0.16979E+07
        -0.22271E+07
        -0.21172E+06
        -0.36808E+06
         0.69710E+06
         0.13882E+07
        -0.61511E+05
        -0.17487E+06
        -0.83545E+05
        -0.22911E+07
        -0.22623E+07
        -0.16554E+07
        -0.42725E+06
        -0.73127E+06
        -0.68625E+06
        -0.13514E+07
        -0.12515E+07
        -0.16241E+07
        -0.85747E+06
        -0.34817E+06
        -0.39222E+06
         0.81785E+05
         0.59025E+06
         0.15780E+07
        -0.19352E+07
         0.64489E+06
        -0.14001E+07
         0.27513E+06
         0.15168E+07
         0.23208E+07
         0.15352E+07
         0.19301E+07
         0.12854E+07
         0.39513E+06
         0.67497E+06
         0.60224E+06
        -0.92711E+05
         0.10678E+07
        -0.73529E+06
        -0.23616E+07
        -0.25200E+07
        -0.25522E+07
        -0.25099E+07
        -0.10207E+07
        -0.87227E+06
        -0.14755E+07
        -0.22239E+07
        -0.16024E+07
        -0.11029E+05
         0.10557E+07
         0.30530E+06
        -0.38080E+06
        -0.91684E+05
         0.11985E+07
         0.45418E+06
         0.14105E+07
        -0.79929E+06
        -0.19343E+07
         0.76564E+06
        -0.21832E+07
        -0.21277E+07
        -0.12969E+07
        -0.37671E+06
        -0.31921E+07
        -0.21740E+07
         0.20203E+05
         0.56950E+06
         0.89095E+06
        -0.88564E+06
        -0.10644E+06
        -0.55008E+06
         0.26564E+06
        -0.12436E+07
        -0.72320E+06
        -0.24660E+07
        -0.57288E+06
        -0.42851E+07
        -0.28960E+07
        -0.16992E+07
        -0.22299E+07
        -0.21622E+06
        -0.37050E+06
         0.69053E+06
         0.13866E+07
        -0.64379E+05
        -0.17819E+06
        -0.87319E+05
        -0.23019E+07
        -0.22746E+07
        -0.16625E+07
        -0.42973E+06
        -0.73276E+06
        -0.68829E+06
        -0.13547E+07
        -0.12546E+07
        -0.16273E+07
        -0.86170E+06
        -0.35318E+06
        -0.39609E+06
         0.80591E+05
         0.58840E+06
         0.15758E+07
        -0.19358E+07
         0.64527E+06
        -0.14068E+07
         0.26432E+06
         0.15161E+07
         0.23204E+07
         0.15276E+07
         0.19098E+07
         0.12620E+07
         0.38232E+06
         0.67370E+06
         0.59836E+06
        -0.99122E+05
         0.10574E+07
        -0.74715E+06
        -0.23701E+07
        -0.25259E+07
        -0.25571E+07
        -0.25151E+07
        -0.10297E+07
        -0.88379E+06
        -0.14829E+07
        -0.22248E+07
        -0.16046E+07
        -0.22338E+05
         0.10455E+07
         0.32700E+06
        -0.35845E+06
        -0.73330E+05
         0.12111E+07
         0.47802E+06
         0.14276E+07
        -0.77673E+06
        -0.19099E+07
         0.78064E+06
        -0.21657E+07
        -0.21035E+07
        -0.12633E+07
        -0.34769E+06
        -0.31627E+07
        -0.21411E+07
         0.39972E+05
         0.58573E+06
         0.90464E+06
        -0.86557E+06
        -0.87029E+05
        -0.52249E+06
         0.29191E+06
        -0.12170E+07
        -0.70422E+06
        -0.24454E+07
        -0.55509E+06
        -0.42552E+07
        -0.28711E+07
        -0.16738E+07
        -0.22038E+07
        -0.19489E+06
        -0.35150E+06
         0.70378E+06
         0.13987E+07
        -0.36761E+05
        -0.15579E+06
        -0.63770E+05
        -0.22815E+07
        -0.22494E+07
        -0.16346E+07
        -0.40308E+06
        -0.70559E+06
        -0.66435E+06
        -0.13280E+07
        -0.12281E+07
        -0.15996E+07
        -0.83791E+06
        -0.33047E+06
        -0.37692E+06
         0.98128E+05
         0.60698E+06
         0.15921E+07
        -0.18785E+07
         0.70214E+06
        -0.13591E+07
         0.29904E+06
         0.15584E+07
         0.23742E+07
         0.15727E+07
         0.19441E+07
         0.13004E+07
         0.42435E+06
         0.71161E+06
         0.64269E+06
        -0.63939E+05
         0.10965E+07
        -0.70254E+06
        -0.23238E+07
        -0.24739E+07
        -0.25009E+07
        -0.24668E+07
        -0.97906E+06
        -0.84079E+06
        -0.14509E+07
        -0.21895E+07
        -0.15622E+07
         0.23595E+05
         0.10920E+07
         0.31814E+06
        -0.36466E+06
        -0.79141E+05
         0.12026E+07
         0.46740E+06
         0.14192E+07
        -0.78381E+06
        -0.19224E+07
         0.76999E+06
        -0.21842E+07
        -0.21152E+07
        -0.12750E+07
        -0.35477E+06
        -0.31738E+07
        -0.21564E+07
         0.28974E+05
         0.57455E+06
         0.89795E+06
        -0.87969E+06
        -0.96270E+05
        -0.53242E+06
         0.27884E+06
        -0.12262E+07
        -0.71522E+06
        -0.24615E+07
        -0.56466E+06
        -0.42681E+07
        -0.28797E+07
        -0.16746E+07
        -0.22108E+07
        -0.20127E+06
        -0.35979E+06
         0.69410E+06
         0.13898E+07
        -0.52644E+05
        -0.16484E+06
        -0.69838E+05
        -0.23061E+07
        -0.22667E+07
        -0.16424E+07
        -0.41580E+06
        -0.71964E+06
        -0.68082E+06
        -0.13407E+07
        -0.12408E+07
        -0.16115E+07
        -0.84815E+06
        -0.33769E+06
        -0.38551E+06
         0.86959E+05
         0.59509E+06
         0.15827E+07
        -0.19148E+07
         0.67138E+06
        -0.13874E+07
         0.28423E+06
         0.15532E+07
         0.23604E+07
         0.15422E+07
         0.19074E+07
         0.12646E+07
         0.39255E+06
         0.67412E+06
         0.59965E+06
        -0.94317E+05
         0.10814E+07
        -0.70959E+06
        -0.23284E+07
        -0.24889E+07
        -0.25266E+07
        -0.24858E+07
        -0.10016E+07
        -0.86159E+06
        -0.14742E+07
        -0.22145E+07
        -0.15778E+07
         0.91005E+04
         0.10679E+07
         0.30321E+06
        -0.38076E+06
        -0.94913E+05
         0.11913E+07
         0.45067E+06
         0.14036E+07
        -0.79564E+06
        -0.19370E+07
         0.75485E+06
        -0.22151E+07
        -0.21292E+07
        -0.12939E+07
        -0.37046E+06
        -0.31852E+07
        -0.21756E+07
         0.15434E+05
         0.55778E+06
         0.89016E+06
        -0.89136E+06
        -0.10038E+06
        -0.54459E+06
         0.26355E+06
        -0.12372E+07
        -0.72462E+06
        -0.24884E+07
        -0.57404E+06
        -0.42976E+07
        -0.28937E+07
        -0.16451E+07
        -0.21924E+07
        -0.21318E+06
        -0.37171E+06
         0.68448E+06
         0.13837E+07
        -0.70527E+05
        -0.17967E+06
        -0.84337E+05
        -0.23421E+07
        -0.22837E+07
        -0.16166E+07
        -0.41717E+06
        -0.73488E+06
        -0.70281E+06
        -0.13543E+07
        -0.12568E+07
        -0.16304E+07
        -0.86570E+06
        -0.35073E+06
        -0.39548E+06
         0.78075E+05
         0.58455E+06
         0.15712E+07
        -0.19390E+07
         0.64899E+06
        -0.14067E+07
         0.26756E+06
         0.15299E+07
         0.23226E+07
         0.14991E+07
         0.18664E+07
         0.12285E+07
         0.38421E+06
         0.60867E+06
         0.49667E+06
        -0.13701E+06
         0.10576E+07
        -0.73077E+06
        -0.23475E+07
        -0.25127E+07
        -0.25535E+07
        -0.25171E+07
        -0.10368E+07
        -0.88544E+06
        -0.14965E+07
        -0.22401E+07
        -0.15963E+07
        -0.19623E+05
         0.10358E+07
         0.32388E+06
        -0.36020E+06
        -0.74977E+05
         0.12067E+07
         0.47602E+06
         0.14221E+07
        -0.77580E+06
        -0.19130E+07
         0.76506E+06
        -0.22222E+07
        -0.21075E+07
        -0.12688E+07
        -0.34894E+06
        -0.31575E+07
        -0.21463E+07
         0.35421E+05
         0.56872E+06
         0.90303E+06
        -0.86808E+06
        -0.68945E+05
        -0.52170E+06
         0.28650E+06
        -0.12159E+07
        -0.70416E+06
        -0.24852E+07
        -0.55476E+06
        -0.43025E+07
        -0.28782E+07
        -0.15562E+07
        -0.21098E+07
        -0.19489E+06
        -0.35243E+06
         0.69736E+06
         0.13998E+07
        -0.40935E+05
        -0.15470E+06
        -0.62101E+05
        -0.23409E+07
        -0.22546E+07
        -0.15193E+07
        -0.36569E+06
        -0.70736E+06
        -0.68889E+06
        -0.13315E+07
        -0.12309E+07
        -0.15996E+07
        -0.84087E+06
        -0.32992E+06
        -0.37445E+06
         0.10178E+06
         0.60931E+06
         0.15905E+07
        -0.18801E+07
         0.70676E+06
        -0.13477E+07
         0.30892E+06
         0.15562E+07
         0.23533E+07
         0.15414E+07
         0.19093E+07
         0.12754E+07
         0.47578E+06
         0.58742E+06
         0.41378E+06
        -0.13392E+06
         0.10900E+07
        -0.70355E+06
        -0.23249E+07
        -0.24847E+07
        -0.25064E+07
        -0.24593E+07
        -0.98261E+06
        -0.83878E+06
        -0.14484E+07
        -0.21858E+07
        -0.15457E+07
         0.21390E+05
         0.10789E+07
         0.24748E+06
        -0.43510E+06
        -0.14731E+06
         0.11423E+07
         0.38383E+06
         0.13382E+07
        -0.84734E+06
        -0.20037E+07
         0.68495E+06
        -0.23354E+07
        -0.21960E+07
        -0.13873E+07
        -0.45886E+06
        -0.32548E+07
        -0.22680E+07
        -0.39022E+05
         0.49123E+06
         0.84617E+06
        -0.94823E+06
        -0.13183E+06
        -0.62498E+06
         0.18572E+06
        -0.13154E+07
        -0.77497E+06
        -0.25879E+07
        -0.61514E+06
        -0.44192E+07
        -0.29555E+07
        -0.15896E+07
        -0.21671E+07
        -0.26711E+06
        -0.41942E+06
         0.62808E+06
         0.13310E+07
        -0.14950E+06
        -0.24738E+06
        -0.16095E+06
        -0.24804E+07
        -0.23638E+07
        -0.15829E+07
        -0.46751E+06
        -0.81648E+06
        -0.79870E+06
        -0.14283E+07
        -0.13314E+07
        -0.17160E+07
        -0.93943E+06
        -0.41735E+06
        -0.45793E+06
         0.97760E+04
         0.49860E+06
         0.14961E+07
        -0.20851E+07
         0.50766E+06
        -0.15550E+07
         0.98143E+05
         0.13461E+07
         0.21510E+07
         0.13358E+07
         0.16886E+07
         0.10682E+07
         0.28713E+06
         0.32453E+06
         0.12770E+06
        -0.33648E+06
         0.92185E+06
        -0.87971E+06
        -0.25081E+07
        -0.26743E+07
        -0.27182E+07
        -0.26768E+07
        -0.11910E+07
        -0.10322E+07
        -0.16335E+07
        -0.23754E+07
        -0.17402E+07
        -0.16539E+06
         0.89346E+06
         0.29144E+06
        -0.42977E+06
        -0.13394E+06
         0.11662E+07
         0.41412E+06
         0.13649E+07
        -0.83710E+06
        -0.19505E+07
         0.73646E+06
        -0.22580E+07
        -0.21730E+07
        -0.13849E+07
        -0.48688E+06
        -0.31904E+07
        -0.22143E+07
         0.19235E+05
         0.54065E+06
         0.87734E+06
        -0.90570E+06
        -0.93626E+05
        -0.57884E+06
         0.22026E+06
        -0.12441E+07
        -0.72142E+06
        -0.25028E+07
        -0.56914E+06
        -0.43198E+07
        -0.28675E+07
        -0.15152E+07
        -0.20835E+07
        -0.22183E+06
        -0.38893E+06
         0.64485E+06
         0.13209E+07
        -0.13300E+06
        -0.25461E+06
        -0.18903E+06
        -0.24170E+07
        -0.22872E+07
        -0.15155E+07
        -0.42202E+06
        -0.75433E+06
        -0.73320E+06
        -0.13634E+07
        -0.12956E+07
        -0.16984E+07
        -0.92507E+06
        -0.37978E+06
        -0.42965E+06
         0.11783E+05
         0.50573E+06
         0.14978E+07
        -0.20062E+07
         0.61017E+06
        -0.15292E+07
         0.52655E+05
         0.12516E+07
         0.20936E+07
         0.14300E+07
         0.17856E+07
         0.11451E+07
         0.33286E+06
         0.33725E+06
         0.16678E+06
        -0.25988E+06
         0.95969E+06
        -0.79972E+06
        -0.23939E+07
        -0.25772E+07
        -0.26437E+07
        -0.26446E+07
        -0.11947E+07
        -0.98938E+06
        -0.15721E+07
        -0.22780E+07
        -0.16215E+07
        -0.71868E+05
         0.99035E+06
         0.30070E+09
         0.29750E+09
         0.29378E+09
         0.25602E+09
         0.36112E+09
         0.32680E+09
         0.30150E+09
         0.34149E+09
         0.28293E+09
         0.34154E+09
         0.34898E+09
         0.45367E+09
         0.40208E+09
         0.37587E+09
         0.46742E+09
         0.28019E+09
         0.28031E+09
         0.22401E+09
         0.30035E+09
         0.29310E+09
         0.37002E+09
         0.37235E+09
         0.35249E+09
         0.27555E+09
         0.32941E+09
         0.24266E+09
         0.37066E+09
         0.31171E+09
         0.33023E+09
         0.34277E+09
         0.27811E+09
         0.26942E+09
         0.25628E+09
         0.26581E+09
         0.40897E+09
         0.35179E+09
         0.36011E+09
         0.43942E+09
         0.41729E+09
         0.40921E+09
         0.43056E+09
         0.40434E+09
         0.38317E+09
         0.33858E+09
         0.35053E+09
         0.41181E+09
         0.36247E+09
         0.33293E+09
         0.31792E+09
         0.33657E+09
         0.38898E+09
         0.34429E+09
         0.75083E+09
         0.73554E+09
         0.74846E+09
         0.72434E+09
         0.74697E+09
         0.78345E+09
         0.78669E+09
         0.77815E+09
         0.78429E+09
         0.80624E+09
         0.78244E+09
         0.73797E+09
         0.65449E+09
         0.61786E+09
         0.62693E+09
         0.64135E+09
         0.64937E+09
         0.70735E+09
         0.75714E+09
         0.76039E+09
         0.69729E+09
         0.67244E+09
         0.69665E+09
         0.68992E+09
         0.68578E+09
         0.68725E+09
         0.34753E+10
         0.36414E+10
         0.35889E+10
         0.32747E+10
         0.40318E+10
         0.37869E+10
         0.39403E+10
         0.39702E+10
         0.33990E+10
         0.39682E+10
         0.43276E+10
         0.48482E+10
         0.43948E+10
         0.44534E+10
         0.50179E+10
         0.33305E+10
         0.35804E+10
         0.31242E+10
         0.36977E+10
         0.38910E+10
         0.40241E+10
         0.41125E+10
         0.38627E+10
         0.35563E+10
         0.40151E+10
         0.34315E+10
         0.44372E+10
         0.43624E+10
         0.43821E+10
         0.41574E+10
         0.33665E+10
         0.35408E+10
         0.33008E+10
         0.34521E+10
         0.44148E+10
         0.40508E+10
         0.40638E+10
         0.48593E+10
         0.47351E+10
         0.46785E+10
         0.47605E+10
         0.45203E+10
         0.42741E+10
         0.37711E+10
         0.39273E+10
         0.44125E+10
         0.40808E+10
         0.38370E+10
         0.37609E+10
         0.38995E+10
         0.42336E+10
         0.39111E+10
         0.70069E+10
         0.68249E+10
         0.69677E+10
         0.67472E+10
         0.69487E+10
         0.73076E+10
         0.74272E+10
         0.74130E+10
         0.74664E+10
         0.76381E+10
         0.74157E+10
         0.69680E+10
         0.62428E+10
         0.58981E+10
         0.59132E+10
         0.59885E+10
         0.60463E+10
         0.65600E+10
         0.70346E+10
         0.70628E+10
         0.65334E+10
         0.63303E+10
         0.65407E+10
         0.64945E+10
         0.64201E+10
         0.64021E+10
  
SCALARS                      stress_zz  double 1
LOOKUP_TABLE default
         0.11160E+13
         0.11017E+13
         0.11108E+13
         0.11271E+13
        -0.41371E+03
        -0.46391E+03
        -0.44421E+03
        -0.40355E+03
         0.11012E+13
         0.11060E+13
        -0.41717E+03
        -0.40372E+03
         0.10808E+13
         0.10800E+13
        -0.49568E+03
        -0.46607E+03
         0.11247E+13
         0.10812E+13
        -0.36626E+03
        -0.40624E+03
         0.10651E+13
         0.10527E+13
         0.10725E+13
        -0.49128E+03
        -0.42904E+03
        -0.44304E+03
         0.10531E+13
         0.10349E+13
        -0.47132E+03
        -0.39747E+03
         0.11239E+13
         0.11050E+13
         0.11423E+13
        -0.40220E+03
        -0.37390E+03
        -0.36353E+03
         0.11130E+13
         0.10888E+13
        -0.42551E+03
        -0.38828E+03
         0.11034E+13
         0.10848E+13
        -0.36776E+03
        -0.32557E+03
         0.11192E+13
         0.11262E+13
        -0.40302E+03
        -0.45031E+03
         0.10698E+13
        -0.39371E+03
         0.11248E+13
        -0.46263E+03
         0.10479E+13
        -0.41577E+03
         0.10422E+13
        -0.39881E+03
         0.10423E+13
         0.10626E+13
        -0.40634E+03
        -0.39573E+03
         0.11236E+13
         0.11163E+13
        -0.40746E+03
        -0.46063E+03
         0.11281E+13
        -0.39317E+03
         0.11195E+13
        -0.42909E+03
         0.10967E+13
         0.10944E+13
        -0.41305E+03
        -0.43280E+03
         0.10892E+13
        -0.43643E+03
         0.10285E+13
        -0.34481E+03
         0.10253E+13
        -0.33469E+03
         0.10269E+13
        -0.35290E+03
         0.10357E+13
         0.10448E+13
        -0.33623E+03
        -0.35054E+03
         0.10633E+13
        -0.32648E+03
         0.11188E+13
        -0.42813E+03
         0.11102E+13
        -0.43819E+03
         0.11031E+13
         0.10992E+13
        -0.42080E+03
        -0.42571E+03
         0.11040E+13
        -0.38667E+03
         0.11074E+13
        -0.38115E+03
         0.11043E+13
        -0.40803E+03
         0.11032E+13
         0.11063E+13
        -0.40013E+03
        -0.41187E+03
         0.10860E+13
         0.10943E+13
        -0.31067E+03
        -0.29220E+03
         0.10845E+13
        -0.29664E+03
         0.10940E+13
        -0.28443E+03
         0.10846E+13
        -0.28047E+03
         0.10638E+13
        -0.26505E+03
         0.10437E+13
        -0.23546E+03
         0.10316E+13
        -0.21202E+03
         0.10303E+13
        -0.21055E+03
         0.10307E+13
        -0.22833E+03
         0.10438E+13
        -0.23997E+03
         0.10683E+13
        -0.21912E+03
         0.10951E+13
        -0.19751E+03
         0.11108E+13
        -0.19729E+03
         0.11263E+13
        -0.22052E+03
         0.11366E+13
        -0.25144E+03
         0.11362E+13
        -0.27012E+03
         0.11113E+13
        -0.29173E+03
         0.10940E+13
        -0.31254E+03
         0.10880E+13
        -0.28631E+03
         0.10973E+13
        -0.25117E+03
         0.11022E+13
        -0.25040E+03
         0.10940E+13
        -0.27396E+03
         0.10942E+13
        -0.29207E+03
         0.11003E+13
        -0.27717E+03
         0.11083E+13
        -0.26796E+03
        -0.29416E+11
        -0.28908E+11
        -0.28978E+11
        -0.29622E+11
        -0.28382E+11
        -0.29038E+11
        -0.28217E+11
        -0.28656E+11
        -0.29525E+11
        -0.28997E+11
        -0.27721E+11
        -0.27566E+11
        -0.27977E+11
        -0.28004E+11
        -0.27741E+11
        -0.29593E+11
        -0.29477E+11
        -0.29796E+11
        -0.28850E+11
        -0.29033E+11
        -0.28771E+11
        -0.28945E+11
        -0.28619E+11
        -0.28705E+11
        -0.29018E+11
        -0.28996E+11
        -0.28453E+11
        -0.28504E+11
        -0.28079E+11
        -0.28713E+11
        -0.29536E+11
        -0.28900E+11
        -0.29532E+11
        -0.29121E+11
        -0.27457E+11
        -0.28024E+11
        -0.28283E+11
        -0.27978E+11
        -0.27937E+11
        -0.27415E+11
        -0.27019E+11
        -0.27960E+11
        -0.28782E+11
        -0.28675E+11
        -0.28258E+11
        -0.27478E+11
        -0.28147E+11
        -0.28815E+11
        -0.28770E+11
        -0.28255E+11
        -0.27697E+11
        -0.28442E+11
        -0.26006E+11
        -0.26776E+11
        -0.26651E+11
        -0.26827E+11
        -0.26782E+11
        -0.26373E+11
        -0.25939E+11
        -0.25795E+11
        -0.25857E+11
        -0.25813E+11
        -0.25623E+11
        -0.26743E+11
        -0.27140E+11
        -0.27290E+11
        -0.27540E+11
        -0.27727E+11
        -0.27719E+11
        -0.27399E+11
        -0.26268E+11
        -0.26547E+11
        -0.26939E+11
        -0.26935E+11
        -0.26867E+11
        -0.26489E+11
        -0.27043E+11
        -0.27241E+11
         0.28980E+07
         0.17579E+07
         0.20536E+07
         0.31608E+07
         0.23669E+07
         0.33015E+07
        -0.16301E+06
        -0.12060E+06
         0.35242E+07
        -0.29714E+06
        -0.15525E+07
         0.11425E+07
         0.16209E+07
        -0.33735E+07
        -0.29174E+05
         0.15791E+07
         0.22544E+07
         0.27046E+07
         0.81123E+06
         0.78736E+06
         0.87804E+06
         0.17685E+07
         0.18986E+06
         0.11583E+06
        -0.10149E+07
        -0.26432E+05
        -0.50485E+07
        -0.60553E+07
        -0.27360E+07
        -0.68394E+06
         0.14614E+07
         0.49494E+06
         0.27669E+07
         0.39959E+07
         0.11798E+07
         0.10689E+07
         0.15335E+07
        -0.32976E+06
        -0.17293E+06
         0.42246E+06
         0.12563E+07
         0.74656E+06
         0.95043E+06
         0.24951E+06
         0.36065E+06
         0.62774E+06
         0.11211E+07
         0.14043E+07
         0.19471E+07
         0.26048E+07
         0.25510E+07
         0.32531E+07
        -0.37411E+06
         0.23699E+07
         0.64065E+06
         0.27633E+07
         0.44806E+07
         0.56666E+07
         0.48785E+07
         0.52256E+07
         0.45119E+07
         0.33769E+07
         0.30053E+07
         0.25753E+07
         0.16664E+07
         0.27660E+07
         0.89384E+06
        -0.43586E+06
        -0.20653E+06
        -0.11648E+06
         0.36108E+06
         0.21953E+07
         0.22467E+07
         0.15852E+07
         0.62822E+06
         0.62156E+06
         0.18018E+07
         0.28953E+07
         0.27913E+07
         0.16366E+07
         0.19322E+07
         0.30401E+07
         0.22405E+07
         0.31762E+07
        -0.31853E+06
        -0.24336E+06
         0.34001E+07
        -0.43134E+06
        -0.17119E+07
         0.99494E+06
         0.14882E+07
        -0.35179E+07
        -0.17483E+06
         0.14571E+07
         0.20964E+07
         0.25693E+07
         0.66255E+06
         0.60020E+06
         0.74688E+06
         0.16395E+07
         0.53137E+05
        -0.49092E+05
        -0.11727E+07
        -0.19855E+06
        -0.51865E+07
        -0.62431E+07
        -0.29313E+07
        -0.84625E+06
         0.13397E+07
         0.34120E+06
         0.26443E+07
         0.38685E+07
         0.10431E+07
         0.93933E+06
         0.14088E+07
        -0.48017E+06
        -0.31830E+06
         0.27720E+06
         0.11079E+07
         0.59964E+06
         0.81066E+06
         0.11448E+06
         0.23031E+06
         0.49155E+06
         0.98749E+06
         0.12744E+07
         0.18236E+07
         0.24851E+07
         0.24240E+07
         0.31297E+07
        -0.59157E+06
         0.21581E+07
         0.43262E+06
         0.25641E+07
         0.42704E+07
         0.54333E+07
         0.46451E+07
         0.49883E+07
         0.42716E+07
         0.31321E+07
         0.27614E+07
         0.23497E+07
         0.14762E+07
         0.25877E+07
         0.70814E+06
        -0.63341E+06
        -0.40801E+06
        -0.32608E+06
         0.15011E+06
         0.19726E+07
         0.20353E+07
         0.13937E+07
         0.43700E+06
         0.42552E+06
         0.16040E+07
         0.26939E+07
         0.28164E+07
         0.16606E+07
         0.19582E+07
         0.30722E+07
         0.22737E+07
         0.32102E+07
        -0.28384E+06
        -0.21522E+06
         0.34204E+07
        -0.42459E+06
        -0.16796E+07
         0.10232E+07
         0.15135E+07
        -0.34856E+07
        -0.13884E+06
         0.14327E+07
         0.20881E+07
         0.26036E+07
         0.62614E+06
         0.56320E+06
         0.72520E+06
         0.16312E+07
        -0.36540E+05
        -0.16811E+06
        -0.12384E+07
        -0.31919E+06
        -0.51586E+07
        -0.62692E+07
        -0.30075E+07
        -0.95926E+06
         0.13401E+07
         0.30618E+06
         0.26775E+07
         0.39098E+07
         0.10788E+07
         0.97196E+06
         0.14364E+07
        -0.45379E+06
        -0.29414E+06
         0.28567E+06
         0.11043E+07
         0.54631E+06
         0.73539E+06
         0.24082E+05
         0.20795E+06
         0.51027E+06
         0.10117E+07
         0.13037E+07
         0.18572E+07
         0.25221E+07
         0.24601E+07
         0.31649E+07
        -0.52692E+06
         0.22160E+07
         0.49672E+06
         0.26135E+07
         0.43069E+07
         0.54695E+07
         0.46914E+07
         0.50350E+07
         0.43189E+07
         0.31810E+07
         0.27902E+07
         0.23486E+07
         0.14792E+07
         0.26205E+07
         0.72981E+06
        -0.67336E+06
        -0.45133E+06
        -0.31485E+06
         0.20801E+06
         0.20396E+07
         0.20955E+07
         0.14547E+07
         0.50511E+06
         0.48284E+06
         0.16506E+07
         0.27389E+07
         0.28013E+07
         0.16504E+07
         0.19482E+07
         0.30530E+07
         0.22618E+07
         0.31996E+07
        -0.29499E+06
        -0.23097E+06
         0.33844E+07
        -0.48144E+06
        -0.16960E+07
         0.10079E+07
         0.15029E+07
        -0.35049E+07
        -0.15675E+06
         0.13357E+07
         0.19953E+07
         0.25780E+07
         0.49634E+06
         0.40533E+06
         0.62569E+06
         0.15421E+07
        -0.24521E+06
        -0.43429E+06
        -0.14259E+07
        -0.59391E+06
        -0.51958E+07
        -0.64212E+07
        -0.32487E+07
        -0.12319E+07
         0.12812E+07
         0.16764E+06
         0.26588E+07
         0.38888E+07
         0.10612E+07
         0.95888E+06
         0.14265E+07
        -0.48129E+06
        -0.32931E+06
         0.21996E+06
         0.10203E+07
         0.37996E+06
         0.53128E+06
        -0.18898E+06
         0.10008E+06
         0.45542E+06
         0.96876E+06
         0.12796E+07
         0.18360E+07
         0.24995E+07
         0.24409E+07
         0.31515E+07
        -0.55740E+06
         0.21951E+07
         0.46379E+06
         0.25847E+07
         0.42876E+07
         0.54473E+07
         0.46541E+07
         0.49944E+07
         0.42797E+07
         0.31335E+07
         0.27151E+07
         0.22273E+07
         0.13639E+07
         0.25657E+07
         0.66854E+06
        -0.84132E+06
        -0.62900E+06
        -0.39763E+06
         0.16850E+06
         0.20020E+07
         0.20667E+07
         0.14206E+07
         0.46952E+06
         0.45855E+06
         0.16322E+07
         0.27207E+07
         0.27737E+07
         0.16296E+07
         0.19306E+07
         0.30332E+07
         0.22481E+07
         0.31849E+07
        -0.31369E+06
        -0.25728E+06
         0.33414E+07
        -0.54069E+06
        -0.17135E+07
         0.99839E+06
         0.14911E+07
        -0.35260E+07
        -0.16521E+06
         0.12702E+07
         0.19220E+07
         0.25540E+07
         0.41104E+06
         0.29106E+06
         0.56162E+06
         0.14780E+07
        -0.37340E+06
        -0.59926E+06
        -0.15598E+07
        -0.76990E+06
        -0.52282E+07
        -0.65308E+07
        -0.34140E+07
        -0.14126E+07
         0.12197E+07
         0.67027E+05
         0.26218E+07
         0.38596E+07
         0.10431E+07
         0.94215E+06
         0.14115E+07
        -0.50166E+06
        -0.35832E+06
         0.17028E+06
         0.96112E+06
         0.26817E+06
         0.39741E+06
        -0.32433E+06
         0.28993E+05
         0.41924E+06
         0.93066E+06
         0.12409E+07
         0.17992E+07
         0.24660E+07
         0.24111E+07
         0.31297E+07
        -0.58482E+06
         0.21768E+07
         0.43577E+06
         0.25624E+07
         0.42785E+07
         0.54408E+07
         0.46382E+07
         0.49676E+07
         0.42463E+07
         0.31041E+07
         0.26693E+07
         0.21433E+07
         0.12853E+07
         0.25232E+07
         0.62530E+06
        -0.95011E+06
        -0.75370E+06
        -0.45679E+06
         0.15051E+06
         0.19679E+07
         0.20285E+07
         0.13815E+07
         0.42372E+06
         0.41920E+06
         0.16079E+07
         0.27024E+07
         0.27069E+07
         0.15896E+07
         0.19133E+07
         0.30497E+07
         0.22653E+07
         0.32086E+07
        -0.32603E+06
        -0.30357E+06
         0.32813E+07
        -0.62107E+06
        -0.16998E+07
         0.10314E+07
         0.15044E+07
        -0.35227E+07
        -0.12396E+06
         0.12823E+07
         0.19051E+07
         0.25893E+07
         0.42886E+06
         0.30557E+06
         0.58020E+06
         0.15005E+07
        -0.37054E+06
        -0.60259E+06
        -0.16148E+07
        -0.79464E+06
        -0.52354E+07
        -0.65437E+07
        -0.34009E+07
        -0.14180E+07
         0.11462E+07
         0.13957E+05
         0.25598E+07
         0.38522E+07
         0.10588E+07
         0.94389E+06
         0.14088E+07
        -0.47491E+06
        -0.33373E+06
         0.19762E+06
         0.99014E+06
         0.28592E+06
         0.41174E+06
        -0.33290E+06
         0.19883E+05
         0.41323E+06
         0.89768E+06
         0.11630E+07
         0.17093E+07
         0.24204E+07
         0.24013E+07
         0.31403E+07
        -0.53168E+06
         0.22316E+07
         0.48038E+06
         0.25923E+07
         0.43097E+07
         0.54832E+07
         0.46862E+07
         0.50141E+07
         0.42996E+07
         0.31744E+07
         0.27309E+07
         0.21805E+07
         0.13268E+07
         0.25666E+07
         0.66700E+06
        -0.91687E+06
        -0.72970E+06
        -0.43299E+06
         0.17909E+06
         0.19877E+07
         0.20241E+07
         0.13543E+07
         0.40568E+06
         0.42814E+06
         0.16345E+07
         0.27407E+07
         0.26052E+07
         0.15189E+07
         0.18716E+07
         0.30376E+07
         0.22517E+07
         0.32074E+07
        -0.38723E+06
        -0.39417E+06
         0.31799E+07
        -0.74011E+06
        -0.17377E+07
         0.10188E+07
         0.14830E+07
        -0.35707E+07
        -0.13264E+06
         0.12627E+07
         0.18451E+07
         0.25808E+07
         0.41418E+06
         0.27772E+06
         0.57122E+06
         0.14943E+07
        -0.38064E+06
        -0.62261E+06
        -0.16943E+07
        -0.83921E+06
        -0.52909E+07
        -0.66000E+07
        -0.34154E+07
        -0.14386E+07
         0.10433E+07
        -0.73187E+05
         0.24651E+07
         0.38133E+07
         0.10375E+07
         0.91679E+06
         0.13794E+07
        -0.49630E+06
        -0.35451E+06
         0.18627E+06
         0.98516E+06
         0.28359E+06
         0.41045E+06
        -0.35353E+06
        -0.19460E+05
         0.36206E+06
         0.82168E+06
         0.10458E+07
         0.15811E+07
         0.23407E+07
         0.23614E+07
         0.31256E+07
        -0.55405E+06
         0.22143E+07
         0.46707E+06
         0.25772E+07
         0.42879E+07
         0.54571E+07
         0.46646E+07
         0.49955E+07
         0.42809E+07
         0.31604E+07
         0.27197E+07
         0.21670E+07
         0.13244E+07
         0.25632E+07
         0.65788E+06
        -0.92195E+06
        -0.74022E+06
        -0.47044E+06
         0.12320E+06
         0.19262E+07
         0.19546E+07
         0.12682E+07
         0.33022E+06
         0.38808E+06
         0.16130E+07
         0.27238E+07
         0.25755E+07
         0.14927E+07
         0.18545E+07
         0.30214E+07
         0.22371E+07
         0.31931E+07
        -0.41728E+06
        -0.42525E+06
         0.31500E+07
        -0.77513E+06
        -0.17646E+07
         0.10010E+07
         0.14619E+07
        -0.35983E+07
        -0.14752E+06
         0.12451E+07
         0.18210E+07
         0.25618E+07
         0.40074E+06
         0.25562E+06
         0.55711E+06
         0.14795E+07
        -0.39394E+06
        -0.63792E+06
        -0.17203E+07
        -0.86463E+06
        -0.53143E+07
        -0.66301E+07
        -0.34429E+07
        -0.14582E+07
         0.10099E+07
        -0.10788E+06
         0.24347E+07
         0.37914E+07
         0.10196E+07
         0.90211E+06
         0.13615E+07
        -0.52334E+06
        -0.37863E+06
         0.16153E+06
         0.96036E+06
         0.26372E+06
         0.39769E+06
        -0.37198E+06
        -0.42969E+05
         0.33812E+06
         0.79656E+06
         0.10168E+07
         0.15492E+07
         0.23131E+07
         0.23367E+07
         0.31071E+07
        -0.58472E+06
         0.21842E+07
         0.44670E+06
         0.25563E+07
         0.42626E+07
         0.54351E+07
         0.46419E+07
         0.49639E+07
         0.42390E+07
         0.31166E+07
         0.26800E+07
         0.21490E+07
         0.13099E+07
         0.25323E+07
         0.62571E+06
        -0.95241E+06
        -0.77981E+06
        -0.50822E+06
         0.91341E+05
         0.19005E+07
         0.19334E+07
         0.12394E+07
         0.29222E+06
         0.35265E+06
         0.15832E+07
         0.26943E+07
         0.25944E+07
         0.15105E+07
         0.18677E+07
         0.30265E+07
         0.22530E+07
         0.31977E+07
        -0.39345E+06
        -0.40196E+06
         0.31692E+07
        -0.75138E+06
        -0.17451E+07
         0.10189E+07
         0.14755E+07
        -0.35749E+07
        -0.11926E+06
         0.12683E+07
         0.18444E+07
         0.25771E+07
         0.42679E+06
         0.28048E+06
         0.57609E+06
         0.14975E+07
        -0.37438E+06
        -0.61069E+06
        -0.16959E+07
        -0.83687E+06
        -0.52794E+07
        -0.65958E+07
        -0.34138E+07
        -0.14374E+07
         0.10298E+07
        -0.88326E+05
         0.24501E+07
         0.37986E+07
         0.10400E+07
         0.91894E+06
         0.13754E+07
        -0.50335E+06
        -0.36167E+06
         0.17667E+06
         0.97749E+06
         0.28264E+06
         0.41692E+06
        -0.35393E+06
        -0.27699E+05
         0.35343E+06
         0.81292E+06
         0.10370E+07
         0.15699E+07
         0.23287E+07
         0.23472E+07
         0.31119E+07
        -0.53936E+06
         0.22288E+07
         0.47322E+06
         0.25673E+07
         0.42847E+07
         0.54694E+07
         0.46802E+07
         0.49915E+07
         0.42496E+07
         0.31327E+07
         0.27092E+07
         0.21905E+07
         0.13466E+07
         0.25561E+07
         0.64812E+06
        -0.92659E+06
        -0.75369E+06
        -0.47609E+06
         0.12184E+06
         0.19363E+07
         0.19704E+07
         0.12726E+07
         0.31974E+06
         0.37713E+06
         0.16077E+07
         0.27210E+07
         0.25896E+07
         0.15090E+07
         0.18644E+07
         0.30157E+07
         0.22500E+07
         0.31901E+07
        -0.39541E+06
        -0.40999E+06
         0.31543E+07
        -0.76431E+06
        -0.17563E+07
         0.10082E+07
         0.14723E+07
        -0.35899E+07
        -0.13490E+06
         0.12574E+07
         0.18289E+07
         0.25569E+07
         0.41574E+06
         0.26289E+06
         0.56879E+06
         0.14881E+07
        -0.38125E+06
        -0.62073E+06
        -0.17012E+07
        -0.84745E+06
        -0.52864E+07
        -0.65995E+07
        -0.34184E+07
        -0.14460E+07
         0.10195E+07
        -0.99101E+05
         0.24337E+07
         0.37824E+07
         0.10335E+07
         0.91233E+06
         0.13712E+07
        -0.52667E+06
        -0.37486E+06
         0.16441E+06
         0.96549E+06
         0.27505E+06
         0.40602E+06
        -0.35914E+06
        -0.33192E+05
         0.34580E+06
         0.80124E+06
         0.10237E+07
         0.15572E+07
         0.23179E+07
         0.23375E+07
         0.31013E+07
        -0.55265E+06
         0.22183E+07
         0.45192E+06
         0.25492E+07
         0.42821E+07
         0.54567E+07
         0.46506E+07
         0.49583E+07
         0.42301E+07
         0.31035E+07
         0.26773E+07
         0.21747E+07
         0.13277E+07
         0.25457E+07
         0.63842E+06
        -0.93561E+06
        -0.75511E+06
        -0.48242E+06
         0.11268E+06
         0.19120E+07
         0.19402E+07
         0.12493E+07
         0.30780E+06
         0.37125E+06
         0.15943E+07
         0.27021E+07
         0.25760E+07
         0.14956E+07
         0.18546E+07
         0.30095E+07
         0.22398E+07
         0.31854E+07
        -0.40650E+06
        -0.42208E+06
         0.31407E+07
        -0.77719E+06
        -0.17690E+07
         0.99389E+06
         0.14628E+07
        -0.36021E+07
        -0.15091E+06
         0.12423E+07
         0.18167E+07
         0.25446E+07
         0.40211E+06
         0.24914E+06
         0.55938E+06
         0.14785E+07
        -0.39170E+06
        -0.63640E+06
        -0.17064E+07
        -0.86734E+06
        -0.52913E+07
        -0.66073E+07
        -0.34240E+07
        -0.14520E+07
         0.10047E+07
        -0.11664E+06
         0.24244E+07
         0.37793E+07
         0.10176E+07
         0.90081E+06
         0.13616E+07
        -0.54923E+06
        -0.38969E+06
         0.15376E+06
         0.95867E+06
         0.26861E+06
         0.39608E+06
        -0.36903E+06
        -0.42962E+05
         0.33552E+06
         0.79034E+06
         0.10122E+07
         0.15451E+07
         0.23084E+07
         0.23284E+07
         0.30967E+07
        -0.57913E+06
         0.21963E+07
         0.43570E+06
         0.25437E+07
         0.42750E+07
         0.54310E+07
         0.46135E+07
         0.49284E+07
         0.42099E+07
         0.30825E+07
         0.26643E+07
         0.21590E+07
         0.13049E+07
         0.25301E+07
         0.62226E+06
        -0.95425E+06
        -0.76749E+06
        -0.49696E+06
         0.94678E+05
         0.18920E+07
         0.19172E+07
         0.12254E+07
         0.29058E+06
         0.35490E+06
         0.15739E+07
         0.26807E+07
         0.25850E+07
         0.15011E+07
         0.18596E+07
         0.30187E+07
         0.22506E+07
         0.31965E+07
        -0.39050E+06
        -0.40577E+06
         0.31495E+07
        -0.76664E+06
        -0.17505E+07
         0.10061E+07
         0.14670E+07
        -0.35808E+07
        -0.12471E+06
         0.12553E+07
         0.18261E+07
         0.25599E+07
         0.41791E+06
         0.26875E+06
         0.57454E+06
         0.14946E+07
        -0.37848E+06
        -0.61963E+06
        -0.16933E+07
        -0.84974E+06
        -0.52688E+07
        -0.65854E+07
        -0.33918E+07
        -0.14294E+07
         0.10204E+07
        -0.10339E+06
         0.24431E+07
         0.37971E+07
         0.10303E+07
         0.91159E+06
         0.13674E+07
        -0.53312E+06
        -0.37284E+06
         0.17572E+06
         0.97777E+06
         0.28302E+06
         0.41155E+06
        -0.35797E+06
        -0.33713E+05
         0.34404E+06
         0.80029E+06
         0.10245E+07
         0.15587E+07
         0.23217E+07
         0.23394E+07
         0.31095E+07
        -0.54599E+06
         0.22322E+07
         0.46943E+06
         0.25602E+07
         0.42695E+07
         0.54327E+07
         0.46400E+07
         0.49580E+07
         0.42298E+07
         0.31126E+07
         0.26930E+07
         0.21726E+07
         0.13295E+07
         0.25551E+07
         0.64491E+06
        -0.93681E+06
        -0.75577E+06
        -0.48227E+06
         0.10848E+06
         0.19136E+07
         0.19428E+07
         0.12500E+07
         0.31176E+06
         0.37289E+06
         0.16006E+07
         0.27119E+07
         0.25787E+07
         0.14904E+07
         0.18501E+07
         0.30066E+07
         0.22401E+07
         0.31856E+07
        -0.40503E+06
        -0.41667E+06
         0.31386E+07
        -0.78267E+06
        -0.17688E+07
         0.98838E+06
         0.14476E+07
        -0.35996E+07
        -0.13603E+06
         0.12431E+07
         0.18104E+07
         0.25384E+07
         0.40113E+06
         0.24832E+06
         0.55753E+06
         0.14774E+07
        -0.39639E+06
        -0.63774E+06
        -0.17074E+07
        -0.86719E+06
        -0.52887E+07
        -0.66140E+07
        -0.34113E+07
        -0.14409E+07
         0.10066E+07
        -0.11999E+06
         0.24231E+07
         0.37825E+07
         0.10152E+07
         0.89814E+06
         0.13516E+07
        -0.55771E+06
        -0.39707E+06
         0.15445E+06
         0.95462E+06
         0.26128E+06
         0.39459E+06
        -0.37818E+06
        -0.51629E+05
         0.32907E+06
         0.78474E+06
         0.10065E+07
         0.15431E+07
         0.23111E+07
         0.23271E+07
         0.30975E+07
        -0.57215E+06
         0.22096E+07
         0.44376E+06
         0.25307E+07
         0.42351E+07
         0.54000E+07
         0.46199E+07
         0.49320E+07
         0.41957E+07
         0.30789E+07
         0.26519E+07
         0.21321E+07
         0.13023E+07
         0.25268E+07
         0.62076E+06
        -0.96433E+06
        -0.79831E+06
        -0.52024E+06
         0.89395E+05
         0.18872E+07
         0.19154E+07
         0.12359E+07
         0.30205E+06
         0.35271E+06
         0.15731E+07
         0.26846E+07
         0.25776E+07
         0.14869E+07
         0.18473E+07
         0.30028E+07
         0.22389E+07
         0.31826E+07
        -0.40588E+06
        -0.41711E+06
         0.31392E+07
        -0.78223E+06
        -0.17713E+07
         0.98597E+06
         0.14445E+07
        -0.36004E+07
        -0.13497E+06
         0.12409E+07
         0.18113E+07
         0.25327E+07
         0.39980E+06
         0.24510E+06
         0.55392E+06
         0.14747E+07
        -0.40032E+06
        -0.64110E+06
        -0.17059E+07
        -0.87228E+06
        -0.52837E+07
        -0.66180E+07
        -0.34136E+07
        -0.14426E+07
         0.99943E+06
        -0.12667E+06
         0.24152E+07
         0.37793E+07
         0.10116E+07
         0.89387E+06
         0.13468E+07
        -0.56936E+06
        -0.41059E+06
         0.14617E+06
         0.95216E+06
         0.25948E+06
         0.39229E+06
        -0.38154E+06
        -0.54920E+05
         0.32553E+06
         0.77972E+06
         0.99944E+06
         0.15368E+07
         0.23089E+07
         0.23249E+07
         0.30947E+07
        -0.57293E+06
         0.22100E+07
         0.43679E+06
         0.25193E+07
         0.42344E+07
         0.53994E+07
         0.46117E+07
         0.49104E+07
         0.41710E+07
         0.30653E+07
         0.26505E+07
         0.21281E+07
         0.12954E+07
         0.25158E+07
         0.60817E+06
        -0.97315E+06
        -0.80408E+06
        -0.52522E+06
         0.83958E+05
         0.18776E+07
         0.19033E+07
         0.12281E+07
         0.30110E+06
         0.35001E+06
         0.15608E+07
         0.26735E+07
         0.26058E+07
         0.15207E+07
         0.18760E+07
         0.30268E+07
         0.22704E+07
         0.32080E+07
        -0.35742E+06
        -0.38323E+06
         0.31620E+07
        -0.75514E+06
        -0.17275E+07
         0.10247E+07
         0.14794E+07
        -0.35624E+07
        -0.96037E+05
         0.12688E+07
         0.18429E+07
         0.25625E+07
         0.43401E+06
         0.28724E+06
         0.58749E+06
         0.15066E+07
        -0.36798E+06
        -0.60483E+06
        -0.16681E+07
        -0.83306E+06
        -0.52399E+07
        -0.65591E+07
        -0.33536E+07
        -0.14018E+07
         0.10309E+07
        -0.89013E+05
         0.24440E+07
         0.38031E+07
         0.10454E+07
         0.92515E+06
         0.13774E+07
        -0.54416E+06
        -0.37794E+06
         0.18163E+06
         0.98400E+06
         0.29196E+06
         0.42107E+06
        -0.34743E+06
        -0.20208E+05
         0.35919E+06
         0.81158E+06
         0.10305E+07
         0.15645E+07
         0.23328E+07
         0.23478E+07
         0.31169E+07
        -0.51262E+06
         0.22701E+07
         0.48727E+06
         0.25559E+07
         0.42789E+07
         0.54556E+07
         0.46589E+07
         0.49464E+07
         0.42116E+07
         0.31095E+07
         0.26904E+07
         0.21749E+07
         0.13329E+07
         0.25576E+07
         0.65560E+06
        -0.92388E+06
        -0.74869E+06
        -0.46582E+06
         0.13499E+06
         0.19309E+07
         0.19489E+07
         0.12621E+07
         0.33842E+06
         0.39456E+06
         0.16091E+07
         0.27223E+07
         0.25941E+07
         0.15111E+07
         0.18673E+07
         0.30118E+07
         0.22573E+07
         0.31967E+07
        -0.37016E+06
        -0.39747E+06
         0.31466E+07
        -0.77535E+06
        -0.17455E+07
         0.10110E+07
         0.14709E+07
        -0.35821E+07
        -0.11241E+06
         0.12531E+07
         0.18231E+07
         0.25448E+07
         0.41178E+06
         0.26257E+06
         0.57612E+06
         0.14908E+07
        -0.37900E+06
        -0.62669E+06
        -0.16853E+07
        -0.85768E+06
        -0.52576E+07
        -0.65786E+07
        -0.33544E+07
        -0.14096E+07
         0.10209E+07
        -0.10781E+06
         0.24303E+07
         0.37854E+07
         0.10260E+07
         0.91296E+06
         0.13697E+07
        -0.57203E+06
        -0.39754E+06
         0.17255E+06
         0.96947E+06
         0.27513E+06
         0.40151E+06
        -0.36247E+06
        -0.35806E+05
         0.34511E+06
         0.79866E+06
         0.10205E+07
         0.15514E+07
         0.23168E+07
         0.23332E+07
         0.31045E+07
        -0.55119E+06
         0.22376E+07
         0.45763E+06
         0.25403E+07
         0.42735E+07
         0.54410E+07
         0.46266E+07
         0.49074E+07
         0.41738E+07
         0.30759E+07
         0.26509E+07
         0.21296E+07
         0.13005E+07
         0.25414E+07
         0.64812E+06
        -0.92861E+06
        -0.76417E+06
        -0.49262E+06
         0.11498E+06
         0.19072E+07
         0.19269E+07
         0.12374E+07
         0.31192E+06
         0.37773E+06
         0.15934E+07
         0.26965E+07
         0.25746E+07
         0.14864E+07
         0.18431E+07
         0.29918E+07
         0.22362E+07
         0.31753E+07
        -0.39257E+06
        -0.41447E+06
         0.31244E+07
        -0.81198E+06
        -0.17674E+07
         0.98893E+06
         0.14519E+07
        -0.36024E+07
        -0.13324E+06
         0.12338E+07
         0.17929E+07
         0.25245E+07
         0.39361E+06
         0.24989E+06
         0.56206E+06
         0.14724E+07
        -0.39231E+06
        -0.64543E+06
        -0.17185E+07
        -0.88185E+06
        -0.52994E+07
        -0.66103E+07
        -0.32847E+07
        -0.13803E+07
         0.10026E+07
        -0.13417E+06
         0.24167E+07
         0.37731E+07
         0.10041E+07
         0.89279E+06
         0.13511E+07
        -0.61338E+06
        -0.41681E+06
         0.20529E+06
         0.96830E+06
         0.25689E+06
         0.37534E+06
        -0.37875E+06
        -0.55671E+05
         0.32257E+06
         0.77611E+06
         0.10024E+07
         0.15362E+07
         0.23039E+07
         0.23201E+07
         0.30892E+07
        -0.57694E+06
         0.22139E+07
         0.43746E+06
         0.25228E+07
         0.42490E+07
         0.54013E+07
         0.45812E+07
         0.48639E+07
         0.41357E+07
         0.30670E+07
         0.25818E+07
         0.20211E+07
         0.12550E+07
         0.25161E+07
         0.62564E+06
        -0.94862E+06
        -0.78890E+06
        -0.52074E+06
         0.82109E+05
         0.18700E+07
         0.19018E+07
         0.12138E+07
         0.28492E+06
         0.35770E+06
         0.15627E+07
         0.26621E+07
         0.26013E+07
         0.15175E+07
         0.18742E+07
         0.30209E+07
         0.22697E+07
         0.32027E+07
        -0.34996E+06
        -0.38111E+06
         0.31401E+07
        -0.81724E+06
        -0.17280E+07
         0.10178E+07
         0.14778E+07
        -0.35665E+07
        -0.98422E+05
         0.12621E+07
         0.18146E+07
         0.25524E+07
         0.43306E+06
         0.32030E+06
         0.59000E+06
         0.15003E+07
        -0.36629E+06
        -0.60632E+06
        -0.17068E+07
        -0.83910E+06
        -0.53059E+07
        -0.65735E+07
        -0.30762E+07
        -0.12568E+07
         0.10295E+07
        -0.95865E+05
         0.24449E+07
         0.38047E+07
         0.10403E+07
         0.92766E+06
         0.13799E+07
        -0.61084E+06
        -0.37950E+06
         0.32718E+06
         0.10294E+07
         0.28977E+06
         0.39213E+06
        -0.34948E+06
        -0.21723E+05
         0.35998E+06
         0.80933E+06
         0.10309E+07
         0.15666E+07
         0.23365E+07
         0.23508E+07
         0.31155E+07
        -0.51485E+06
         0.22749E+07
         0.49973E+06
         0.25664E+07
         0.42767E+07
         0.54332E+07
         0.46254E+07
         0.49090E+07
         0.41853E+07
         0.31634E+07
         0.25594E+07
         0.19338E+07
         0.12583E+07
         0.25507E+07
         0.65459E+06
        -0.92442E+06
        -0.75895E+06
        -0.47101E+06
         0.14311E+06
         0.19270E+07
         0.19512E+07
         0.12649E+07
         0.34230E+06
         0.41093E+06
         0.16058E+07
         0.27073E+07
         0.25019E+07
         0.14035E+07
         0.17623E+07
         0.29032E+07
         0.21510E+07
         0.30832E+07
        -0.49469E+06
        -0.49749E+06
         0.30212E+07
        -0.96186E+06
        -0.18778E+07
         0.88065E+06
         0.13455E+07
        -0.37103E+07
        -0.23691E+06
         0.11565E+07
         0.16713E+07
         0.24176E+07
         0.30200E+06
         0.17067E+06
         0.46684E+06
         0.13783E+07
        -0.48718E+06
        -0.74415E+06
        -0.18527E+07
        -0.98225E+06
        -0.54736E+07
        -0.67531E+07
        -0.31529E+07
        -0.13389E+07
         0.92112E+06
        -0.23645E+06
         0.23203E+07
         0.36688E+07
         0.90741E+06
         0.79985E+06
         0.12523E+07
        -0.77397E+06
        -0.51184E+06
         0.24827E+06
         0.90995E+06
         0.15921E+06
         0.26096E+06
        -0.46991E+06
        -0.15010E+06
         0.21967E+06
         0.68012E+06
         0.91047E+06
         0.14432E+07
         0.22075E+07
         0.22140E+07
         0.29881E+07
        -0.73190E+06
         0.20646E+07
         0.28151E+06
         0.23442E+07
         0.40558E+07
         0.52211E+07
         0.44093E+07
         0.46759E+07
         0.39662E+07
         0.29646E+07
         0.22822E+07
         0.16321E+07
         0.10425E+07
         0.23711E+07
         0.46741E+06
        -0.11182E+07
        -0.95880E+06
        -0.69362E+06
        -0.86183E+05
         0.17075E+07
         0.17465E+07
         0.10684E+07
         0.14168E+06
         0.20446E+06
         0.14078E+07
         0.25107E+07
         0.25590E+07
         0.14114E+07
         0.17834E+07
         0.29479E+07
         0.21908E+07
         0.31224E+07
        -0.47157E+06
        -0.42598E+06
         0.30985E+07
        -0.85617E+06
        -0.18360E+07
         0.88328E+06
         0.13117E+07
        -0.36218E+07
        -0.17404E+06
         0.12389E+07
         0.17649E+07
         0.24883E+07
         0.37321E+06
         0.25703E+06
         0.52262E+06
         0.14202E+07
        -0.40031E+06
        -0.64076E+06
        -0.17194E+07
        -0.87710E+06
        -0.53299E+07
        -0.65471E+07
        -0.29781E+07
        -0.12143E+07
         0.98831E+06
        -0.17484E+06
         0.23557E+07
         0.36489E+07
         0.92761E+06
         0.79017E+06
         0.12161E+07
        -0.69804E+06
        -0.41625E+06
         0.33281E+06
         0.96395E+06
         0.23349E+06
         0.33944E+06
        -0.38793E+06
        -0.10342E+06
         0.24119E+06
         0.69958E+06
         0.96199E+06
         0.14843E+07
         0.22097E+07
         0.22228E+07
         0.29907E+07
        -0.64860E+06
         0.21729E+07
         0.30881E+06
         0.22963E+07
         0.39566E+07
         0.51608E+07
         0.45080E+07
         0.47780E+07
         0.40476E+07
         0.30126E+07
         0.22956E+07
         0.16734E+07
         0.11241E+07
         0.24116E+07
         0.55243E+06
        -0.99707E+06
        -0.85582E+06
        -0.61507E+06
        -0.52186E+05
         0.17036E+07
         0.17919E+07
         0.11336E+07
         0.24473E+06
         0.32987E+06
         0.15064E+07
         0.26129E+07
         0.38877E+09
         0.43524E+09
         0.43572E+09
         0.42532E+09
         0.46276E+09
         0.45534E+09
         0.50946E+09
         0.44135E+09
         0.40888E+09
         0.44351E+09
         0.53749E+09
         0.52525E+09
         0.48272E+09
         0.51996E+09
         0.53665E+09
         0.38914E+09
         0.46252E+09
         0.44767E+09
         0.46177E+09
         0.52664E+09
         0.44214E+09
         0.44941E+09
         0.42736E+09
         0.46452E+09
         0.47023E+09
         0.48764E+09
         0.51388E+09
         0.59489E+09
         0.56502E+09
         0.48395E+09
         0.40270E+09
         0.46855E+09
         0.42945E+09
         0.45428E+09
         0.49743E+09
         0.47509E+09
         0.46074E+09
         0.51682E+09
         0.50949E+09
         0.50695E+09
         0.50587E+09
         0.48191E+09
         0.45703E+09
         0.42188E+09
         0.44630E+09
         0.49605E+09
         0.47111E+09
         0.44908E+09
         0.45308E+09
         0.46002E+09
         0.47824E+09
         0.45761E+09
         0.79494E+09
         0.77787E+09
         0.79008E+09
         0.76526E+09
         0.78734E+09
         0.82359E+09
         0.82851E+09
         0.82365E+09
         0.83107E+09
         0.85141E+09
         0.82631E+09
         0.77938E+09
         0.69817E+09
         0.66108E+09
         0.66716E+09
         0.68006E+09
         0.68760E+09
         0.74610E+09
         0.80060E+09
         0.80327E+09
         0.74048E+09
         0.71603E+09
         0.73935E+09
         0.73269E+09
         0.72674E+09
         0.72856E+09
         0.37858E+10
         0.39731E+10
         0.39210E+10
         0.36082E+10
         0.43541E+10
         0.41174E+10
         0.42823E+10
         0.42915E+10
         0.37259E+10
         0.42905E+10
         0.46710E+10
         0.51495E+10
         0.47045E+10
         0.47921E+10
         0.53170E+10
         0.36516E+10
         0.39177E+10
         0.34604E+10
         0.40337E+10
         0.42340E+10
         0.43234E+10
         0.44177E+10
         0.41645E+10
         0.38941E+10
         0.43502E+10
         0.37713E+10
         0.47757E+10
         0.47104E+10
         0.47287E+10
         0.44935E+10
         0.36930E+10
         0.38792E+10
         0.36350E+10
         0.37890E+10
         0.47314E+10
         0.43818E+10
         0.43860E+10
         0.51681E+10
         0.50559E+10
         0.50025E+10
         0.50668E+10
         0.48283E+10
         0.45769E+10
         0.40802E+10
         0.42460E+10
         0.47254E+10
         0.44067E+10
         0.41643E+10
         0.40929E+10
         0.42294E+10
         0.45496E+10
         0.42378E+10
         0.72547E+10
         0.70657E+10
         0.72053E+10
         0.69808E+10
         0.71791E+10
         0.75364E+10
         0.76627E+10
         0.76619E+10
         0.77199E+10
         0.78870E+10
         0.76618E+10
         0.72061E+10
         0.64882E+10
         0.61412E+10
         0.61458E+10
         0.62152E+10
         0.62701E+10
         0.67855E+10
         0.72768E+10
         0.73020E+10
         0.67734E+10
         0.65717E+10
         0.67798E+10
         0.67354E+10
         0.66554E+10
         0.66385E+10
  
SCALARS                      stress_yz  double 1
LOOKUP_TABLE default
         0.37859E+06
        -0.12593E+06
        -0.32719E+06
        -0.16828E+06
        -0.91437E+01
        -0.25202E+01
        -0.11332E+02
        -0.86432E+01
        -0.12264E+07
         0.80662E+06
        -0.16864E+02
        -0.14847E+02
        -0.10759E+07
        -0.54707E+05
         0.12069E+02
        -0.77378E+00
         0.36986E+06
         0.13787E+07
         0.17756E+00
         0.18168E+01
        -0.71543E+06
        -0.26930E+07
        -0.27995E+07
         0.27666E+02
         0.47778E+02
         0.39936E+02
        -0.26544E+06
        -0.27304E+07
         0.19901E+02
         0.38607E+02
         0.42269E+06
         0.36847E+06
        -0.31294E+06
         0.10317E+02
         0.10532E+02
        -0.21865E+00
         0.12562E+07
         0.12106E+07
         0.18985E+02
         0.14771E+02
         0.12349E+07
         0.78611E+06
         0.14348E+02
         0.13112E+02
         0.11199E+07
         0.38611E+06
        -0.47594E+00
         0.73618E+01
         0.10400E+07
         0.34661E+01
         0.10248E+06
        -0.28073E+00
         0.61273E+05
         0.13407E+02
        -0.40608E+06
         0.77994E+01
        -0.13244E+07
         0.23516E+06
         0.21159E+00
        -0.42945E+00
         0.51260E+06
         0.18704E+07
        -0.28829E+01
        -0.10783E+02
         0.30953E+06
        -0.58192E+01
         0.13289E+07
        -0.70891E+01
        -0.10793E+07
        -0.57171E+06
        -0.87608E+00
         0.11567E+02
        -0.19990E+07
         0.25400E+02
        -0.34658E+07
         0.24594E+02
        -0.34977E+07
         0.18669E+02
        -0.28812E+07
         0.15648E+02
        -0.42257E+07
        -0.32432E+07
         0.10038E+02
        -0.22257E+01
        -0.45356E+06
        -0.24904E+00
         0.17502E+07
        -0.15601E+02
         0.41366E+07
        -0.27311E+02
         0.57805E+07
         0.35832E+07
        -0.40507E+02
        -0.32787E+02
         0.25201E+07
        -0.25451E+02
         0.22612E+07
        -0.26038E+02
         0.22004E+07
        -0.27996E+02
         0.36616E+07
         0.30429E+07
        -0.26035E+02
        -0.12475E+02
        -0.24564E+07
         0.92979E+06
         0.91545E+01
        -0.11376E+02
        -0.60389E+07
         0.30455E+02
        -0.86448E+07
         0.44548E+02
        -0.10584E+08
         0.55017E+02
        -0.12414E+08
         0.54573E+02
        -0.14615E+08
         0.43187E+02
        -0.14939E+08
         0.33421E+02
        -0.14067E+08
         0.31085E+02
        -0.12517E+08
         0.29575E+02
        -0.91286E+07
         0.18901E+02
        -0.61647E+07
         0.62402E+01
        -0.30925E+07
         0.40322E+01
         0.22245E+06
         0.60607E+01
         0.29506E+07
         0.31303E+01
         0.52931E+07
        -0.94665E+01
         0.81915E+07
        -0.26720E+02
         0.92176E+07
        -0.41725E+02
         0.10083E+08
        -0.54700E+02
         0.12881E+08
        -0.54653E+02
         0.13342E+08
        -0.47710E+02
         0.12329E+08
        -0.46498E+02
         0.10028E+08
        -0.46787E+02
         0.68176E+07
        -0.36998E+02
         0.48288E+07
        -0.21878E+02
         0.34725E+07
        -0.16917E+02
         0.28574E+07
         0.14784E+07
         0.12906E+07
         0.40066E+06
         0.13224E+07
         0.14060E+07
         0.14825E+06
         0.22784E+07
         0.19549E+07
         0.28680E+07
        -0.14980E+07
        -0.63907E+07
        -0.43662E+07
        -0.50641E+06
        -0.64559E+07
        -0.75688E+06
         0.67057E+06
        -0.43176E+06
        -0.56355E+06
         0.42599E+06
        -0.39114E+06
        -0.32252E+06
         0.10836E+07
        -0.91337E+05
         0.19581E+07
        -0.28948E+06
        -0.14988E+05
        -0.26206E+06
        -0.31798E+06
         0.15349E+07
        -0.73879E+06
         0.80133E+06
        -0.53727E+06
         0.13085E+06
        -0.21591E+06
        -0.11705E+07
        -0.26250E+07
        -0.56736E+07
        -0.51841E+07
        -0.43800E+07
        -0.41239E+07
        -0.10246E+07
         0.83857E+06
         0.23000E+07
         0.37993E+07
         0.62034E+07
         0.40718E+07
         0.29214E+07
         0.31168E+07
         0.33101E+07
         0.38814E+07
         0.17746E+07
        -0.33398E+07
         0.40145E+07
        -0.10872E+08
        -0.15021E+08
        -0.19147E+08
        -0.22735E+08
        -0.22860E+08
        -0.20698E+08
        -0.19695E+08
        -0.18614E+08
        -0.12026E+08
        -0.52792E+07
        -0.23232E+07
        -0.10242E+07
         0.15686E+07
         0.62010E+07
         0.11396E+08
         0.14871E+08
         0.17999E+08
         0.20637E+08
         0.19440E+08
         0.18378E+08
         0.17097E+08
         0.11891E+08
         0.69456E+07
         0.60983E+07
        -0.17001E+09
        -0.17271E+09
        -0.16887E+09
        -0.57282E+08
        -0.12443E+09
        -0.78971E+08
        -0.13594E+09
        -0.16319E+09
        -0.16577E+09
        -0.16222E+09
         0.16850E+09
         0.18693E+09
         0.14264E+09
         0.39018E+08
         0.17652E+09
         0.86867E+08
        -0.50080E+08
         0.62455E+08
         0.16443E+09
         0.54425E+08
         0.48858E+08
         0.36791E+08
        -0.21857E+08
         0.65219E+08
        -0.16464E+09
         0.84279E+08
         0.88410E+07
         0.39315E+08
        -0.62799E+08
        -0.15214E+09
         0.10854E+09
         0.52055E+08
         0.10583E+09
         0.10552E+09
        -0.14154E+08
         0.69519E+08
         0.10436E+09
         0.16178E+09
         0.18172E+09
         0.17114E+09
         0.90956E+08
        -0.24600E+08
        -0.50362E+08
        -0.79687E+08
        -0.11396E+09
        -0.17421E+09
        -0.14989E+09
        -0.11530E+09
        -0.17361E+09
        -0.17538E+09
        -0.11505E+09
        -0.12239E+08
         0.37118E+08
        -0.51970E+08
         0.11618E+09
         0.15114E+09
         0.18410E+09
         0.20715E+09
         0.21062E+09
         0.20457E+09
         0.20069E+09
         0.18672E+09
         0.11941E+09
         0.39849E+08
         0.18869E+08
         0.16929E+08
        -0.71996E+07
        -0.57386E+08
        -0.11117E+09
        -0.14285E+09
        -0.19258E+09
        -0.20844E+09
        -0.20128E+09
        -0.19945E+09
        -0.18759E+09
        -0.13482E+09
        -0.68243E+08
        -0.65115E+08
        -0.17000E+09
        -0.17271E+09
        -0.16887E+09
        -0.57623E+08
        -0.12450E+09
        -0.79075E+08
        -0.13572E+09
        -0.16332E+09
        -0.16580E+09
        -0.16238E+09
         0.16860E+09
         0.18692E+09
         0.14263E+09
         0.39105E+08
         0.17658E+09
         0.86808E+08
        -0.50401E+08
         0.62361E+08
         0.16445E+09
         0.54121E+08
         0.48975E+08
         0.36828E+08
        -0.21864E+08
         0.65189E+08
        -0.16472E+09
         0.84126E+08
         0.89424E+07
         0.39535E+08
        -0.62385E+08
        -0.15221E+09
         0.10846E+09
         0.51958E+08
         0.10624E+09
         0.10560E+09
        -0.14015E+08
         0.69583E+08
         0.10438E+09
         0.16180E+09
         0.18174E+09
         0.17112E+09
         0.90970E+08
        -0.24522E+08
        -0.50408E+08
        -0.79729E+08
        -0.11398E+09
        -0.17422E+09
        -0.14991E+09
        -0.11524E+09
        -0.17361E+09
        -0.17537E+09
        -0.11506E+09
        -0.12071E+08
         0.37096E+08
        -0.51984E+08
         0.11620E+09
         0.15114E+09
         0.18410E+09
         0.20714E+09
         0.21061E+09
         0.20456E+09
         0.20070E+09
         0.18672E+09
         0.11941E+09
         0.39867E+08
         0.18870E+08
         0.16964E+08
        -0.71401E+07
        -0.57404E+08
        -0.11119E+09
        -0.14286E+09
        -0.19258E+09
        -0.20843E+09
        -0.20129E+09
        -0.19945E+09
        -0.18760E+09
        -0.13481E+09
        -0.68203E+08
        -0.65060E+08
        -0.16999E+09
        -0.17270E+09
        -0.16886E+09
        -0.57968E+08
        -0.12457E+09
        -0.79181E+08
        -0.13549E+09
        -0.16345E+09
        -0.16582E+09
        -0.16254E+09
         0.16870E+09
         0.18690E+09
         0.14261E+09
         0.39187E+08
         0.17663E+09
         0.86747E+08
        -0.50723E+08
         0.62267E+08
         0.16447E+09
         0.53812E+08
         0.49093E+08
         0.36865E+08
        -0.21873E+08
         0.65152E+08
        -0.16479E+09
         0.83951E+08
         0.90510E+07
         0.39769E+08
        -0.61933E+08
        -0.15228E+09
         0.10838E+09
         0.51836E+08
         0.10664E+09
         0.10567E+09
        -0.13875E+08
         0.69647E+08
         0.10439E+09
         0.16182E+09
         0.18175E+09
         0.17110E+09
         0.90987E+08
        -0.24437E+08
        -0.50450E+08
        -0.79779E+08
        -0.11402E+09
        -0.17423E+09
        -0.14992E+09
        -0.11518E+09
        -0.17361E+09
        -0.17536E+09
        -0.11507E+09
        -0.11903E+08
         0.37073E+08
        -0.51998E+08
         0.11623E+09
         0.15114E+09
         0.18411E+09
         0.20713E+09
         0.21060E+09
         0.20455E+09
         0.20070E+09
         0.18672E+09
         0.11940E+09
         0.39885E+08
         0.18870E+08
         0.17000E+08
        -0.70804E+07
        -0.57422E+08
        -0.11122E+09
        -0.14287E+09
        -0.19259E+09
        -0.20843E+09
        -0.20129E+09
        -0.19946E+09
        -0.18761E+09
        -0.13479E+09
        -0.68163E+08
        -0.65006E+08
        -0.16997E+09
        -0.17270E+09
        -0.16885E+09
        -0.58313E+08
        -0.12464E+09
        -0.79288E+08
        -0.13528E+09
        -0.16358E+09
        -0.16585E+09
        -0.16270E+09
         0.16880E+09
         0.18689E+09
         0.14260E+09
         0.39274E+08
         0.17669E+09
         0.86681E+08
        -0.51045E+08
         0.62170E+08
         0.16449E+09
         0.53485E+08
         0.49212E+08
         0.36898E+08
        -0.21892E+08
         0.65094E+08
        -0.16486E+09
         0.83721E+08
         0.91635E+07
         0.40078E+08
        -0.61372E+08
        -0.15234E+09
         0.10829E+09
         0.51662E+08
         0.10705E+09
         0.10575E+09
        -0.13737E+08
         0.69711E+08
         0.10441E+09
         0.16183E+09
         0.18177E+09
         0.17108E+09
         0.91012E+08
        -0.24332E+08
        -0.50482E+08
        -0.79849E+08
        -0.11406E+09
        -0.17424E+09
        -0.14993E+09
        -0.11511E+09
        -0.17361E+09
        -0.17535E+09
        -0.11508E+09
        -0.11736E+08
         0.37051E+08
        -0.52012E+08
         0.11625E+09
         0.15114E+09
         0.18411E+09
         0.20712E+09
         0.21059E+09
         0.20454E+09
         0.20070E+09
         0.18672E+09
         0.11940E+09
         0.39907E+08
         0.18871E+08
         0.17035E+08
        -0.70202E+07
        -0.57441E+08
        -0.11125E+09
        -0.14287E+09
        -0.19260E+09
        -0.20843E+09
        -0.20130E+09
        -0.19946E+09
        -0.18762E+09
        -0.13477E+09
        -0.68123E+08
        -0.64952E+08
        -0.16996E+09
        -0.17269E+09
        -0.16885E+09
        -0.58656E+08
        -0.12470E+09
        -0.79393E+08
        -0.13505E+09
        -0.16370E+09
        -0.16589E+09
        -0.16286E+09
         0.16890E+09
         0.18688E+09
         0.14258E+09
         0.39364E+08
         0.17675E+09
         0.86611E+08
        -0.51368E+08
         0.62072E+08
         0.16452E+09
         0.53140E+08
         0.49331E+08
         0.36926E+08
        -0.21919E+08
         0.65013E+08
        -0.16491E+09
         0.83432E+08
         0.92894E+07
         0.40457E+08
        -0.60699E+08
        -0.15239E+09
         0.10818E+09
         0.51429E+08
         0.10746E+09
         0.10583E+09
        -0.13598E+08
         0.69775E+08
         0.10443E+09
         0.16185E+09
         0.18178E+09
         0.17106E+09
         0.91044E+08
        -0.24205E+08
        -0.50501E+08
        -0.79940E+08
        -0.11412E+09
        -0.17425E+09
        -0.14995E+09
        -0.11505E+09
        -0.17361E+09
        -0.17534E+09
        -0.11509E+09
        -0.11566E+08
         0.37028E+08
        -0.52027E+08
         0.11627E+09
         0.15114E+09
         0.18412E+09
         0.20712E+09
         0.21059E+09
         0.20452E+09
         0.20071E+09
         0.18672E+09
         0.11939E+09
         0.39932E+08
         0.18874E+08
         0.17069E+08
        -0.69597E+07
        -0.57461E+08
        -0.11128E+09
        -0.14289E+09
        -0.19260E+09
        -0.20843E+09
        -0.20130E+09
        -0.19946E+09
        -0.18763E+09
        -0.13476E+09
        -0.68083E+08
        -0.64897E+08
        -0.16995E+09
        -0.17269E+09
        -0.16884E+09
        -0.59002E+08
        -0.12477E+09
        -0.79499E+08
        -0.13482E+09
        -0.16383E+09
        -0.16592E+09
        -0.16302E+09
         0.16900E+09
         0.18687E+09
         0.14256E+09
         0.39458E+08
         0.17681E+09
         0.86542E+08
        -0.51698E+08
         0.61977E+08
         0.16454E+09
         0.52788E+08
         0.49450E+08
         0.36952E+08
        -0.21950E+08
         0.64922E+08
        -0.16496E+09
         0.83124E+08
         0.94248E+07
         0.40875E+08
        -0.59978E+08
        -0.15244E+09
         0.10807E+09
         0.51172E+08
         0.10788E+09
         0.10592E+09
        -0.13457E+08
         0.69840E+08
         0.10445E+09
         0.16187E+09
         0.18180E+09
         0.17105E+09
         0.91078E+08
        -0.24072E+08
        -0.50516E+08
        -0.80038E+08
        -0.11419E+09
        -0.17427E+09
        -0.14997E+09
        -0.11500E+09
        -0.17361E+09
        -0.17533E+09
        -0.11510E+09
        -0.11396E+08
         0.37005E+08
        -0.52041E+08
         0.11629E+09
         0.15114E+09
         0.18412E+09
         0.20711E+09
         0.21058E+09
         0.20451E+09
         0.20071E+09
         0.18672E+09
         0.11939E+09
         0.39959E+08
         0.18877E+08
         0.17102E+08
        -0.68993E+07
        -0.57481E+08
        -0.11132E+09
        -0.14290E+09
        -0.19261E+09
        -0.20842E+09
        -0.20131E+09
        -0.19947E+09
        -0.18764E+09
        -0.13474E+09
        -0.68043E+08
        -0.64843E+08
        -0.16994E+09
        -0.17268E+09
        -0.16884E+09
        -0.59358E+08
        -0.12483E+09
        -0.79605E+08
        -0.13458E+09
        -0.16395E+09
        -0.16595E+09
        -0.16317E+09
         0.16910E+09
         0.18686E+09
         0.14255E+09
         0.39575E+08
         0.17686E+09
         0.86476E+08
        -0.52040E+08
         0.61881E+08
         0.16456E+09
         0.52435E+08
         0.49569E+08
         0.36979E+08
        -0.21982E+08
         0.64832E+08
        -0.16501E+09
         0.82814E+08
         0.95846E+07
         0.41321E+08
        -0.59244E+08
        -0.15248E+09
         0.10796E+09
         0.50905E+08
         0.10830E+09
         0.10602E+09
        -0.13316E+08
         0.69906E+08
         0.10447E+09
         0.16189E+09
         0.18182E+09
         0.17103E+09
         0.91115E+08
        -0.23935E+08
        -0.50529E+08
        -0.80135E+08
        -0.11426E+09
        -0.17428E+09
        -0.15000E+09
        -0.11497E+09
        -0.17362E+09
        -0.17532E+09
        -0.11511E+09
        -0.11223E+08
         0.36983E+08
        -0.52055E+08
         0.11631E+09
         0.15114E+09
         0.18413E+09
         0.20710E+09
         0.21057E+09
         0.20450E+09
         0.20072E+09
         0.18672E+09
         0.11939E+09
         0.39986E+08
         0.18881E+08
         0.17137E+08
        -0.68388E+07
        -0.57501E+08
        -0.11136E+09
        -0.14291E+09
        -0.19262E+09
        -0.20842E+09
        -0.20131E+09
        -0.19947E+09
        -0.18765E+09
        -0.13472E+09
        -0.68002E+08
        -0.64788E+08
        -0.16993E+09
        -0.17266E+09
        -0.16884E+09
        -0.59719E+08
        -0.12490E+09
        -0.79712E+08
        -0.13431E+09
        -0.16407E+09
        -0.16599E+09
        -0.16331E+09
         0.16919E+09
         0.18685E+09
         0.14254E+09
         0.39697E+08
         0.17692E+09
         0.86412E+08
        -0.52388E+08
         0.61783E+08
         0.16459E+09
         0.52083E+08
         0.49688E+08
         0.37007E+08
        -0.22012E+08
         0.64745E+08
        -0.16507E+09
         0.82505E+08
         0.97504E+07
         0.41777E+08
        -0.58507E+08
        -0.15251E+09
         0.10786E+09
         0.50631E+08
         0.10874E+09
         0.10613E+09
        -0.13174E+08
         0.69973E+08
         0.10449E+09
         0.16192E+09
         0.18183E+09
         0.17102E+09
         0.91151E+08
        -0.23799E+08
        -0.50542E+08
        -0.80231E+08
        -0.11433E+09
        -0.17429E+09
        -0.15003E+09
        -0.11494E+09
        -0.17363E+09
        -0.17531E+09
        -0.11511E+09
        -0.11049E+08
         0.36960E+08
        -0.52069E+08
         0.11634E+09
         0.15114E+09
         0.18413E+09
         0.20710E+09
         0.21056E+09
         0.20449E+09
         0.20072E+09
         0.18672E+09
         0.11939E+09
         0.40013E+08
         0.18884E+08
         0.17171E+08
        -0.67783E+07
        -0.57521E+08
        -0.11139E+09
        -0.14293E+09
        -0.19262E+09
        -0.20842E+09
        -0.20132E+09
        -0.19948E+09
        -0.18766E+09
        -0.13471E+09
        -0.67962E+08
        -0.64733E+08
        -0.16991E+09
        -0.17265E+09
        -0.16884E+09
        -0.60079E+08
        -0.12496E+09
        -0.79818E+08
        -0.13406E+09
        -0.16418E+09
        -0.16602E+09
        -0.16346E+09
         0.16929E+09
         0.18684E+09
         0.14253E+09
         0.39824E+08
         0.17698E+09
         0.86348E+08
        -0.52737E+08
         0.61684E+08
         0.16461E+09
         0.51728E+08
         0.49808E+08
         0.37035E+08
        -0.22043E+08
         0.64656E+08
        -0.16512E+09
         0.82199E+08
         0.99203E+07
         0.42229E+08
        -0.57773E+08
        -0.15255E+09
         0.10775E+09
         0.50359E+08
         0.10917E+09
         0.10623E+09
        -0.13032E+08
         0.70038E+08
         0.10451E+09
         0.16194E+09
         0.18185E+09
         0.17100E+09
         0.91186E+08
        -0.23663E+08
        -0.50554E+08
        -0.80327E+08
        -0.11439E+09
        -0.17431E+09
        -0.15007E+09
        -0.11492E+09
        -0.17363E+09
        -0.17529E+09
        -0.11511E+09
        -0.10875E+08
         0.36937E+08
        -0.52083E+08
         0.11636E+09
         0.15114E+09
         0.18414E+09
         0.20709E+09
         0.21055E+09
         0.20447E+09
         0.20072E+09
         0.18672E+09
         0.11939E+09
         0.40040E+08
         0.18888E+08
         0.17206E+08
        -0.67179E+07
        -0.57541E+08
        -0.11143E+09
        -0.14294E+09
        -0.19263E+09
        -0.20842E+09
        -0.20133E+09
        -0.19948E+09
        -0.18767E+09
        -0.13469E+09
        -0.67922E+08
        -0.64679E+08
        -0.16990E+09
        -0.17264E+09
        -0.16884E+09
        -0.60434E+08
        -0.12503E+09
        -0.79924E+08
        -0.13380E+09
        -0.16430E+09
        -0.16605E+09
        -0.16360E+09
         0.16938E+09
         0.18683E+09
         0.14252E+09
         0.39947E+08
         0.17704E+09
         0.86285E+08
        -0.53085E+08
         0.61585E+08
         0.16463E+09
         0.51370E+08
         0.49926E+08
         0.37062E+08
        -0.22072E+08
         0.64568E+08
        -0.16518E+09
         0.81892E+08
         0.10085E+08
         0.42676E+08
        -0.57040E+08
        -0.15259E+09
         0.10765E+09
         0.50086E+08
         0.10960E+09
         0.10634E+09
        -0.12890E+08
         0.70106E+08
         0.10453E+09
         0.16196E+09
         0.18186E+09
         0.17098E+09
         0.91222E+08
        -0.23528E+08
        -0.50567E+08
        -0.80422E+08
        -0.11446E+09
        -0.17432E+09
        -0.15010E+09
        -0.11490E+09
        -0.17364E+09
        -0.17528E+09
        -0.11512E+09
        -0.10700E+08
         0.36914E+08
        -0.52096E+08
         0.11638E+09
         0.15114E+09
         0.18414E+09
         0.20708E+09
         0.21054E+09
         0.20446E+09
         0.20073E+09
         0.18671E+09
         0.11939E+09
         0.40067E+08
         0.18891E+08
         0.17241E+08
        -0.66577E+07
        -0.57562E+08
        -0.11146E+09
        -0.14295E+09
        -0.19263E+09
        -0.20842E+09
        -0.20134E+09
        -0.19948E+09
        -0.18768E+09
        -0.13467E+09
        -0.67882E+08
        -0.64624E+08
        -0.16989E+09
        -0.17263E+09
        -0.16884E+09
        -0.60789E+08
        -0.12509E+09
        -0.80029E+08
        -0.13355E+09
        -0.16442E+09
        -0.16609E+09
        -0.16374E+09
         0.16947E+09
         0.18682E+09
         0.14250E+09
         0.40073E+08
         0.17710E+09
         0.86222E+08
        -0.53432E+08
         0.61487E+08
         0.16465E+09
         0.51011E+08
         0.50045E+08
         0.37088E+08
        -0.22103E+08
         0.64480E+08
        -0.16523E+09
         0.81586E+08
         0.10253E+08
         0.43117E+08
        -0.56308E+08
        -0.15263E+09
         0.10754E+09
         0.49814E+08
         0.11003E+09
         0.10644E+09
        -0.12747E+08
         0.70172E+08
         0.10455E+09
         0.16198E+09
         0.18188E+09
         0.17097E+09
         0.91257E+08
        -0.23393E+08
        -0.50580E+08
        -0.80517E+08
        -0.11453E+09
        -0.17433E+09
        -0.15014E+09
        -0.11487E+09
        -0.17365E+09
        -0.17527E+09
        -0.11512E+09
        -0.10524E+08
         0.36891E+08
        -0.52110E+08
         0.11640E+09
         0.15114E+09
         0.18415E+09
         0.20708E+09
         0.21053E+09
         0.20445E+09
         0.20073E+09
         0.18671E+09
         0.11938E+09
         0.40093E+08
         0.18895E+08
         0.17276E+08
        -0.65972E+07
        -0.57582E+08
        -0.11150E+09
        -0.14296E+09
        -0.19264E+09
        -0.20841E+09
        -0.20134E+09
        -0.19949E+09
        -0.18768E+09
        -0.13466E+09
        -0.67843E+08
        -0.64569E+08
        -0.16988E+09
        -0.17262E+09
        -0.16884E+09
        -0.61146E+08
        -0.12516E+09
        -0.80135E+08
        -0.13329E+09
        -0.16453E+09
        -0.16612E+09
        -0.16388E+09
         0.16955E+09
         0.18681E+09
         0.14249E+09
         0.40199E+08
         0.17715E+09
         0.86160E+08
        -0.53777E+08
         0.61387E+08
         0.16468E+09
         0.50654E+08
         0.50165E+08
         0.37114E+08
        -0.22133E+08
         0.64393E+08
        -0.16528E+09
         0.81283E+08
         0.10417E+08
         0.43555E+08
        -0.55576E+08
        -0.15266E+09
         0.10744E+09
         0.49541E+08
         0.11046E+09
         0.10655E+09
        -0.12603E+08
         0.70239E+08
         0.10457E+09
         0.16201E+09
         0.18190E+09
         0.17095E+09
         0.91293E+08
        -0.23259E+08
        -0.50592E+08
        -0.80612E+08
        -0.11460E+09
        -0.17435E+09
        -0.15017E+09
        -0.11485E+09
        -0.17366E+09
        -0.17526E+09
        -0.11513E+09
        -0.10348E+08
         0.36868E+08
        -0.52124E+08
         0.11642E+09
         0.15114E+09
         0.18415E+09
         0.20707E+09
         0.21052E+09
         0.20444E+09
         0.20074E+09
         0.18671E+09
         0.11938E+09
         0.40120E+08
         0.18899E+08
         0.17310E+08
        -0.65366E+07
        -0.57602E+08
        -0.11153E+09
        -0.14298E+09
        -0.19265E+09
        -0.20841E+09
        -0.20135E+09
        -0.19949E+09
        -0.18769E+09
        -0.13464E+09
        -0.67803E+08
        -0.64514E+08
        -0.16987E+09
        -0.17261E+09
        -0.16884E+09
        -0.61504E+08
        -0.12522E+09
        -0.80242E+08
        -0.13303E+09
        -0.16465E+09
        -0.16615E+09
        -0.16402E+09
         0.16964E+09
         0.18680E+09
         0.14248E+09
         0.40322E+08
         0.17721E+09
         0.86096E+08
        -0.54121E+08
         0.61285E+08
         0.16470E+09
         0.50300E+08
         0.50284E+08
         0.37141E+08
        -0.22163E+08
         0.64306E+08
        -0.16534E+09
         0.80976E+08
         0.10586E+08
         0.43988E+08
        -0.54846E+08
        -0.15270E+09
         0.10733E+09
         0.49264E+08
         0.11089E+09
         0.10665E+09
        -0.12460E+08
         0.70306E+08
         0.10459E+09
         0.16203E+09
         0.18191E+09
         0.17093E+09
         0.91328E+08
        -0.23125E+08
        -0.50604E+08
        -0.80707E+08
        -0.11466E+09
        -0.17436E+09
        -0.15021E+09
        -0.11483E+09
        -0.17367E+09
        -0.17525E+09
        -0.11513E+09
        -0.10172E+08
         0.36845E+08
        -0.52137E+08
         0.11644E+09
         0.15114E+09
         0.18416E+09
         0.20706E+09
         0.21051E+09
         0.20442E+09
         0.20074E+09
         0.18671E+09
         0.11938E+09
         0.40147E+08
         0.18902E+08
         0.17345E+08
        -0.64761E+07
        -0.57621E+08
        -0.11157E+09
        -0.14299E+09
        -0.19265E+09
        -0.20841E+09
        -0.20136E+09
        -0.19949E+09
        -0.18770E+09
        -0.13462E+09
        -0.67764E+08
        -0.64459E+08
        -0.16986E+09
        -0.17259E+09
        -0.16884E+09
        -0.61860E+08
        -0.12529E+09
        -0.80348E+08
        -0.13279E+09
        -0.16476E+09
        -0.16618E+09
        -0.16416E+09
         0.16972E+09
         0.18679E+09
         0.14247E+09
         0.40449E+08
         0.17727E+09
         0.86034E+08
        -0.54465E+08
         0.61186E+08
         0.16472E+09
         0.49945E+08
         0.50403E+08
         0.37167E+08
        -0.22194E+08
         0.64220E+08
        -0.16539E+09
         0.80668E+08
         0.10751E+08
         0.44416E+08
        -0.54119E+08
        -0.15274E+09
         0.10723E+09
         0.48990E+08
         0.11133E+09
         0.10676E+09
        -0.12316E+08
         0.70372E+08
         0.10461E+09
         0.16205E+09
         0.18193E+09
         0.17092E+09
         0.91363E+08
        -0.22990E+08
        -0.50616E+08
        -0.80802E+08
        -0.11473E+09
        -0.17438E+09
        -0.15024E+09
        -0.11480E+09
        -0.17367E+09
        -0.17524E+09
        -0.11513E+09
        -0.99969E+07
         0.36822E+08
        -0.52150E+08
         0.11646E+09
         0.15114E+09
         0.18417E+09
         0.20705E+09
         0.21050E+09
         0.20441E+09
         0.20075E+09
         0.18671E+09
         0.11938E+09
         0.40173E+08
         0.18906E+08
         0.17379E+08
        -0.64159E+07
        -0.57641E+08
        -0.11161E+09
        -0.14300E+09
        -0.19266E+09
        -0.20841E+09
        -0.20136E+09
        -0.19950E+09
        -0.18771E+09
        -0.13461E+09
        -0.67724E+08
        -0.64404E+08
        -0.16984E+09
        -0.17258E+09
        -0.16884E+09
        -0.62213E+08
        -0.12535E+09
        -0.80454E+08
        -0.13253E+09
        -0.16488E+09
        -0.16622E+09
        -0.16429E+09
         0.16980E+09
         0.18678E+09
         0.14246E+09
         0.40571E+08
         0.17733E+09
         0.85971E+08
        -0.54809E+08
         0.61087E+08
         0.16474E+09
         0.49587E+08
         0.50521E+08
         0.37193E+08
        -0.22223E+08
         0.64135E+08
        -0.16545E+09
         0.80362E+08
         0.10918E+08
         0.44836E+08
        -0.53395E+08
        -0.15277E+09
         0.10713E+09
         0.48714E+08
         0.11176E+09
         0.10686E+09
        -0.12173E+08
         0.70438E+08
         0.10463E+09
         0.16208E+09
         0.18195E+09
         0.17090E+09
         0.91399E+08
        -0.22856E+08
        -0.50629E+08
        -0.80896E+08
        -0.11480E+09
        -0.17439E+09
        -0.15028E+09
        -0.11478E+09
        -0.17368E+09
        -0.17522E+09
        -0.11514E+09
        -0.98200E+07
         0.36799E+08
        -0.52164E+08
         0.11648E+09
         0.15114E+09
         0.18417E+09
         0.20705E+09
         0.21049E+09
         0.20440E+09
         0.20075E+09
         0.18671E+09
         0.11938E+09
         0.40200E+08
         0.18909E+08
         0.17414E+08
        -0.63556E+07
        -0.57661E+08
        -0.11164E+09
        -0.14302E+09
        -0.19267E+09
        -0.20841E+09
        -0.20137E+09
        -0.19950E+09
        -0.18772E+09
        -0.13459E+09
        -0.67685E+08
        -0.64348E+08
        -0.16983E+09
        -0.17257E+09
        -0.16884E+09
        -0.62564E+08
        -0.12542E+09
        -0.80559E+08
        -0.13228E+09
        -0.16499E+09
        -0.16625E+09
        -0.16443E+09
         0.16988E+09
         0.18677E+09
         0.14245E+09
         0.40698E+08
         0.17739E+09
         0.85909E+08
        -0.55153E+08
         0.60986E+08
         0.16477E+09
         0.49230E+08
         0.50641E+08
         0.37218E+08
        -0.22253E+08
         0.64051E+08
        -0.16550E+09
         0.80055E+08
         0.11080E+08
         0.45252E+08
        -0.52674E+08
        -0.15281E+09
         0.10702E+09
         0.48439E+08
         0.11219E+09
         0.10697E+09
        -0.12028E+08
         0.70504E+08
         0.10465E+09
         0.16210E+09
         0.18196E+09
         0.17088E+09
         0.91434E+08
        -0.22723E+08
        -0.50642E+08
        -0.80991E+08
        -0.11487E+09
        -0.17440E+09
        -0.15031E+09
        -0.11476E+09
        -0.17369E+09
        -0.17521E+09
        -0.11514E+09
        -0.96424E+07
         0.36776E+08
        -0.52177E+08
         0.11650E+09
         0.15115E+09
         0.18418E+09
         0.20704E+09
         0.21048E+09
         0.20439E+09
         0.20075E+09
         0.18671E+09
         0.11937E+09
         0.40226E+08
         0.18912E+08
         0.17448E+08
        -0.62952E+07
        -0.57680E+08
        -0.11168E+09
        -0.14303E+09
        -0.19267E+09
        -0.20841E+09
        -0.20138E+09
        -0.19951E+09
        -0.18773E+09
        -0.13457E+09
        -0.67646E+08
        -0.64293E+08
        -0.16982E+09
        -0.17256E+09
        -0.16884E+09
        -0.62916E+08
        -0.12548E+09
        -0.80665E+08
        -0.13203E+09
        -0.16510E+09
        -0.16628E+09
        -0.16456E+09
         0.16996E+09
         0.18676E+09
         0.14243E+09
         0.40820E+08
         0.17744E+09
         0.85847E+08
        -0.55497E+08
         0.60884E+08
         0.16479E+09
         0.48878E+08
         0.50759E+08
         0.37242E+08
        -0.22283E+08
         0.63965E+08
        -0.16556E+09
         0.79747E+08
         0.11247E+08
         0.45662E+08
        -0.51951E+08
        -0.15285E+09
         0.10692E+09
         0.48161E+08
         0.11262E+09
         0.10707E+09
        -0.11883E+08
         0.70570E+08
         0.10467E+09
         0.16213E+09
         0.18198E+09
         0.17086E+09
         0.91471E+08
        -0.22591E+08
        -0.50656E+08
        -0.81085E+08
        -0.11494E+09
        -0.17442E+09
        -0.15035E+09
        -0.11474E+09
        -0.17369E+09
        -0.17520E+09
        -0.11515E+09
        -0.94657E+07
         0.36752E+08
        -0.52190E+08
         0.11653E+09
         0.15115E+09
         0.18418E+09
         0.20703E+09
         0.21047E+09
         0.20437E+09
         0.20076E+09
         0.18670E+09
         0.11937E+09
         0.40253E+08
         0.18915E+08
         0.17482E+08
        -0.62352E+07
        -0.57700E+08
        -0.11171E+09
        -0.14304E+09
        -0.19268E+09
        -0.20840E+09
        -0.20138E+09
        -0.19951E+09
        -0.18774E+09
        -0.13455E+09
        -0.67608E+08
        -0.64238E+08
        -0.16981E+09
        -0.17255E+09
        -0.16884E+09
        -0.63269E+08
        -0.12555E+09
        -0.80771E+08
        -0.13179E+09
        -0.16521E+09
        -0.16632E+09
        -0.16470E+09
         0.17003E+09
         0.18675E+09
         0.14242E+09
         0.40947E+08
         0.17750E+09
         0.85784E+08
        -0.55844E+08
         0.60781E+08
         0.16481E+09
         0.48542E+08
         0.50877E+08
         0.37266E+08
        -0.22313E+08
         0.63880E+08
        -0.16561E+09
         0.79441E+08
         0.11414E+08
         0.46070E+08
        -0.51230E+08
        -0.15288E+09
         0.10681E+09
         0.47881E+08
         0.11305E+09
         0.10718E+09
        -0.11739E+08
         0.70637E+08
         0.10469E+09
         0.16216E+09
         0.18199E+09
         0.17085E+09
         0.91509E+08
        -0.22458E+08
        -0.50671E+08
        -0.81179E+08
        -0.11501E+09
        -0.17443E+09
        -0.15038E+09
        -0.11471E+09
        -0.17370E+09
        -0.17519E+09
        -0.11515E+09
        -0.92886E+07
         0.36729E+08
        -0.52203E+08
         0.11655E+09
         0.15115E+09
         0.18419E+09
         0.20703E+09
         0.21046E+09
         0.20436E+09
         0.20076E+09
         0.18670E+09
         0.11937E+09
         0.40279E+08
         0.18916E+08
         0.17516E+08
        -0.61753E+07
        -0.57719E+08
        -0.11175E+09
        -0.14305E+09
        -0.19269E+09
        -0.20840E+09
        -0.20139E+09
        -0.19951E+09
        -0.18775E+09
        -0.13454E+09
        -0.67570E+08
        -0.64183E+08
        -0.16980E+09
        -0.17253E+09
        -0.16884E+09
        -0.63619E+08
        -0.12561E+09
        -0.80876E+08
        -0.13154E+09
        -0.16533E+09
        -0.16636E+09
        -0.16484E+09
         0.17010E+09
         0.18674E+09
         0.14241E+09
         0.41076E+08
         0.17756E+09
         0.85722E+08
        -0.56198E+08
         0.60677E+08
         0.16483E+09
         0.48220E+08
         0.50996E+08
         0.37289E+08
        -0.22343E+08
         0.63796E+08
        -0.16567E+09
         0.79133E+08
         0.11588E+08
         0.46473E+08
        -0.50512E+08
        -0.15291E+09
         0.10671E+09
         0.47603E+08
         0.11349E+09
         0.10728E+09
        -0.11593E+08
         0.70703E+08
         0.10470E+09
         0.16219E+09
         0.18200E+09
         0.17082E+09
         0.91548E+08
        -0.22327E+08
        -0.50690E+08
        -0.81273E+08
        -0.11507E+09
        -0.17444E+09
        -0.15041E+09
        -0.11469E+09
        -0.17371E+09
        -0.17518E+09
        -0.11515E+09
        -0.91095E+07
         0.36706E+08
        -0.52216E+08
         0.11657E+09
         0.15115E+09
         0.18419E+09
         0.20702E+09
         0.21045E+09
         0.20435E+09
         0.20077E+09
         0.18670E+09
         0.11937E+09
         0.40304E+08
         0.18915E+08
         0.17550E+08
        -0.61150E+07
        -0.57739E+08
        -0.11179E+09
        -0.14307E+09
        -0.19269E+09
        -0.20840E+09
        -0.20140E+09
        -0.19952E+09
        -0.18776E+09
        -0.13452E+09
        -0.67532E+08
        -0.64127E+08
        -0.16978E+09
        -0.17252E+09
        -0.16884E+09
        -0.63967E+08
        -0.12568E+09
        -0.80981E+08
        -0.13130E+09
        -0.16544E+09
        -0.16639E+09
        -0.16498E+09
         0.17017E+09
         0.18673E+09
         0.14240E+09
         0.41200E+08
         0.17762E+09
         0.85661E+08
        -0.56552E+08
         0.60575E+08
         0.16485E+09
         0.47907E+08
         0.51115E+08
         0.37313E+08
        -0.22371E+08
         0.63717E+08
        -0.16573E+09
         0.78836E+08
         0.11758E+08
         0.46860E+08
        -0.49803E+08
        -0.15293E+09
         0.10660E+09
         0.47331E+08
         0.11392E+09
         0.10739E+09
        -0.11449E+08
         0.70767E+08
         0.10472E+09
         0.16222E+09
         0.18202E+09
         0.17080E+09
         0.91588E+08
        -0.22199E+08
        -0.50710E+08
        -0.81365E+08
        -0.11514E+09
        -0.17446E+09
        -0.15045E+09
        -0.11467E+09
        -0.17371E+09
        -0.17516E+09
        -0.11516E+09
        -0.89310E+07
         0.36682E+08
        -0.52230E+08
         0.11659E+09
         0.15115E+09
         0.18420E+09
         0.20701E+09
         0.21044E+09
         0.20434E+09
         0.20077E+09
         0.18670E+09
         0.11938E+09
         0.40328E+08
         0.18913E+08
         0.17584E+08
        -0.60547E+07
        -0.57758E+08
        -0.11182E+09
        -0.14308E+09
        -0.19270E+09
        -0.20840E+09
        -0.20140E+09
        -0.19952E+09
        -0.18777E+09
        -0.13450E+09
        -0.67494E+08
        -0.64072E+08
        -0.16347E+09
        -0.15487E+09
        -0.15030E+09
        -0.53386E+08
        -0.11945E+09
        -0.74032E+08
        -0.95123E+08
        -0.15754E+09
        -0.15244E+09
        -0.15674E+09
         0.13451E+09
         0.18273E+09
         0.13825E+09
         0.36739E+08
         0.17416E+09
         0.80361E+08
        -0.45504E+08
         0.49173E+08
         0.14052E+09
         0.32548E+08
         0.50032E+08
         0.36325E+08
        -0.21809E+08
         0.49736E+08
        -0.14820E+09
         0.64474E+08
         0.10607E+08
         0.35710E+08
        -0.30713E+08
        -0.13671E+09
         0.97695E+08
         0.35362E+08
         0.93888E+08
         0.84043E+08
        -0.10909E+08
         0.65261E+08
         0.99575E+08
         0.15803E+09
         0.17498E+09
         0.16319E+09
         0.89342E+08
        -0.21501E+08
        -0.49499E+08
        -0.78768E+08
        -0.11010E+09
        -0.16893E+09
        -0.14174E+09
        -0.10673E+09
        -0.15687E+09
        -0.16147E+09
        -0.11090E+09
        -0.81841E+07
         0.36418E+08
        -0.51946E+08
         0.11597E+09
         0.15037E+09
         0.18331E+09
         0.20606E+09
         0.20937E+09
         0.20303E+09
         0.19941E+09
         0.18553E+09
         0.11865E+09
         0.40122E+08
         0.18783E+08
         0.17501E+08
        -0.59652E+07
        -0.57489E+08
        -0.11133E+09
        -0.14244E+09
        -0.19159E+09
        -0.20725E+09
        -0.20024E+09
        -0.19833E+09
        -0.18671E+09
        -0.13369E+09
        -0.67090E+08
        -0.63663E+08
        -0.81641E+08
        -0.52196E+08
        -0.49249E+08
        -0.14758E+08
        -0.53262E+08
        -0.26682E+08
        -0.21716E+08
        -0.71174E+08
        -0.55724E+08
        -0.69568E+08
         0.34027E+08
         0.10952E+09
         0.74958E+08
         0.11951E+08
         0.10704E+09
         0.33130E+08
        -0.11807E+08
         0.10276E+08
         0.40800E+08
         0.66075E+07
         0.29197E+08
         0.20200E+08
        -0.12296E+08
         0.12332E+08
        -0.49204E+08
         0.12379E+08
         0.34924E+07
         0.60485E+07
        -0.62317E+07
        -0.45378E+08
         0.35759E+08
         0.83197E+07
         0.25317E+08
         0.20994E+08
        -0.53945E+07
         0.24437E+08
         0.44645E+08
         0.89108E+08
         0.85928E+08
         0.76197E+08
         0.51166E+08
        -0.11938E+08
        -0.28489E+08
        -0.40934E+08
        -0.51302E+08
        -0.88653E+08
        -0.59633E+08
        -0.42026E+08
        -0.53934E+08
        -0.60576E+08
        -0.55265E+08
        -0.32516E+07
         0.29100E+08
        -0.42314E+08
         0.95423E+08
         0.12486E+09
         0.15382E+09
         0.17418E+09
         0.17450E+09
         0.16325E+09
         0.15824E+09
         0.14936E+09
         0.95957E+08
         0.33004E+08
         0.15026E+08
         0.14063E+08
        -0.48934E+07
        -0.48191E+08
        -0.94053E+08
        -0.12039E+09
        -0.15602E+09
        -0.17022E+09
        -0.16338E+09
        -0.16092E+09
        -0.15273E+09
        -0.10866E+09
        -0.55245E+08
        -0.52236E+08
  
SCALARS                      stress_xz  double 1
LOOKUP_TABLE default
         0.62474E+05
        -0.44061E+06
        -0.14545E+07
         0.99918E+05
        -0.94642E+01
         0.33557E+01
         0.11221E+02
         0.22410E+01
        -0.40927E+07
        -0.27344E+07
         0.33562E+02
         0.30231E+02
         0.17451E+06
        -0.71208E+06
        -0.41394E+01
        -0.19391E+02
        -0.14609E+06
        -0.68336E+06
        -0.14007E+02
        -0.20861E+02
        -0.10015E+07
        -0.16875E+07
        -0.15980E+07
        -0.13930E+02
        -0.64234E+01
         0.11222E+02
        -0.17825E+07
        -0.14474E+07
        -0.26075E+02
        -0.20684E+02
         0.34183E+06
        -0.75934E+06
         0.72665E+05
         0.26548E+01
        -0.10259E+02
        -0.63204E+01
         0.10142E+07
         0.48885E+06
        -0.15231E+02
        -0.16218E+02
         0.20215E+07
         0.28643E+07
        -0.34358E+02
        -0.25337E+02
         0.21627E+07
         0.11518E+07
        -0.37731E+02
        -0.18161E+02
        -0.62086E+06
        -0.11400E+02
         0.14785E+07
        -0.31732E+01
        -0.64766E+06
        -0.22275E+02
         0.48382E+06
        -0.58922E+01
         0.21168E+07
         0.58070E+06
        -0.50475E+01
        -0.12201E+02
        -0.36499E+05
         0.10069E+07
         0.10096E+02
         0.69230E+01
        -0.26151E+06
        -0.10155E+01
        -0.87541E+06
         0.66794E+01
        -0.57596E+07
        -0.39469E+07
         0.41748E+02
         0.30278E+02
        -0.25385E+07
         0.22047E+02
         0.59833E+06
        -0.15251E+02
         0.18723E+07
        -0.29932E+01
         0.39694E+07
        -0.46438E+01
         0.52519E+07
         0.37294E+07
        -0.17019E+02
        -0.19463E+02
         0.32941E+07
        -0.20932E+02
         0.26227E+07
        -0.30137E+02
         0.16334E+07
        -0.19222E+02
         0.25712E+07
         0.18910E+07
        -0.82038E+01
         0.11250E+02
        -0.43228E+06
         0.13196E+02
        -0.11866E+07
         0.55410E+01
        -0.28492E+07
         0.13683E+02
        -0.42117E+07
        -0.28905E+07
         0.31549E+02
         0.32922E+02
        -0.10315E+08
        -0.11422E+08
         0.58296E+02
         0.57450E+02
        -0.10217E+08
         0.49802E+02
        -0.93112E+07
         0.37218E+02
        -0.66803E+07
         0.20453E+02
        -0.48539E+07
         0.21871E+01
        -0.18010E+07
        -0.77898E+01
         0.23205E+07
        -0.62323E+01
         0.55376E+07
        -0.61256E+01
         0.82280E+07
        -0.13814E+02
         0.11068E+08
        -0.26281E+02
         0.13449E+08
        -0.31361E+02
         0.14296E+08
        -0.29590E+02
         0.13616E+08
        -0.32177E+02
         0.12478E+08
        -0.41761E+02
         0.11222E+08
        -0.49244E+02
         0.98978E+07
        -0.45778E+02
         0.78714E+07
        -0.37204E+02
         0.46186E+07
        -0.17563E+02
         0.39594E+06
         0.33538E+01
        -0.25829E+07
         0.81424E+01
        -0.40425E+07
         0.13315E+02
        -0.60799E+07
         0.26058E+02
        -0.80163E+07
         0.42759E+02
        -0.10536E+08
         0.51372E+02
        -0.12105E+08
         0.52544E+02
         0.88488E+06
        -0.46086E+06
        -0.54064E+06
         0.10882E+07
        -0.42161E+07
        -0.32597E+07
        -0.49246E+06
         0.72314E+06
         0.37286E+06
         0.66366E+06
        -0.36465E+06
        -0.15790E+07
        -0.32971E+07
         0.10547E+07
         0.12691E+07
        -0.14482E+07
        -0.12153E+07
         0.56347E+06
         0.87706E+06
         0.94334E+06
         0.51577E+07
         0.54908E+07
         0.49604E+07
         0.15415E+07
        -0.61794E+06
         0.46049E+06
         0.14800E+07
         0.16594E+06
         0.16985E+07
         0.11673E+07
        -0.12930E+07
        -0.25385E+06
         0.60929E+06
         0.19706E+06
        -0.62406E+07
        -0.39742E+07
        -0.35958E+07
         0.25177E+07
         0.14342E+07
         0.30694E+07
         0.63181E+07
         0.58839E+07
         0.58059E+07
         0.42682E+07
         0.30626E+07
         0.23975E+07
        -0.45003E+06
        -0.18788E+07
        -0.54333E+06
        -0.17230E+07
        -0.46047E+07
        -0.38763E+07
        -0.18246E+08
        -0.19141E+08
        -0.17110E+08
        -0.14554E+08
        -0.10837E+08
        -0.55217E+07
         0.32775E+06
         0.39356E+07
         0.59963E+07
         0.10295E+08
         0.16784E+08
         0.20404E+08
         0.18686E+08
         0.17919E+08
         0.18925E+08
         0.18917E+08
         0.17185E+08
         0.15051E+08
         0.76318E+07
        -0.12061E+07
        -0.46341E+07
        -0.51660E+07
        -0.87483E+07
        -0.13975E+08
        -0.18120E+08
        -0.19042E+08
        -0.57730E+08
         0.19087E+08
        -0.38396E+08
        -0.15988E+09
         0.13010E+09
         0.15689E+09
         0.99226E+08
        -0.74380E+08
        -0.52939E+08
        -0.74736E+08
        -0.29662E+08
         0.27741E+08
         0.11755E+09
        -0.17159E+09
        -0.69480E+08
         0.15281E+09
         0.16183E+09
        -0.12661E+09
        -0.49771E+08
        -0.14964E+09
        -0.17879E+09
        -0.18072E+09
        -0.18275E+09
        -0.15626E+09
         0.55428E+08
         0.77239E+08
        -0.17511E+09
         0.55618E+08
        -0.14018E+09
        -0.85569E+08
         0.13612E+09
         0.16036E+09
        -0.13317E+09
        -0.13198E+09
         0.18292E+09
         0.16267E+09
         0.14671E+09
        -0.92918E+08
        -0.19816E+08
        -0.61397E+08
        -0.16318E+09
        -0.18372E+09
        -0.17849E+09
        -0.16348E+09
        -0.13982E+09
        -0.61220E+08
         0.97837E+08
         0.13436E+09
        -0.21277E+08
         0.21922E+08
         0.14227E+09
         0.17768E+09
         0.20454E+09
         0.20176E+09
         0.17399E+09
         0.14445E+09
         0.10172E+09
         0.43930E+08
        -0.11322E+08
        -0.40801E+08
        -0.55022E+08
        -0.94844E+08
        -0.17157E+09
        -0.20492E+09
        -0.20421E+09
        -0.20342E+09
        -0.20579E+09
        -0.19913E+09
        -0.17575E+09
        -0.15350E+09
        -0.81008E+08
         0.20552E+08
         0.49985E+08
         0.53078E+08
         0.89021E+08
         0.15733E+09
         0.19622E+09
         0.19711E+09
        -0.57798E+08
         0.19154E+08
        -0.38448E+08
        -0.15977E+09
         0.13003E+09
         0.15683E+09
         0.99568E+08
        -0.74126E+08
        -0.52911E+08
        -0.74473E+08
        -0.29063E+08
         0.27809E+08
         0.11758E+09
        -0.17154E+09
        -0.69377E+08
         0.15285E+09
         0.16176E+09
        -0.12626E+09
        -0.49719E+08
        -0.14938E+09
        -0.17876E+09
        -0.18071E+09
        -0.18274E+09
        -0.15627E+09
         0.55329E+08
         0.77368E+08
        -0.17511E+09
         0.54573E+08
        -0.14117E+09
        -0.85482E+08
         0.13619E+09
         0.16039E+09
        -0.13283E+09
        -0.13192E+09
         0.18294E+09
         0.16264E+09
         0.14670E+09
        -0.92934E+08
        -0.19964E+08
        -0.61511E+08
        -0.16318E+09
        -0.18374E+09
        -0.17848E+09
        -0.16346E+09
        -0.13979E+09
        -0.61192E+08
         0.97817E+08
         0.13441E+09
        -0.21150E+08
         0.21875E+08
         0.14225E+09
         0.17767E+09
         0.20454E+09
         0.20175E+09
         0.17397E+09
         0.14445E+09
         0.10171E+09
         0.43931E+08
        -0.11339E+08
        -0.40836E+08
        -0.54988E+08
        -0.94833E+08
        -0.17157E+09
        -0.20492E+09
        -0.20421E+09
        -0.20342E+09
        -0.20579E+09
        -0.19913E+09
        -0.17574E+09
        -0.15350E+09
        -0.80990E+08
         0.20562E+08
         0.49953E+08
         0.53059E+08
         0.88983E+08
         0.15733E+09
         0.19623E+09
         0.19712E+09
        -0.57867E+08
         0.19220E+08
        -0.38499E+08
        -0.15965E+09
         0.12996E+09
         0.15677E+09
         0.99909E+08
        -0.73871E+08
        -0.52879E+08
        -0.74209E+08
        -0.28464E+08
         0.27877E+08
         0.11761E+09
        -0.17150E+09
        -0.69275E+08
         0.15290E+09
         0.16168E+09
        -0.12591E+09
        -0.49666E+08
        -0.14912E+09
        -0.17873E+09
        -0.18070E+09
        -0.18274E+09
        -0.15628E+09
         0.55241E+08
         0.77507E+08
        -0.17510E+09
         0.53540E+08
        -0.14216E+09
        -0.85399E+08
         0.13627E+09
         0.16042E+09
        -0.13249E+09
        -0.13187E+09
         0.18295E+09
         0.16261E+09
         0.14668E+09
        -0.92950E+08
        -0.20112E+08
        -0.61626E+08
        -0.16318E+09
        -0.18376E+09
        -0.17847E+09
        -0.16344E+09
        -0.13977E+09
        -0.61163E+08
         0.97798E+08
         0.13446E+09
        -0.21018E+08
         0.21826E+08
         0.14223E+09
         0.17767E+09
         0.20453E+09
         0.20174E+09
         0.17396E+09
         0.14445E+09
         0.10169E+09
         0.43931E+08
        -0.11356E+08
        -0.40871E+08
        -0.54954E+08
        -0.94821E+08
        -0.17157E+09
        -0.20492E+09
        -0.20421E+09
        -0.20341E+09
        -0.20579E+09
        -0.19913E+09
        -0.17573E+09
        -0.15350E+09
        -0.80971E+08
         0.20573E+08
         0.49922E+08
         0.53042E+08
         0.88945E+08
         0.15733E+09
         0.19623E+09
         0.19712E+09
        -0.57935E+08
         0.19288E+08
        -0.38549E+08
        -0.15954E+09
         0.12988E+09
         0.15670E+09
         0.10024E+09
        -0.73617E+08
        -0.52842E+08
        -0.73940E+08
        -0.27866E+08
         0.27947E+08
         0.11764E+09
        -0.17145E+09
        -0.69172E+08
         0.15294E+09
         0.16160E+09
        -0.12556E+09
        -0.49615E+08
        -0.14886E+09
        -0.17870E+09
        -0.18069E+09
        -0.18274E+09
        -0.15631E+09
         0.55183E+08
         0.77679E+08
        -0.17510E+09
         0.52539E+08
        -0.14315E+09
        -0.85326E+08
         0.13636E+09
         0.16048E+09
        -0.13214E+09
        -0.13181E+09
         0.18297E+09
         0.16258E+09
         0.14667E+09
        -0.92964E+08
        -0.20258E+08
        -0.61735E+08
        -0.16318E+09
        -0.18378E+09
        -0.17846E+09
        -0.16340E+09
        -0.13973E+09
        -0.61131E+08
         0.97777E+08
         0.13452E+09
        -0.20886E+08
         0.21776E+08
         0.14221E+09
         0.17766E+09
         0.20453E+09
         0.20173E+09
         0.17394E+09
         0.14445E+09
         0.10167E+09
         0.43931E+08
        -0.11374E+08
        -0.40907E+08
        -0.54920E+08
        -0.94809E+08
        -0.17157E+09
        -0.20492E+09
        -0.20421E+09
        -0.20341E+09
        -0.20580E+09
        -0.19913E+09
        -0.17572E+09
        -0.15349E+09
        -0.80952E+08
         0.20583E+08
         0.49890E+08
         0.53024E+08
         0.88907E+08
         0.15732E+09
         0.19623E+09
         0.19713E+09
        -0.58003E+08
         0.19356E+08
        -0.38600E+08
        -0.15943E+09
         0.12981E+09
         0.15664E+09
         0.10058E+09
        -0.73362E+08
        -0.52798E+08
        -0.73665E+08
        -0.27267E+08
         0.28015E+08
         0.11766E+09
        -0.17140E+09
        -0.69070E+08
         0.15300E+09
         0.16152E+09
        -0.12520E+09
        -0.49557E+08
        -0.14859E+09
        -0.17867E+09
        -0.18069E+09
        -0.18274E+09
        -0.15634E+09
         0.55155E+08
         0.77875E+08
        -0.17510E+09
         0.51570E+08
        -0.14413E+09
        -0.85262E+08
         0.13646E+09
         0.16055E+09
        -0.13179E+09
        -0.13176E+09
         0.18299E+09
         0.16255E+09
         0.14665E+09
        -0.92978E+08
        -0.20401E+08
        -0.61843E+08
        -0.16318E+09
        -0.18381E+09
        -0.17846E+09
        -0.16336E+09
        -0.13968E+09
        -0.61094E+08
         0.97755E+08
         0.13457E+09
        -0.20754E+08
         0.21728E+08
         0.14220E+09
         0.17765E+09
         0.20453E+09
         0.20172E+09
         0.17393E+09
         0.14445E+09
         0.10166E+09
         0.43931E+08
        -0.11391E+08
        -0.40942E+08
        -0.54886E+08
        -0.94797E+08
        -0.17156E+09
        -0.20491E+09
        -0.20421E+09
        -0.20341E+09
        -0.20580E+09
        -0.19913E+09
        -0.17570E+09
        -0.15349E+09
        -0.80934E+08
         0.20594E+08
         0.49858E+08
         0.53006E+08
         0.88869E+08
         0.15732E+09
         0.19623E+09
         0.19714E+09
        -0.58069E+08
         0.19431E+08
        -0.38643E+08
        -0.15931E+09
         0.12974E+09
         0.15658E+09
         0.10092E+09
        -0.73110E+08
        -0.52752E+08
        -0.73395E+08
        -0.26665E+08
         0.28084E+08
         0.11769E+09
        -0.17135E+09
        -0.68967E+08
         0.15305E+09
         0.16144E+09
        -0.12484E+09
        -0.49498E+08
        -0.14833E+09
        -0.17864E+09
        -0.18068E+09
        -0.18273E+09
        -0.15638E+09
         0.55131E+08
         0.78078E+08
        -0.17509E+09
         0.50607E+08
        -0.14513E+09
        -0.85210E+08
         0.13656E+09
         0.16063E+09
        -0.13143E+09
        -0.13169E+09
         0.18300E+09
         0.16252E+09
         0.14664E+09
        -0.92990E+08
        -0.20544E+08
        -0.61948E+08
        -0.16317E+09
        -0.18383E+09
        -0.17846E+09
        -0.16332E+09
        -0.13962E+09
        -0.61058E+08
         0.97728E+08
         0.13462E+09
        -0.20616E+08
         0.21685E+08
         0.14218E+09
         0.17765E+09
         0.20452E+09
         0.20171E+09
         0.17391E+09
         0.14445E+09
         0.10164E+09
         0.43931E+08
        -0.11408E+08
        -0.40977E+08
        -0.54853E+08
        -0.94785E+08
        -0.17156E+09
        -0.20491E+09
        -0.20421E+09
        -0.20340E+09
        -0.20581E+09
        -0.19913E+09
        -0.17569E+09
        -0.15348E+09
        -0.80915E+08
         0.20603E+08
         0.49826E+08
         0.52988E+08
         0.88832E+08
         0.15732E+09
         0.19624E+09
         0.19715E+09
        -0.58129E+08
         0.19524E+08
        -0.38673E+08
        -0.15919E+09
         0.12967E+09
         0.15652E+09
         0.10128E+09
        -0.72861E+08
        -0.52707E+08
        -0.73138E+08
        -0.26056E+08
         0.28152E+08
         0.11772E+09
        -0.17130E+09
        -0.68863E+08
         0.15310E+09
         0.16136E+09
        -0.12448E+09
        -0.49444E+08
        -0.14808E+09
        -0.17861E+09
        -0.18068E+09
        -0.18273E+09
        -0.15641E+09
         0.55093E+08
         0.78256E+08
        -0.17509E+09
         0.49622E+08
        -0.14613E+09
        -0.85167E+08
         0.13665E+09
         0.16071E+09
        -0.13106E+09
        -0.13162E+09
         0.18302E+09
         0.16249E+09
         0.14662E+09
        -0.93001E+08
        -0.20687E+08
        -0.62056E+08
        -0.16316E+09
        -0.18386E+09
        -0.17846E+09
        -0.16327E+09
        -0.13957E+09
        -0.61023E+08
         0.97686E+08
         0.13465E+09
        -0.20460E+08
         0.21657E+08
         0.14217E+09
         0.17764E+09
         0.20452E+09
         0.20170E+09
         0.17390E+09
         0.14445E+09
         0.10163E+09
         0.43931E+08
        -0.11425E+08
        -0.41012E+08
        -0.54819E+08
        -0.94774E+08
        -0.17156E+09
        -0.20490E+09
        -0.20421E+09
        -0.20340E+09
        -0.20581E+09
        -0.19913E+09
        -0.17567E+09
        -0.15348E+09
        -0.80896E+08
         0.20611E+08
         0.49792E+08
         0.52970E+08
         0.88796E+08
         0.15732E+09
         0.19624E+09
         0.19715E+09
        -0.58186E+08
         0.19623E+08
        -0.38696E+08
        -0.15907E+09
         0.12960E+09
         0.15646E+09
         0.10166E+09
        -0.72616E+08
        -0.52663E+08
        -0.72890E+08
        -0.25444E+08
         0.28219E+08
         0.11774E+09
        -0.17125E+09
        -0.68759E+08
         0.15315E+09
         0.16127E+09
        -0.12412E+09
        -0.49387E+08
        -0.14785E+09
        -0.17858E+09
        -0.18067E+09
        -0.18273E+09
        -0.15645E+09
         0.55049E+08
         0.78424E+08
        -0.17508E+09
         0.48631E+08
        -0.14714E+09
        -0.85129E+08
         0.13675E+09
         0.16079E+09
        -0.13068E+09
        -0.13154E+09
         0.18304E+09
         0.16246E+09
         0.14660E+09
        -0.93010E+08
        -0.20829E+08
        -0.62162E+08
        -0.16316E+09
        -0.18389E+09
        -0.17846E+09
        -0.16323E+09
        -0.13951E+09
        -0.60991E+08
         0.97638E+08
         0.13467E+09
        -0.20297E+08
         0.21635E+08
         0.14216E+09
         0.17763E+09
         0.20452E+09
         0.20170E+09
         0.17388E+09
         0.14445E+09
         0.10161E+09
         0.43931E+08
        -0.11442E+08
        -0.41047E+08
        -0.54785E+08
        -0.94763E+08
        -0.17156E+09
        -0.20490E+09
        -0.20420E+09
        -0.20340E+09
        -0.20582E+09
        -0.19914E+09
        -0.17566E+09
        -0.15347E+09
        -0.80878E+08
         0.20619E+08
         0.49757E+08
         0.52952E+08
         0.88760E+08
         0.15731E+09
         0.19624E+09
         0.19716E+09
        -0.58244E+08
         0.19722E+08
        -0.38719E+08
        -0.15895E+09
         0.12953E+09
         0.15640E+09
         0.10203E+09
        -0.72371E+08
        -0.52619E+08
        -0.72644E+08
        -0.24836E+08
         0.28287E+08
         0.11777E+09
        -0.17119E+09
        -0.68655E+08
         0.15320E+09
         0.16118E+09
        -0.12376E+09
        -0.49330E+08
        -0.14760E+09
        -0.17855E+09
        -0.18066E+09
        -0.18273E+09
        -0.15648E+09
         0.55004E+08
         0.78590E+08
        -0.17507E+09
         0.47642E+08
        -0.14815E+09
        -0.85090E+08
         0.13684E+09
         0.16087E+09
        -0.13031E+09
        -0.13147E+09
         0.18305E+09
         0.16243E+09
         0.14659E+09
        -0.93019E+08
        -0.20971E+08
        -0.62268E+08
        -0.16315E+09
        -0.18391E+09
        -0.17846E+09
        -0.16319E+09
        -0.13946E+09
        -0.60959E+08
         0.97592E+08
         0.13469E+09
        -0.20132E+08
         0.21615E+08
         0.14215E+09
         0.17762E+09
         0.20451E+09
         0.20169E+09
         0.17387E+09
         0.14445E+09
         0.10159E+09
         0.43931E+08
        -0.11459E+08
        -0.41082E+08
        -0.54751E+08
        -0.94752E+08
        -0.17155E+09
        -0.20490E+09
        -0.20420E+09
        -0.20339E+09
        -0.20582E+09
        -0.19914E+09
        -0.17564E+09
        -0.15347E+09
        -0.80859E+08
         0.20627E+08
         0.49722E+08
         0.52934E+08
         0.88725E+08
         0.15731E+09
         0.19624E+09
         0.19717E+09
        -0.58302E+08
         0.19823E+08
        -0.38742E+08
        -0.15882E+09
         0.12946E+09
         0.15634E+09
         0.10240E+09
        -0.72127E+08
        -0.52575E+08
        -0.72399E+08
        -0.24226E+08
         0.28355E+08
         0.11779E+09
        -0.17114E+09
        -0.68551E+08
         0.15324E+09
         0.16109E+09
        -0.12340E+09
        -0.49272E+08
        -0.14736E+09
        -0.17851E+09
        -0.18066E+09
        -0.18273E+09
        -0.15652E+09
         0.54960E+08
         0.78755E+08
        -0.17507E+09
         0.46658E+08
        -0.14916E+09
        -0.85051E+08
         0.13694E+09
         0.16096E+09
        -0.12993E+09
        -0.13139E+09
         0.18307E+09
         0.16240E+09
         0.14657E+09
        -0.93027E+08
        -0.21113E+08
        -0.62375E+08
        -0.16315E+09
        -0.18394E+09
        -0.17846E+09
        -0.16315E+09
        -0.13940E+09
        -0.60926E+08
         0.97544E+08
         0.13471E+09
        -0.19969E+08
         0.21592E+08
         0.14213E+09
         0.17762E+09
         0.20451E+09
         0.20168E+09
         0.17385E+09
         0.14445E+09
         0.10158E+09
         0.43931E+08
        -0.11476E+08
        -0.41116E+08
        -0.54717E+08
        -0.94741E+08
        -0.17155E+09
        -0.20489E+09
        -0.20420E+09
        -0.20339E+09
        -0.20583E+09
        -0.19914E+09
        -0.17563E+09
        -0.15346E+09
        -0.80840E+08
         0.20634E+08
         0.49686E+08
         0.52915E+08
         0.88689E+08
         0.15731E+09
         0.19625E+09
         0.19717E+09
        -0.58359E+08
         0.19924E+08
        -0.38766E+08
        -0.15870E+09
         0.12939E+09
         0.15628E+09
         0.10276E+09
        -0.71883E+08
        -0.52531E+08
        -0.72157E+08
        -0.23615E+08
         0.28423E+08
         0.11781E+09
        -0.17108E+09
        -0.68447E+08
         0.15329E+09
         0.16100E+09
        -0.12305E+09
        -0.49220E+08
        -0.14712E+09
        -0.17848E+09
        -0.18065E+09
        -0.18272E+09
        -0.15656E+09
         0.54915E+08
         0.78919E+08
        -0.17506E+09
         0.45674E+08
        -0.15017E+09
        -0.85011E+08
         0.13703E+09
         0.16104E+09
        -0.12954E+09
        -0.13131E+09
         0.18309E+09
         0.16237E+09
         0.14655E+09
        -0.93036E+08
        -0.21255E+08
        -0.62481E+08
        -0.16314E+09
        -0.18397E+09
        -0.17846E+09
        -0.16310E+09
        -0.13935E+09
        -0.60894E+08
         0.97496E+08
         0.13474E+09
        -0.19804E+08
         0.21570E+08
         0.14212E+09
         0.17761E+09
         0.20451E+09
         0.20167E+09
         0.17384E+09
         0.14445E+09
         0.10156E+09
         0.43932E+08
        -0.11492E+08
        -0.41151E+08
        -0.54684E+08
        -0.94730E+08
        -0.17155E+09
        -0.20489E+09
        -0.20420E+09
        -0.20339E+09
        -0.20583E+09
        -0.19914E+09
        -0.17561E+09
        -0.15346E+09
        -0.80822E+08
         0.20642E+08
         0.49651E+08
         0.52897E+08
         0.88654E+08
         0.15731E+09
         0.19625E+09
         0.19718E+09
        -0.58416E+08
         0.20024E+08
        -0.38787E+08
        -0.15858E+09
         0.12932E+09
         0.15622E+09
         0.10313E+09
        -0.71639E+08
        -0.52487E+08
        -0.71915E+08
        -0.23007E+08
         0.28492E+08
         0.11784E+09
        -0.17102E+09
        -0.68343E+08
         0.15334E+09
         0.16091E+09
        -0.12269E+09
        -0.49164E+08
        -0.14688E+09
        -0.17845E+09
        -0.18065E+09
        -0.18272E+09
        -0.15659E+09
         0.54870E+08
         0.79089E+08
        -0.17505E+09
         0.44694E+08
        -0.15117E+09
        -0.84975E+08
         0.13713E+09
         0.16111E+09
        -0.12916E+09
        -0.13124E+09
         0.18311E+09
         0.16234E+09
         0.14654E+09
        -0.93044E+08
        -0.21396E+08
        -0.62589E+08
        -0.16313E+09
        -0.18399E+09
        -0.17846E+09
        -0.16306E+09
        -0.13930E+09
        -0.60863E+08
         0.97450E+08
         0.13476E+09
        -0.19638E+08
         0.21550E+08
         0.14211E+09
         0.17760E+09
         0.20451E+09
         0.20166E+09
         0.17382E+09
         0.14445E+09
         0.10154E+09
         0.43932E+08
        -0.11509E+08
        -0.41186E+08
        -0.54650E+08
        -0.94719E+08
        -0.17155E+09
        -0.20488E+09
        -0.20420E+09
        -0.20338E+09
        -0.20584E+09
        -0.19914E+09
        -0.17560E+09
        -0.15345E+09
        -0.80803E+08
         0.20649E+08
         0.49616E+08
         0.52879E+08
         0.88619E+08
         0.15730E+09
         0.19625E+09
         0.19719E+09
        -0.58474E+08
         0.20125E+08
        -0.38809E+08
        -0.15845E+09
         0.12925E+09
         0.15615E+09
         0.10349E+09
        -0.71395E+08
        -0.52441E+08
        -0.71673E+08
        -0.22400E+08
         0.28559E+08
         0.11786E+09
        -0.17097E+09
        -0.68239E+08
         0.15339E+09
         0.16082E+09
        -0.12233E+09
        -0.49109E+08
        -0.14664E+09
        -0.17842E+09
        -0.18064E+09
        -0.18272E+09
        -0.15663E+09
         0.54825E+08
         0.79253E+08
        -0.17505E+09
         0.43711E+08
        -0.15217E+09
        -0.84937E+08
         0.13722E+09
         0.16120E+09
        -0.12877E+09
        -0.13116E+09
         0.18312E+09
         0.16230E+09
         0.14652E+09
        -0.93051E+08
        -0.21537E+08
        -0.62695E+08
        -0.16313E+09
        -0.18402E+09
        -0.17846E+09
        -0.16302E+09
        -0.13924E+09
        -0.60829E+08
         0.97401E+08
         0.13478E+09
        -0.19470E+08
         0.21527E+08
         0.14210E+09
         0.17759E+09
         0.20450E+09
         0.20165E+09
         0.17381E+09
         0.14445E+09
         0.10153E+09
         0.43932E+08
        -0.11526E+08
        -0.41221E+08
        -0.54616E+08
        -0.94708E+08
        -0.17154E+09
        -0.20488E+09
        -0.20420E+09
        -0.20338E+09
        -0.20584E+09
        -0.19914E+09
        -0.17558E+09
        -0.15345E+09
        -0.80784E+08
         0.20656E+08
         0.49581E+08
         0.52861E+08
         0.88583E+08
         0.15730E+09
         0.19625E+09
         0.19720E+09
        -0.58532E+08
         0.20224E+08
        -0.38830E+08
        -0.15832E+09
         0.12918E+09
         0.15609E+09
         0.10384E+09
        -0.71152E+08
        -0.52397E+08
        -0.71433E+08
        -0.21794E+08
         0.28627E+08
         0.11789E+09
        -0.17091E+09
        -0.68135E+08
         0.15344E+09
         0.16073E+09
        -0.12197E+09
        -0.49059E+08
        -0.14640E+09
        -0.17839E+09
        -0.18064E+09
        -0.18272E+09
        -0.15666E+09
         0.54779E+08
         0.79418E+08
        -0.17504E+09
         0.42736E+08
        -0.15318E+09
        -0.84898E+08
         0.13731E+09
         0.16127E+09
        -0.12838E+09
        -0.13108E+09
         0.18314E+09
         0.16227E+09
         0.14650E+09
        -0.93056E+08
        -0.21678E+08
        -0.62803E+08
        -0.16312E+09
        -0.18404E+09
        -0.17846E+09
        -0.16297E+09
        -0.13919E+09
        -0.60798E+08
         0.97352E+08
         0.13480E+09
        -0.19304E+08
         0.21505E+08
         0.14209E+09
         0.17759E+09
         0.20450E+09
         0.20165E+09
         0.17379E+09
         0.14445E+09
         0.10151E+09
         0.43932E+08
        -0.11543E+08
        -0.41255E+08
        -0.54582E+08
        -0.94697E+08
        -0.17154E+09
        -0.20488E+09
        -0.20420E+09
        -0.20338E+09
        -0.20585E+09
        -0.19914E+09
        -0.17557E+09
        -0.15344E+09
        -0.80765E+08
         0.20664E+08
         0.49546E+08
         0.52843E+08
         0.88548E+08
         0.15730E+09
         0.19625E+09
         0.19720E+09
        -0.58590E+08
         0.20322E+08
        -0.38852E+08
        -0.15820E+09
         0.12911E+09
         0.15603E+09
         0.10419E+09
        -0.70909E+08
        -0.52352E+08
        -0.71195E+08
        -0.21189E+08
         0.28696E+08
         0.11791E+09
        -0.17086E+09
        -0.68030E+08
         0.15348E+09
         0.16063E+09
        -0.12161E+09
        -0.49004E+08
        -0.14615E+09
        -0.17836E+09
        -0.18063E+09
        -0.18272E+09
        -0.15669E+09
         0.54733E+08
         0.79582E+08
        -0.17503E+09
         0.41760E+08
        -0.15419E+09
        -0.84858E+08
         0.13741E+09
         0.16135E+09
        -0.12798E+09
        -0.13101E+09
         0.18315E+09
         0.16224E+09
         0.14649E+09
        -0.93061E+08
        -0.21817E+08
        -0.62910E+08
        -0.16311E+09
        -0.18407E+09
        -0.17846E+09
        -0.16293E+09
        -0.13913E+09
        -0.60766E+08
         0.97305E+08
         0.13482E+09
        -0.19134E+08
         0.21484E+08
         0.14208E+09
         0.17758E+09
         0.20450E+09
         0.20164E+09
         0.17378E+09
         0.14445E+09
         0.10150E+09
         0.43932E+08
        -0.11560E+08
        -0.41289E+08
        -0.54548E+08
        -0.94687E+08
        -0.17154E+09
        -0.20487E+09
        -0.20420E+09
        -0.20337E+09
        -0.20585E+09
        -0.19914E+09
        -0.17555E+09
        -0.15343E+09
        -0.80747E+08
         0.20671E+08
         0.49511E+08
         0.52825E+08
         0.88513E+08
         0.15730E+09
         0.19626E+09
         0.19721E+09
        -0.58648E+08
         0.20424E+08
        -0.38874E+08
        -0.15807E+09
         0.12904E+09
         0.15597E+09
         0.10454E+09
        -0.70666E+08
        -0.52307E+08
        -0.70957E+08
        -0.20583E+08
         0.28764E+08
         0.11794E+09
        -0.17080E+09
        -0.67926E+08
         0.15353E+09
         0.16054E+09
        -0.12126E+09
        -0.48949E+08
        -0.14592E+09
        -0.17833E+09
        -0.18063E+09
        -0.18271E+09
        -0.15673E+09
         0.54685E+08
         0.79747E+08
        -0.17503E+09
         0.40785E+08
        -0.15519E+09
        -0.84819E+08
         0.13750E+09
         0.16143E+09
        -0.12759E+09
        -0.13093E+09
         0.18317E+09
         0.16221E+09
         0.14647E+09
        -0.93066E+08
        -0.21958E+08
        -0.63016E+08
        -0.16311E+09
        -0.18409E+09
        -0.17846E+09
        -0.16289E+09
        -0.13908E+09
        -0.60733E+08
         0.97257E+08
         0.13485E+09
        -0.18965E+08
         0.21461E+08
         0.14206E+09
         0.17757E+09
         0.20449E+09
         0.20163E+09
         0.17377E+09
         0.14445E+09
         0.10148E+09
         0.43932E+08
        -0.11576E+08
        -0.41323E+08
        -0.54514E+08
        -0.94676E+08
        -0.17154E+09
        -0.20487E+09
        -0.20420E+09
        -0.20337E+09
        -0.20586E+09
        -0.19914E+09
        -0.17554E+09
        -0.15343E+09
        -0.80728E+08
         0.20678E+08
         0.49475E+08
         0.52807E+08
         0.88478E+08
         0.15730E+09
         0.19626E+09
         0.19722E+09
        -0.58706E+08
         0.20523E+08
        -0.38896E+08
        -0.15794E+09
         0.12897E+09
         0.15591E+09
         0.10489E+09
        -0.70424E+08
        -0.52260E+08
        -0.70718E+08
        -0.19979E+08
         0.28832E+08
         0.11796E+09
        -0.17074E+09
        -0.67821E+08
         0.15358E+09
         0.16045E+09
        -0.12091E+09
        -0.48896E+08
        -0.14567E+09
        -0.17830E+09
        -0.18062E+09
        -0.18271E+09
        -0.15676E+09
         0.54636E+08
         0.79911E+08
        -0.17502E+09
         0.39801E+08
        -0.15618E+09
        -0.84782E+08
         0.13759E+09
         0.16151E+09
        -0.12719E+09
        -0.13085E+09
         0.18319E+09
         0.16218E+09
         0.14646E+09
        -0.93070E+08
        -0.22100E+08
        -0.63125E+08
        -0.16310E+09
        -0.18412E+09
        -0.17846E+09
        -0.16285E+09
        -0.13902E+09
        -0.60701E+08
         0.97209E+08
         0.13487E+09
        -0.18797E+08
         0.21438E+08
         0.14205E+09
         0.17756E+09
         0.20449E+09
         0.20162E+09
         0.17375E+09
         0.14445E+09
         0.10146E+09
         0.43932E+08
        -0.11592E+08
        -0.41357E+08
        -0.54480E+08
        -0.94666E+08
        -0.17153E+09
        -0.20487E+09
        -0.20420E+09
        -0.20337E+09
        -0.20586E+09
        -0.19914E+09
        -0.17552E+09
        -0.15342E+09
        -0.80709E+08
         0.20685E+08
         0.49440E+08
         0.52789E+08
         0.88442E+08
         0.15729E+09
         0.19626E+09
         0.19722E+09
        -0.58764E+08
         0.20623E+08
        -0.38916E+08
        -0.15782E+09
         0.12890E+09
         0.15585E+09
         0.10523E+09
        -0.70183E+08
        -0.52210E+08
        -0.70472E+08
        -0.19375E+08
         0.28901E+08
         0.11798E+09
        -0.17069E+09
        -0.67717E+08
         0.15362E+09
         0.16035E+09
        -0.12055E+09
        -0.48848E+08
        -0.14544E+09
        -0.17827E+09
        -0.18062E+09
        -0.18271E+09
        -0.15680E+09
         0.54579E+08
         0.80081E+08
        -0.17501E+09
         0.38792E+08
        -0.15718E+09
        -0.84753E+08
         0.13769E+09
         0.16159E+09
        -0.12678E+09
        -0.13077E+09
         0.18320E+09
         0.16215E+09
         0.14644E+09
        -0.93069E+08
        -0.22246E+08
        -0.63234E+08
        -0.16309E+09
        -0.18414E+09
        -0.17846E+09
        -0.16280E+09
        -0.13897E+09
        -0.60667E+08
         0.97163E+08
         0.13489E+09
        -0.18629E+08
         0.21416E+08
         0.14204E+09
         0.17755E+09
         0.20449E+09
         0.20161E+09
         0.17374E+09
         0.14445E+09
         0.10145E+09
         0.43933E+08
        -0.11609E+08
        -0.41391E+08
        -0.54447E+08
        -0.94656E+08
        -0.17153E+09
        -0.20486E+09
        -0.20419E+09
        -0.20336E+09
        -0.20587E+09
        -0.19915E+09
        -0.17551E+09
        -0.15342E+09
        -0.80690E+08
         0.20692E+08
         0.49405E+08
         0.52770E+08
         0.88407E+08
         0.15729E+09
         0.19626E+09
         0.19723E+09
        -0.58822E+08
         0.20721E+08
        -0.38937E+08
        -0.15769E+09
         0.12883E+09
         0.15579E+09
         0.10557E+09
        -0.69941E+08
        -0.52155E+08
        -0.70220E+08
        -0.18774E+08
         0.28969E+08
         0.11801E+09
        -0.17063E+09
        -0.67610E+08
         0.15367E+09
         0.16025E+09
        -0.12019E+09
        -0.48795E+08
        -0.14520E+09
        -0.17824E+09
        -0.18061E+09
        -0.18271E+09
        -0.15683E+09
         0.54513E+08
         0.80244E+08
        -0.17500E+09
         0.37753E+08
        -0.15818E+09
        -0.84727E+08
         0.13778E+09
         0.16167E+09
        -0.12638E+09
        -0.13070E+09
         0.18322E+09
         0.16212E+09
         0.14642E+09
        -0.93066E+08
        -0.22397E+08
        -0.63344E+08
        -0.16308E+09
        -0.18417E+09
        -0.17846E+09
        -0.16276E+09
        -0.13892E+09
        -0.60636E+08
         0.97114E+08
         0.13491E+09
        -0.18458E+08
         0.21394E+08
         0.14203E+09
         0.17754E+09
         0.20448E+09
         0.20161E+09
         0.17372E+09
         0.14445E+09
         0.10143E+09
         0.43933E+08
        -0.11625E+08
        -0.41425E+08
        -0.54415E+08
        -0.94646E+08
        -0.17152E+09
        -0.20486E+09
        -0.20419E+09
        -0.20336E+09
        -0.20587E+09
        -0.19915E+09
        -0.17549E+09
        -0.15341E+09
        -0.80671E+08
         0.20699E+08
         0.49370E+08
         0.52752E+08
         0.88372E+08
         0.15729E+09
         0.19626E+09
         0.19724E+09
        -0.58880E+08
         0.20821E+08
        -0.38958E+08
        -0.15756E+09
         0.12875E+09
         0.15572E+09
         0.10590E+09
        -0.69701E+08
        -0.52099E+08
        -0.69969E+08
        -0.18177E+08
         0.29036E+08
         0.11803E+09
        -0.17057E+09
        -0.67505E+08
         0.15372E+09
         0.16015E+09
        -0.11984E+09
        -0.48741E+08
        -0.14496E+09
        -0.17820E+09
        -0.18061E+09
        -0.18271E+09
        -0.15686E+09
         0.54445E+08
         0.80407E+08
        -0.17499E+09
         0.36710E+08
        -0.15917E+09
        -0.84702E+08
         0.13787E+09
         0.16174E+09
        -0.12597E+09
        -0.13062E+09
         0.18324E+09
         0.16209E+09
         0.14641E+09
        -0.93061E+08
        -0.22550E+08
        -0.63453E+08
        -0.16307E+09
        -0.18419E+09
        -0.17846E+09
        -0.16272E+09
        -0.13886E+09
        -0.60604E+08
         0.97068E+08
         0.13494E+09
        -0.18289E+08
         0.21370E+08
         0.14202E+09
         0.17753E+09
         0.20448E+09
         0.20160E+09
         0.17371E+09
         0.14445E+09
         0.10141E+09
         0.43933E+08
        -0.11641E+08
        -0.41458E+08
        -0.54382E+08
        -0.94635E+08
        -0.17152E+09
        -0.20486E+09
        -0.20420E+09
        -0.20336E+09
        -0.20588E+09
        -0.19915E+09
        -0.17548E+09
        -0.15340E+09
        -0.80652E+08
         0.20707E+08
         0.49336E+08
         0.52734E+08
         0.88338E+08
         0.15729E+09
         0.19626E+09
         0.19725E+09
        -0.56745E+08
         0.18759E+08
        -0.34693E+08
        -0.13070E+09
         0.12222E+09
         0.14212E+09
         0.77043E+08
        -0.66131E+08
        -0.47665E+08
        -0.66215E+08
        -0.13952E+08
         0.28465E+08
         0.11461E+09
        -0.15164E+09
        -0.66080E+08
         0.14432E+09
         0.12803E+09
        -0.97172E+08
        -0.41485E+08
        -0.98877E+08
        -0.17401E+09
        -0.17570E+09
        -0.17800E+09
        -0.12252E+09
         0.48603E+08
         0.66038E+08
        -0.15582E+09
         0.27063E+08
        -0.99870E+08
        -0.75665E+08
         0.12651E+09
         0.12135E+09
        -0.10315E+09
        -0.10206E+09
         0.17659E+09
         0.14937E+09
         0.13919E+09
        -0.90651E+08
        -0.21809E+08
        -0.60720E+08
        -0.15901E+09
        -0.17921E+09
        -0.17408E+09
        -0.15737E+09
        -0.13269E+09
        -0.58653E+08
         0.91412E+08
         0.12570E+09
        -0.16382E+08
         0.19677E+08
         0.13675E+09
         0.16596E+09
         0.20317E+09
         0.20041E+09
         0.17275E+09
         0.14370E+09
         0.10091E+09
         0.43724E+08
        -0.11601E+08
        -0.41220E+08
        -0.53980E+08
        -0.94031E+08
        -0.17047E+09
        -0.20373E+09
        -0.20286E+09
        -0.20204E+09
        -0.20476E+09
        -0.19818E+09
        -0.17466E+09
        -0.15270E+09
        -0.80169E+08
         0.20605E+08
         0.49026E+08
         0.52402E+08
         0.87808E+08
         0.15636E+09
         0.19519E+09
         0.19615E+09
        -0.28354E+08
         0.63423E+07
        -0.11369E+08
        -0.35949E+08
         0.54435E+08
         0.51137E+08
         0.17629E+08
        -0.29822E+08
        -0.17404E+08
        -0.29342E+08
        -0.34779E+07
         0.17066E+08
         0.62142E+08
        -0.49239E+08
        -0.40579E+08
         0.59510E+08
         0.33037E+08
        -0.20302E+08
        -0.12039E+08
        -0.20113E+08
        -0.10136E+09
        -0.97656E+08
        -0.10040E+09
        -0.30379E+08
         0.16113E+08
         0.12692E+08
        -0.50819E+08
         0.44939E+07
        -0.20446E+08
        -0.25092E+08
         0.46337E+08
         0.28578E+08
        -0.27679E+08
        -0.25471E+08
         0.88483E+08
         0.55909E+08
         0.62411E+08
        -0.51138E+08
        -0.10747E+08
        -0.28377E+08
        -0.91047E+08
        -0.99686E+08
        -0.10010E+09
        -0.81753E+08
        -0.61814E+08
        -0.30774E+08
         0.38451E+08
         0.49554E+08
        -0.56006E+07
         0.73784E+07
         0.68127E+08
         0.66907E+08
         0.16247E+09
         0.16318E+09
         0.14214E+09
         0.11933E+09
         0.84664E+08
         0.36950E+08
        -0.96838E+07
        -0.33153E+08
        -0.42816E+08
        -0.75687E+08
        -0.13786E+09
        -0.16757E+09
        -0.16237E+09
        -0.16216E+09
        -0.16906E+09
        -0.16612E+09
        -0.14753E+09
        -0.12905E+09
        -0.65270E+08
         0.16936E+08
         0.39995E+08
         0.42510E+08
         0.71819E+08
         0.12710E+09
         0.16079E+09
         0.16103E+09
  
SCALARS                      stress_xy  double 1
LOOKUP_TABLE default
        -0.75794E+00
        -0.17791E+01
        -0.15254E+02
         0.53858E+00
        -0.14355E-08
         0.14029E-09
         0.21093E-08
         0.32131E-09
        -0.16094E+03
         0.70707E+02
         0.93889E-08
         0.74453E-08
         0.60247E+01
        -0.12501E+01
         0.82872E-09
        -0.24890E-09
         0.17309E+01
         0.30231E+02
         0.41257E-10
         0.62870E-09
        -0.23005E+02
        -0.14598E+03
        -0.14360E+03
         0.63928E-08
         0.50910E-08
        -0.74344E-08
        -0.15199E+02
        -0.12703E+03
         0.86078E-08
         0.13247E-07
        -0.46288E+01
         0.89699E+01
         0.72798E+00
        -0.45433E-09
         0.17923E-08
        -0.22924E-10
        -0.40832E+02
        -0.18985E+02
         0.47968E-08
         0.39737E-08
        -0.80036E+02
        -0.72242E+02
         0.81772E-08
         0.55109E-08
        -0.77609E+02
        -0.14246E+02
        -0.29789E-09
         0.22178E-08
         0.20728E+02
         0.65544E-09
        -0.48540E+01
        -0.14777E-10
         0.12750E+01
         0.49541E-08
         0.63138E+01
         0.76233E-09
         0.90093E+02
        -0.43851E+01
         0.17716E-10
        -0.86915E-10
         0.59939E+00
        -0.60353E+02
         0.48279E-09
         0.12384E-08
         0.25928E+01
        -0.98025E-10
         0.37275E+02
         0.78547E-09
        -0.19935E+03
        -0.72368E+02
         0.60671E-09
        -0.58099E-08
        -0.16277E+03
        -0.92894E-08
         0.66674E+02
         0.62219E-08
         0.21059E+03
         0.92698E-09
         0.36773E+03
         0.12054E-08
         0.71333E+03
         0.38864E+03
         0.28339E-08
        -0.71859E-09
         0.47974E+02
        -0.86473E-10
        -0.14708E+03
        -0.77991E-08
        -0.21656E+03
        -0.87083E-08
        -0.47652E+03
        -0.21728E+03
        -0.55125E-08
         0.61188E-08
         0.34926E+02
         0.55714E-08
         0.86011E+02
         0.23933E-08
         0.20099E+03
         0.63545E-08
         0.49442E+03
         0.28196E+03
         0.13626E-07
         0.68128E-08
        -0.81285E+03
         0.34056E+03
        -0.88527E-08
         0.10841E-07
        -0.19792E+04
        -0.25160E-07
        -0.25812E+04
        -0.27503E-07
        -0.22682E+04
        -0.18666E-07
        -0.19344E+04
        -0.19799E-08
        -0.84566E+03
         0.55805E-08
         0.11143E+04
         0.34552E-08
         0.25040E+04
         0.31586E-08
         0.33106E+04
         0.67770E-08
         0.32460E+04
         0.82397E-08
         0.26611E+04
         0.32463E-08
         0.14176E+04
         0.19792E-08
        -0.97062E+02
         0.32349E-08
        -0.11792E+04
         0.21684E-08
        -0.19017E+04
        -0.77330E-08
        -0.25958E+04
        -0.20291E-07
        -0.23251E+04
        -0.25750E-07
        -0.14934E+04
        -0.15937E-07
        -0.16359E+03
         0.30405E-08
         0.11049E+04
         0.64441E-08
         0.15978E+04
         0.10270E-07
         0.19552E+04
         0.20224E-07
         0.17526E+04
         0.26242E-07
         0.16312E+04
         0.18644E-07
         0.13471E+04
         0.14745E-07
        -0.84438E+02
         0.22765E+02
         0.23311E+02
        -0.14555E+02
         0.18631E+03
         0.15311E+03
         0.24397E+01
        -0.55054E+02
        -0.24337E+02
        -0.63590E+02
        -0.18254E+02
        -0.33723E+03
        -0.48107E+03
         0.17849E+02
         0.27379E+03
        -0.36594E+02
         0.27213E+02
         0.81171E+01
         0.16515E+02
        -0.13426E+02
         0.67407E+02
         0.59167E+02
        -0.17962E+03
         0.47047E+01
         0.40424E+02
         0.44536E+01
         0.74123E+00
         0.14531E+01
         0.18049E+02
        -0.59868E+02
        -0.31894E+02
         0.67964E+01
         0.10930E+02
        -0.86136E+00
        -0.45027E+02
        -0.15545E+03
        -0.31542E+03
         0.47735E+03
         0.24846E+03
         0.44926E+03
         0.87068E+03
         0.20146E+03
        -0.16268E+03
        -0.32802E+03
        -0.38884E+03
        -0.49701E+03
         0.61235E+02
         0.18339E+03
         0.56584E+02
         0.19059E+03
         0.59726E+03
         0.22986E+03
        -0.20363E+04
         0.25678E+04
        -0.62162E+04
        -0.73052E+04
        -0.69337E+04
        -0.41948E+04
         0.25036E+03
         0.27219E+04
         0.39462E+04
         0.64031E+04
         0.67447E+04
         0.35994E+04
         0.14507E+04
         0.61333E+03
        -0.99203E+03
        -0.39201E+04
        -0.65446E+04
        -0.74793E+04
        -0.45903E+04
         0.83172E+03
         0.30103E+04
         0.31725E+04
         0.49982E+04
         0.55533E+04
         0.42057E+04
         0.38805E+04
        -0.30617E+06
         0.90178E+05
        -0.17322E+06
        -0.19921E+06
         0.50772E+06
         0.35992E+06
         0.25139E+06
        -0.37768E+06
        -0.24235E+06
        -0.37354E+06
         0.11940E+06
        -0.16947E+06
        -0.54265E+06
         0.19612E+06
         0.40124E+06
        -0.38694E+06
         0.16974E+06
         0.13118E+06
         0.20410E+06
         0.13510E+06
         0.28319E+06
         0.21483E+06
        -0.12886E+06
         0.21173E+06
         0.24917E+06
        -0.10798E+06
         0.44589E+05
        -0.36271E+05
        -0.14603E+06
        -0.36622E+06
        -0.40914E+06
        -0.16091E+06
         0.31357E+06
         0.27965E+06
         0.83299E+05
        -0.33837E+06
        -0.48028E+06
         0.48901E+06
         0.11545E+06
         0.33477E+06
         0.48311E+06
        -0.14653E+06
        -0.29152E+06
        -0.41517E+06
        -0.50148E+06
        -0.34491E+06
         0.45432E+06
         0.46490E+06
        -0.10509E+06
         0.11465E+06
         0.52529E+06
         0.66500E+05
        -0.25087E+06
         0.34651E+06
        -0.66818E+06
        -0.72164E+06
        -0.61919E+06
        -0.30098E+06
         0.78859E+05
         0.27586E+06
         0.36490E+06
         0.58542E+06
         0.67718E+06
         0.26990E+06
         0.12722E+06
         0.11366E+06
        -0.48928E+05
        -0.37753E+06
        -0.64560E+06
        -0.72490E+06
        -0.51563E+06
         0.14161E+06
         0.33240E+06
         0.34966E+06
         0.55175E+06
         0.70078E+06
         0.44247E+06
         0.42407E+06
        -0.30654E+06
         0.90499E+05
        -0.17349E+06
        -0.20045E+06
         0.50768E+06
         0.36020E+06
         0.25248E+06
        -0.37674E+06
        -0.24242E+06
        -0.37279E+06
         0.11706E+06
        -0.16988E+06
        -0.54273E+06
         0.19637E+06
         0.40078E+06
        -0.38687E+06
         0.17109E+06
         0.13062E+06
         0.20398E+06
         0.13411E+06
         0.28382E+06
         0.21504E+06
        -0.12890E+06
         0.21165E+06
         0.24926E+06
        -0.10797E+06
         0.45104E+05
        -0.35788E+05
        -0.14609E+06
        -0.36624E+06
        -0.40922E+06
        -0.16060E+06
         0.31361E+06
         0.27994E+06
         0.82493E+05
        -0.33859E+06
        -0.48029E+06
         0.48918E+06
         0.11634E+06
         0.33539E+06
         0.48321E+06
        -0.14608E+06
        -0.29177E+06
        -0.41534E+06
        -0.50149E+06
        -0.34477E+06
         0.45426E+06
         0.46482E+06
        -0.10441E+06
         0.11436E+06
         0.52525E+06
         0.65565E+05
        -0.25071E+06
         0.34659E+06
        -0.66825E+06
        -0.72164E+06
        -0.61911E+06
        -0.30098E+06
         0.78975E+05
         0.27608E+06
         0.36468E+06
         0.58535E+06
         0.67714E+06
         0.27001E+06
         0.12722E+06
         0.11390E+06
        -0.48526E+05
        -0.37765E+06
        -0.64571E+06
        -0.72493E+06
        -0.51553E+06
         0.14168E+06
         0.33220E+06
         0.34955E+06
         0.55155E+06
         0.70068E+06
         0.44221E+06
         0.42373E+06
        -0.30692E+06
         0.90813E+05
        -0.17376E+06
        -0.20171E+06
         0.50764E+06
         0.36048E+06
         0.25358E+06
        -0.37580E+06
        -0.24247E+06
        -0.37202E+06
         0.11471E+06
        -0.17029E+06
        -0.54281E+06
         0.19661E+06
         0.40033E+06
        -0.38680E+06
         0.17245E+06
         0.13006E+06
         0.20385E+06
         0.13312E+06
         0.28445E+06
         0.21524E+06
        -0.12895E+06
         0.21154E+06
         0.24938E+06
        -0.10794E+06
         0.45656E+05
        -0.35318E+05
        -0.14605E+06
        -0.36626E+06
        -0.40929E+06
        -0.16021E+06
         0.31365E+06
         0.28023E+06
         0.81683E+05
        -0.33882E+06
        -0.48030E+06
         0.48934E+06
         0.11723E+06
         0.33603E+06
         0.48331E+06
        -0.14559E+06
        -0.29200E+06
        -0.41554E+06
        -0.50151E+06
        -0.34462E+06
         0.45421E+06
         0.46474E+06
        -0.10371E+06
         0.11406E+06
         0.52521E+06
         0.64632E+05
        -0.25056E+06
         0.34667E+06
        -0.66832E+06
        -0.72164E+06
        -0.61903E+06
        -0.30097E+06
         0.79091E+05
         0.27630E+06
         0.36447E+06
         0.58527E+06
         0.67711E+06
         0.27013E+06
         0.12723E+06
         0.11413E+06
        -0.48121E+05
        -0.37777E+06
        -0.64582E+06
        -0.72497E+06
        -0.51543E+06
         0.14175E+06
         0.33200E+06
         0.34944E+06
         0.55134E+06
         0.70058E+06
         0.44195E+06
         0.42339E+06
        -0.30729E+06
         0.91140E+05
        -0.17402E+06
        -0.20296E+06
         0.50760E+06
         0.36077E+06
         0.25465E+06
        -0.37486E+06
        -0.24249E+06
        -0.37122E+06
         0.11237E+06
        -0.17070E+06
        -0.54289E+06
         0.19686E+06
         0.39988E+06
        -0.38673E+06
         0.17383E+06
         0.12949E+06
         0.20374E+06
         0.13207E+06
         0.28509E+06
         0.21542E+06
        -0.12906E+06
         0.21137E+06
         0.24961E+06
        -0.10788E+06
         0.46227E+05
        -0.34928E+05
        -0.14573E+06
        -0.36628E+06
        -0.40935E+06
        -0.15970E+06
         0.31368E+06
         0.28052E+06
         0.80878E+05
        -0.33904E+06
        -0.48031E+06
         0.48950E+06
         0.11811E+06
         0.33663E+06
         0.48345E+06
        -0.14499E+06
        -0.29218E+06
        -0.41583E+06
        -0.50157E+06
        -0.34447E+06
         0.45417E+06
         0.46467E+06
        -0.10302E+06
         0.11376E+06
         0.52516E+06
         0.63699E+05
        -0.25040E+06
         0.34675E+06
        -0.66839E+06
        -0.72164E+06
        -0.61895E+06
        -0.30096E+06
         0.79208E+05
         0.27652E+06
         0.36425E+06
         0.58520E+06
         0.67708E+06
         0.27028E+06
         0.12723E+06
         0.11437E+06
        -0.47712E+05
        -0.37790E+06
        -0.64595E+06
        -0.72500E+06
        -0.51532E+06
         0.14182E+06
         0.33180E+06
         0.34933E+06
         0.55114E+06
         0.70048E+06
         0.44170E+06
         0.42305E+06
        -0.30766E+06
         0.91466E+05
        -0.17429E+06
        -0.20421E+06
         0.50756E+06
         0.36105E+06
         0.25573E+06
        -0.37391E+06
        -0.24249E+06
        -0.37039E+06
         0.11002E+06
        -0.17111E+06
        -0.54297E+06
         0.19712E+06
         0.39942E+06
        -0.38665E+06
         0.17522E+06
         0.12892E+06
         0.20360E+06
         0.13098E+06
         0.28574E+06
         0.21558E+06
        -0.12922E+06
         0.21113E+06
         0.24995E+06
        -0.10778E+06
         0.46864E+05
        -0.34608E+05
        -0.14512E+06
        -0.36630E+06
        -0.40940E+06
        -0.15902E+06
         0.31369E+06
         0.28080E+06
         0.80066E+05
        -0.33927E+06
        -0.48032E+06
         0.48966E+06
         0.11898E+06
         0.33723E+06
         0.48362E+06
        -0.14426E+06
        -0.29229E+06
        -0.41620E+06
        -0.50165E+06
        -0.34428E+06
         0.45412E+06
         0.46460E+06
        -0.10232E+06
         0.11346E+06
         0.52512E+06
         0.62758E+05
        -0.25024E+06
         0.34683E+06
        -0.66846E+06
        -0.72164E+06
        -0.61887E+06
        -0.30095E+06
         0.79324E+05
         0.27674E+06
         0.36403E+06
         0.58512E+06
         0.67706E+06
         0.27044E+06
         0.12725E+06
         0.11459E+06
        -0.47302E+05
        -0.37803E+06
        -0.64610E+06
        -0.72504E+06
        -0.51522E+06
         0.14189E+06
         0.33160E+06
         0.34921E+06
         0.55093E+06
         0.70038E+06
         0.44144E+06
         0.42271E+06
        -0.30802E+06
         0.91823E+05
        -0.17452E+06
        -0.20546E+06
         0.50752E+06
         0.36133E+06
         0.25679E+06
        -0.37295E+06
        -0.24248E+06
        -0.36956E+06
         0.10766E+06
        -0.17152E+06
        -0.54305E+06
         0.19741E+06
         0.39897E+06
        -0.38658E+06
         0.17664E+06
         0.12835E+06
         0.20345E+06
         0.12989E+06
         0.28638E+06
         0.21573E+06
        -0.12940E+06
         0.21086E+06
         0.25029E+06
        -0.10766E+06
         0.47550E+05
        -0.34313E+05
        -0.14439E+06
        -0.36636E+06
        -0.40944E+06
        -0.15827E+06
         0.31369E+06
         0.28110E+06
         0.79249E+05
        -0.33950E+06
        -0.48034E+06
         0.48981E+06
         0.11985E+06
         0.33782E+06
         0.48380E+06
        -0.14349E+06
        -0.29238E+06
        -0.41661E+06
        -0.50175E+06
        -0.34411E+06
         0.45407E+06
         0.46454E+06
        -0.10159E+06
         0.11319E+06
         0.52507E+06
         0.61814E+05
        -0.25009E+06
         0.34691E+06
        -0.66852E+06
        -0.72165E+06
        -0.61879E+06
        -0.30094E+06
         0.79438E+05
         0.27696E+06
         0.36381E+06
         0.58505E+06
         0.67704E+06
         0.27062E+06
         0.12727E+06
         0.11482E+06
        -0.46893E+05
        -0.37816E+06
        -0.64626E+06
        -0.72508E+06
        -0.51512E+06
         0.14195E+06
         0.33139E+06
         0.34910E+06
         0.55073E+06
         0.70028E+06
         0.44119E+06
         0.42237E+06
        -0.30835E+06
         0.92259E+05
        -0.17469E+06
        -0.20674E+06
         0.50748E+06
         0.36161E+06
         0.25784E+06
        -0.37200E+06
        -0.24248E+06
        -0.36877E+06
         0.10528E+06
        -0.17192E+06
        -0.54313E+06
         0.19780E+06
         0.39850E+06
        -0.38652E+06
         0.17809E+06
         0.12778E+06
         0.20333E+06
         0.12880E+06
         0.28703E+06
         0.21588E+06
        -0.12959E+06
         0.21059E+06
         0.25056E+06
        -0.10750E+06
         0.48358E+05
        -0.34012E+05
        -0.14360E+06
        -0.36643E+06
        -0.40947E+06
        -0.15746E+06
         0.31369E+06
         0.28139E+06
         0.78430E+05
        -0.33974E+06
        -0.48036E+06
         0.48996E+06
         0.12071E+06
         0.33843E+06
         0.48399E+06
        -0.14270E+06
        -0.29246E+06
        -0.41701E+06
        -0.50186E+06
        -0.34394E+06
         0.45398E+06
         0.46453E+06
        -0.10079E+06
         0.11300E+06
         0.52503E+06
         0.60855E+05
        -0.24993E+06
         0.34699E+06
        -0.66859E+06
        -0.72165E+06
        -0.61870E+06
        -0.30093E+06
         0.79553E+05
         0.27718E+06
         0.36360E+06
         0.58497E+06
         0.67702E+06
         0.27080E+06
         0.12729E+06
         0.11504E+06
        -0.46483E+05
        -0.37830E+06
        -0.64642E+06
        -0.72512E+06
        -0.51502E+06
         0.14201E+06
         0.33118E+06
         0.34899E+06
         0.55054E+06
         0.70018E+06
         0.44093E+06
         0.42203E+06
        -0.30866E+06
         0.92720E+05
        -0.17483E+06
        -0.20804E+06
         0.50744E+06
         0.36190E+06
         0.25888E+06
        -0.37106E+06
        -0.24248E+06
        -0.36800E+06
         0.10288E+06
        -0.17233E+06
        -0.54321E+06
         0.19822E+06
         0.39804E+06
        -0.38647E+06
         0.17956E+06
         0.12721E+06
         0.20319E+06
         0.12774E+06
         0.28767E+06
         0.21604E+06
        -0.12977E+06
         0.21034E+06
         0.25078E+06
        -0.10733E+06
         0.49197E+05
        -0.33701E+05
        -0.14280E+06
        -0.36652E+06
        -0.40949E+06
        -0.15662E+06
         0.31368E+06
         0.28170E+06
         0.77603E+05
        -0.33999E+06
        -0.48040E+06
         0.49010E+06
         0.12158E+06
         0.33903E+06
         0.48417E+06
        -0.14191E+06
        -0.29253E+06
        -0.41741E+06
        -0.50197E+06
        -0.34379E+06
         0.45388E+06
         0.46453E+06
        -0.99953E+05
         0.11284E+06
         0.52498E+06
         0.59894E+05
        -0.24977E+06
         0.34707E+06
        -0.66866E+06
        -0.72165E+06
        -0.61862E+06
        -0.30092E+06
         0.79667E+05
         0.27740E+06
         0.36338E+06
         0.58490E+06
         0.67700E+06
         0.27098E+06
         0.12732E+06
         0.11527E+06
        -0.46073E+05
        -0.37843E+06
        -0.64657E+06
        -0.72516E+06
        -0.51492E+06
         0.14206E+06
         0.33095E+06
         0.34888E+06
         0.55034E+06
         0.70008E+06
         0.44067E+06
         0.42169E+06
        -0.30897E+06
         0.93185E+05
        -0.17497E+06
        -0.20933E+06
         0.50740E+06
         0.36218E+06
         0.25991E+06
        -0.37011E+06
        -0.24248E+06
        -0.36723E+06
         0.10050E+06
        -0.17273E+06
        -0.54330E+06
         0.19866E+06
         0.39758E+06
        -0.38641E+06
         0.18102E+06
         0.12664E+06
         0.20305E+06
         0.12665E+06
         0.28831E+06
         0.21619E+06
        -0.12995E+06
         0.21008E+06
         0.25101E+06
        -0.10716E+06
         0.50057E+05
        -0.33372E+05
        -0.14198E+06
        -0.36661E+06
        -0.40951E+06
        -0.15578E+06
         0.31365E+06
         0.28199E+06
         0.76772E+05
        -0.34023E+06
        -0.48042E+06
         0.49024E+06
         0.12244E+06
         0.33962E+06
         0.48436E+06
        -0.14112E+06
        -0.29261E+06
        -0.41782E+06
        -0.50208E+06
        -0.34364E+06
         0.45379E+06
         0.46452E+06
        -0.99113E+05
         0.11270E+06
         0.52494E+06
         0.58926E+05
        -0.24961E+06
         0.34714E+06
        -0.66873E+06
        -0.72165E+06
        -0.61854E+06
        -0.30091E+06
         0.79782E+05
         0.27762E+06
         0.36316E+06
         0.58483E+06
         0.67697E+06
         0.27116E+06
         0.12734E+06
         0.11551E+06
        -0.45664E+05
        -0.37857E+06
        -0.64673E+06
        -0.72520E+06
        -0.51482E+06
         0.14211E+06
         0.33073E+06
         0.34876E+06
         0.55015E+06
         0.69998E+06
         0.44042E+06
         0.42134E+06
        -0.30928E+06
         0.93656E+05
        -0.17511E+06
        -0.21062E+06
         0.50736E+06
         0.36245E+06
         0.26093E+06
        -0.36916E+06
        -0.24249E+06
        -0.36647E+06
         0.98102E+05
        -0.17314E+06
        -0.54338E+06
         0.19907E+06
         0.39712E+06
        -0.38636E+06
         0.18249E+06
         0.12607E+06
         0.20291E+06
         0.12558E+06
         0.28895E+06
         0.21634E+06
        -0.13012E+06
         0.20983E+06
         0.25123E+06
        -0.10698E+06
         0.50892E+05
        -0.33029E+05
        -0.14113E+06
        -0.36670E+06
        -0.40953E+06
        -0.15494E+06
         0.31361E+06
         0.28229E+06
         0.75945E+05
        -0.34048E+06
        -0.48046E+06
         0.49038E+06
         0.12330E+06
         0.34023E+06
         0.48454E+06
        -0.14034E+06
        -0.29269E+06
        -0.41821E+06
        -0.50219E+06
        -0.34348E+06
         0.45369E+06
         0.46453E+06
        -0.98280E+05
         0.11253E+06
         0.52489E+06
         0.57960E+05
        -0.24945E+06
         0.34722E+06
        -0.66879E+06
        -0.72165E+06
        -0.61846E+06
        -0.30090E+06
         0.79896E+05
         0.27784E+06
         0.36295E+06
         0.58475E+06
         0.67695E+06
         0.27133E+06
         0.12736E+06
         0.11574E+06
        -0.45255E+05
        -0.37870E+06
        -0.64688E+06
        -0.72524E+06
        -0.51471E+06
         0.14216E+06
         0.33051E+06
         0.34865E+06
         0.54996E+06
         0.69988E+06
         0.44016E+06
         0.42100E+06
        -0.30959E+06
         0.94123E+05
        -0.17526E+06
        -0.21189E+06
         0.50732E+06
         0.36273E+06
         0.26195E+06
        -0.36821E+06
        -0.24249E+06
        -0.36570E+06
         0.95701E+05
        -0.17355E+06
        -0.54346E+06
         0.19950E+06
         0.39665E+06
        -0.38630E+06
         0.18396E+06
         0.12551E+06
         0.20279E+06
         0.12449E+06
         0.28959E+06
         0.21649E+06
        -0.13030E+06
         0.20958E+06
         0.25145E+06
        -0.10681E+06
         0.51742E+05
        -0.32666E+05
        -0.14027E+06
        -0.36678E+06
        -0.40955E+06
        -0.15410E+06
         0.31356E+06
         0.28259E+06
         0.75112E+05
        -0.34073E+06
        -0.48049E+06
         0.49052E+06
         0.12416E+06
         0.34082E+06
         0.48472E+06
        -0.13956E+06
        -0.29277E+06
        -0.41861E+06
        -0.50230E+06
        -0.34334E+06
         0.45359E+06
         0.46452E+06
        -0.97436E+05
         0.11237E+06
         0.52485E+06
         0.56988E+05
        -0.24929E+06
         0.34730E+06
        -0.66886E+06
        -0.72165E+06
        -0.61837E+06
        -0.30089E+06
         0.80008E+05
         0.27806E+06
         0.36273E+06
         0.58468E+06
         0.67693E+06
         0.27150E+06
         0.12739E+06
         0.11597E+06
        -0.44846E+05
        -0.37884E+06
        -0.64704E+06
        -0.72528E+06
        -0.51461E+06
         0.14221E+06
         0.33029E+06
         0.34853E+06
         0.54976E+06
         0.69978E+06
         0.43991E+06
         0.42066E+06
        -0.30990E+06
         0.94587E+05
        -0.17539E+06
        -0.21317E+06
         0.50727E+06
         0.36301E+06
         0.26295E+06
        -0.36725E+06
        -0.24248E+06
        -0.36494E+06
         0.93304E+05
        -0.17395E+06
        -0.54354E+06
         0.19993E+06
         0.39619E+06
        -0.38625E+06
         0.18542E+06
         0.12494E+06
         0.20266E+06
         0.12342E+06
         0.29024E+06
         0.21664E+06
        -0.13048E+06
         0.20933E+06
         0.25166E+06
        -0.10664E+06
         0.52573E+05
        -0.32290E+05
        -0.13936E+06
        -0.36687E+06
        -0.40957E+06
        -0.15325E+06
         0.31349E+06
         0.28289E+06
         0.74276E+05
        -0.34097E+06
        -0.48052E+06
         0.49066E+06
         0.12502E+06
         0.34142E+06
         0.48491E+06
        -0.13879E+06
        -0.29284E+06
        -0.41900E+06
        -0.50241E+06
        -0.34319E+06
         0.45349E+06
         0.46453E+06
        -0.96590E+05
         0.11223E+06
         0.52481E+06
         0.56017E+05
        -0.24913E+06
         0.34737E+06
        -0.66892E+06
        -0.72165E+06
        -0.61829E+06
        -0.30088E+06
         0.80121E+05
         0.27828E+06
         0.36251E+06
         0.58461E+06
         0.67691E+06
         0.27168E+06
         0.12741E+06
         0.11620E+06
        -0.44434E+05
        -0.37897E+06
        -0.64719E+06
        -0.72532E+06
        -0.51451E+06
         0.14226E+06
         0.33006E+06
         0.34842E+06
         0.54957E+06
         0.69968E+06
         0.43966E+06
         0.42031E+06
        -0.31022E+06
         0.95058E+05
        -0.17553E+06
        -0.21446E+06
         0.50723E+06
         0.36328E+06
         0.26395E+06
        -0.36630E+06
        -0.24248E+06
        -0.36417E+06
         0.90909E+05
        -0.17436E+06
        -0.54362E+06
         0.20034E+06
         0.39572E+06
        -0.38619E+06
         0.18688E+06
         0.12436E+06
         0.20253E+06
         0.12235E+06
         0.29088E+06
         0.21678E+06
        -0.13065E+06
         0.20908E+06
         0.25186E+06
        -0.10646E+06
         0.53428E+05
        -0.31895E+05
        -0.13845E+06
        -0.36695E+06
        -0.40958E+06
        -0.15240E+06
         0.31341E+06
         0.28319E+06
         0.73441E+05
        -0.34122E+06
        -0.48055E+06
         0.49080E+06
         0.12587E+06
         0.34202E+06
         0.48509E+06
        -0.13801E+06
        -0.29292E+06
        -0.41940E+06
        -0.50252E+06
        -0.34303E+06
         0.45339E+06
         0.46453E+06
        -0.95737E+05
         0.11207E+06
         0.52476E+06
         0.55045E+05
        -0.24897E+06
         0.34745E+06
        -0.66899E+06
        -0.72165E+06
        -0.61821E+06
        -0.30087E+06
         0.80236E+05
         0.27849E+06
         0.36229E+06
         0.58453E+06
         0.67689E+06
         0.27186E+06
         0.12743E+06
         0.11643E+06
        -0.44025E+05
        -0.37910E+06
        -0.64735E+06
        -0.72536E+06
        -0.51441E+06
         0.14231E+06
         0.32984E+06
         0.34831E+06
         0.54938E+06
         0.69958E+06
         0.43941E+06
         0.41997E+06
        -0.31053E+06
         0.95519E+05
        -0.17566E+06
        -0.21573E+06
         0.50719E+06
         0.36356E+06
         0.26494E+06
        -0.36534E+06
        -0.24247E+06
        -0.36339E+06
         0.88515E+05
        -0.17476E+06
        -0.54370E+06
         0.20077E+06
         0.39525E+06
        -0.38614E+06
         0.18834E+06
         0.12380E+06
         0.20241E+06
         0.12129E+06
         0.29152E+06
         0.21693E+06
        -0.13083E+06
         0.20884E+06
         0.25206E+06
        -0.10627E+06
         0.54259E+05
        -0.31486E+05
        -0.13752E+06
        -0.36703E+06
        -0.40960E+06
        -0.15156E+06
         0.31332E+06
         0.28349E+06
         0.72602E+05
        -0.34146E+06
        -0.48057E+06
         0.49093E+06
         0.12673E+06
         0.34262E+06
         0.48527E+06
        -0.13723E+06
        -0.29299E+06
        -0.41979E+06
        -0.50263E+06
        -0.34288E+06
         0.45329E+06
         0.46453E+06
        -0.94888E+05
         0.11191E+06
         0.52472E+06
         0.54077E+05
        -0.24881E+06
         0.34752E+06
        -0.66906E+06
        -0.72165E+06
        -0.61813E+06
        -0.30086E+06
         0.80349E+05
         0.27870E+06
         0.36207E+06
         0.58446E+06
         0.67687E+06
         0.27203E+06
         0.12746E+06
         0.11666E+06
        -0.43616E+05
        -0.37924E+06
        -0.64750E+06
        -0.72540E+06
        -0.51431E+06
         0.14236E+06
         0.32962E+06
         0.34820E+06
         0.54918E+06
         0.69948E+06
         0.43915E+06
         0.41962E+06
        -0.31085E+06
         0.95978E+05
        -0.17580E+06
        -0.21700E+06
         0.50715E+06
         0.36384E+06
         0.26592E+06
        -0.36438E+06
        -0.24247E+06
        -0.36263E+06
         0.86119E+05
        -0.17517E+06
        -0.54378E+06
         0.20117E+06
         0.39478E+06
        -0.38608E+06
         0.18980E+06
         0.12324E+06
         0.20228E+06
         0.12022E+06
         0.29215E+06
         0.21708E+06
        -0.13101E+06
         0.20859E+06
         0.25226E+06
        -0.10609E+06
         0.55105E+05
        -0.31058E+05
        -0.13657E+06
        -0.36711E+06
        -0.40961E+06
        -0.15070E+06
         0.31321E+06
         0.28379E+06
         0.71765E+05
        -0.34171E+06
        -0.48060E+06
         0.49105E+06
         0.12758E+06
         0.34322E+06
         0.48545E+06
        -0.13645E+06
        -0.29307E+06
        -0.42018E+06
        -0.50274E+06
        -0.34273E+06
         0.45319E+06
         0.46453E+06
        -0.94022E+05
         0.11175E+06
         0.52468E+06
         0.53102E+05
        -0.24865E+06
         0.34759E+06
        -0.66912E+06
        -0.72165E+06
        -0.61805E+06
        -0.30085E+06
         0.80461E+05
         0.27892E+06
         0.36185E+06
         0.58439E+06
         0.67684E+06
         0.27221E+06
         0.12748E+06
         0.11689E+06
        -0.43207E+05
        -0.37937E+06
        -0.64766E+06
        -0.72544E+06
        -0.51420E+06
         0.14241E+06
         0.32940E+06
         0.34809E+06
         0.54899E+06
         0.69938E+06
         0.43890E+06
         0.41928E+06
        -0.31116E+06
         0.96450E+05
        -0.17593E+06
        -0.21826E+06
         0.50710E+06
         0.36411E+06
         0.26689E+06
        -0.36342E+06
        -0.24246E+06
        -0.36186E+06
         0.83720E+05
        -0.17558E+06
        -0.54386E+06
         0.20160E+06
         0.39432E+06
        -0.38602E+06
         0.19126E+06
         0.12267E+06
         0.20215E+06
         0.11916E+06
         0.29279E+06
         0.21721E+06
        -0.13118E+06
         0.20835E+06
         0.25245E+06
        -0.10590E+06
         0.55928E+05
        -0.30614E+05
        -0.13560E+06
        -0.36719E+06
        -0.40963E+06
        -0.14985E+06
         0.31309E+06
         0.28409E+06
         0.70921E+05
        -0.34195E+06
        -0.48063E+06
         0.49118E+06
         0.12843E+06
         0.34381E+06
         0.48564E+06
        -0.13567E+06
        -0.29315E+06
        -0.42057E+06
        -0.50284E+06
        -0.34257E+06
         0.45309E+06
         0.46453E+06
        -0.93164E+05
         0.11159E+06
         0.52463E+06
         0.52123E+05
        -0.24849E+06
         0.34767E+06
        -0.66918E+06
        -0.72165E+06
        -0.61796E+06
        -0.30084E+06
         0.80572E+05
         0.27913E+06
         0.36164E+06
         0.58432E+06
         0.67682E+06
         0.27238E+06
         0.12750E+06
         0.11712E+06
        -0.42798E+05
        -0.37950E+06
        -0.64781E+06
        -0.72547E+06
        -0.51410E+06
         0.14245E+06
         0.32917E+06
         0.34797E+06
         0.54880E+06
         0.69928E+06
         0.43865E+06
         0.41893E+06
        -0.31147E+06
         0.96913E+05
        -0.17607E+06
        -0.21952E+06
         0.50706E+06
         0.36438E+06
         0.26785E+06
        -0.36246E+06
        -0.24244E+06
        -0.36108E+06
         0.81318E+05
        -0.17598E+06
        -0.54394E+06
         0.20199E+06
         0.39384E+06
        -0.38597E+06
         0.19273E+06
         0.12211E+06
         0.20203E+06
         0.11811E+06
         0.29343E+06
         0.21735E+06
        -0.13136E+06
         0.20811E+06
         0.25262E+06
        -0.10571E+06
         0.56774E+05
        -0.30146E+05
        -0.13459E+06
        -0.36727E+06
        -0.40963E+06
        -0.14900E+06
         0.31296E+06
         0.28439E+06
         0.70076E+05
        -0.34220E+06
        -0.48066E+06
         0.49130E+06
         0.12929E+06
         0.34442E+06
         0.48582E+06
        -0.13491E+06
        -0.29323E+06
        -0.42097E+06
        -0.50295E+06
        -0.34243E+06
         0.45299E+06
         0.46453E+06
        -0.92309E+05
         0.11143E+06
         0.52459E+06
         0.51150E+05
        -0.24833E+06
         0.34774E+06
        -0.66925E+06
        -0.72165E+06
        -0.61788E+06
        -0.30083E+06
         0.80681E+05
         0.27934E+06
         0.36142E+06
         0.58425E+06
         0.67680E+06
         0.27256E+06
         0.12752E+06
         0.11735E+06
        -0.42391E+05
        -0.37963E+06
        -0.64796E+06
        -0.72551E+06
        -0.51400E+06
         0.14250E+06
         0.32895E+06
         0.34786E+06
         0.54860E+06
         0.69918E+06
         0.43841E+06
         0.41859E+06
        -0.31179E+06
         0.97375E+05
        -0.17620E+06
        -0.22079E+06
         0.50701E+06
         0.36466E+06
         0.26880E+06
        -0.36150E+06
        -0.24241E+06
        -0.36026E+06
         0.78918E+05
        -0.17639E+06
        -0.54402E+06
         0.20241E+06
         0.39337E+06
        -0.38591E+06
         0.19421E+06
         0.12154E+06
         0.20192E+06
         0.11711E+06
         0.29407E+06
         0.21748E+06
        -0.13153E+06
         0.20787E+06
         0.25276E+06
        -0.10553E+06
         0.57613E+05
        -0.29644E+05
        -0.13357E+06
        -0.36737E+06
        -0.40964E+06
        -0.14813E+06
         0.31281E+06
         0.28469E+06
         0.69232E+05
        -0.34245E+06
        -0.48069E+06
         0.49141E+06
         0.13018E+06
         0.34501E+06
         0.48601E+06
        -0.13414E+06
        -0.29332E+06
        -0.42136E+06
        -0.50306E+06
        -0.34227E+06
         0.45289E+06
         0.46453E+06
        -0.91455E+05
         0.11127E+06
         0.52454E+06
         0.50175E+05
        -0.24817E+06
         0.34781E+06
        -0.66931E+06
        -0.72165E+06
        -0.61780E+06
        -0.30082E+06
         0.80792E+05
         0.27956E+06
         0.36121E+06
         0.58418E+06
         0.67679E+06
         0.27273E+06
         0.12753E+06
         0.11757E+06
        -0.41984E+05
        -0.37976E+06
        -0.64812E+06
        -0.72555E+06
        -0.51390E+06
         0.14255E+06
         0.32873E+06
         0.34775E+06
         0.54841E+06
         0.69908E+06
         0.43816E+06
         0.41824E+06
        -0.31210E+06
         0.97834E+05
        -0.17633E+06
        -0.22204E+06
         0.50697E+06
         0.36492E+06
         0.26975E+06
        -0.36053E+06
        -0.24237E+06
        -0.35942E+06
         0.76522E+05
        -0.17680E+06
        -0.54410E+06
         0.20284E+06
         0.39289E+06
        -0.38585E+06
         0.19570E+06
         0.12098E+06
         0.20180E+06
         0.11614E+06
         0.29470E+06
         0.21761E+06
        -0.13171E+06
         0.20763E+06
         0.25286E+06
        -0.10533E+06
         0.58491E+05
        -0.29103E+05
        -0.13254E+06
        -0.36746E+06
        -0.40965E+06
        -0.14727E+06
         0.31265E+06
         0.28498E+06
         0.68381E+05
        -0.34269E+06
        -0.48071E+06
         0.49151E+06
         0.13110E+06
         0.34562E+06
         0.48620E+06
        -0.13338E+06
        -0.29343E+06
        -0.42174E+06
        -0.50317E+06
        -0.34212E+06
         0.45279E+06
         0.46453E+06
        -0.90588E+05
         0.11111E+06
         0.52450E+06
         0.49190E+05
        -0.24801E+06
         0.34789E+06
        -0.66938E+06
        -0.72165E+06
        -0.61772E+06
        -0.30081E+06
         0.80902E+05
         0.27977E+06
         0.36100E+06
         0.58411E+06
         0.67678E+06
         0.27290E+06
         0.12752E+06
         0.11780E+06
        -0.41575E+05
        -0.37989E+06
        -0.64827E+06
        -0.72559E+06
        -0.51379E+06
         0.14260E+06
         0.32851E+06
         0.34763E+06
         0.54822E+06
         0.69898E+06
         0.43792E+06
         0.41789E+06
        -0.31241E+06
         0.98297E+05
        -0.17646E+06
        -0.22329E+06
         0.50692E+06
         0.36519E+06
         0.27069E+06
        -0.35957E+06
        -0.24231E+06
        -0.35857E+06
         0.74140E+05
        -0.17720E+06
        -0.54418E+06
         0.20324E+06
         0.39241E+06
        -0.38580E+06
         0.19720E+06
         0.12042E+06
         0.20167E+06
         0.11520E+06
         0.29534E+06
         0.21774E+06
        -0.13187E+06
         0.20741E+06
         0.25294E+06
        -0.10515E+06
         0.59347E+05
        -0.28534E+05
        -0.13150E+06
        -0.36756E+06
        -0.40966E+06
        -0.14643E+06
         0.31248E+06
         0.28529E+06
         0.67539E+05
        -0.34292E+06
        -0.48074E+06
         0.49160E+06
         0.13202E+06
         0.34621E+06
         0.48639E+06
        -0.13263E+06
        -0.29354E+06
        -0.42212E+06
        -0.50327E+06
        -0.34197E+06
         0.45269E+06
         0.46454E+06
        -0.89730E+05
         0.11094E+06
         0.52446E+06
         0.48209E+05
        -0.24784E+06
         0.34796E+06
        -0.66944E+06
        -0.72165E+06
        -0.61764E+06
        -0.30080E+06
         0.81010E+05
         0.27997E+06
         0.36079E+06
         0.58403E+06
         0.67677E+06
         0.27306E+06
         0.12751E+06
         0.11802E+06
        -0.41167E+05
        -0.38002E+06
        -0.64843E+06
        -0.72563E+06
        -0.51369E+06
         0.14265E+06
         0.32829E+06
         0.34752E+06
         0.54803E+06
         0.69888E+06
         0.43768E+06
         0.41755E+06
        -0.29213E+06
         0.83094E+05
        -0.14718E+06
        -0.17430E+06
         0.46165E+06
         0.31378E+06
         0.17968E+06
        -0.32808E+06
        -0.21022E+06
        -0.32593E+06
         0.50968E+05
        -0.17030E+06
        -0.51462E+06
         0.16708E+06
         0.37727E+06
        -0.34685E+06
         0.14664E+06
         0.96003E+05
         0.15866E+06
         0.73428E+05
         0.28299E+06
         0.20687E+06
        -0.12565E+06
         0.14971E+06
         0.21065E+06
        -0.84991E+05
         0.49477E+05
        -0.20528E+05
        -0.74089E+05
        -0.30536E+06
        -0.35650E+06
        -0.10170E+06
         0.23972E+06
         0.20757E+06
         0.62289E+05
        -0.29790E+06
        -0.43857E+06
         0.46764E+06
         0.12333E+06
         0.31850E+06
         0.46370E+06
        -0.12534E+06
        -0.28023E+06
        -0.39719E+06
        -0.46349E+06
        -0.32157E+06
         0.40655E+06
         0.41053E+06
        -0.75288E+05
         0.96364E+05
         0.48865E+06
         0.41967E+05
        -0.24466E+06
         0.34429E+06
        -0.66270E+06
        -0.71471E+06
        -0.61202E+06
        -0.29818E+06
         0.80372E+05
         0.27680E+06
         0.35597E+06
         0.57713E+06
         0.66906E+06
         0.27036E+06
         0.12590E+06
         0.11680E+06
        -0.40367E+05
        -0.37666E+06
        -0.64299E+06
        -0.71952E+06
        -0.50805E+06
         0.14127E+06
         0.32458E+06
         0.34352E+06
         0.54205E+06
         0.69106E+06
         0.43298E+06
         0.41287E+06
        -0.76637E+05
         0.10962E+05
        -0.18537E+05
        -0.17549E+05
         0.96092E+05
         0.45195E+05
         0.12684E+05
        -0.70340E+05
        -0.32095E+05
        -0.67645E+05
         0.39237E+04
        -0.62032E+05
        -0.15449E+06
         0.19516E+05
         0.14419E+06
        -0.65237E+05
         0.12913E+05
         0.68969E+04
         0.16265E+05
         0.44025E+04
         0.98094E+05
         0.65399E+05
        -0.40909E+05
         0.12401E+05
         0.26273E+05
        -0.51991E+04
         0.58858E+04
        -0.90125E+03
        -0.42248E+04
        -0.37742E+05
        -0.54829E+05
        -0.78700E+04
         0.23181E+05
         0.17697E+05
         0.15831E+05
        -0.45280E+05
        -0.92353E+05
         0.15123E+06
         0.30642E+05
         0.71740E+05
         0.15459E+06
        -0.39478E+05
        -0.94563E+05
        -0.11087E+06
        -0.10508E+06
        -0.90488E+05
         0.76000E+05
         0.68992E+05
        -0.10005E+05
         0.14808E+05
         0.12483E+06
         0.72084E+04
        -0.15720E+06
         0.22956E+06
        -0.45095E+06
        -0.49532E+06
        -0.43298E+06
        -0.21402E+06
         0.56195E+05
         0.17999E+06
         0.22533E+06
         0.37598E+06
         0.43993E+06
         0.18388E+06
         0.81088E+05
         0.75770E+05
        -0.27489E+05
        -0.26602E+06
        -0.46109E+06
        -0.51645E+06
        -0.33859E+06
         0.95856E+05
         0.21721E+06
         0.22736E+06
         0.36462E+06
         0.45908E+06
         0.29525E+06
         0.27958E+06
  
SCALARS                      strain_xx  double 1
LOOKUP_TABLE default
         0.11845E-04
         0.56403E-03
         0.63184E-02
         0.31320E-04
        -0.49401E-19
        -0.62107E-20
        -0.69442E-19
        -0.27698E-20
         0.48510E-01
         0.21998E-01
        -0.62126E-18
        -0.50405E-18
         0.82947E-04
         0.13778E-02
        -0.94502E-20
        -0.20738E-18
         0.66478E-04
         0.12732E-02
        -0.10821E-18
        -0.24001E-18
         0.25998E-02
         0.70867E-02
         0.67706E-02
        -0.10702E-18
        -0.22756E-19
        -0.69457E-19
         0.79239E-02
         0.49201E-02
        -0.37499E-18
        -0.23596E-18
         0.36309E-03
         0.16924E-02
         0.17321E-04
        -0.38870E-20
        -0.58048E-19
        -0.22032E-19
         0.30923E-02
         0.66735E-03
        -0.12795E-18
        -0.14506E-18
         0.11931E-01
         0.22610E-01
        -0.65105E-18
        -0.35407E-18
         0.14322E-01
         0.41495E-02
        -0.78516E-18
        -0.18190E-18
         0.10142E-02
        -0.71670E-19
         0.68091E-02
        -0.55535E-20
         0.10286E-02
        -0.27365E-18
         0.56340E-03
        -0.19148E-19
         0.10783E-01
         0.86713E-03
        -0.14052E-19
        -0.82097E-19
         0.41351E-05
         0.30780E-02
        -0.56212E-19
        -0.26433E-19
         0.21516E-03
        -0.56874E-21
         0.23491E-02
        -0.24606E-19
         0.94618E-01
         0.44197E-01
        -0.96126E-18
        -0.50563E-18
         0.18003E-01
        -0.26808E-18
         0.82268E-03
        -0.12828E-18
         0.79686E-02
        -0.49413E-20
         0.35982E-01
        -0.11894E-19
         0.64752E-01
         0.33702E-01
        -0.15974E-18
        -0.20893E-18
         0.27936E-01
        -0.24165E-18
         0.21031E-01
        -0.50092E-18
         0.79394E-02
        -0.20378E-18
         0.19218E-01
         0.10295E-01
        -0.37119E-19
        -0.69807E-19
         0.54645E-03
        -0.96046E-19
         0.41604E-02
        -0.16933E-19
         0.23747E-01
        -0.10326E-18
         0.51631E-01
         0.24582E-01
        -0.54897E-18
        -0.59778E-18
         0.29165E+00
         0.36608E+00
        -0.18743E-17
        -0.18203E-17
         0.28399E+00
        -0.13679E-17
         0.24239E+00
        -0.76396E-18
         0.12129E+00
        -0.23071E-18
         0.59912E-01
        -0.26382E-20
         0.77102E-02
        -0.33467E-19
         0.12295E-01
        -0.21422E-19
         0.69741E-01
        -0.20695E-19
         0.15421E+00
        -0.10524E-18
         0.29159E+00
        -0.38092E-18
         0.46478E+00
        -0.54244E-18
         0.57059E+00
        -0.48290E-18
         0.54406E+00
        -0.57103E-18
         0.47934E+00
        -0.96184E-18
         0.39987E+00
        -0.13375E-17
         0.31036E+00
        -0.11558E-17
         0.18277E+00
        -0.76338E-18
         0.59851E-01
        -0.17013E-18
         0.43020E-03
        -0.62035E-20
         0.18801E-01
        -0.36566E-19
         0.46806E-01
        -0.97776E-19
         0.10360E+00
        -0.37449E-18
         0.18061E+00
        -0.10084E-17
         0.31717E+00
        -0.14555E-17
         0.42784E+00
        -0.15227E-17
        -0.19681E-05
        -0.51347E-06
        -0.71048E-06
        -0.30230E-05
        -0.41266E-04
        -0.25950E-04
        -0.55561E-06
        -0.12399E-05
        -0.35231E-06
        -0.10722E-05
        -0.29292E-06
        -0.54282E-05
        -0.24449E-04
        -0.25061E-05
        -0.35558E-05
        -0.53426E-05
        -0.37297E-05
        -0.82113E-06
        -0.18514E-05
        -0.21722E-05
        -0.63658E-04
        -0.73129E-04
        -0.58195E-04
        -0.56558E-05
        -0.93103E-06
        -0.51613E-06
        -0.51117E-05
        -0.64520E-07
        -0.65386E-05
        -0.32451E-05
        -0.42403E-05
        -0.15569E-06
        -0.94123E-06
        -0.95428E-07
        -0.84036E-04
        -0.35647E-04
        -0.29784E-04
        -0.14259E-04
        -0.46116E-05
        -0.20258E-04
        -0.83161E-04
        -0.77767E-04
        -0.80741E-04
        -0.43269E-04
        -0.21565E-04
        -0.12426E-04
        -0.46156E-06
        -0.84741E-05
        -0.70623E-06
        -0.68234E-05
        -0.46642E-04
        -0.35046E-04
        -0.64028E-03
        -0.75172E-03
        -0.59477E-03
        -0.43677E-03
        -0.24144E-03
        -0.60648E-04
        -0.20596E-06
        -0.29303E-04
        -0.68362E-04
        -0.20083E-03
        -0.52505E-03
        -0.85264E-03
        -0.73779E-03
        -0.68644E-03
        -0.78171E-03
        -0.79325E-03
        -0.65445E-03
        -0.48944E-03
        -0.11457E-03
        -0.29305E-05
        -0.44665E-04
        -0.55460E-04
        -0.15818E-03
        -0.39109E-03
        -0.68851E-03
        -0.77297E-03
        -0.20604E-04
        -0.86824E-06
        -0.31468E-05
        -0.26679E-04
        -0.11225E-03
        -0.81979E-04
        -0.69587E-05
        -0.33161E-04
        -0.70013E-05
        -0.29972E-04
        -0.12232E-05
        -0.16282E-04
        -0.17622E-03
        -0.10363E-03
        -0.11118E-03
        -0.79527E-04
        -0.24647E-04
        -0.88419E-05
        -0.40044E-05
        -0.12350E-04
        -0.43479E-03
        -0.39491E-03
        -0.38455E-03
        -0.22497E-04
        -0.72575E-05
        -0.32903E-05
        -0.96765E-04
        -0.17060E-05
        -0.10838E-04
        -0.20155E-04
        -0.46942E-04
        -0.19655E-04
        -0.19747E-04
        -0.14709E-04
        -0.35703E-03
        -0.10876E-03
        -0.14310E-03
        -0.13673E-03
        -0.38327E-05
        -0.32218E-04
        -0.43484E-03
        -0.46012E-03
        -0.43963E-03
        -0.22984E-03
        -0.13630E-03
        -0.46663E-04
        -0.54505E-04
        -0.75965E-04
        -0.13274E-05
        -0.19243E-05
        -0.20218E-03
        -0.15689E-03
        -0.62376E-02
        -0.63345E-02
        -0.51042E-02
        -0.34723E-02
        -0.19331E-02
        -0.41003E-03
        -0.25277E-04
        -0.26540E-03
        -0.46058E-03
        -0.15475E-02
        -0.48825E-02
        -0.67949E-02
        -0.47790E-02
        -0.43257E-02
        -0.52499E-02
        -0.55678E-02
        -0.46382E-02
        -0.41496E-02
        -0.10773E-02
        -0.72775E-04
        -0.35602E-03
        -0.36544E-03
        -0.11551E-02
        -0.34628E-02
        -0.56732E-02
        -0.56375E-02
        -0.20682E-04
        -0.87470E-06
        -0.31587E-05
        -0.26715E-04
        -0.11204E-03
        -0.81828E-04
        -0.70474E-05
        -0.32994E-04
        -0.70167E-05
        -0.29924E-04
        -0.11742E-05
        -0.16361E-04
        -0.17643E-03
        -0.10312E-03
        -0.11106E-03
        -0.79692E-04
        -0.24755E-04
        -0.87931E-05
        -0.40005E-05
        -0.12307E-04
        -0.43471E-03
        -0.39482E-03
        -0.38449E-03
        -0.22499E-04
        -0.72903E-05
        -0.33013E-05
        -0.96823E-04
        -0.16425E-05
        -0.10991E-04
        -0.20181E-04
        -0.47079E-04
        -0.19650E-04
        -0.19583E-04
        -0.14722E-04
        -0.35739E-03
        -0.10866E-03
        -0.14301E-03
        -0.13717E-03
        -0.39065E-05
        -0.32421E-04
        -0.43539E-03
        -0.46066E-03
        -0.43967E-03
        -0.22977E-03
        -0.13620E-03
        -0.46615E-04
        -0.54484E-04
        -0.76016E-04
        -0.13081E-05
        -0.19112E-05
        -0.20192E-03
        -0.15642E-03
        -0.62333E-02
        -0.63312E-02
        -0.51033E-02
        -0.34724E-02
        -0.19319E-02
        -0.40979E-03
        -0.25334E-04
        -0.26573E-03
        -0.45981E-03
        -0.15463E-02
        -0.48810E-02
        -0.67952E-02
        -0.47780E-02
        -0.43252E-02
        -0.52512E-02
        -0.55702E-02
        -0.46398E-02
        -0.41512E-02
        -0.10767E-02
        -0.72841E-04
        -0.35550E-03
        -0.36515E-03
        -0.11534E-02
        -0.34586E-02
        -0.56675E-02
        -0.56325E-02
        -0.20761E-04
        -0.88107E-06
        -0.31706E-05
        -0.26751E-04
        -0.11182E-03
        -0.81680E-04
        -0.71372E-05
        -0.32826E-04
        -0.70311E-05
        -0.29874E-04
        -0.11263E-05
        -0.16441E-04
        -0.17664E-03
        -0.10261E-03
        -0.11094E-03
        -0.79862E-04
        -0.24866E-04
        -0.87439E-05
        -0.39965E-05
        -0.12265E-04
        -0.43463E-03
        -0.39473E-03
        -0.38445E-03
        -0.22501E-04
        -0.73253E-05
        -0.33132E-05
        -0.96880E-04
        -0.15809E-05
        -0.11146E-04
        -0.20206E-04
        -0.47220E-04
        -0.19647E-04
        -0.19418E-04
        -0.14735E-04
        -0.35775E-03
        -0.10856E-03
        -0.14291E-03
        -0.13761E-03
        -0.39810E-05
        -0.32627E-04
        -0.43595E-03
        -0.46120E-03
        -0.43973E-03
        -0.22972E-03
        -0.13611E-03
        -0.46569E-04
        -0.54464E-04
        -0.76066E-04
        -0.12884E-05
        -0.18977E-05
        -0.20167E-03
        -0.15597E-03
        -0.62290E-02
        -0.63279E-02
        -0.51024E-02
        -0.34724E-02
        -0.19308E-02
        -0.40954E-03
        -0.25393E-04
        -0.26606E-03
        -0.45903E-03
        -0.15451E-02
        -0.48795E-02
        -0.67955E-02
        -0.47772E-02
        -0.43247E-02
        -0.52526E-02
        -0.55727E-02
        -0.46415E-02
        -0.41529E-02
        -0.10761E-02
        -0.72907E-04
        -0.35498E-03
        -0.36486E-03
        -0.11517E-02
        -0.34543E-02
        -0.56619E-02
        -0.56275E-02
        -0.20839E-04
        -0.88770E-06
        -0.31822E-05
        -0.26786E-04
        -0.11160E-03
        -0.81529E-04
        -0.72264E-05
        -0.32659E-04
        -0.70438E-05
        -0.29815E-04
        -0.10795E-05
        -0.16522E-04
        -0.17686E-03
        -0.10210E-03
        -0.11082E-03
        -0.80046E-04
        -0.24982E-04
        -0.86946E-05
        -0.39931E-05
        -0.12221E-04
        -0.43458E-03
        -0.39467E-03
        -0.38445E-03
        -0.22504E-04
        -0.73671E-05
        -0.33279E-05
        -0.96926E-04
        -0.15223E-05
        -0.11302E-04
        -0.20230E-04
        -0.47372E-04
        -0.19651E-04
        -0.19254E-04
        -0.14748E-04
        -0.35810E-03
        -0.10847E-03
        -0.14282E-03
        -0.13804E-03
        -0.40560E-05
        -0.32832E-04
        -0.43652E-03
        -0.46178E-03
        -0.43985E-03
        -0.22967E-03
        -0.13600E-03
        -0.46519E-04
        -0.54448E-04
        -0.76118E-04
        -0.12689E-05
        -0.18842E-05
        -0.20140E-03
        -0.15550E-03
        -0.62247E-02
        -0.63247E-02
        -0.51014E-02
        -0.34725E-02
        -0.19296E-02
        -0.40929E-03
        -0.25451E-04
        -0.26639E-03
        -0.45826E-03
        -0.15438E-02
        -0.48780E-02
        -0.67959E-02
        -0.47765E-02
        -0.43243E-02
        -0.52541E-02
        -0.55756E-02
        -0.46433E-02
        -0.41545E-02
        -0.10755E-02
        -0.72974E-04
        -0.35446E-03
        -0.36458E-03
        -0.11500E-02
        -0.34501E-02
        -0.56563E-02
        -0.56225E-02
        -0.20917E-04
        -0.89435E-06
        -0.31941E-05
        -0.26821E-04
        -0.11138E-03
        -0.81379E-04
        -0.73174E-05
        -0.32490E-04
        -0.70547E-05
        -0.29747E-04
        -0.10336E-05
        -0.16602E-04
        -0.17707E-03
        -0.10160E-03
        -0.11070E-03
        -0.80245E-04
        -0.25103E-04
        -0.86452E-05
        -0.39887E-05
        -0.12177E-04
        -0.43456E-03
        -0.39463E-03
        -0.38448E-03
        -0.22507E-04
        -0.74157E-05
        -0.33448E-05
        -0.96966E-04
        -0.14667E-05
        -0.11458E-04
        -0.20252E-04
        -0.47535E-04
        -0.19661E-04
        -0.19089E-04
        -0.14762E-04
        -0.35846E-03
        -0.10837E-03
        -0.14273E-03
        -0.13848E-03
        -0.41313E-05
        -0.33040E-04
        -0.43710E-03
        -0.46240E-03
        -0.44002E-03
        -0.22964E-03
        -0.13589E-03
        -0.46465E-04
        -0.54436E-04
        -0.76175E-04
        -0.12496E-05
        -0.18710E-05
        -0.20115E-03
        -0.15504E-03
        -0.62205E-02
        -0.63214E-02
        -0.51005E-02
        -0.34725E-02
        -0.19284E-02
        -0.40904E-03
        -0.25508E-04
        -0.26672E-03
        -0.45748E-03
        -0.15426E-02
        -0.48764E-02
        -0.67964E-02
        -0.47761E-02
        -0.43240E-02
        -0.52557E-02
        -0.55789E-02
        -0.46453E-02
        -0.41560E-02
        -0.10749E-02
        -0.73040E-04
        -0.35394E-03
        -0.36429E-03
        -0.11483E-02
        -0.34459E-02
        -0.56506E-02
        -0.56174E-02
        -0.20992E-04
        -0.90158E-06
        -0.32045E-05
        -0.26855E-04
        -0.11116E-03
        -0.81228E-04
        -0.74089E-05
        -0.32319E-04
        -0.70652E-05
        -0.29677E-04
        -0.98862E-06
        -0.16682E-04
        -0.17728E-03
        -0.10109E-03
        -0.11058E-03
        -0.80447E-04
        -0.25224E-04
        -0.85960E-05
        -0.39842E-05
        -0.12135E-04
        -0.43455E-03
        -0.39460E-03
        -0.38454E-03
        -0.22510E-04
        -0.74641E-05
        -0.33622E-05
        -0.97002E-04
        -0.14125E-05
        -0.11616E-04
        -0.20278E-04
        -0.47697E-04
        -0.19669E-04
        -0.18924E-04
        -0.14773E-04
        -0.35883E-03
        -0.10828E-03
        -0.14265E-03
        -0.13892E-03
        -0.42074E-05
        -0.33248E-04
        -0.43770E-03
        -0.46304E-03
        -0.44022E-03
        -0.22962E-03
        -0.13580E-03
        -0.46419E-04
        -0.54420E-04
        -0.76230E-04
        -0.12300E-05
        -0.18589E-05
        -0.20091E-03
        -0.15459E-03
        -0.62162E-02
        -0.63182E-02
        -0.50996E-02
        -0.34725E-02
        -0.19272E-02
        -0.40880E-03
        -0.25565E-04
        -0.26705E-03
        -0.45671E-03
        -0.15414E-02
        -0.48749E-02
        -0.67969E-02
        -0.47757E-02
        -0.43237E-02
        -0.52574E-02
        -0.55823E-02
        -0.46474E-02
        -0.41576E-02
        -0.10743E-02
        -0.73100E-04
        -0.35341E-03
        -0.36400E-03
        -0.11466E-02
        -0.34417E-02
        -0.56450E-02
        -0.56124E-02
        -0.21061E-04
        -0.91030E-06
        -0.32127E-05
        -0.26888E-04
        -0.11095E-03
        -0.81082E-04
        -0.75026E-05
        -0.32145E-04
        -0.70763E-05
        -0.29611E-04
        -0.94447E-06
        -0.16763E-04
        -0.17751E-03
        -0.10059E-03
        -0.11046E-03
        -0.80650E-04
        -0.25341E-04
        -0.85465E-05
        -0.39806E-05
        -0.12094E-04
        -0.43454E-03
        -0.39458E-03
        -0.38462E-03
        -0.22516E-04
        -0.75071E-05
        -0.33776E-05
        -0.97044E-04
        -0.13580E-05
        -0.11776E-04
        -0.20308E-04
        -0.47850E-04
        -0.19671E-04
        -0.18756E-04
        -0.14782E-04
        -0.35920E-03
        -0.10820E-03
        -0.14257E-03
        -0.13935E-03
        -0.42848E-05
        -0.33462E-04
        -0.43830E-03
        -0.46368E-03
        -0.44043E-03
        -0.22961E-03
        -0.13571E-03
        -0.46377E-04
        -0.54395E-04
        -0.76281E-04
        -0.12088E-05
        -0.18496E-05
        -0.20069E-03
        -0.15414E-03
        -0.62119E-02
        -0.63149E-02
        -0.50986E-02
        -0.34726E-02
        -0.19260E-02
        -0.40855E-03
        -0.25621E-04
        -0.26737E-03
        -0.45594E-03
        -0.15402E-02
        -0.48733E-02
        -0.67975E-02
        -0.47754E-02
        -0.43234E-02
        -0.52591E-02
        -0.55857E-02
        -0.46496E-02
        -0.41591E-02
        -0.10737E-02
        -0.73149E-04
        -0.35287E-03
        -0.36372E-03
        -0.11450E-02
        -0.34375E-02
        -0.56395E-02
        -0.56074E-02
        -0.21127E-04
        -0.91953E-06
        -0.32197E-05
        -0.26921E-04
        -0.11075E-03
        -0.80931E-04
        -0.75981E-05
        -0.31969E-04
        -0.70878E-05
        -0.29548E-04
        -0.90123E-06
        -0.16844E-04
        -0.17773E-03
        -0.10008E-03
        -0.11034E-03
        -0.80852E-04
        -0.25456E-04
        -0.84969E-05
        -0.39763E-05
        -0.12056E-04
        -0.43453E-03
        -0.39456E-03
        -0.38468E-03
        -0.22520E-04
        -0.75474E-05
        -0.33920E-05
        -0.97086E-04
        -0.13043E-05
        -0.11940E-04
        -0.20341E-04
        -0.47999E-04
        -0.19668E-04
        -0.18586E-04
        -0.14789E-04
        -0.35960E-03
        -0.10813E-03
        -0.14250E-03
        -0.13979E-03
        -0.43629E-05
        -0.33675E-04
        -0.43891E-03
        -0.46434E-03
        -0.44065E-03
        -0.22961E-03
        -0.13562E-03
        -0.46343E-04
        -0.54367E-04
        -0.76329E-04
        -0.11872E-05
        -0.18415E-05
        -0.20048E-03
        -0.15371E-03
        -0.62076E-02
        -0.63117E-02
        -0.50977E-02
        -0.34726E-02
        -0.19248E-02
        -0.40830E-03
        -0.25678E-04
        -0.26770E-03
        -0.45517E-03
        -0.15390E-02
        -0.48717E-02
        -0.67980E-02
        -0.47750E-02
        -0.43231E-02
        -0.52608E-02
        -0.55891E-02
        -0.46517E-02
        -0.41605E-02
        -0.10730E-02
        -0.73196E-04
        -0.35231E-03
        -0.36344E-03
        -0.11433E-02
        -0.34333E-02
        -0.56339E-02
        -0.56024E-02
        -0.21193E-04
        -0.92890E-06
        -0.32265E-05
        -0.26953E-04
        -0.11054E-03
        -0.80781E-04
        -0.76935E-05
        -0.31795E-04
        -0.70996E-05
        -0.29486E-04
        -0.85915E-06
        -0.16925E-04
        -0.17795E-03
        -0.99581E-04
        -0.11022E-03
        -0.81054E-04
        -0.25571E-04
        -0.84477E-05
        -0.39721E-05
        -0.12016E-04
        -0.43451E-03
        -0.39454E-03
        -0.38475E-03
        -0.22527E-04
        -0.75877E-05
        -0.34064E-05
        -0.97131E-04
        -0.12518E-05
        -0.12105E-04
        -0.20373E-04
        -0.48149E-04
        -0.19666E-04
        -0.18418E-04
        -0.14796E-04
        -0.36000E-03
        -0.10805E-03
        -0.14244E-03
        -0.14023E-03
        -0.44420E-05
        -0.33888E-04
        -0.43952E-03
        -0.46499E-03
        -0.44086E-03
        -0.22961E-03
        -0.13555E-03
        -0.46308E-04
        -0.54339E-04
        -0.76377E-04
        -0.11657E-05
        -0.18338E-05
        -0.20028E-03
        -0.15326E-03
        -0.62033E-02
        -0.63085E-02
        -0.50967E-02
        -0.34726E-02
        -0.19236E-02
        -0.40805E-03
        -0.25734E-04
        -0.26802E-03
        -0.45441E-03
        -0.15377E-02
        -0.48701E-02
        -0.67986E-02
        -0.47746E-02
        -0.43228E-02
        -0.52625E-02
        -0.55925E-02
        -0.46538E-02
        -0.41619E-02
        -0.10724E-02
        -0.73243E-04
        -0.35176E-03
        -0.36316E-03
        -0.11417E-02
        -0.34292E-02
        -0.56283E-02
        -0.55974E-02
        -0.21260E-04
        -0.93843E-06
        -0.32334E-05
        -0.26986E-04
        -0.11033E-03
        -0.80631E-04
        -0.77902E-05
        -0.31620E-04
        -0.71113E-05
        -0.29423E-04
        -0.81805E-06
        -0.17007E-04
        -0.17818E-03
        -0.99083E-04
        -0.11009E-03
        -0.81255E-04
        -0.25686E-04
        -0.83991E-05
        -0.39677E-05
        -0.11977E-04
        -0.43451E-03
        -0.39451E-03
        -0.38481E-03
        -0.22533E-04
        -0.76281E-05
        -0.34208E-05
        -0.97176E-04
        -0.12006E-05
        -0.12271E-04
        -0.20405E-04
        -0.48298E-04
        -0.19663E-04
        -0.18251E-04
        -0.14803E-04
        -0.36038E-03
        -0.10799E-03
        -0.14237E-03
        -0.14066E-03
        -0.45218E-05
        -0.34104E-04
        -0.44013E-03
        -0.46565E-03
        -0.44107E-03
        -0.22961E-03
        -0.13547E-03
        -0.46270E-04
        -0.54311E-04
        -0.76426E-04
        -0.11446E-05
        -0.18254E-05
        -0.20006E-03
        -0.15282E-03
        -0.61991E-02
        -0.63053E-02
        -0.50957E-02
        -0.34726E-02
        -0.19224E-02
        -0.40779E-03
        -0.25791E-04
        -0.26835E-03
        -0.45364E-03
        -0.15365E-02
        -0.48685E-02
        -0.67991E-02
        -0.47742E-02
        -0.43226E-02
        -0.52642E-02
        -0.55960E-02
        -0.46559E-02
        -0.41634E-02
        -0.10718E-02
        -0.73288E-04
        -0.35121E-03
        -0.36288E-03
        -0.11401E-02
        -0.34250E-02
        -0.56228E-02
        -0.55925E-02
        -0.21326E-04
        -0.94792E-06
        -0.32405E-05
        -0.27018E-04
        -0.11013E-03
        -0.80485E-04
        -0.78865E-05
        -0.31446E-04
        -0.71229E-05
        -0.29361E-04
        -0.77791E-06
        -0.17089E-04
        -0.17840E-03
        -0.98587E-04
        -0.10997E-03
        -0.81456E-04
        -0.25802E-04
        -0.83506E-05
        -0.39643E-05
        -0.11937E-04
        -0.43449E-03
        -0.39449E-03
        -0.38488E-03
        -0.22539E-04
        -0.76681E-05
        -0.34351E-05
        -0.97224E-04
        -0.11505E-05
        -0.12437E-04
        -0.20436E-04
        -0.48447E-04
        -0.19660E-04
        -0.18084E-04
        -0.14810E-04
        -0.36077E-03
        -0.10791E-03
        -0.14230E-03
        -0.14110E-03
        -0.46026E-05
        -0.34318E-04
        -0.44073E-03
        -0.46630E-03
        -0.44128E-03
        -0.22960E-03
        -0.13539E-03
        -0.46237E-04
        -0.54282E-04
        -0.76474E-04
        -0.11235E-05
        -0.18174E-05
        -0.19986E-03
        -0.15238E-03
        -0.61948E-02
        -0.63020E-02
        -0.50947E-02
        -0.34726E-02
        -0.19212E-02
        -0.40755E-03
        -0.25845E-04
        -0.26867E-03
        -0.45287E-03
        -0.15353E-02
        -0.48669E-02
        -0.67997E-02
        -0.47738E-02
        -0.43223E-02
        -0.52659E-02
        -0.55994E-02
        -0.46580E-02
        -0.41648E-02
        -0.10712E-02
        -0.73332E-04
        -0.35065E-03
        -0.36260E-03
        -0.11385E-02
        -0.34209E-02
        -0.56172E-02
        -0.55875E-02
        -0.21392E-04
        -0.95742E-06
        -0.32472E-05
        -0.27050E-04
        -0.10992E-03
        -0.80336E-04
        -0.79840E-05
        -0.31273E-04
        -0.71345E-05
        -0.29299E-04
        -0.73888E-06
        -0.17171E-04
        -0.17862E-03
        -0.98093E-04
        -0.10984E-03
        -0.81658E-04
        -0.25917E-04
        -0.83019E-05
        -0.39602E-05
        -0.11899E-04
        -0.43447E-03
        -0.39446E-03
        -0.38495E-03
        -0.22546E-04
        -0.77081E-05
        -0.34498E-05
        -0.97269E-04
        -0.11016E-05
        -0.12603E-04
        -0.20470E-04
        -0.48598E-04
        -0.19657E-04
        -0.17917E-04
        -0.14818E-04
        -0.36117E-03
        -0.10784E-03
        -0.14223E-03
        -0.14153E-03
        -0.46842E-05
        -0.34537E-04
        -0.44134E-03
        -0.46694E-03
        -0.44150E-03
        -0.22960E-03
        -0.13531E-03
        -0.46203E-04
        -0.54254E-04
        -0.76524E-04
        -0.11025E-05
        -0.18097E-05
        -0.19965E-03
        -0.15194E-03
        -0.61905E-02
        -0.62988E-02
        -0.50937E-02
        -0.34726E-02
        -0.19200E-02
        -0.40730E-03
        -0.25901E-04
        -0.26899E-03
        -0.45211E-03
        -0.15341E-02
        -0.48653E-02
        -0.68002E-02
        -0.47735E-02
        -0.43220E-02
        -0.52676E-02
        -0.56028E-02
        -0.46601E-02
        -0.41663E-02
        -0.10705E-02
        -0.73377E-04
        -0.35010E-03
        -0.36232E-03
        -0.11368E-02
        -0.34167E-02
        -0.56117E-02
        -0.55825E-02
        -0.21459E-04
        -0.96709E-06
        -0.32539E-05
        -0.27082E-04
        -0.10971E-03
        -0.80187E-04
        -0.80819E-05
        -0.31099E-04
        -0.71457E-05
        -0.29236E-04
        -0.70097E-06
        -0.17253E-04
        -0.17885E-03
        -0.97600E-04
        -0.10972E-03
        -0.81859E-04
        -0.26032E-04
        -0.82533E-05
        -0.39563E-05
        -0.11859E-04
        -0.43446E-03
        -0.39444E-03
        -0.38501E-03
        -0.22552E-04
        -0.77476E-05
        -0.34642E-05
        -0.97313E-04
        -0.10537E-05
        -0.12772E-04
        -0.20501E-04
        -0.48747E-04
        -0.19654E-04
        -0.17751E-04
        -0.14825E-04
        -0.36156E-03
        -0.10777E-03
        -0.14216E-03
        -0.14197E-03
        -0.47668E-05
        -0.34754E-04
        -0.44196E-03
        -0.46759E-03
        -0.44171E-03
        -0.22961E-03
        -0.13523E-03
        -0.46164E-04
        -0.54226E-04
        -0.76573E-04
        -0.10817E-05
        -0.18017E-05
        -0.19944E-03
        -0.15150E-03
        -0.61862E-02
        -0.62957E-02
        -0.50928E-02
        -0.34726E-02
        -0.19188E-02
        -0.40705E-03
        -0.25957E-04
        -0.26931E-03
        -0.45134E-03
        -0.15328E-02
        -0.48637E-02
        -0.68008E-02
        -0.47731E-02
        -0.43217E-02
        -0.52693E-02
        -0.56062E-02
        -0.46622E-02
        -0.41677E-02
        -0.10699E-02
        -0.73422E-04
        -0.34955E-03
        -0.36204E-03
        -0.11352E-02
        -0.34126E-02
        -0.56062E-02
        -0.55775E-02
        -0.21526E-04
        -0.97663E-06
        -0.32606E-05
        -0.27114E-04
        -0.10951E-03
        -0.80037E-04
        -0.81792E-05
        -0.30927E-04
        -0.71571E-05
        -0.29173E-04
        -0.66411E-06
        -0.17335E-04
        -0.17907E-03
        -0.97109E-04
        -0.10959E-03
        -0.82060E-04
        -0.26148E-04
        -0.82051E-05
        -0.39531E-05
        -0.11821E-04
        -0.43444E-03
        -0.39441E-03
        -0.38508E-03
        -0.22559E-04
        -0.77873E-05
        -0.34786E-05
        -0.97355E-04
        -0.10072E-05
        -0.12941E-04
        -0.20533E-04
        -0.48897E-04
        -0.19652E-04
        -0.17586E-04
        -0.14832E-04
        -0.36196E-03
        -0.10770E-03
        -0.14210E-03
        -0.14240E-03
        -0.48501E-05
        -0.34974E-04
        -0.44257E-03
        -0.46824E-03
        -0.44192E-03
        -0.22961E-03
        -0.13515E-03
        -0.46130E-04
        -0.54197E-04
        -0.76621E-04
        -0.10611E-05
        -0.17937E-05
        -0.19923E-03
        -0.15106E-03
        -0.61819E-02
        -0.62925E-02
        -0.50918E-02
        -0.34726E-02
        -0.19177E-02
        -0.40680E-03
        -0.26013E-04
        -0.26962E-03
        -0.45057E-03
        -0.15316E-02
        -0.48622E-02
        -0.68013E-02
        -0.47727E-02
        -0.43214E-02
        -0.52710E-02
        -0.56097E-02
        -0.46644E-02
        -0.41691E-02
        -0.10693E-02
        -0.73464E-04
        -0.34900E-03
        -0.36177E-03
        -0.11336E-02
        -0.34084E-02
        -0.56006E-02
        -0.55725E-02
        -0.21593E-04
        -0.98617E-06
        -0.32673E-05
        -0.27146E-04
        -0.10930E-03
        -0.79888E-04
        -0.82781E-05
        -0.30755E-04
        -0.71685E-05
        -0.29110E-04
        -0.62826E-06
        -0.17419E-04
        -0.17929E-03
        -0.96619E-04
        -0.10947E-03
        -0.82262E-04
        -0.26264E-04
        -0.81571E-05
        -0.39491E-05
        -0.11781E-04
        -0.43444E-03
        -0.39438E-03
        -0.38514E-03
        -0.22565E-04
        -0.78268E-05
        -0.34930E-05
        -0.97398E-04
        -0.96175E-06
        -0.13111E-04
        -0.20564E-04
        -0.49047E-04
        -0.19648E-04
        -0.17421E-04
        -0.14839E-04
        -0.36234E-03
        -0.10763E-03
        -0.14203E-03
        -0.14283E-03
        -0.49342E-05
        -0.35193E-04
        -0.44317E-03
        -0.46889E-03
        -0.44213E-03
        -0.22961E-03
        -0.13507E-03
        -0.46097E-04
        -0.54168E-04
        -0.76670E-04
        -0.10404E-05
        -0.17859E-05
        -0.19902E-03
        -0.15062E-03
        -0.61776E-02
        -0.62893E-02
        -0.50908E-02
        -0.34726E-02
        -0.19165E-02
        -0.40654E-03
        -0.26068E-04
        -0.26993E-03
        -0.44981E-03
        -0.15304E-02
        -0.48606E-02
        -0.68019E-02
        -0.47723E-02
        -0.43211E-02
        -0.52727E-02
        -0.56131E-02
        -0.46665E-02
        -0.41706E-02
        -0.10687E-02
        -0.73507E-04
        -0.34844E-03
        -0.36149E-03
        -0.11320E-02
        -0.34043E-02
        -0.55951E-02
        -0.55676E-02
        -0.21660E-04
        -0.99599E-06
        -0.32741E-05
        -0.27177E-04
        -0.10910E-03
        -0.79743E-04
        -0.83769E-05
        -0.30583E-04
        -0.71799E-05
        -0.29048E-04
        -0.59339E-06
        -0.17502E-04
        -0.17952E-03
        -0.96132E-04
        -0.10934E-03
        -0.82465E-04
        -0.26380E-04
        -0.81098E-05
        -0.39452E-05
        -0.11743E-04
        -0.43442E-03
        -0.39436E-03
        -0.38522E-03
        -0.22572E-04
        -0.78657E-05
        -0.35075E-05
        -0.97442E-04
        -0.91736E-06
        -0.13282E-04
        -0.20595E-04
        -0.49197E-04
        -0.19645E-04
        -0.17258E-04
        -0.14846E-04
        -0.36275E-03
        -0.10756E-03
        -0.14196E-03
        -0.14326E-03
        -0.50195E-05
        -0.35412E-04
        -0.44378E-03
        -0.46953E-03
        -0.44234E-03
        -0.22960E-03
        -0.13500E-03
        -0.46059E-04
        -0.54140E-04
        -0.76718E-04
        -0.10201E-05
        -0.17778E-05
        -0.19882E-03
        -0.15018E-03
        -0.61733E-02
        -0.62861E-02
        -0.50898E-02
        -0.34726E-02
        -0.19153E-02
        -0.40629E-03
        -0.26121E-04
        -0.27025E-03
        -0.44905E-03
        -0.15292E-02
        -0.48590E-02
        -0.68025E-02
        -0.47719E-02
        -0.43208E-02
        -0.52744E-02
        -0.56165E-02
        -0.46686E-02
        -0.41720E-02
        -0.10680E-02
        -0.73550E-04
        -0.34789E-03
        -0.36121E-03
        -0.11303E-02
        -0.34002E-02
        -0.55896E-02
        -0.55626E-02
        -0.21727E-04
        -0.10057E-05
        -0.32809E-05
        -0.27209E-04
        -0.10890E-03
        -0.79594E-04
        -0.84766E-05
        -0.30411E-04
        -0.71909E-05
        -0.28983E-04
        -0.55954E-06
        -0.17586E-04
        -0.17974E-03
        -0.95645E-04
        -0.10921E-03
        -0.82668E-04
        -0.26497E-04
        -0.80625E-05
        -0.39415E-05
        -0.11704E-04
        -0.43441E-03
        -0.39433E-03
        -0.38528E-03
        -0.22580E-04
        -0.79039E-05
        -0.35219E-05
        -0.97480E-04
        -0.87363E-06
        -0.13453E-04
        -0.20626E-04
        -0.49348E-04
        -0.19643E-04
        -0.17096E-04
        -0.14854E-04
        -0.36315E-03
        -0.10749E-03
        -0.14190E-03
        -0.14369E-03
        -0.51064E-05
        -0.35635E-04
        -0.44437E-03
        -0.47017E-03
        -0.44254E-03
        -0.22960E-03
        -0.13492E-03
        -0.46025E-04
        -0.54112E-04
        -0.76769E-04
        -0.10001E-05
        -0.17698E-05
        -0.19861E-03
        -0.14975E-03
        -0.61690E-02
        -0.62829E-02
        -0.50888E-02
        -0.34726E-02
        -0.19141E-02
        -0.40604E-03
        -0.26174E-04
        -0.27056E-03
        -0.44829E-03
        -0.15279E-02
        -0.48574E-02
        -0.68032E-02
        -0.47716E-02
        -0.43205E-02
        -0.52760E-02
        -0.56199E-02
        -0.46707E-02
        -0.41734E-02
        -0.10674E-02
        -0.73593E-04
        -0.34734E-03
        -0.36093E-03
        -0.11287E-02
        -0.33960E-02
        -0.55840E-02
        -0.55576E-02
        -0.21795E-04
        -0.10155E-05
        -0.32875E-05
        -0.27240E-04
        -0.10869E-03
        -0.79446E-04
        -0.85763E-05
        -0.30240E-04
        -0.72008E-05
        -0.28910E-04
        -0.52673E-06
        -0.17669E-04
        -0.17996E-03
        -0.95156E-04
        -0.10908E-03
        -0.82870E-04
        -0.26613E-04
        -0.80149E-05
        -0.39389E-05
        -0.11666E-04
        -0.43439E-03
        -0.39430E-03
        -0.38535E-03
        -0.22586E-04
        -0.79398E-05
        -0.35370E-05
        -0.97502E-04
        -0.82991E-06
        -0.13626E-04
        -0.20659E-04
        -0.49499E-04
        -0.19639E-04
        -0.16933E-04
        -0.14861E-04
        -0.36354E-03
        -0.10742E-03
        -0.14183E-03
        -0.14411E-03
        -0.51965E-05
        -0.35854E-04
        -0.44492E-03
        -0.47076E-03
        -0.44272E-03
        -0.22960E-03
        -0.13484E-03
        -0.45988E-04
        -0.54084E-04
        -0.76818E-04
        -0.98032E-06
        -0.17618E-05
        -0.19840E-03
        -0.14931E-03
        -0.61648E-02
        -0.62798E-02
        -0.50878E-02
        -0.34726E-02
        -0.19129E-02
        -0.40580E-03
        -0.26228E-04
        -0.27087E-03
        -0.44754E-03
        -0.15267E-02
        -0.48558E-02
        -0.68042E-02
        -0.47715E-02
        -0.43203E-02
        -0.52777E-02
        -0.56233E-02
        -0.46728E-02
        -0.41748E-02
        -0.10668E-02
        -0.73636E-04
        -0.34680E-03
        -0.36065E-03
        -0.11271E-02
        -0.33919E-02
        -0.55785E-02
        -0.55527E-02
        -0.21862E-04
        -0.10252E-05
        -0.32941E-05
        -0.27272E-04
        -0.10849E-03
        -0.79298E-04
        -0.86769E-05
        -0.30070E-04
        -0.72096E-05
        -0.28831E-04
        -0.49499E-06
        -0.17753E-04
        -0.18019E-03
        -0.94665E-04
        -0.10894E-03
        -0.83071E-04
        -0.26727E-04
        -0.79676E-05
        -0.39353E-05
        -0.11627E-04
        -0.43438E-03
        -0.39426E-03
        -0.38543E-03
        -0.22593E-04
        -0.79729E-05
        -0.35513E-05
        -0.97511E-04
        -0.78604E-06
        -0.13800E-04
        -0.20691E-04
        -0.49650E-04
        -0.19636E-04
        -0.16771E-04
        -0.14868E-04
        -0.36394E-03
        -0.10735E-03
        -0.14177E-03
        -0.14452E-03
        -0.52898E-05
        -0.36075E-04
        -0.44542E-03
        -0.47129E-03
        -0.44288E-03
        -0.22960E-03
        -0.13476E-03
        -0.45955E-04
        -0.54055E-04
        -0.76868E-04
        -0.96053E-06
        -0.17540E-05
        -0.19819E-03
        -0.14887E-03
        -0.61605E-02
        -0.62766E-02
        -0.50868E-02
        -0.34726E-02
        -0.19117E-02
        -0.40555E-03
        -0.26281E-04
        -0.27118E-03
        -0.44680E-03
        -0.15254E-02
        -0.48541E-02
        -0.68055E-02
        -0.47715E-02
        -0.43201E-02
        -0.52794E-02
        -0.56267E-02
        -0.46749E-02
        -0.41762E-02
        -0.10662E-02
        -0.73677E-04
        -0.34625E-03
        -0.36037E-03
        -0.11255E-02
        -0.33878E-02
        -0.55730E-02
        -0.55477E-02
        -0.21930E-04
        -0.10350E-05
        -0.33009E-05
        -0.27303E-04
        -0.10829E-03
        -0.79154E-04
        -0.87770E-05
        -0.29900E-04
        -0.72180E-05
        -0.28751E-04
        -0.46446E-06
        -0.17836E-04
        -0.18041E-03
        -0.94177E-04
        -0.10881E-03
        -0.83274E-04
        -0.26843E-04
        -0.79210E-05
        -0.39315E-05
        -0.11590E-04
        -0.43436E-03
        -0.39422E-03
        -0.38548E-03
        -0.22600E-04
        -0.80050E-05
        -0.35658E-05
        -0.97516E-04
        -0.74321E-06
        -0.13973E-04
        -0.20722E-04
        -0.49802E-04
        -0.19633E-04
        -0.16611E-04
        -0.14876E-04
        -0.36435E-03
        -0.10728E-03
        -0.14170E-03
        -0.14492E-03
        -0.53850E-05
        -0.36291E-04
        -0.44591E-03
        -0.47181E-03
        -0.44302E-03
        -0.22960E-03
        -0.13468E-03
        -0.45920E-04
        -0.54029E-04
        -0.76921E-04
        -0.94116E-06
        -0.17458E-05
        -0.19799E-03
        -0.14844E-03
        -0.61562E-02
        -0.62735E-02
        -0.50859E-02
        -0.34726E-02
        -0.19106E-02
        -0.40529E-03
        -0.26333E-04
        -0.27148E-03
        -0.44606E-03
        -0.15240E-02
        -0.48524E-02
        -0.68070E-02
        -0.47716E-02
        -0.43198E-02
        -0.52811E-02
        -0.56302E-02
        -0.46771E-02
        -0.41776E-02
        -0.10655E-02
        -0.73724E-04
        -0.34571E-03
        -0.36010E-03
        -0.11239E-02
        -0.33837E-02
        -0.55675E-02
        -0.55428E-02
        -0.22216E-04
        -0.10534E-05
        -0.33417E-05
        -0.27600E-04
        -0.10918E-03
        -0.79807E-04
        -0.89571E-05
        -0.30059E-04
        -0.72966E-05
        -0.28983E-04
        -0.44334E-06
        -0.18090E-04
        -0.18247E-03
        -0.94739E-04
        -0.10989E-03
        -0.84279E-04
        -0.27223E-04
        -0.79546E-05
        -0.39655E-05
        -0.11665E-04
        -0.43863E-03
        -0.39816E-03
        -0.38928E-03
        -0.22829E-04
        -0.81169E-05
        -0.36139E-05
        -0.98583E-04
        -0.71175E-06
        -0.14282E-04
        -0.20965E-04
        -0.50437E-04
        -0.19822E-04
        -0.16628E-04
        -0.15034E-04
        -0.36851E-03
        -0.10831E-03
        -0.14306E-03
        -0.14690E-03
        -0.55314E-05
        -0.36879E-04
        -0.45117E-03
        -0.47731E-03
        -0.44774E-03
        -0.23181E-03
        -0.13593E-03
        -0.46347E-04
        -0.54557E-04
        -0.77759E-04
        -0.93342E-06
        -0.17553E-05
        -0.19983E-03
        -0.14953E-03
        -0.62292E-02
        -0.63473E-02
        -0.51484E-02
        -0.35150E-02
        -0.19332E-02
        -0.41015E-03
        -0.26745E-04
        -0.27524E-03
        -0.45118E-03
        -0.15430E-02
        -0.49144E-02
        -0.68935E-02
        -0.48271E-02
        -0.43679E-02
        -0.53414E-02
        -0.56960E-02
        -0.47313E-02
        -0.42284E-02
        -0.10783E-02
        -0.74730E-04
        -0.34941E-03
        -0.36402E-03
        -0.11358E-02
        -0.34201E-02
        -0.56277E-02
        -0.56029E-02
        -0.50406E-04
        -0.24248E-05
        -0.75571E-05
        -0.62750E-04
        -0.23003E-03
        -0.17113E-03
        -0.20539E-04
        -0.67487E-04
        -0.16443E-04
        -0.64849E-04
        -0.95121E-06
        -0.36997E-04
        -0.38338E-03
        -0.20703E-03
        -0.22707E-03
        -0.19137E-03
        -0.61581E-04
        -0.17998E-04
        -0.87725E-05
        -0.25951E-04
        -0.91823E-03
        -0.85552E-03
        -0.81873E-03
        -0.51270E-04
        -0.18536E-04
        -0.82567E-05
        -0.21926E-03
        -0.15711E-05
        -0.33072E-04
        -0.47788E-04
        -0.11466E-03
        -0.44825E-04
        -0.37631E-04
        -0.34220E-04
        -0.75015E-03
        -0.23237E-03
        -0.30724E-03
        -0.31774E-03
        -0.12378E-04
        -0.82639E-04
        -0.98176E-03
        -0.10526E-02
        -0.98446E-03
        -0.49433E-03
        -0.28818E-03
        -0.92975E-04
        -0.11498E-03
        -0.16808E-03
        -0.20093E-05
        -0.37866E-05
        -0.41184E-03
        -0.31890E-03
        -0.10112E-01
        -0.10259E-01
        -0.83360E-02
        -0.57176E-02
        -0.31426E-02
        -0.67103E-03
        -0.44929E-04
        -0.46904E-03
        -0.76516E-03
        -0.25899E-02
        -0.82618E-02
        -0.11521E-01
        -0.82132E-02
        -0.74641E-02
        -0.88967E-02
        -0.92771E-02
        -0.76612E-02
        -0.67911E-02
        -0.17332E-02
        -0.12063E-03
        -0.57319E-03
        -0.60179E-03
        -0.18662E-02
        -0.56575E-02
        -0.92484E-02
        -0.91406E-02
  
SCALARS                      strain_yy  double 1
LOOKUP_TABLE default
         0.43499E-03
         0.46077E-04
         0.31972E-03
         0.88833E-04
        -0.46112E-19
        -0.35030E-20
        -0.70822E-19
        -0.41202E-19
         0.43558E-02
         0.19142E-02
        -0.15685E-18
        -0.12157E-18
         0.31527E-02
         0.81326E-05
        -0.80334E-19
        -0.33022E-21
         0.42610E-03
         0.51823E-02
        -0.17389E-22
        -0.18205E-20
         0.13267E-02
         0.18048E-01
         0.20778E-01
        -0.42214E-18
        -0.12590E-17
        -0.87964E-18
         0.17572E-03
         0.17507E-01
        -0.21842E-18
        -0.82205E-18
         0.55522E-03
         0.39848E-03
         0.32125E-03
        -0.58703E-19
        -0.61175E-19
        -0.26367E-22
         0.47444E-02
         0.40929E-02
        -0.19879E-18
        -0.12033E-18
         0.44526E-02
         0.17030E-02
        -0.11353E-18
        -0.94820E-19
         0.38405E-02
         0.46631E-03
        -0.12493E-21
        -0.29891E-19
         0.28456E-02
        -0.66261E-20
         0.32717E-04
        -0.43466E-22
         0.92069E-05
        -0.99143E-19
         0.39690E-03
        -0.33550E-19
         0.42210E-02
         0.14221E-03
        -0.24692E-22
        -0.10172E-21
         0.81559E-03
         0.10620E-01
        -0.45838E-20
        -0.64133E-19
         0.30144E-03
        -0.18676E-19
         0.54134E-02
        -0.27718E-19
         0.33228E-02
         0.92734E-03
        -0.42331E-21
        -0.73797E-19
         0.11164E-01
        -0.35584E-18
         0.27604E-01
        -0.33360E-18
         0.27808E-01
        -0.19223E-18
         0.18958E-01
        -0.13505E-18
         0.41919E-01
         0.25487E-01
        -0.55576E-19
        -0.27320E-20
         0.52962E-03
        -0.34206E-22
         0.93654E-02
        -0.13423E-18
         0.50923E-01
        -0.41138E-18
         0.97134E-01
         0.36963E-01
        -0.90496E-18
        -0.59288E-18
         0.18571E-01
        -0.35726E-18
         0.15107E-01
        -0.37393E-18
         0.14164E-01
        -0.43229E-18
         0.39024E-01
         0.27243E-01
        -0.37385E-18
        -0.85830E-19
         0.16539E-01
         0.24258E-02
        -0.46221E-19
        -0.71377E-19
         0.99220E-01
        -0.51154E-18
         0.20893E+00
        -0.10945E-17
         0.30448E+00
        -0.16694E-17
         0.39187E+00
        -0.16425E-17
         0.50768E+00
        -0.10286E-17
         0.50962E+00
        -0.61605E-18
         0.45003E+00
        -0.53292E-18
         0.35690E+00
        -0.48241E-18
         0.19837E+00
        -0.19702E-18
         0.97660E-01
        -0.21476E-19
         0.26701E-01
        -0.89670E-20
         0.14521E-03
        -0.20259E-19
         0.26801E-01
        -0.54041E-20
         0.88956E-01
        -0.49425E-19
         0.21257E+00
        -0.39378E-18
         0.25064E+00
        -0.96018E-18
         0.28525E+00
        -0.16502E-17
         0.45534E+00
        -0.16474E-17
         0.50167E+00
        -0.12554E-17
         0.43539E+00
        -0.11924E-17
         0.28181E+00
        -0.12073E-17
         0.13063E+00
        -0.75496E-18
         0.66622E-01
        -0.26400E-18
         0.35209E-01
        -0.15783E-18
        -0.20522E-04
        -0.52842E-05
        -0.40485E-05
        -0.40979E-06
        -0.40595E-05
        -0.48276E-05
        -0.50351E-07
        -0.12309E-04
        -0.96845E-05
        -0.20024E-04
        -0.49436E-05
        -0.88913E-04
        -0.42873E-04
        -0.57778E-06
        -0.92016E-04
        -0.14592E-05
        -0.11354E-05
        -0.48213E-06
        -0.76440E-06
        -0.44296E-06
        -0.36611E-06
        -0.25231E-06
        -0.27773E-05
        -0.19856E-07
        -0.93485E-05
        -0.20397E-06
        -0.52428E-09
        -0.16091E-06
        -0.22917E-06
        -0.56108E-05
        -0.13843E-05
        -0.15515E-05
        -0.73188E-06
        -0.42073E-07
        -0.10059E-06
        -0.30921E-05
        -0.15872E-04
        -0.72411E-04
        -0.60254E-04
        -0.41253E-04
        -0.35429E-04
        -0.23581E-05
        -0.16844E-05
        -0.12565E-04
        -0.33188E-04
        -0.83187E-04
        -0.37786E-04
        -0.20489E-04
        -0.23241E-04
        -0.25183E-04
        -0.33140E-04
        -0.73452E-05
        -0.21451E-04
        -0.33065E-04
        -0.24014E-03
        -0.46523E-03
        -0.75368E-03
        -0.10281E-02
        -0.10020E-02
        -0.81049E-03
        -0.73752E-03
        -0.65656E-03
        -0.26957E-03
        -0.57080E-04
        -0.11404E-04
        -0.22427E-05
        -0.53704E-05
        -0.85235E-04
        -0.28781E-03
        -0.47782E-03
        -0.63728E-03
        -0.85797E-03
        -0.78598E-03
        -0.70186E-03
        -0.60416E-03
        -0.28316E-03
        -0.10116E-03
        -0.79279E-04
        -0.17870E-03
        -0.71087E-04
        -0.60873E-04
        -0.34247E-05
        -0.10269E-03
        -0.20772E-04
        -0.13061E-04
        -0.15963E-03
        -0.68648E-04
        -0.14120E-03
        -0.39470E-04
        -0.73927E-03
        -0.25947E-03
        -0.53583E-05
        -0.71759E-03
        -0.25701E-04
        -0.23603E-05
        -0.21514E-05
        -0.43706E-04
        -0.16337E-05
        -0.32469E-04
        -0.16367E-04
        -0.55010E-05
        -0.39191E-05
        -0.64031E-04
        -0.39175E-05
        -0.24667E-06
        -0.85244E-06
        -0.21750E-05
        -0.63716E-04
        -0.29851E-04
        -0.20713E-05
        -0.12471E-04
        -0.94020E-05
        -0.21375E-05
        -0.19862E-04
        -0.72405E-04
        -0.41449E-03
        -0.32233E-03
        -0.25034E-03
        -0.13511E-03
        -0.82494E-05
        -0.34999E-04
        -0.54609E-04
        -0.90549E-04
        -0.37785E-03
        -0.12794E-03
        -0.55947E-04
        -0.88374E-04
        -0.12316E-03
        -0.13223E-03
        -0.74441E-06
        -0.20542E-03
        -0.42030E-03
        -0.22760E-02
        -0.38013E-02
        -0.63317E-02
        -0.91167E-02
        -0.87475E-02
        -0.66720E-02
        -0.61277E-02
        -0.59980E-02
        -0.23653E-02
        -0.25694E-03
        -0.40802E-04
        -0.29959E-04
        -0.64259E-05
        -0.46240E-03
        -0.18557E-02
        -0.35942E-02
        -0.60880E-02
        -0.74856E-02
        -0.57729E-02
        -0.51601E-02
        -0.51289E-02
        -0.25428E-02
        -0.68619E-03
        -0.61522E-03
        -0.17892E-03
        -0.71112E-04
        -0.60933E-04
        -0.34752E-05
        -0.10271E-03
        -0.20804E-04
        -0.13094E-04
        -0.16017E-03
        -0.68894E-04
        -0.14226E-03
        -0.39517E-04
        -0.73914E-03
        -0.25960E-03
        -0.53586E-05
        -0.71943E-03
        -0.25703E-04
        -0.24034E-05
        -0.21449E-05
        -0.43765E-04
        -0.16155E-05
        -0.32629E-04
        -0.16399E-04
        -0.55037E-05
        -0.39154E-05
        -0.64613E-04
        -0.39032E-05
        -0.25251E-06
        -0.86201E-06
        -0.21464E-05
        -0.63986E-04
        -0.29861E-04
        -0.20622E-05
        -0.12526E-04
        -0.94328E-05
        -0.20976E-05
        -0.19888E-04
        -0.72399E-04
        -0.41576E-03
        -0.32372E-03
        -0.25092E-03
        -0.13531E-03
        -0.82050E-05
        -0.35071E-04
        -0.54665E-04
        -0.90555E-04
        -0.37785E-03
        -0.12796E-03
        -0.55880E-04
        -0.88137E-04
        -0.12283E-03
        -0.13212E-03
        -0.72204E-06
        -0.20503E-03
        -0.42035E-03
        -0.22769E-02
        -0.38013E-02
        -0.63301E-02
        -0.91106E-02
        -0.87401E-02
        -0.66680E-02
        -0.61251E-02
        -0.59947E-02
        -0.23643E-02
        -0.25718E-03
        -0.40795E-04
        -0.30082E-04
        -0.63216E-05
        -0.46288E-03
        -0.18574E-02
        -0.35958E-02
        -0.60878E-02
        -0.74846E-02
        -0.57721E-02
        -0.51597E-02
        -0.51263E-02
        -0.25392E-02
        -0.68467E-03
        -0.61359E-03
        -0.17915E-03
        -0.71140E-04
        -0.60995E-04
        -0.35265E-05
        -0.10273E-03
        -0.20838E-04
        -0.13127E-04
        -0.16071E-03
        -0.69143E-04
        -0.14332E-03
        -0.39564E-04
        -0.73901E-03
        -0.25973E-03
        -0.53575E-05
        -0.72125E-03
        -0.25707E-04
        -0.24474E-05
        -0.21384E-05
        -0.43826E-04
        -0.15971E-05
        -0.32792E-04
        -0.16429E-04
        -0.55079E-05
        -0.39106E-05
        -0.65190E-04
        -0.38870E-05
        -0.25884E-06
        -0.87222E-06
        -0.21154E-05
        -0.64247E-04
        -0.29870E-04
        -0.20513E-05
        -0.12582E-04
        -0.94631E-05
        -0.20577E-05
        -0.19915E-04
        -0.72389E-04
        -0.41705E-03
        -0.32512E-03
        -0.25150E-03
        -0.13553E-03
        -0.81563E-05
        -0.35139E-04
        -0.54736E-04
        -0.90576E-04
        -0.37787E-03
        -0.12799E-03
        -0.55810E-04
        -0.87904E-04
        -0.12250E-03
        -0.13201E-03
        -0.70010E-06
        -0.20465E-03
        -0.42040E-03
        -0.22777E-02
        -0.38014E-02
        -0.63286E-02
        -0.91044E-02
        -0.87328E-02
        -0.66640E-02
        -0.61226E-02
        -0.59914E-02
        -0.23633E-02
        -0.25744E-03
        -0.40791E-04
        -0.30205E-04
        -0.62176E-05
        -0.46339E-03
        -0.18591E-02
        -0.35975E-02
        -0.60876E-02
        -0.74837E-02
        -0.57713E-02
        -0.51593E-02
        -0.51237E-02
        -0.25356E-02
        -0.68317E-03
        -0.61198E-03
        -0.17937E-03
        -0.71166E-04
        -0.61057E-04
        -0.35785E-05
        -0.10276E-03
        -0.20872E-04
        -0.13161E-04
        -0.16124E-03
        -0.69393E-04
        -0.14436E-03
        -0.39611E-04
        -0.73889E-03
        -0.25987E-03
        -0.53577E-05
        -0.72310E-03
        -0.25711E-04
        -0.24926E-05
        -0.21318E-05
        -0.43890E-04
        -0.15777E-05
        -0.32959E-04
        -0.16457E-04
        -0.55173E-05
        -0.39028E-05
        -0.65751E-04
        -0.38658E-05
        -0.26546E-06
        -0.88585E-06
        -0.20773E-05
        -0.64484E-04
        -0.29875E-04
        -0.20366E-05
        -0.12637E-04
        -0.94939E-05
        -0.20185E-05
        -0.19941E-04
        -0.72380E-04
        -0.41834E-03
        -0.32655E-03
        -0.25213E-03
        -0.13579E-03
        -0.80943E-05
        -0.35194E-04
        -0.54843E-04
        -0.90630E-04
        -0.37791E-03
        -0.12803E-03
        -0.55743E-04
        -0.87671E-04
        -0.12217E-03
        -0.13189E-03
        -0.67854E-06
        -0.20427E-03
        -0.42045E-03
        -0.22786E-02
        -0.38014E-02
        -0.63271E-02
        -0.90982E-02
        -0.87255E-02
        -0.66599E-02
        -0.61200E-02
        -0.59881E-02
        -0.23624E-02
        -0.25774E-03
        -0.40792E-04
        -0.30327E-04
        -0.61137E-05
        -0.46393E-03
        -0.18612E-02
        -0.35995E-02
        -0.60875E-02
        -0.74828E-02
        -0.57705E-02
        -0.51589E-02
        -0.51211E-02
        -0.25320E-02
        -0.68168E-03
        -0.61037E-03
        -0.17959E-03
        -0.71192E-04
        -0.61118E-04
        -0.36305E-05
        -0.10278E-03
        -0.20905E-04
        -0.13194E-04
        -0.16178E-03
        -0.69643E-04
        -0.14540E-03
        -0.39659E-04
        -0.73876E-03
        -0.26000E-03
        -0.53584E-05
        -0.72494E-03
        -0.25716E-04
        -0.25389E-05
        -0.21251E-05
        -0.43957E-04
        -0.15574E-05
        -0.33128E-04
        -0.16482E-04
        -0.55319E-05
        -0.38919E-05
        -0.66293E-04
        -0.38391E-05
        -0.27292E-06
        -0.90266E-06
        -0.20320E-05
        -0.64696E-04
        -0.29875E-04
        -0.20174E-05
        -0.12692E-04
        -0.95247E-05
        -0.19793E-05
        -0.19967E-04
        -0.72373E-04
        -0.41964E-03
        -0.32800E-03
        -0.25280E-03
        -0.13607E-03
        -0.80187E-05
        -0.35237E-04
        -0.54990E-04
        -0.90720E-04
        -0.37800E-03
        -0.12809E-03
        -0.55682E-04
        -0.87441E-04
        -0.12184E-03
        -0.13178E-03
        -0.65720E-06
        -0.20388E-03
        -0.42050E-03
        -0.22794E-02
        -0.38015E-02
        -0.63255E-02
        -0.90921E-02
        -0.87181E-02
        -0.66559E-02
        -0.61175E-02
        -0.59848E-02
        -0.23616E-02
        -0.25810E-03
        -0.40800E-04
        -0.30447E-04
        -0.60105E-05
        -0.46452E-03
        -0.18634E-02
        -0.36017E-02
        -0.60873E-02
        -0.74819E-02
        -0.57697E-02
        -0.51585E-02
        -0.51185E-02
        -0.25283E-02
        -0.68018E-03
        -0.60876E-03
        -0.17981E-03
        -0.71209E-04
        -0.61178E-04
        -0.36836E-05
        -0.10281E-03
        -0.20938E-04
        -0.13223E-04
        -0.16229E-03
        -0.69895E-04
        -0.14641E-03
        -0.39713E-04
        -0.73865E-03
        -0.26014E-03
        -0.53602E-05
        -0.72678E-03
        -0.25722E-04
        -0.25866E-05
        -0.21186E-05
        -0.44025E-04
        -0.15369E-05
        -0.33299E-04
        -0.16505E-04
        -0.55486E-05
        -0.38799E-05
        -0.66824E-04
        -0.38108E-05
        -0.28106E-06
        -0.92144E-06
        -0.19840E-05
        -0.64897E-04
        -0.29872E-04
        -0.19962E-05
        -0.12749E-04
        -0.95570E-05
        -0.19403E-05
        -0.19996E-04
        -0.72372E-04
        -0.42096E-03
        -0.32948E-03
        -0.25349E-03
        -0.13637E-03
        -0.79391E-05
        -0.35273E-04
        -0.55149E-04
        -0.90831E-04
        -0.37812E-03
        -0.12815E-03
        -0.55633E-04
        -0.87224E-04
        -0.12152E-03
        -0.13167E-03
        -0.63620E-06
        -0.20350E-03
        -0.42054E-03
        -0.22802E-02
        -0.38016E-02
        -0.63240E-02
        -0.90859E-02
        -0.87107E-02
        -0.66519E-02
        -0.61149E-02
        -0.59814E-02
        -0.23609E-02
        -0.25848E-03
        -0.40811E-04
        -0.30567E-04
        -0.59082E-05
        -0.46513E-03
        -0.18658E-02
        -0.36039E-02
        -0.60872E-02
        -0.74809E-02
        -0.57689E-02
        -0.51581E-02
        -0.51159E-02
        -0.25247E-02
        -0.67869E-03
        -0.60715E-03
        -0.18000E-03
        -0.71205E-04
        -0.61237E-04
        -0.37384E-05
        -0.10283E-03
        -0.20973E-04
        -0.13246E-04
        -0.16275E-03
        -0.70153E-04
        -0.14738E-03
        -0.39778E-04
        -0.73858E-03
        -0.26031E-03
        -0.53685E-05
        -0.72865E-03
        -0.25731E-04
        -0.26359E-05
        -0.21120E-05
        -0.44093E-04
        -0.15164E-05
        -0.33470E-04
        -0.16529E-04
        -0.55656E-05
        -0.38682E-05
        -0.67345E-04
        -0.37824E-05
        -0.29081E-06
        -0.94163E-06
        -0.19357E-05
        -0.65093E-04
        -0.29866E-04
        -0.19736E-05
        -0.12808E-04
        -0.95908E-05
        -0.19016E-05
        -0.20027E-04
        -0.72376E-04
        -0.42229E-03
        -0.33098E-03
        -0.25418E-03
        -0.13668E-03
        -0.78580E-05
        -0.35308E-04
        -0.55309E-04
        -0.90951E-04
        -0.37828E-03
        -0.12826E-03
        -0.55614E-04
        -0.87042E-04
        -0.12121E-03
        -0.13155E-03
        -0.61529E-06
        -0.20312E-03
        -0.42059E-03
        -0.22811E-02
        -0.38016E-02
        -0.63225E-02
        -0.90797E-02
        -0.87032E-02
        -0.66478E-02
        -0.61124E-02
        -0.59781E-02
        -0.23601E-02
        -0.25886E-03
        -0.40823E-04
        -0.30688E-04
        -0.58067E-05
        -0.46574E-03
        -0.18682E-02
        -0.36061E-02
        -0.60869E-02
        -0.74799E-02
        -0.57683E-02
        -0.51578E-02
        -0.51133E-02
        -0.25211E-02
        -0.67720E-03
        -0.60554E-03
        -0.18018E-03
        -0.71196E-04
        -0.61297E-04
        -0.37944E-05
        -0.10286E-03
        -0.21006E-04
        -0.13263E-04
        -0.16319E-03
        -0.70413E-04
        -0.14833E-03
        -0.39849E-04
        -0.73850E-03
        -0.26048E-03
        -0.53781E-05
        -0.73052E-03
        -0.25741E-04
        -0.26863E-05
        -0.21053E-05
        -0.44161E-04
        -0.14961E-05
        -0.33642E-04
        -0.16554E-04
        -0.55821E-05
        -0.38569E-05
        -0.67862E-04
        -0.37543E-05
        -0.30112E-06
        -0.96256E-06
        -0.18879E-05
        -0.65287E-04
        -0.29860E-04
        -0.19501E-05
        -0.12867E-04
        -0.96261E-05
        -0.18629E-05
        -0.20060E-04
        -0.72387E-04
        -0.42364E-03
        -0.33248E-03
        -0.25488E-03
        -0.13699E-03
        -0.77774E-05
        -0.35342E-04
        -0.55471E-04
        -0.91075E-04
        -0.37845E-03
        -0.12838E-03
        -0.55606E-04
        -0.86875E-04
        -0.12090E-03
        -0.13145E-03
        -0.59475E-06
        -0.20273E-03
        -0.42064E-03
        -0.22819E-02
        -0.38017E-02
        -0.63210E-02
        -0.90735E-02
        -0.86958E-02
        -0.66438E-02
        -0.61099E-02
        -0.59746E-02
        -0.23594E-02
        -0.25924E-03
        -0.40834E-04
        -0.30811E-04
        -0.57058E-05
        -0.46634E-03
        -0.18706E-02
        -0.36083E-02
        -0.60865E-02
        -0.74789E-02
        -0.57678E-02
        -0.51576E-02
        -0.51106E-02
        -0.25175E-02
        -0.67572E-03
        -0.60394E-03
        -0.18037E-03
        -0.71187E-04
        -0.61355E-04
        -0.38508E-05
        -0.10289E-03
        -0.21040E-04
        -0.13282E-04
        -0.16364E-03
        -0.70675E-04
        -0.14928E-03
        -0.39917E-04
        -0.73842E-03
        -0.26066E-03
        -0.53891E-05
        -0.73241E-03
        -0.25751E-04
        -0.27375E-05
        -0.20986E-05
        -0.44229E-04
        -0.14758E-05
        -0.33814E-04
        -0.16579E-04
        -0.55988E-05
        -0.38456E-05
        -0.68380E-04
        -0.37264E-05
        -0.31187E-06
        -0.98349E-06
        -0.18408E-05
        -0.65483E-04
        -0.29853E-04
        -0.19271E-05
        -0.12927E-04
        -0.96610E-05
        -0.18244E-05
        -0.20091E-04
        -0.72395E-04
        -0.42500E-03
        -0.33400E-03
        -0.25557E-03
        -0.13729E-03
        -0.76976E-05
        -0.35377E-04
        -0.55634E-04
        -0.91202E-04
        -0.37862E-03
        -0.12849E-03
        -0.55599E-04
        -0.86711E-04
        -0.12060E-03
        -0.13134E-03
        -0.57446E-06
        -0.20235E-03
        -0.42068E-03
        -0.22826E-02
        -0.38017E-02
        -0.63194E-02
        -0.90673E-02
        -0.86883E-02
        -0.66398E-02
        -0.61073E-02
        -0.59712E-02
        -0.23586E-02
        -0.25962E-03
        -0.40848E-04
        -0.30936E-04
        -0.56062E-05
        -0.46695E-03
        -0.18729E-02
        -0.36104E-02
        -0.60862E-02
        -0.74780E-02
        -0.57672E-02
        -0.51574E-02
        -0.51079E-02
        -0.25139E-02
        -0.67424E-03
        -0.60234E-03
        -0.18055E-03
        -0.71175E-04
        -0.61413E-04
        -0.39073E-05
        -0.10291E-03
        -0.21073E-04
        -0.13299E-04
        -0.16408E-03
        -0.70938E-04
        -0.15024E-03
        -0.39989E-04
        -0.73835E-03
        -0.26084E-03
        -0.53986E-05
        -0.73429E-03
        -0.25760E-04
        -0.27894E-05
        -0.20919E-05
        -0.44296E-04
        -0.14554E-05
        -0.33987E-04
        -0.16603E-04
        -0.56148E-05
        -0.38344E-05
        -0.68900E-04
        -0.36987E-05
        -0.32251E-06
        -0.10044E-05
        -0.17944E-05
        -0.65678E-04
        -0.29846E-04
        -0.19041E-05
        -0.12986E-04
        -0.96961E-05
        -0.17864E-05
        -0.20124E-04
        -0.72406E-04
        -0.42636E-03
        -0.33551E-03
        -0.25627E-03
        -0.13760E-03
        -0.76185E-05
        -0.35412E-04
        -0.55795E-04
        -0.91326E-04
        -0.37879E-03
        -0.12861E-03
        -0.55596E-04
        -0.86543E-04
        -0.12030E-03
        -0.13123E-03
        -0.55460E-06
        -0.20197E-03
        -0.42072E-03
        -0.22834E-02
        -0.38018E-02
        -0.63179E-02
        -0.90611E-02
        -0.86808E-02
        -0.66357E-02
        -0.61048E-02
        -0.59678E-02
        -0.23578E-02
        -0.26000E-03
        -0.40861E-04
        -0.31061E-04
        -0.55077E-05
        -0.46756E-03
        -0.18753E-02
        -0.36126E-02
        -0.60858E-02
        -0.74770E-02
        -0.57667E-02
        -0.51572E-02
        -0.51052E-02
        -0.25103E-02
        -0.67277E-03
        -0.60074E-03
        -0.18073E-03
        -0.71163E-04
        -0.61472E-04
        -0.39642E-05
        -0.10294E-03
        -0.21106E-04
        -0.13319E-04
        -0.16452E-03
        -0.71201E-04
        -0.15119E-03
        -0.40060E-04
        -0.73827E-03
        -0.26101E-03
        -0.54091E-05
        -0.73618E-03
        -0.25771E-04
        -0.28418E-05
        -0.20852E-05
        -0.44364E-04
        -0.14351E-05
        -0.34159E-04
        -0.16627E-04
        -0.56315E-05
        -0.38234E-05
        -0.69420E-04
        -0.36711E-05
        -0.33352E-06
        -0.10253E-05
        -0.17487E-05
        -0.65873E-04
        -0.29840E-04
        -0.18813E-05
        -0.13046E-04
        -0.97313E-05
        -0.17487E-05
        -0.20156E-04
        -0.72418E-04
        -0.42773E-03
        -0.33703E-03
        -0.25695E-03
        -0.13791E-03
        -0.75397E-05
        -0.35446E-04
        -0.55955E-04
        -0.91451E-04
        -0.37896E-03
        -0.12873E-03
        -0.55588E-04
        -0.86379E-04
        -0.12000E-03
        -0.13113E-03
        -0.53503E-06
        -0.20158E-03
        -0.42076E-03
        -0.22842E-02
        -0.38018E-02
        -0.63164E-02
        -0.90548E-02
        -0.86733E-02
        -0.66317E-02
        -0.61023E-02
        -0.59644E-02
        -0.23571E-02
        -0.26037E-03
        -0.40874E-04
        -0.31184E-04
        -0.54096E-05
        -0.46817E-03
        -0.18777E-02
        -0.36148E-02
        -0.60855E-02
        -0.74760E-02
        -0.57661E-02
        -0.51569E-02
        -0.51024E-02
        -0.25067E-02
        -0.67130E-03
        -0.59914E-03
        -0.18091E-03
        -0.71153E-04
        -0.61530E-04
        -0.40220E-05
        -0.10296E-03
        -0.21140E-04
        -0.13337E-04
        -0.16496E-03
        -0.71466E-04
        -0.15215E-03
        -0.40132E-04
        -0.73820E-03
        -0.26118E-03
        -0.54195E-05
        -0.73806E-03
        -0.25781E-04
        -0.28949E-05
        -0.20784E-05
        -0.44431E-04
        -0.14152E-05
        -0.34333E-04
        -0.16650E-04
        -0.56483E-05
        -0.38125E-05
        -0.69942E-04
        -0.36439E-05
        -0.34447E-06
        -0.10462E-05
        -0.17035E-05
        -0.66068E-04
        -0.29833E-04
        -0.18586E-05
        -0.13106E-04
        -0.97671E-05
        -0.17111E-05
        -0.20188E-04
        -0.72426E-04
        -0.42910E-03
        -0.33855E-03
        -0.25765E-03
        -0.13822E-03
        -0.74621E-05
        -0.35480E-04
        -0.56116E-04
        -0.91576E-04
        -0.37914E-03
        -0.12884E-03
        -0.55585E-04
        -0.86215E-04
        -0.11970E-03
        -0.13103E-03
        -0.51584E-06
        -0.20120E-03
        -0.42080E-03
        -0.22850E-02
        -0.38019E-02
        -0.63149E-02
        -0.90486E-02
        -0.86659E-02
        -0.66276E-02
        -0.60998E-02
        -0.59609E-02
        -0.23563E-02
        -0.26075E-03
        -0.40886E-04
        -0.31307E-04
        -0.53120E-05
        -0.46877E-03
        -0.18801E-02
        -0.36169E-02
        -0.60851E-02
        -0.74750E-02
        -0.57656E-02
        -0.51567E-02
        -0.50997E-02
        -0.25031E-02
        -0.66984E-03
        -0.59754E-03
        -0.18109E-03
        -0.71141E-04
        -0.61589E-04
        -0.40804E-05
        -0.10299E-03
        -0.21173E-04
        -0.13355E-04
        -0.16540E-03
        -0.71731E-04
        -0.15310E-03
        -0.40204E-04
        -0.73813E-03
        -0.26136E-03
        -0.54287E-05
        -0.73996E-03
        -0.25790E-04
        -0.29484E-05
        -0.20715E-05
        -0.44499E-04
        -0.13954E-05
        -0.34507E-04
        -0.16674E-04
        -0.56647E-05
        -0.38016E-05
        -0.70464E-04
        -0.36164E-05
        -0.35592E-06
        -0.10671E-05
        -0.16590E-05
        -0.66262E-04
        -0.29826E-04
        -0.18358E-05
        -0.13165E-04
        -0.98023E-05
        -0.16739E-05
        -0.20221E-04
        -0.72436E-04
        -0.43047E-03
        -0.34008E-03
        -0.25834E-03
        -0.13853E-03
        -0.73841E-05
        -0.35514E-04
        -0.56279E-04
        -0.91705E-04
        -0.37929E-03
        -0.12896E-03
        -0.55579E-04
        -0.86052E-04
        -0.11940E-03
        -0.13091E-03
        -0.49705E-06
        -0.20081E-03
        -0.42084E-03
        -0.22857E-02
        -0.38020E-02
        -0.63133E-02
        -0.90424E-02
        -0.86584E-02
        -0.66235E-02
        -0.60973E-02
        -0.59574E-02
        -0.23555E-02
        -0.26113E-03
        -0.40898E-04
        -0.31432E-04
        -0.52157E-05
        -0.46937E-03
        -0.18825E-02
        -0.36191E-02
        -0.60848E-02
        -0.74740E-02
        -0.57651E-02
        -0.51565E-02
        -0.50970E-02
        -0.24995E-02
        -0.66839E-03
        -0.59595E-03
        -0.18127E-03
        -0.71132E-04
        -0.61648E-04
        -0.41392E-05
        -0.10302E-03
        -0.21207E-04
        -0.13375E-04
        -0.16584E-03
        -0.71996E-04
        -0.15406E-03
        -0.40276E-04
        -0.73805E-03
        -0.26153E-03
        -0.54391E-05
        -0.74185E-03
        -0.25800E-04
        -0.30027E-05
        -0.20648E-05
        -0.44566E-04
        -0.13758E-05
        -0.34681E-04
        -0.16697E-04
        -0.56813E-05
        -0.37908E-05
        -0.70989E-04
        -0.35890E-05
        -0.36724E-06
        -0.10880E-05
        -0.16153E-05
        -0.66457E-04
        -0.29818E-04
        -0.18134E-05
        -0.13225E-04
        -0.98381E-05
        -0.16370E-05
        -0.20253E-04
        -0.72443E-04
        -0.43185E-03
        -0.34162E-03
        -0.25903E-03
        -0.13884E-03
        -0.73066E-05
        -0.35549E-04
        -0.56441E-04
        -0.91831E-04
        -0.37947E-03
        -0.12908E-03
        -0.55573E-04
        -0.85886E-04
        -0.11910E-03
        -0.13081E-03
        -0.47872E-06
        -0.20043E-03
        -0.42088E-03
        -0.22865E-02
        -0.38020E-02
        -0.63118E-02
        -0.90362E-02
        -0.86508E-02
        -0.66195E-02
        -0.60948E-02
        -0.59539E-02
        -0.23547E-02
        -0.26150E-03
        -0.40911E-04
        -0.31557E-04
        -0.51206E-05
        -0.46998E-03
        -0.18849E-02
        -0.36213E-02
        -0.60845E-02
        -0.74731E-02
        -0.57645E-02
        -0.51562E-02
        -0.50943E-02
        -0.24959E-02
        -0.66694E-03
        -0.59436E-03
        -0.18145E-03
        -0.71122E-04
        -0.61706E-04
        -0.41982E-05
        -0.10304E-03
        -0.21240E-04
        -0.13394E-04
        -0.16627E-03
        -0.72263E-04
        -0.15502E-03
        -0.40348E-04
        -0.73799E-03
        -0.26171E-03
        -0.54480E-05
        -0.74376E-03
        -0.25810E-04
        -0.30577E-05
        -0.20581E-05
        -0.44634E-04
        -0.13561E-05
        -0.34856E-04
        -0.16721E-04
        -0.56976E-05
        -0.37803E-05
        -0.71517E-04
        -0.35618E-05
        -0.37895E-06
        -0.11087E-05
        -0.15724E-05
        -0.66653E-04
        -0.29811E-04
        -0.17909E-05
        -0.13285E-04
        -0.98738E-05
        -0.16005E-05
        -0.20287E-04
        -0.72453E-04
        -0.43324E-03
        -0.34315E-03
        -0.25972E-03
        -0.13915E-03
        -0.72297E-05
        -0.35583E-04
        -0.56602E-04
        -0.91957E-04
        -0.37965E-03
        -0.12920E-03
        -0.55570E-04
        -0.85721E-04
        -0.11879E-03
        -0.13071E-03
        -0.46062E-06
        -0.20004E-03
        -0.42091E-03
        -0.22873E-02
        -0.38021E-02
        -0.63103E-02
        -0.90300E-02
        -0.86433E-02
        -0.66154E-02
        -0.60923E-02
        -0.59504E-02
        -0.23540E-02
        -0.26188E-03
        -0.40923E-04
        -0.31682E-04
        -0.50261E-05
        -0.47059E-03
        -0.18873E-02
        -0.36234E-02
        -0.60842E-02
        -0.74721E-02
        -0.57640E-02
        -0.51560E-02
        -0.50915E-02
        -0.24923E-02
        -0.66550E-03
        -0.59277E-03
        -0.18163E-03
        -0.71108E-04
        -0.61764E-04
        -0.42575E-05
        -0.10307E-03
        -0.21274E-04
        -0.13412E-04
        -0.16671E-03
        -0.72532E-04
        -0.15598E-03
        -0.40420E-04
        -0.73791E-03
        -0.26189E-03
        -0.54581E-05
        -0.74565E-03
        -0.25820E-04
        -0.31135E-05
        -0.20513E-05
        -0.44701E-04
        -0.13367E-05
        -0.35032E-04
        -0.16743E-04
        -0.57141E-05
        -0.37699E-05
        -0.72045E-04
        -0.35346E-05
        -0.39052E-06
        -0.11293E-05
        -0.15302E-05
        -0.66848E-04
        -0.29804E-04
        -0.17688E-05
        -0.13344E-04
        -0.99101E-05
        -0.15641E-05
        -0.20319E-04
        -0.72463E-04
        -0.43464E-03
        -0.34469E-03
        -0.26040E-03
        -0.13945E-03
        -0.71533E-05
        -0.35619E-04
        -0.56761E-04
        -0.92087E-04
        -0.37982E-03
        -0.12932E-03
        -0.55564E-04
        -0.85559E-04
        -0.11849E-03
        -0.13060E-03
        -0.44285E-06
        -0.19966E-03
        -0.42095E-03
        -0.22880E-02
        -0.38021E-02
        -0.63088E-02
        -0.90238E-02
        -0.86357E-02
        -0.66113E-02
        -0.60898E-02
        -0.59468E-02
        -0.23532E-02
        -0.26226E-03
        -0.40934E-04
        -0.31805E-04
        -0.49325E-05
        -0.47119E-03
        -0.18896E-02
        -0.36256E-02
        -0.60839E-02
        -0.74711E-02
        -0.57635E-02
        -0.51558E-02
        -0.50888E-02
        -0.24887E-02
        -0.66407E-03
        -0.59118E-03
        -0.18181E-03
        -0.71097E-04
        -0.61823E-04
        -0.43174E-05
        -0.10309E-03
        -0.21307E-04
        -0.13432E-04
        -0.16715E-03
        -0.72802E-04
        -0.15695E-03
        -0.40492E-04
        -0.73784E-03
        -0.26206E-03
        -0.54666E-05
        -0.74756E-03
        -0.25830E-04
        -0.31701E-05
        -0.20445E-05
        -0.44769E-04
        -0.13177E-05
        -0.35207E-04
        -0.16764E-04
        -0.57305E-05
        -0.37594E-05
        -0.72575E-04
        -0.35074E-05
        -0.40259E-06
        -0.11499E-05
        -0.14885E-05
        -0.67039E-04
        -0.29796E-04
        -0.17466E-05
        -0.13404E-04
        -0.99461E-05
        -0.15281E-05
        -0.20351E-04
        -0.72470E-04
        -0.43604E-03
        -0.34624E-03
        -0.26108E-03
        -0.13976E-03
        -0.70780E-05
        -0.35654E-04
        -0.56925E-04
        -0.92214E-04
        -0.38000E-03
        -0.12944E-03
        -0.55561E-04
        -0.85397E-04
        -0.11819E-03
        -0.13049E-03
        -0.42558E-06
        -0.19927E-03
        -0.42098E-03
        -0.22888E-02
        -0.38022E-02
        -0.63073E-02
        -0.90175E-02
        -0.86281E-02
        -0.66072E-02
        -0.60873E-02
        -0.59432E-02
        -0.23525E-02
        -0.26264E-03
        -0.40943E-04
        -0.31928E-04
        -0.48401E-05
        -0.47179E-03
        -0.18920E-02
        -0.36277E-02
        -0.60836E-02
        -0.74701E-02
        -0.57629E-02
        -0.51555E-02
        -0.50860E-02
        -0.24851E-02
        -0.66264E-03
        -0.58960E-03
        -0.18199E-03
        -0.71086E-04
        -0.61882E-04
        -0.43781E-05
        -0.10312E-03
        -0.21340E-04
        -0.13451E-04
        -0.16758E-03
        -0.73074E-04
        -0.15791E-03
        -0.40564E-04
        -0.73777E-03
        -0.26223E-03
        -0.54764E-05
        -0.74945E-03
        -0.25840E-04
        -0.32278E-05
        -0.20376E-05
        -0.44837E-04
        -0.12996E-05
        -0.35382E-04
        -0.16785E-04
        -0.57473E-05
        -0.37488E-05
        -0.73107E-04
        -0.34807E-05
        -0.41472E-06
        -0.11705E-05
        -0.14475E-05
        -0.67219E-04
        -0.29789E-04
        -0.17243E-05
        -0.13464E-04
        -0.99825E-05
        -0.14925E-05
        -0.20385E-04
        -0.72481E-04
        -0.43746E-03
        -0.34778E-03
        -0.26173E-03
        -0.14007E-03
        -0.70022E-05
        -0.35691E-04
        -0.57087E-04
        -0.92343E-04
        -0.38017E-03
        -0.12955E-03
        -0.55555E-04
        -0.85232E-04
        -0.11790E-03
        -0.13039E-03
        -0.40864E-06
        -0.19889E-03
        -0.42101E-03
        -0.22895E-02
        -0.38023E-02
        -0.63057E-02
        -0.90112E-02
        -0.86205E-02
        -0.66031E-02
        -0.60848E-02
        -0.59394E-02
        -0.23518E-02
        -0.26303E-03
        -0.40947E-04
        -0.32052E-04
        -0.47488E-05
        -0.47239E-03
        -0.18944E-02
        -0.36299E-02
        -0.60833E-02
        -0.74691E-02
        -0.57624E-02
        -0.51553E-02
        -0.50833E-02
        -0.24815E-02
        -0.66123E-03
        -0.58801E-03
        -0.18217E-03
        -0.71076E-04
        -0.61940E-04
        -0.44390E-05
        -0.10315E-03
        -0.21372E-04
        -0.13469E-04
        -0.16801E-03
        -0.73349E-04
        -0.15888E-03
        -0.40636E-04
        -0.73770E-03
        -0.26242E-03
        -0.54861E-05
        -0.75137E-03
        -0.25849E-04
        -0.32870E-05
        -0.20306E-05
        -0.44905E-04
        -0.12824E-05
        -0.35559E-04
        -0.16806E-04
        -0.57638E-05
        -0.37385E-05
        -0.73642E-04
        -0.34537E-05
        -0.42756E-06
        -0.11911E-05
        -0.14072E-05
        -0.67388E-04
        -0.29781E-04
        -0.17025E-05
        -0.13524E-04
        -0.10019E-04
        -0.14570E-05
        -0.20417E-04
        -0.72489E-04
        -0.43890E-03
        -0.34931E-03
        -0.26236E-03
        -0.14037E-03
        -0.69270E-05
        -0.35730E-04
        -0.57248E-04
        -0.92473E-04
        -0.38035E-03
        -0.12968E-03
        -0.55549E-04
        -0.85071E-04
        -0.11759E-03
        -0.13028E-03
        -0.39192E-06
        -0.19850E-03
        -0.42104E-03
        -0.22902E-02
        -0.38023E-02
        -0.63042E-02
        -0.90050E-02
        -0.86129E-02
        -0.65991E-02
        -0.60822E-02
        -0.59354E-02
        -0.23512E-02
        -0.26342E-03
        -0.40944E-04
        -0.32176E-04
        -0.46578E-05
        -0.47299E-03
        -0.18968E-02
        -0.36321E-02
        -0.60829E-02
        -0.74681E-02
        -0.57619E-02
        -0.51550E-02
        -0.50805E-02
        -0.24780E-02
        -0.65982E-03
        -0.58643E-03
        -0.18235E-03
        -0.71065E-04
        -0.62002E-04
        -0.45002E-05
        -0.10318E-03
        -0.21406E-04
        -0.13490E-04
        -0.16845E-03
        -0.73627E-04
        -0.15985E-03
        -0.40708E-04
        -0.73763E-03
        -0.26259E-03
        -0.54945E-05
        -0.75327E-03
        -0.25860E-04
        -0.33471E-05
        -0.20238E-05
        -0.44974E-04
        -0.12658E-05
        -0.35736E-04
        -0.16826E-04
        -0.57794E-05
        -0.37290E-05
        -0.74179E-04
        -0.34278E-05
        -0.44026E-06
        -0.12110E-05
        -0.13679E-05
        -0.67555E-04
        -0.29774E-04
        -0.16812E-05
        -0.13584E-04
        -0.10056E-04
        -0.14224E-05
        -0.20449E-04
        -0.72494E-04
        -0.44034E-03
        -0.35084E-03
        -0.26296E-03
        -0.14066E-03
        -0.68536E-05
        -0.35772E-04
        -0.57408E-04
        -0.92597E-04
        -0.38052E-03
        -0.12979E-03
        -0.55545E-04
        -0.84909E-04
        -0.11730E-03
        -0.13018E-03
        -0.37566E-06
        -0.19811E-03
        -0.42108E-03
        -0.22910E-02
        -0.38024E-02
        -0.63027E-02
        -0.89988E-02
        -0.86053E-02
        -0.65951E-02
        -0.60796E-02
        -0.59314E-02
        -0.23506E-02
        -0.26380E-03
        -0.40935E-04
        -0.32299E-04
        -0.45677E-05
        -0.47358E-03
        -0.18992E-02
        -0.36342E-02
        -0.60827E-02
        -0.74672E-02
        -0.57613E-02
        -0.51548E-02
        -0.50777E-02
        -0.24744E-02
        -0.65842E-03
        -0.58486E-03
        -0.18436E-03
        -0.71801E-04
        -0.62715E-04
        -0.46048E-05
        -0.10429E-03
        -0.21656E-04
        -0.13654E-04
        -0.17059E-03
        -0.74627E-04
        -0.16241E-03
        -0.41207E-04
        -0.74545E-03
        -0.26547E-03
        -0.55614E-05
        -0.76338E-03
        -0.26133E-04
        -0.34385E-05
        -0.20370E-05
        -0.45497E-04
        -0.12640E-05
        -0.36264E-04
        -0.17018E-04
        -0.58433E-05
        -0.37620E-05
        -0.75466E-04
        -0.34447E-05
        -0.45684E-06
        -0.12393E-05
        -0.13508E-05
        -0.68443E-04
        -0.30076E-04
        -0.16832E-05
        -0.13777E-04
        -0.10193E-04
        -0.14062E-05
        -0.20674E-04
        -0.73214E-04
        -0.44646E-03
        -0.35607E-03
        -0.26637E-03
        -0.14244E-03
        -0.68701E-05
        -0.36202E-04
        -0.58079E-04
        -0.93591E-04
        -0.38449E-03
        -0.13117E-03
        -0.56062E-04
        -0.85588E-04
        -0.11820E-03
        -0.13143E-03
        -0.36363E-06
        -0.20014E-03
        -0.42641E-03
        -0.23201E-02
        -0.38487E-02
        -0.63798E-02
        -0.91090E-02
        -0.87108E-02
        -0.66776E-02
        -0.61571E-02
        -0.60070E-02
        -0.23808E-02
        -0.26737E-03
        -0.41383E-04
        -0.32775E-04
        -0.45332E-05
        -0.47933E-03
        -0.19225E-02
        -0.36792E-02
        -0.61586E-02
        -0.75600E-02
        -0.58291E-02
        -0.52143E-02
        -0.51353E-02
        -0.25004E-02
        -0.66484E-03
        -0.59023E-03
        -0.41788E-03
        -0.16423E-03
        -0.14181E-03
        -0.10575E-04
        -0.22022E-03
        -0.46589E-04
        -0.31166E-04
        -0.38439E-03
        -0.16856E-03
        -0.36455E-03
        -0.91050E-04
        -0.15236E-02
        -0.55782E-03
        -0.12197E-04
        -0.15801E-02
        -0.59311E-04
        -0.78654E-05
        -0.46108E-05
        -0.10076E-03
        -0.28007E-05
        -0.76192E-04
        -0.36606E-04
        -0.12279E-04
        -0.84481E-05
        -0.17285E-03
        -0.78552E-05
        -0.10355E-05
        -0.28461E-05
        -0.30724E-05
        -0.15630E-03
        -0.68285E-04
        -0.37991E-05
        -0.31481E-04
        -0.23246E-04
        -0.27882E-05
        -0.44392E-04
        -0.15722E-03
        -0.96476E-03
        -0.79135E-03
        -0.59584E-03
        -0.31005E-03
        -0.15096E-04
        -0.79748E-04
        -0.12393E-03
        -0.19850E-03
        -0.77157E-03
        -0.27655E-03
        -0.12089E-03
        -0.18634E-03
        -0.25523E-03
        -0.27102E-03
        -0.75319E-06
        -0.32440E-03
        -0.68982E-03
        -0.37571E-02
        -0.62601E-02
        -0.10373E-01
        -0.14912E-01
        -0.14589E-01
        -0.11374E-01
        -0.10452E-01
        -0.10086E-01
        -0.40026E-02
        -0.44687E-03
        -0.70340E-04
        -0.56135E-04
        -0.74533E-05
        -0.78076E-03
        -0.31138E-02
        -0.59096E-02
        -0.99030E-02
        -0.12187E-01
        -0.95653E-02
        -0.86232E-02
        -0.84400E-02
        -0.41351E-02
        -0.10918E-02
        -0.96187E-03
  
SCALARS                      strain_zz  double 1
LOOKUP_TABLE default
         0.17119E+02
         0.16898E+02
         0.17032E+02
         0.17290E+02
        -0.39300E-08
        -0.44069E-08
        -0.42197E-08
        -0.38335E-08
         0.16838E+02
         0.16942E+02
        -0.39629E-08
        -0.38351E-08
         0.16576E+02
         0.16566E+02
        -0.47087E-08
        -0.44274E-08
         0.17253E+02
         0.16578E+02
        -0.34793E-08
        -0.38590E-08
         0.16335E+02
         0.16122E+02
         0.16424E+02
        -0.46669E-08
        -0.40757E-08
        -0.42086E-08
         0.16147E+02
         0.15853E+02
        -0.44772E-08
        -0.37758E-08
         0.17240E+02
         0.16948E+02
         0.17522E+02
        -0.38207E-08
        -0.35519E-08
        -0.34534E-08
         0.17065E+02
         0.16698E+02
        -0.40421E-08
        -0.36884E-08
         0.16910E+02
         0.16616E+02
        -0.34935E-08
        -0.30928E-08
         0.17150E+02
         0.17271E+02
        -0.38284E-08
        -0.42777E-08
         0.16407E+02
        -0.37400E-08
         0.17248E+02
        -0.43947E-08
         0.16073E+02
        -0.39496E-08
         0.15985E+02
        -0.37885E-08
         0.15973E+02
         0.16299E+02
        -0.38600E-08
        -0.37592E-08
         0.17234E+02
         0.17110E+02
        -0.38706E-08
        -0.43757E-08
         0.17304E+02
        -0.37349E-08
         0.17164E+02
        -0.40761E-08
         0.16725E+02
         0.16742E+02
        -0.39237E-08
        -0.41113E-08
         0.16679E+02
        -0.41458E-08
         0.15747E+02
        -0.32755E-08
         0.15691E+02
        -0.31794E-08
         0.15696E+02
        -0.33523E-08
         0.15780E+02
         0.15968E+02
        -0.31940E-08
        -0.33300E-08
         0.16281E+02
        -0.31014E-08
         0.17132E+02
        -0.40670E-08
         0.16971E+02
        -0.41625E-08
         0.16804E+02
         0.16814E+02
        -0.39974E-08
        -0.40440E-08
         0.16915E+02
        -0.36732E-08
         0.16968E+02
        -0.36208E-08
         0.16902E+02
        -0.38761E-08
         0.16832E+02
         0.16919E+02
        -0.38011E-08
        -0.39126E-08
         0.16351E+02
         0.16417E+02
        -0.29511E-08
        -0.27757E-08
         0.16252E+02
        -0.28180E-08
         0.16330E+02
        -0.27019E-08
         0.16212E+02
        -0.26643E-08
         0.15867E+02
        -0.25178E-08
         0.15494E+02
        -0.22368E-08
         0.15302E+02
        -0.20141E-08
         0.15285E+02
        -0.20001E-08
         0.15299E+02
        -0.21690E-08
         0.15522E+02
        -0.22796E-08
         0.15825E+02
        -0.20815E-08
         0.16202E+02
        -0.18762E-08
         0.16496E+02
        -0.18741E-08
         0.16772E+02
        -0.20948E-08
         0.16946E+02
        -0.23885E-08
         0.16906E+02
        -0.25660E-08
         0.16614E+02
        -0.27713E-08
         0.16436E+02
        -0.29690E-08
         0.16234E+02
        -0.27198E-08
         0.16312E+02
        -0.23860E-08
         0.16425E+02
        -0.23786E-08
         0.16397E+02
        -0.26025E-08
         0.16473E+02
        -0.27745E-08
         0.16495E+02
        -0.26330E-08
         0.16538E+02
        -0.25454E-08
        -0.45570E+00
        -0.44793E+00
        -0.44902E+00
        -0.45889E+00
        -0.43983E+00
        -0.44990E+00
        -0.43734E+00
        -0.44406E+00
        -0.45739E+00
        -0.44928E+00
        -0.42974E+00
        -0.42727E+00
        -0.43359E+00
        -0.43408E+00
        -0.42996E+00
        -0.45844E+00
        -0.45667E+00
        -0.46155E+00
        -0.44705E+00
        -0.44986E+00
        -0.44577E+00
        -0.44844E+00
        -0.44346E+00
        -0.44483E+00
        -0.44962E+00
        -0.44929E+00
        -0.44096E+00
        -0.44174E+00
        -0.43522E+00
        -0.44494E+00
        -0.45757E+00
        -0.44782E+00
        -0.45750E+00
        -0.45121E+00
        -0.42560E+00
        -0.43435E+00
        -0.43831E+00
        -0.43359E+00
        -0.43299E+00
        -0.42499E+00
        -0.41886E+00
        -0.43333E+00
        -0.44592E+00
        -0.44431E+00
        -0.43791E+00
        -0.42592E+00
        -0.43623E+00
        -0.44649E+00
        -0.44580E+00
        -0.43790E+00
        -0.42930E+00
        -0.44076E+00
        -0.40277E+00
        -0.41445E+00
        -0.41249E+00
        -0.41511E+00
        -0.41433E+00
        -0.40796E+00
        -0.40140E+00
        -0.39936E+00
        -0.40034E+00
        -0.39961E+00
        -0.39676E+00
        -0.41382E+00
        -0.42007E+00
        -0.42243E+00
        -0.42617E+00
        -0.42894E+00
        -0.42875E+00
        -0.42382E+00
        -0.40669E+00
        -0.41086E+00
        -0.41690E+00
        -0.41691E+00
        -0.41587E+00
        -0.41017E+00
        -0.41854E+00
        -0.42152E+00
         0.22384E-03
         0.82989E-04
         0.78658E-04
         0.56964E-04
         0.23254E-03
         0.13227E-03
         0.13151E-04
         0.17829E-03
         0.10764E-03
         0.15477E-03
         0.15791E-04
         0.75521E-03
         0.44270E-03
         0.56167E-04
         0.81187E-03
         0.11357E-03
         0.44253E-04
         0.33544E-04
         0.48558E-04
         0.17468E-04
         0.46404E-03
         0.42036E-03
         0.37784E-03
         0.21428E-04
         0.49537E-04
         0.48973E-05
         0.24587E-04
        -0.55694E-04
        -0.16696E-04
         0.65331E-04
         0.84209E-04
         0.21193E-04
         0.54951E-04
         0.59186E-04
         0.36047E-03
         0.13028E-03
         0.22224E-03
         0.53109E-03
         0.30951E-03
         0.27418E-03
         0.57161E-03
         0.46336E-03
         0.47237E-03
         0.27377E-03
         0.21817E-03
         0.41806E-03
         0.18410E-03
         0.13773E-03
         0.10274E-03
         0.14599E-03
         0.35421E-03
         0.18671E-03
         0.64163E-02
         0.67687E-02
         0.73683E-02
         0.72931E-02
         0.83096E-02
         0.95890E-02
         0.88234E-02
         0.69935E-02
         0.66339E-02
         0.75741E-02
         0.72709E-02
         0.70687E-02
         0.48238E-02
         0.43761E-02
         0.52489E-02
         0.60028E-02
         0.64697E-02
         0.77205E-02
         0.71493E-02
         0.75694E-02
         0.61411E-02
         0.55282E-02
         0.62722E-02
         0.59938E-02
         0.63649E-02
         0.62745E-02
         0.22275E-03
         0.81585E-04
         0.77311E-04
         0.55774E-04
         0.23070E-03
         0.13061E-03
         0.11704E-04
         0.17706E-03
         0.10643E-03
         0.15404E-03
         0.14026E-04
         0.75310E-03
         0.44123E-03
         0.53908E-04
         0.81154E-03
         0.11224E-03
         0.42756E-04
         0.32220E-04
         0.46932E-04
         0.15646E-04
         0.46233E-03
         0.41855E-03
         0.37594E-03
         0.19712E-04
         0.48243E-04
         0.32600E-05
         0.22961E-04
        -0.57518E-04
        -0.18461E-04
         0.63658E-04
         0.82902E-04
         0.19631E-04
         0.53528E-04
         0.57930E-04
         0.35894E-03
         0.12858E-03
         0.22052E-03
         0.53073E-03
         0.30901E-03
         0.27303E-03
         0.57032E-03
         0.46184E-03
         0.47058E-03
         0.27196E-03
         0.21638E-03
         0.41616E-03
         0.18238E-03
         0.13608E-03
         0.10099E-03
         0.14415E-03
         0.35213E-03
         0.18465E-03
         0.64084E-02
         0.67623E-02
         0.73651E-02
         0.72903E-02
         0.83038E-02
         0.95791E-02
         0.88126E-02
         0.69863E-02
         0.66270E-02
         0.75660E-02
         0.72648E-02
         0.70658E-02
         0.48201E-02
         0.43731E-02
         0.52473E-02
         0.60028E-02
         0.64700E-02
         0.77207E-02
         0.71453E-02
         0.75652E-02
         0.61366E-02
         0.55247E-02
         0.62651E-02
         0.59831E-02
         0.63548E-02
         0.62649E-02
         0.22338E-03
         0.81902E-04
         0.77687E-04
         0.56205E-04
         0.23094E-03
         0.13092E-03
         0.12148E-04
         0.17780E-03
         0.10694E-03
         0.15511E-03
         0.14383E-04
         0.75344E-03
         0.44192E-03
         0.53833E-04
         0.81375E-03
         0.11211E-03
         0.42823E-04
         0.32506E-04
         0.46575E-04
         0.15251E-04
         0.46212E-03
         0.41838E-03
         0.37468E-03
         0.18473E-04
         0.48035E-04
         0.21109E-05
         0.23358E-04
        -0.57801E-04
        -0.19097E-04
         0.62568E-04
         0.83054E-04
         0.19266E-04
         0.53773E-04
         0.58402E-04
         0.35975E-03
         0.12893E-03
         0.22077E-03
         0.53281E-03
         0.31080E-03
         0.27393E-03
         0.57104E-03
         0.46160E-03
         0.46968E-03
         0.27078E-03
         0.21601E-03
         0.41639E-03
         0.18270E-03
         0.13643E-03
         0.10115E-03
         0.14427E-03
         0.35225E-03
         0.18462E-03
         0.64047E-02
         0.67599E-02
         0.73660E-02
         0.72911E-02
         0.83016E-02
         0.95733E-02
         0.88061E-02
         0.69833E-02
         0.66243E-02
         0.75622E-02
         0.72628E-02
         0.70663E-02
         0.48193E-02
         0.43732E-02
         0.52489E-02
         0.60052E-02
         0.64728E-02
         0.77242E-02
         0.71454E-02
         0.75654E-02
         0.61362E-02
         0.55249E-02
         0.62618E-02
         0.59761E-02
         0.63484E-02
         0.62589E-02
         0.22349E-03
         0.81813E-04
         0.77641E-04
         0.56092E-04
         0.23058E-03
         0.13067E-03
         0.12138E-04
         0.17795E-03
         0.10678E-03
         0.15535E-03
         0.14202E-04
         0.75319E-03
         0.44213E-03
         0.53122E-04
         0.81522E-03
         0.11110E-03
         0.42013E-04
         0.32222E-04
         0.45166E-04
         0.13707E-04
         0.46088E-03
         0.41714E-03
         0.37187E-03
         0.15701E-04
         0.46371E-04
        -0.50345E-06
         0.22951E-04
        -0.59278E-04
        -0.21304E-04
         0.59531E-04
         0.82504E-04
         0.17861E-04
         0.53461E-04
         0.58236E-04
         0.35982E-03
         0.12869E-03
         0.22054E-03
         0.53415E-03
         0.31182E-03
         0.27389E-03
         0.57070E-03
         0.45985E-03
         0.46706E-03
         0.26801E-03
         0.21455E-03
         0.41563E-03
         0.18217E-03
         0.13611E-03
         0.10065E-03
         0.14365E-03
         0.35161E-03
         0.18396E-03
         0.63996E-02
         0.67564E-02
         0.73655E-02
         0.72908E-02
         0.82986E-02
         0.95665E-02
         0.87982E-02
         0.69790E-02
         0.66204E-02
         0.75569E-02
         0.72593E-02
         0.70652E-02
         0.48169E-02
         0.43721E-02
         0.52494E-02
         0.60061E-02
         0.64740E-02
         0.77265E-02
         0.71441E-02
         0.75639E-02
         0.61345E-02
         0.55236E-02
         0.62570E-02
         0.59679E-02
         0.63410E-02
         0.62520E-02
         0.22343E-03
         0.81599E-04
         0.77508E-04
         0.55972E-04
         0.23022E-03
         0.13037E-03
         0.12051E-04
         0.17797E-03
         0.10653E-03
         0.15554E-03
         0.14010E-04
         0.75301E-03
         0.44231E-03
         0.52391E-04
         0.81682E-03
         0.11049E-03
         0.41411E-04
         0.31955E-04
         0.44262E-04
         0.12575E-04
         0.46015E-03
         0.41625E-03
         0.37018E-03
         0.13979E-04
         0.45329E-04
        -0.21823E-05
         0.22598E-04
        -0.60347E-04
        -0.22796E-04
         0.57575E-04
         0.81929E-04
         0.16839E-04
         0.52956E-04
         0.57986E-04
         0.35990E-03
         0.12841E-03
         0.22025E-03
         0.53560E-03
         0.31295E-03
         0.27409E-03
         0.57076E-03
         0.45886E-03
         0.46545E-03
         0.26633E-03
         0.21360E-03
         0.41518E-03
         0.18172E-03
         0.13563E-03
         0.99956E-04
         0.14288E-03
         0.35085E-03
         0.18320E-03
         0.63946E-02
         0.67529E-02
         0.73649E-02
         0.72906E-02
         0.82957E-02
         0.95600E-02
         0.87906E-02
         0.69749E-02
         0.66166E-02
         0.75519E-02
         0.72562E-02
         0.70649E-02
         0.48153E-02
         0.43713E-02
         0.52503E-02
         0.60084E-02
         0.64765E-02
         0.77294E-02
         0.71431E-02
         0.75626E-02
         0.61326E-02
         0.55224E-02
         0.62520E-02
         0.59595E-02
         0.63335E-02
         0.62451E-02
         0.22285E-03
         0.81149E-04
         0.77375E-04
         0.56238E-04
         0.23025E-03
         0.13054E-03
         0.12026E-04
         0.17771E-03
         0.10607E-03
         0.15543E-03
         0.14169E-04
         0.75344E-03
         0.44284E-03
         0.51963E-04
         0.81911E-03
         0.11085E-03
         0.41400E-04
         0.32250E-04
         0.44522E-04
         0.12668E-04
         0.46057E-03
         0.41655E-03
         0.37030E-03
         0.13938E-04
         0.45212E-04
        -0.24250E-05
         0.22551E-04
        -0.60495E-04
        -0.22593E-04
         0.57723E-04
         0.81206E-04
         0.16294E-04
         0.52183E-04
         0.57959E-04
         0.36044E-03
         0.12838E-03
         0.22013E-03
         0.53771E-03
         0.31482E-03
         0.27535E-03
         0.57205E-03
         0.45966E-03
         0.46588E-03
         0.26636E-03
         0.21349E-03
         0.41518E-03
         0.18135E-03
         0.13465E-03
         0.98635E-04
         0.14198E-03
         0.35036E-03
         0.18286E-03
         0.63907E-02
         0.67505E-02
         0.73655E-02
         0.72911E-02
         0.82935E-02
         0.95542E-02
         0.87840E-02
         0.69719E-02
         0.66141E-02
         0.75484E-02
         0.72548E-02
         0.70664E-02
         0.48156E-02
         0.43718E-02
         0.52525E-02
         0.60129E-02
         0.64813E-02
         0.77335E-02
         0.71427E-02
         0.75620E-02
         0.61312E-02
         0.55213E-02
         0.62475E-02
         0.59518E-02
         0.63268E-02
         0.62391E-02
         0.22179E-03
         0.80316E-04
         0.76953E-04
         0.56202E-04
         0.22989E-03
         0.13042E-03
         0.11509E-04
         0.17682E-03
         0.10514E-03
         0.15479E-03
         0.13768E-04
         0.75327E-03
         0.44295E-03
         0.50909E-04
         0.82073E-03
         0.11081E-03
         0.40934E-04
         0.32130E-04
         0.44417E-04
         0.12360E-04
         0.46060E-03
         0.41647E-03
         0.37025E-03
         0.13725E-04
         0.44789E-04
        -0.28578E-05
         0.21919E-04
        -0.61054E-04
        -0.22650E-04
         0.57687E-04
         0.80122E-04
         0.15398E-04
         0.51060E-04
         0.57607E-04
         0.36048E-03
         0.12799E-03
         0.21968E-03
         0.53918E-03
         0.31610E-03
         0.27609E-03
         0.57289E-03
         0.46019E-03
         0.46610E-03
         0.26623E-03
         0.21301E-03
         0.41459E-03
         0.18045E-03
         0.13322E-03
         0.96884E-04
         0.14067E-03
         0.34950E-03
         0.18221E-03
         0.63857E-02
         0.67471E-02
         0.73652E-02
         0.72910E-02
         0.82904E-02
         0.95474E-02
         0.87763E-02
         0.69679E-02
         0.66105E-02
         0.75436E-02
         0.72523E-02
         0.70671E-02
         0.48153E-02
         0.43716E-02
         0.52540E-02
         0.60168E-02
         0.64857E-02
         0.77366E-02
         0.71410E-02
         0.75601E-02
         0.61291E-02
         0.55195E-02
         0.62421E-02
         0.59434E-02
         0.63194E-02
         0.62322E-02
         0.22166E-03
         0.80006E-04
         0.76819E-04
         0.56120E-04
         0.22952E-03
         0.13012E-03
         0.11299E-04
         0.17668E-03
         0.10505E-03
         0.15521E-03
         0.13495E-04
         0.75303E-03
         0.44305E-03
         0.50109E-04
         0.82226E-03
         0.11081E-03
         0.40843E-04
         0.31909E-04
         0.44325E-04
         0.12108E-04
         0.46057E-03
         0.41627E-03
         0.37015E-03
         0.13560E-04
         0.44995E-04
        -0.31090E-05
         0.21681E-04
        -0.61363E-04
        -0.22828E-04
         0.57664E-04
         0.79862E-04
         0.15027E-04
         0.50625E-04
         0.57429E-04
         0.36060E-03
         0.12777E-03
         0.21939E-03
         0.54059E-03
         0.31734E-03
         0.27667E-03
         0.57346E-03
         0.46049E-03
         0.46618E-03
         0.26614E-03
         0.21274E-03
         0.41440E-03
         0.18021E-03
         0.13289E-03
         0.96313E-04
         0.14002E-03
         0.34885E-03
         0.18151E-03
         0.63806E-02
         0.67434E-02
         0.73647E-02
         0.72907E-02
         0.82873E-02
         0.95406E-02
         0.87686E-02
         0.69637E-02
         0.66066E-02
         0.75383E-02
         0.72494E-02
         0.70678E-02
         0.48147E-02
         0.43709E-02
         0.52551E-02
         0.60204E-02
         0.64895E-02
         0.77396E-02
         0.71395E-02
         0.75588E-02
         0.61277E-02
         0.55186E-02
         0.62372E-02
         0.59351E-02
         0.63119E-02
         0.62251E-02
         0.22215E-03
         0.80217E-04
         0.77038E-04
         0.56267E-04
         0.22954E-03
         0.13006E-03
         0.11630E-04
         0.17725E-03
         0.10556E-03
         0.15638E-03
         0.13732E-04
         0.75328E-03
         0.44363E-03
         0.49942E-04
         0.82442E-03
         0.11130E-03
         0.41250E-04
         0.32014E-04
         0.44679E-04
         0.12301E-04
         0.46098E-03
         0.41652E-03
         0.37051E-03
         0.13839E-04
         0.45803E-04
        -0.28550E-05
         0.22157E-04
        -0.61060E-04
        -0.22468E-04
         0.58129E-04
         0.80238E-04
         0.15203E-04
         0.50681E-04
         0.57549E-04
         0.36123E-03
         0.12793E-03
         0.21951E-03
         0.54265E-03
         0.31915E-03
         0.27776E-03
         0.57461E-03
         0.46132E-03
         0.46669E-03
         0.26654E-03
         0.21299E-03
         0.41475E-03
         0.18051E-03
         0.13318E-03
         0.96381E-04
         0.13990E-03
         0.34869E-03
         0.18111E-03
         0.63766E-02
         0.67409E-02
         0.73649E-02
         0.72910E-02
         0.82850E-02
         0.95347E-02
         0.87618E-02
         0.69604E-02
         0.66035E-02
         0.75339E-02
         0.72475E-02
         0.70693E-02
         0.48149E-02
         0.43711E-02
         0.52570E-02
         0.60248E-02
         0.64944E-02
         0.77437E-02
         0.71390E-02
         0.75584E-02
         0.61271E-02
         0.55186E-02
         0.62332E-02
         0.59277E-02
         0.63053E-02
         0.62190E-02
         0.22234E-03
         0.80197E-04
         0.77062E-04
         0.56245E-04
         0.22932E-03
         0.12985E-03
         0.11703E-04
         0.17741E-03
         0.10566E-03
         0.15709E-03
         0.13634E-04
         0.75314E-03
         0.44399E-03
         0.49303E-04
         0.82595E-03
         0.11137E-03
         0.41251E-04
         0.31783E-04
         0.44613E-04
         0.12092E-04
         0.46105E-03
         0.41639E-03
         0.37049E-03
         0.13730E-04
         0.46259E-04
        -0.29649E-05
         0.22122E-04
        -0.61117E-04
        -0.22426E-04
         0.58239E-04
         0.80254E-04
         0.15073E-04
         0.50397E-04
         0.57430E-04
         0.36148E-03
         0.12782E-03
         0.21940E-03
         0.54412E-03
         0.32056E-03
         0.27851E-03
         0.57535E-03
         0.46179E-03
         0.46678E-03
         0.26663E-03
         0.21297E-03
         0.41478E-03
         0.18045E-03
         0.13306E-03
         0.96043E-04
         0.13946E-03
         0.34824E-03
         0.18051E-03
         0.63717E-02
         0.67376E-02
         0.73644E-02
         0.72907E-02
         0.82822E-02
         0.95280E-02
         0.87539E-02
         0.69562E-02
         0.65999E-02
         0.75289E-02
         0.72446E-02
         0.70700E-02
         0.48142E-02
         0.43708E-02
         0.52585E-02
         0.60287E-02
         0.64989E-02
         0.77473E-02
         0.71379E-02
         0.75571E-02
         0.61256E-02
         0.55177E-02
         0.62287E-02
         0.59199E-02
         0.62980E-02
         0.62121E-02
         0.22241E-03
         0.80036E-04
         0.77013E-04
         0.56271E-04
         0.22901E-03
         0.12968E-03
         0.11686E-04
         0.17751E-03
         0.10577E-03
         0.15780E-03
         0.13520E-04
         0.75295E-03
         0.44426E-03
         0.48702E-04
         0.82749E-03
         0.11139E-03
         0.41287E-04
         0.31627E-04
         0.44519E-04
         0.11918E-04
         0.46108E-03
         0.41626E-03
         0.37043E-03
         0.13563E-04
         0.46716E-04
        -0.31634E-05
         0.22114E-04
        -0.61212E-04
        -0.22394E-04
         0.58379E-04
         0.80215E-04
         0.14875E-04
         0.50191E-04
         0.57445E-04
         0.36163E-03
         0.12763E-03
         0.21922E-03
         0.54560E-03
         0.32194E-03
         0.27926E-03
         0.57617E-03
         0.46227E-03
         0.46689E-03
         0.26665E-03
         0.21288E-03
         0.41478E-03
         0.18040E-03
         0.13296E-03
         0.95714E-04
         0.13903E-03
         0.34781E-03
         0.18000E-03
         0.63667E-02
         0.67341E-02
         0.73639E-02
         0.72907E-02
         0.82793E-02
         0.95211E-02
         0.87459E-02
         0.69520E-02
         0.65963E-02
         0.75239E-02
         0.72421E-02
         0.70707E-02
         0.48135E-02
         0.43704E-02
         0.52598E-02
         0.60325E-02
         0.65032E-02
         0.77506E-02
         0.71366E-02
         0.75559E-02
         0.61241E-02
         0.55168E-02
         0.62241E-02
         0.59119E-02
         0.62907E-02
         0.62052E-02
         0.22277E-03
         0.80101E-04
         0.77135E-04
         0.56462E-04
         0.22897E-03
         0.12970E-03
         0.11940E-04
         0.17799E-03
         0.10615E-03
         0.15881E-03
         0.13753E-04
         0.75312E-03
         0.44470E-03
         0.48515E-04
         0.82961E-03
         0.11176E-03
         0.41550E-04
         0.31732E-04
         0.44757E-04
         0.12063E-04
         0.46144E-03
         0.41647E-03
         0.37070E-03
         0.13734E-04
         0.47393E-04
        -0.30052E-05
         0.22441E-04
        -0.61024E-04
        -0.22001E-04
         0.58867E-04
         0.80543E-04
         0.14987E-04
         0.50282E-04
         0.57676E-04
         0.36216E-03
         0.12773E-03
         0.21923E-03
         0.54762E-03
         0.32376E-03
         0.28046E-03
         0.57735E-03
         0.46303E-03
         0.46735E-03
         0.26696E-03
         0.21305E-03
         0.41503E-03
         0.18061E-03
         0.13316E-03
         0.95697E-04
         0.13889E-03
         0.34764E-03
         0.17970E-03
         0.63625E-02
         0.67315E-02
         0.73642E-02
         0.72910E-02
         0.82766E-02
         0.95147E-02
         0.87389E-02
         0.69487E-02
         0.65934E-02
         0.75197E-02
         0.72401E-02
         0.70718E-02
         0.48135E-02
         0.43706E-02
         0.52618E-02
         0.60367E-02
         0.65078E-02
         0.77544E-02
         0.71359E-02
         0.75552E-02
         0.61234E-02
         0.55167E-02
         0.62201E-02
         0.59044E-02
         0.62841E-02
         0.61991E-02
         0.22294E-03
         0.79973E-04
         0.77088E-04
         0.56426E-04
         0.22866E-03
         0.12945E-03
         0.11888E-04
         0.17811E-03
         0.10630E-03
         0.15948E-03
         0.13579E-04
         0.75288E-03
         0.44485E-03
         0.47836E-04
         0.83122E-03
         0.11182E-03
         0.41550E-04
         0.31489E-04
         0.44627E-04
         0.11826E-04
         0.46137E-03
         0.41624E-03
         0.37053E-03
         0.13542E-04
         0.47747E-04
        -0.31803E-05
         0.22248E-04
        -0.61314E-04
        -0.22098E-04
         0.58940E-04
         0.80516E-04
         0.14798E-04
         0.49962E-04
         0.57573E-04
         0.36230E-03
         0.12752E-03
         0.21897E-03
         0.54907E-03
         0.32504E-03
         0.28108E-03
         0.57796E-03
         0.46330E-03
         0.46736E-03
         0.26686E-03
         0.21287E-03
         0.41494E-03
         0.18050E-03
         0.13297E-03
         0.95327E-04
         0.13845E-03
         0.34715E-03
         0.17908E-03
         0.63574E-02
         0.67280E-02
         0.73636E-02
         0.72907E-02
         0.82734E-02
         0.95078E-02
         0.87311E-02
         0.69446E-02
         0.65896E-02
         0.75144E-02
         0.72371E-02
         0.70721E-02
         0.48127E-02
         0.43700E-02
         0.52630E-02
         0.60404E-02
         0.65117E-02
         0.77575E-02
         0.71347E-02
         0.75539E-02
         0.61219E-02
         0.55160E-02
         0.62156E-02
         0.58964E-02
         0.62768E-02
         0.61921E-02
         0.22317E-03
         0.79931E-04
         0.77120E-04
         0.56480E-04
         0.22847E-03
         0.12930E-03
         0.11975E-04
         0.17836E-03
         0.10659E-03
         0.16036E-03
         0.13581E-04
         0.75286E-03
         0.44520E-03
         0.47380E-04
         0.83300E-03
         0.11200E-03
         0.41725E-04
         0.31395E-04
         0.44672E-04
         0.11754E-04
         0.46147E-03
         0.41620E-03
         0.37057E-03
         0.13504E-04
         0.48289E-04
        -0.32379E-05
         0.22357E-04
        -0.61371E-04
        -0.22030E-04
         0.59133E-04
         0.80568E-04
         0.14710E-04
         0.49771E-04
         0.57587E-04
         0.36261E-03
         0.12743E-03
         0.21885E-03
         0.55072E-03
         0.32646E-03
         0.28187E-03
         0.57884E-03
         0.46385E-03
         0.46758E-03
         0.26697E-03
         0.21287E-03
         0.41504E-03
         0.18053E-03
         0.13293E-03
         0.95068E-04
         0.13812E-03
         0.34682E-03
         0.17860E-03
         0.63528E-02
         0.67248E-02
         0.73633E-02
         0.72906E-02
         0.82707E-02
         0.95013E-02
         0.87235E-02
         0.69405E-02
         0.65859E-02
         0.75095E-02
         0.72348E-02
         0.70730E-02
         0.48122E-02
         0.43697E-02
         0.52644E-02
         0.60443E-02
         0.65161E-02
         0.77610E-02
         0.71337E-02
         0.75529E-02
         0.61207E-02
         0.55154E-02
         0.62113E-02
         0.58886E-02
         0.62696E-02
         0.61854E-02
         0.22378E-03
         0.80331E-04
         0.77520E-04
         0.56830E-04
         0.22870E-03
         0.12949E-03
         0.12558E-04
         0.17906E-03
         0.10714E-03
         0.16159E-03
         0.14096E-04
         0.75342E-03
         0.44607E-03
         0.47401E-04
         0.83532E-03
         0.11255E-03
         0.42227E-04
         0.31639E-04
         0.45119E-04
         0.12112E-04
         0.46210E-03
         0.41663E-03
         0.37108E-03
         0.13878E-04
         0.49268E-04
        -0.28745E-05
         0.22942E-04
        -0.60829E-04
        -0.21369E-04
         0.59839E-04
         0.81083E-04
         0.15067E-04
         0.49972E-04
         0.57880E-04
         0.36342E-03
         0.12779E-03
         0.21919E-03
         0.55288E-03
         0.32851E-03
         0.28324E-03
         0.58019E-03
         0.46486E-03
         0.46821E-03
         0.26758E-03
         0.21337E-03
         0.41564E-03
         0.18102E-03
         0.13336E-03
         0.95221E-04
         0.13811E-03
         0.34681E-03
         0.17842E-03
         0.63490E-02
         0.67226E-02
         0.73638E-02
         0.72912E-02
         0.82686E-02
         0.94957E-02
         0.87167E-02
         0.69373E-02
         0.65833E-02
         0.75054E-02
         0.72330E-02
         0.70746E-02
         0.48124E-02
         0.43702E-02
         0.52667E-02
         0.60491E-02
         0.65215E-02
         0.77655E-02
         0.71335E-02
         0.75527E-02
         0.61203E-02
         0.55154E-02
         0.62075E-02
         0.58815E-02
         0.62633E-02
         0.61796E-02
         0.22388E-03
         0.80213E-04
         0.77481E-04
         0.56764E-04
         0.22835E-03
         0.12924E-03
         0.12526E-04
         0.17914E-03
         0.10724E-03
         0.16221E-03
         0.13929E-04
         0.75324E-03
         0.44636E-03
         0.46716E-04
         0.83684E-03
         0.11257E-03
         0.42185E-04
         0.31432E-04
         0.44927E-04
         0.11837E-04
         0.46210E-03
         0.41642E-03
         0.37102E-03
         0.13647E-04
         0.49589E-04
        -0.31174E-05
         0.22776E-04
        -0.61031E-04
        -0.21285E-04
         0.59958E-04
         0.81102E-04
         0.14857E-04
         0.49721E-04
         0.57745E-04
         0.36352E-03
         0.12760E-03
         0.21903E-03
         0.55431E-03
         0.32985E-03
         0.28401E-03
         0.58090E-03
         0.46519E-03
         0.46819E-03
         0.26753E-03
         0.21322E-03
         0.41558E-03
         0.18095E-03
         0.13328E-03
         0.94883E-04
         0.13760E-03
         0.34630E-03
         0.17780E-03
         0.63437E-02
         0.67189E-02
         0.73632E-02
         0.72910E-02
         0.82658E-02
         0.94890E-02
         0.87087E-02
         0.69329E-02
         0.65794E-02
         0.75001E-02
         0.72301E-02
         0.70749E-02
         0.48116E-02
         0.43698E-02
         0.52682E-02
         0.60530E-02
         0.65258E-02
         0.77687E-02
         0.71322E-02
         0.75514E-02
         0.61188E-02
         0.55145E-02
         0.62027E-02
         0.58735E-02
         0.62561E-02
         0.61726E-02
         0.22387E-03
         0.79920E-04
         0.77262E-04
         0.56645E-04
         0.22790E-03
         0.12886E-03
         0.12397E-04
         0.17918E-03
         0.10725E-03
         0.16262E-03
         0.13719E-04
         0.75294E-03
         0.44650E-03
         0.46025E-04
         0.83833E-03
         0.11254E-03
         0.42035E-04
         0.31201E-04
         0.44781E-04
         0.11675E-04
         0.46207E-03
         0.41616E-03
         0.37092E-03
         0.13450E-04
         0.49721E-04
        -0.33561E-05
         0.22311E-04
        -0.61349E-04
        -0.20530E-04
         0.60521E-04
         0.81023E-04
         0.14572E-04
         0.49473E-04
         0.57667E-04
         0.36359E-03
         0.12730E-03
         0.21873E-03
         0.55556E-03
         0.33121E-03
         0.28535E-03
         0.58178E-03
         0.46551E-03
         0.46807E-03
         0.26748E-03
         0.21300E-03
         0.41542E-03
         0.18075E-03
         0.13310E-03
         0.94522E-04
         0.13714E-03
         0.34581E-03
         0.17716E-03
         0.63387E-02
         0.67154E-02
         0.73626E-02
         0.72908E-02
         0.82627E-02
         0.94818E-02
         0.87005E-02
         0.69285E-02
         0.65756E-02
         0.74951E-02
         0.72268E-02
         0.70744E-02
         0.48106E-02
         0.43692E-02
         0.52695E-02
         0.60567E-02
         0.65299E-02
         0.77718E-02
         0.71308E-02
         0.75499E-02
         0.61174E-02
         0.55136E-02
         0.61979E-02
         0.58655E-02
         0.62487E-02
         0.61655E-02
         0.22446E-03
         0.80287E-04
         0.77691E-04
         0.57051E-04
         0.22816E-03
         0.12908E-03
         0.12924E-04
         0.17987E-03
         0.10772E-03
         0.16343E-03
         0.14189E-04
         0.75336E-03
         0.44724E-03
         0.46021E-04
         0.84057E-03
         0.11309E-03
         0.42434E-04
         0.31427E-04
         0.45289E-04
         0.12304E-04
         0.46261E-03
         0.41653E-03
         0.37136E-03
         0.13853E-04
         0.50390E-04
        -0.29584E-05
         0.22262E-04
        -0.61016E-04
        -0.18455E-04
         0.62214E-04
         0.81484E-04
         0.14935E-04
         0.49669E-04
         0.58042E-04
         0.36443E-03
         0.12771E-03
         0.21905E-03
         0.55743E-03
         0.33333E-03
         0.28783E-03
         0.58347E-03
         0.46646E-03
         0.46851E-03
         0.26803E-03
         0.21350E-03
         0.41606E-03
         0.18126E-03
         0.13350E-03
         0.94707E-04
         0.13724E-03
         0.34592E-03
         0.17704E-03
         0.63350E-02
         0.67132E-02
         0.73633E-02
         0.72915E-02
         0.82604E-02
         0.94758E-02
         0.86936E-02
         0.69254E-02
         0.65731E-02
         0.74915E-02
         0.72241E-02
         0.70745E-02
         0.48105E-02
         0.43696E-02
         0.52715E-02
         0.60611E-02
         0.65348E-02
         0.77761E-02
         0.71308E-02
         0.75498E-02
         0.61170E-02
         0.55139E-02
         0.61944E-02
         0.58586E-02
         0.62424E-02
         0.61597E-02
         0.22341E-03
         0.78935E-04
         0.76445E-04
         0.55890E-04
         0.22643E-03
         0.12750E-03
         0.11559E-04
         0.17862E-03
         0.10659E-03
         0.16243E-03
         0.12564E-04
         0.75145E-03
         0.44584E-03
         0.43815E-04
         0.84041E-03
         0.11200E-03
         0.41086E-04
         0.30108E-04
         0.43865E-04
         0.10843E-04
         0.46110E-03
         0.41485E-03
         0.36981E-03
         0.12418E-04
         0.49169E-04
        -0.43273E-05
         0.20232E-04
        -0.62738E-04
        -0.19089E-04
         0.61411E-04
         0.80327E-04
         0.13502E-04
         0.48243E-04
         0.56690E-04
         0.36301E-03
         0.12607E-03
         0.21733E-03
         0.55702E-03
         0.33316E-03
         0.28762E-03
         0.58263E-03
         0.46514E-03
         0.46691E-03
         0.26659E-03
         0.21187E-03
         0.41430E-03
         0.17969E-03
         0.13203E-03
         0.93040E-04
         0.13532E-03
         0.34377E-03
         0.17496E-03
         0.63270E-02
         0.67070E-02
         0.73598E-02
         0.72882E-02
         0.82544E-02
         0.94662E-02
         0.86829E-02
         0.69182E-02
         0.65665E-02
         0.74833E-02
         0.72177E-02
         0.70718E-02
         0.48074E-02
         0.43669E-02
         0.52703E-02
         0.60622E-02
         0.65364E-02
         0.77764E-02
         0.71264E-02
         0.75456E-02
         0.61129E-02
         0.55104E-02
         0.61870E-02
         0.58479E-02
         0.62326E-02
         0.61503E-02
         0.22440E-03
         0.79028E-04
         0.76758E-04
         0.56463E-04
         0.22678E-03
         0.12787E-03
         0.11891E-04
         0.17981E-03
         0.10780E-03
         0.16467E-03
         0.13061E-04
         0.75150E-03
         0.44578E-03
         0.44455E-04
         0.84305E-03
         0.11323E-03
         0.42248E-04
         0.30741E-04
         0.44733E-04
         0.11624E-04
         0.46202E-03
         0.41541E-03
         0.37106E-03
         0.13490E-04
         0.51297E-04
        -0.33366E-05
         0.22003E-04
        -0.60798E-04
        -0.17333E-04
         0.63105E-04
         0.81272E-04
         0.14101E-04
         0.48519E-04
         0.56533E-04
         0.36365E-03
         0.12592E-03
         0.21680E-03
         0.55991E-03
         0.33607E-03
         0.28956E-03
         0.58415E-03
         0.46659E-03
         0.46817E-03
         0.26784E-03
         0.21252E-03
         0.41473E-03
         0.18003E-03
         0.13272E-03
         0.93359E-04
         0.13505E-03
         0.34359E-03
         0.17455E-03
         0.63236E-02
         0.67055E-02
         0.73600E-02
         0.72876E-02
         0.82503E-02
         0.94588E-02
         0.86768E-02
         0.69160E-02
         0.65644E-02
         0.74786E-02
         0.72157E-02
         0.70743E-02
         0.48087E-02
         0.43673E-02
         0.52732E-02
         0.60680E-02
         0.65424E-02
         0.77811E-02
         0.71260E-02
         0.75447E-02
         0.61125E-02
         0.55108E-02
         0.61842E-02
         0.58421E-02
         0.62272E-02
         0.61453E-02
         0.52751E-02
         0.53461E-02
         0.53033E-02
         0.48251E-02
         0.62747E-02
         0.57715E-02
         0.57133E-02
         0.59550E-02
         0.50709E-02
         0.59572E-02
         0.63635E-02
         0.80968E-02
         0.70314E-02
         0.66019E-02
         0.84044E-02
         0.49651E-02
         0.52622E-02
         0.45908E-02
         0.54867E-02
         0.57042E-02
         0.65173E-02
         0.65183E-02
         0.61820E-02
         0.52200E-02
         0.58617E-02
         0.49838E-02
         0.65158E-02
         0.62338E-02
         0.62829E-02
         0.60734E-02
         0.49845E-02
         0.51727E-02
         0.48487E-02
         0.50678E-02
         0.70930E-02
         0.61552E-02
         0.62555E-02
         0.77351E-02
         0.72416E-02
         0.70864E-02
         0.75830E-02
         0.70804E-02
         0.67369E-02
         0.59085E-02
         0.60975E-02
         0.71853E-02
         0.63055E-02
         0.58361E-02
         0.56600E-02
         0.59201E-02
         0.67558E-02
         0.60084E-02
         0.18170E-01
         0.18271E-01
         0.19164E-01
         0.18689E-01
         0.19986E-01
         0.21754E-01
         0.21031E-01
         0.19133E-01
         0.18889E-01
         0.20157E-01
         0.19524E-01
         0.18690E-01
         0.15128E-01
         0.14096E-01
         0.15165E-01
         0.16209E-01
         0.16811E-01
         0.18960E-01
         0.19083E-01
         0.19530E-01
         0.17106E-01
         0.16126E-01
         0.17184E-01
         0.16725E-01
         0.17020E-01
         0.16945E-01
         0.55387E-01
         0.57742E-01
         0.56921E-01
         0.52030E-01
         0.63968E-01
         0.60019E-01
         0.62266E-01
         0.63020E-01
         0.54016E-01
         0.62971E-01
         0.68257E-01
         0.77500E-01
         0.69965E-01
         0.70290E-01
         0.80340E-01
         0.53000E-01
         0.56737E-01
         0.49684E-01
         0.58571E-01
         0.61492E-01
         0.64275E-01
         0.65559E-01
         0.61647E-01
         0.56359E-01
         0.63519E-01
         0.54412E-01
         0.70041E-01
         0.68727E-01
         0.69053E-01
         0.65720E-01
         0.53513E-01
         0.56114E-01
         0.52430E-01
         0.54754E-01
         0.70118E-01
         0.64130E-01
         0.64472E-01
         0.77430E-01
         0.75108E-01
         0.74130E-01
         0.75909E-01
         0.72007E-01
         0.68199E-01
         0.60067E-01
         0.62382E-01
         0.70177E-01
         0.64680E-01
         0.60843E-01
         0.59599E-01
         0.61786E-01
         0.67265E-01
         0.62007E-01
         0.11922E+00
         0.11691E+00
         0.12023E+00
         0.11671E+00
         0.12133E+00
         0.12890E+00
         0.12982E+00
         0.12687E+00
         0.12709E+00
         0.13116E+00
         0.12732E+00
         0.12011E+00
         0.10533E+00
         0.99268E-01
         0.10083E+00
         0.10311E+00
         0.10470E+00
         0.11452E+00
         0.12083E+00
         0.12192E+00
         0.11163E+00
         0.10760E+00
         0.11190E+00
         0.11068E+00
         0.11006E+00
         0.10955E+00
  
SCALARS                      strain_yz  double 1
LOOKUP_TABLE default
        -0.70903E-01
         0.22916E-01
         0.60617E-01
         0.32213E-01
        -0.30401E-09
        -0.83792E-10
        -0.37676E-09
        -0.28737E-09
         0.22222E+00
        -0.14786E+00
        -0.56070E-09
        -0.49363E-09
         0.18760E+00
         0.95254E-02
         0.40127E-09
        -0.25727E-10
        -0.70468E-01
        -0.24053E+00
         0.59036E-11
         0.60405E-10
         0.12074E+00
         0.44209E+00
         0.47907E+00
         0.91983E-09
         0.15885E-08
         0.13278E-08
         0.43669E-01
         0.43153E+00
         0.66166E-09
         0.12836E-08
        -0.80407E-01
        -0.67497E-01
         0.61698E-01
         0.34301E-09
         0.35016E-09
        -0.72697E-11
        -0.23374E+00
        -0.21459E+00
         0.63121E-09
         0.49110E-09
        -0.22530E+00
        -0.13802E+00
         0.47703E-09
         0.43594E-09
        -0.21083E+00
        -0.73755E-01
        -0.15824E-10
         0.24477E-09
        -0.17725E+00
         0.11524E-09
        -0.19521E-01
        -0.93338E-11
        -0.99726E-02
         0.44577E-09
         0.65286E-01
         0.25931E-09
         0.21277E+00
        -0.39487E-01
         0.70350E-11
        -0.14278E-10
        -0.97436E-01
        -0.35017E+00
        -0.95851E-10
        -0.35853E-09
        -0.59365E-01
        -0.19348E-09
        -0.25046E+00
        -0.23570E-09
         0.19325E+00
         0.10223E+00
        -0.29128E-10
         0.38459E-09
         0.35407E+00
         0.84451E-09
         0.53988E+00
         0.81770E-09
         0.54077E+00
         0.62072E-09
         0.44645E+00
         0.52027E-09
         0.66521E+00
         0.52239E+00
         0.33375E-09
        -0.73999E-10
         0.76128E-01
        -0.82800E-11
        -0.32899E+00
        -0.51869E-09
        -0.76294E+00
        -0.90803E-09
        -0.10473E+01
        -0.64687E+00
        -0.13468E-08
        -0.10901E-08
        -0.46019E+00
        -0.84620E-09
        -0.41575E+00
        -0.86572E-09
        -0.40161E+00
        -0.93083E-09
        -0.66464E+00
        -0.55718E+00
        -0.86562E-09
        -0.41477E-09
         0.42460E+00
        -0.16282E+00
         0.30437E-09
        -0.37823E-09
         0.10354E+01
         0.10126E-08
         0.15048E+01
         0.14811E-08
         0.18101E+01
         0.18292E-08
         0.20288E+01
         0.18144E-08
         0.22772E+01
         0.14359E-08
         0.22658E+01
         0.11112E-08
         0.21280E+01
         0.10335E-08
         0.18963E+01
         0.98331E-09
         0.14254E+01
         0.62841E-09
         0.10096E+01
         0.20747E-09
         0.53445E+00
         0.13406E-09
        -0.39835E-01
         0.20151E-09
        -0.54642E+00
         0.10407E-09
        -0.10014E+01
        -0.31474E-09
        -0.15452E+01
        -0.88840E-09
        -0.16642E+01
        -0.13873E-08
        -0.17674E+01
        -0.18187E-08
        -0.22143E+01
        -0.18171E-08
        -0.23280E+01
        -0.15863E-08
        -0.21782E+01
        -0.15460E-08
        -0.17533E+01
        -0.15556E-08
        -0.11981E+01
        -0.12301E-08
        -0.85527E+00
        -0.72741E-09
        -0.62191E+00
        -0.56244E-09
        -0.68932E-02
        -0.34942E-02
        -0.30589E-02
        -0.97447E-03
        -0.30594E-02
        -0.33407E-02
        -0.34062E-03
        -0.53302E-02
        -0.47363E-02
        -0.68031E-02
         0.33717E-02
         0.14294E-01
         0.99343E-02
         0.11533E-02
         0.14547E-01
         0.18388E-02
        -0.16216E-02
         0.10574E-02
         0.13288E-02
        -0.10119E-02
         0.91947E-03
         0.76357E-03
        -0.25317E-02
         0.21411E-03
        -0.46487E-02
         0.68663E-03
         0.34773E-04
         0.60925E-03
         0.72646E-03
        -0.35992E-02
         0.17907E-02
        -0.18933E-02
         0.13020E-02
        -0.31193E-03
         0.48070E-03
         0.26682E-02
         0.60483E-02
         0.12911E-01
         0.11776E-01
         0.97339E-02
         0.90135E-02
         0.23298E-02
        -0.19723E-02
        -0.53855E-02
        -0.87454E-02
        -0.13824E-01
        -0.93295E-02
        -0.68792E-02
        -0.73259E-02
        -0.76180E-02
        -0.87293E-02
        -0.41158E-02
         0.69988E-02
        -0.87021E-02
         0.23446E-01
         0.32644E-01
         0.41545E-01
         0.48483E-01
         0.47823E-01
         0.43001E-01
         0.41024E-01
         0.38704E-01
         0.24791E-01
         0.11433E-01
         0.51142E-02
         0.22687E-02
        -0.35124E-02
        -0.13998E-01
        -0.25721E-01
        -0.33120E-01
        -0.38166E-01
        -0.44307E-01
        -0.42440E-01
        -0.40105E-01
        -0.37205E-01
        -0.25452E-01
        -0.15229E-01
        -0.13487E-01
        -0.18924E-01
        -0.11936E-01
        -0.11046E-01
        -0.26199E-02
        -0.14345E-01
        -0.64522E-02
        -0.51165E-02
        -0.17886E-01
        -0.11730E-01
        -0.16822E-01
         0.88943E-02
         0.38486E-01
         0.22802E-01
         0.32771E-02
         0.37917E-01
         0.71770E-02
        -0.21750E-02
         0.20765E-02
         0.93594E-02
         0.18095E-02
         0.80661E-02
         0.57270E-02
        -0.33202E-02
         0.28027E-02
        -0.11328E-01
         0.28021E-02
         0.70313E-03
         0.13071E-02
        -0.20879E-02
        -0.11301E-01
         0.77348E-02
         0.20375E-02
         0.49995E-02
         0.43410E-02
        -0.20697E-02
         0.63093E-02
         0.12046E-01
         0.28819E-01
         0.25415E-01
         0.22398E-01
         0.16453E-01
        -0.40658E-02
        -0.83745E-02
        -0.10461E-01
        -0.13471E-01
        -0.27517E-01
        -0.16012E-01
        -0.10589E-01
        -0.13309E-01
        -0.15711E-01
        -0.16278E-01
        -0.12214E-02
         0.20258E-01
        -0.28975E-01
         0.67417E-01
         0.87127E-01
         0.11242E+00
         0.13485E+00
         0.13212E+00
         0.11544E+00
         0.11064E+00
         0.10944E+00
         0.68728E-01
         0.22653E-01
         0.90323E-02
         0.77405E-02
        -0.35841E-02
        -0.30397E-01
        -0.60888E-01
        -0.84712E-01
        -0.11027E+00
        -0.12226E+00
        -0.10740E+00
        -0.10156E+00
        -0.10123E+00
        -0.71283E-01
        -0.37026E-01
        -0.35060E-01
        -0.18936E-01
        -0.11938E-01
        -0.11051E-01
        -0.26392E-02
        -0.14347E-01
        -0.64572E-02
        -0.51229E-02
        -0.17916E-01
        -0.11751E-01
        -0.16885E-01
         0.88996E-02
         0.38483E-01
         0.22808E-01
         0.32772E-02
         0.37965E-01
         0.71774E-02
        -0.21948E-02
         0.20734E-02
         0.93657E-02
         0.17994E-02
         0.80861E-02
         0.57325E-02
        -0.33210E-02
         0.28013E-02
        -0.11380E-01
         0.27970E-02
         0.71141E-03
         0.13144E-02
        -0.20742E-02
        -0.11324E-01
         0.77362E-02
         0.20331E-02
         0.50106E-02
         0.43481E-02
        -0.20502E-02
         0.63134E-02
         0.12046E-01
         0.28863E-01
         0.25470E-01
         0.22424E-01
         0.16466E-01
        -0.40548E-02
        -0.83831E-02
        -0.10467E-01
        -0.13471E-01
        -0.27517E-01
        -0.16014E-01
        -0.10583E-01
        -0.13291E-01
        -0.15690E-01
        -0.16271E-01
        -0.12029E-02
         0.20239E-01
        -0.28977E-01
         0.67430E-01
         0.87128E-01
         0.11241E+00
         0.13481E+00
         0.13206E+00
         0.11540E+00
         0.11062E+00
         0.10941E+00
         0.68714E-01
         0.22664E-01
         0.90316E-02
         0.77564E-02
        -0.35549E-02
        -0.30413E-01
        -0.60916E-01
        -0.84731E-01
        -0.11026E+00
        -0.12225E+00
        -0.10739E+00
        -0.10155E+00
        -0.10121E+00
        -0.71232E-01
        -0.36986E-01
        -0.35014E-01
        -0.18948E-01
        -0.11941E-01
        -0.11057E-01
        -0.26586E-02
        -0.14349E-01
        -0.64625E-02
        -0.51293E-02
        -0.17946E-01
        -0.11772E-01
        -0.16948E-01
         0.89049E-02
         0.38479E-01
         0.22814E-01
         0.32768E-02
         0.38013E-01
         0.71779E-02
        -0.22148E-02
         0.20703E-02
         0.93722E-02
         0.17892E-02
         0.81062E-02
         0.57378E-02
        -0.33223E-02
         0.27996E-02
        -0.11431E-01
         0.27912E-02
         0.72027E-03
         0.13222E-02
        -0.20591E-02
        -0.11348E-01
         0.77374E-02
         0.20277E-02
         0.50217E-02
         0.43551E-02
        -0.20307E-02
         0.63178E-02
         0.12045E-01
         0.28908E-01
         0.25525E-01
         0.22450E-01
         0.16479E-01
        -0.40428E-02
        -0.83912E-02
        -0.10473E-01
        -0.13473E-01
        -0.27517E-01
        -0.16016E-01
        -0.10576E-01
        -0.13273E-01
        -0.15669E-01
        -0.16265E-01
        -0.11845E-02
         0.20221E-01
        -0.28979E-01
         0.67443E-01
         0.87129E-01
         0.11239E+00
         0.13476E+00
         0.13201E+00
         0.11537E+00
         0.11059E+00
         0.10938E+00
         0.68700E-01
         0.22675E-01
         0.90311E-02
         0.77723E-02
        -0.35255E-02
        -0.30430E-01
        -0.60945E-01
        -0.84751E-01
        -0.11026E+00
        -0.12224E+00
        -0.10739E+00
        -0.10155E+00
        -0.10118E+00
        -0.71182E-01
        -0.36945E-01
        -0.34968E-01
        -0.18960E-01
        -0.11943E-01
        -0.11062E-01
        -0.26781E-02
        -0.14350E-01
        -0.64677E-02
        -0.51361E-02
        -0.17976E-01
        -0.11793E-01
        -0.17009E-01
         0.89102E-02
         0.38476E-01
         0.22820E-01
         0.32769E-02
         0.38062E-01
         0.71785E-02
        -0.22351E-02
         0.20670E-02
         0.93791E-02
         0.17783E-02
         0.81268E-02
         0.57427E-02
        -0.33251E-02
         0.27969E-02
        -0.11480E-01
         0.27836E-02
         0.72941E-03
         0.13325E-02
        -0.20405E-02
        -0.11368E-01
         0.77379E-02
         0.20204E-02
         0.50327E-02
         0.43621E-02
        -0.20112E-02
         0.63219E-02
         0.12044E-01
         0.28953E-01
         0.25581E-01
         0.22479E-01
         0.16495E-01
        -0.40274E-02
        -0.83978E-02
        -0.10484E-01
        -0.13477E-01
        -0.27519E-01
        -0.16018E-01
        -0.10570E-01
        -0.13256E-01
        -0.15648E-01
        -0.16257E-01
        -0.11661E-02
         0.20202E-01
        -0.28980E-01
         0.67455E-01
         0.87130E-01
         0.11238E+00
         0.13472E+00
         0.13195E+00
         0.11534E+00
         0.11057E+00
         0.10935E+00
         0.68687E-01
         0.22689E-01
         0.90312E-02
         0.77880E-02
        -0.34959E-02
        -0.30448E-01
        -0.60978E-01
        -0.84774E-01
        -0.11026E+00
        -0.12223E+00
        -0.10738E+00
        -0.10155E+00
        -0.10115E+00
        -0.71131E-01
        -0.36905E-01
        -0.34922E-01
        -0.18972E-01
        -0.11945E-01
        -0.11068E-01
        -0.26975E-02
        -0.14352E-01
        -0.64729E-02
        -0.51424E-02
        -0.18006E-01
        -0.11814E-01
        -0.17070E-01
         0.89156E-02
         0.38473E-01
         0.22826E-01
         0.32771E-02
         0.38111E-01
         0.71791E-02
        -0.22558E-02
         0.20638E-02
         0.93862E-02
         0.17668E-02
         0.81477E-02
         0.57469E-02
        -0.33295E-02
         0.27929E-02
        -0.11527E-01
         0.27739E-02
         0.73960E-03
         0.13451E-02
        -0.20181E-02
        -0.11387E-01
         0.77380E-02
         0.20108E-02
         0.50437E-02
         0.43692E-02
        -0.19916E-02
         0.63260E-02
         0.12043E-01
         0.28998E-01
         0.25638E-01
         0.22508E-01
         0.16512E-01
        -0.40085E-02
        -0.84029E-02
        -0.10498E-01
        -0.13484E-01
        -0.27522E-01
        -0.16022E-01
        -0.10564E-01
        -0.13238E-01
        -0.15627E-01
        -0.16250E-01
        -0.11477E-02
         0.20183E-01
        -0.28982E-01
         0.67467E-01
         0.87130E-01
         0.11237E+00
         0.13467E+00
         0.13190E+00
         0.11530E+00
         0.11055E+00
         0.10932E+00
         0.68675E-01
         0.22704E-01
         0.90321E-02
         0.78034E-02
        -0.34663E-02
        -0.30467E-01
        -0.61015E-01
        -0.84800E-01
        -0.11026E+00
        -0.12223E+00
        -0.10737E+00
        -0.10154E+00
        -0.10113E+00
        -0.71081E-01
        -0.36864E-01
        -0.34876E-01
        -0.18983E-01
        -0.11947E-01
        -0.11073E-01
        -0.27171E-02
        -0.14354E-01
        -0.64780E-02
        -0.51481E-02
        -0.18035E-01
        -0.11836E-01
        -0.17130E-01
         0.89217E-02
         0.38470E-01
         0.22832E-01
         0.32777E-02
         0.38159E-01
         0.71800E-02
        -0.22769E-02
         0.20606E-02
         0.93934E-02
         0.17551E-02
         0.81686E-02
         0.57511E-02
        -0.33345E-02
         0.27886E-02
        -0.11573E-01
         0.27637E-02
         0.75055E-03
         0.13590E-02
        -0.19941E-02
        -0.11405E-01
         0.77376E-02
         0.20002E-02
         0.50550E-02
         0.43766E-02
        -0.19719E-02
         0.63306E-02
         0.12043E-01
         0.29043E-01
         0.25696E-01
         0.22539E-01
         0.16530E-01
        -0.39886E-02
        -0.84073E-02
        -0.10513E-01
        -0.13492E-01
        -0.27527E-01
        -0.16026E-01
        -0.10559E-01
        -0.13222E-01
        -0.15606E-01
        -0.16244E-01
        -0.11292E-02
         0.20164E-01
        -0.28984E-01
         0.67480E-01
         0.87131E-01
         0.11235E+00
         0.13463E+00
         0.13184E+00
         0.11527E+00
         0.11053E+00
         0.10929E+00
         0.68665E-01
         0.22721E-01
         0.90334E-02
         0.78187E-02
        -0.34367E-02
        -0.30487E-01
        -0.61054E-01
        -0.84826E-01
        -0.11026E+00
        -0.12222E+00
        -0.10737E+00
        -0.10154E+00
        -0.10110E+00
        -0.71030E-01
        -0.36824E-01
        -0.34830E-01
        -0.18993E-01
        -0.11946E-01
        -0.11079E-01
        -0.27373E-02
        -0.14356E-01
        -0.64833E-02
        -0.51525E-02
        -0.18060E-01
        -0.11858E-01
        -0.17186E-01
         0.89290E-02
         0.38468E-01
         0.22839E-01
         0.32802E-02
         0.38208E-01
         0.71812E-02
        -0.22985E-02
         0.20574E-02
         0.94007E-02
         0.17434E-02
         0.81896E-02
         0.57553E-02
        -0.33396E-02
         0.27844E-02
        -0.11618E-01
         0.27534E-02
         0.76345E-03
         0.13738E-02
        -0.19697E-02
        -0.11422E-01
         0.77369E-02
         0.19889E-02
         0.50666E-02
         0.43844E-02
        -0.19521E-02
         0.63354E-02
         0.12044E-01
         0.29089E-01
         0.25754E-01
         0.22570E-01
         0.16549E-01
        -0.39682E-02
        -0.84114E-02
        -0.10528E-01
        -0.13501E-01
        -0.27532E-01
        -0.16033E-01
        -0.10558E-01
        -0.13208E-01
        -0.15586E-01
        -0.16237E-01
        -0.11105E-02
         0.20145E-01
        -0.28985E-01
         0.67492E-01
         0.87132E-01
         0.11234E+00
         0.13458E+00
         0.13179E+00
         0.11523E+00
         0.11050E+00
         0.10926E+00
         0.68654E-01
         0.22738E-01
         0.90346E-02
         0.78342E-02
        -0.34070E-02
        -0.30507E-01
        -0.61093E-01
        -0.84852E-01
        -0.11026E+00
        -0.12221E+00
        -0.10736E+00
        -0.10154E+00
        -0.10108E+00
        -0.70980E-01
        -0.36784E-01
        -0.34784E-01
        -0.19003E-01
        -0.11945E-01
        -0.11084E-01
        -0.27577E-02
        -0.14358E-01
        -0.64885E-02
        -0.51559E-02
        -0.18085E-01
        -0.11880E-01
        -0.17242E-01
         0.89370E-02
         0.38466E-01
         0.22847E-01
         0.32831E-02
         0.38257E-01
         0.71826E-02
        -0.23204E-02
         0.20542E-02
         0.94080E-02
         0.17317E-02
         0.82106E-02
         0.57596E-02
        -0.33446E-02
         0.27803E-02
        -0.11662E-01
         0.27431E-02
         0.77686E-03
         0.13890E-02
        -0.19452E-02
        -0.11439E-01
         0.77361E-02
         0.19770E-02
         0.50784E-02
         0.43924E-02
        -0.19322E-02
         0.63407E-02
         0.12045E-01
         0.29136E-01
         0.25813E-01
         0.22601E-01
         0.16568E-01
        -0.39477E-02
        -0.84155E-02
        -0.10544E-01
        -0.13510E-01
        -0.27539E-01
        -0.16040E-01
        -0.10557E-01
        -0.13195E-01
        -0.15566E-01
        -0.16230E-01
        -0.10918E-02
         0.20126E-01
        -0.28987E-01
         0.67503E-01
         0.87132E-01
         0.11232E+00
         0.13453E+00
         0.13173E+00
         0.11520E+00
         0.11048E+00
         0.10922E+00
         0.68643E-01
         0.22755E-01
         0.90359E-02
         0.78499E-02
        -0.33773E-02
        -0.30527E-01
        -0.61131E-01
        -0.84877E-01
        -0.11025E+00
        -0.12220E+00
        -0.10735E+00
        -0.10153E+00
        -0.10105E+00
        -0.70929E-01
        -0.36743E-01
        -0.34738E-01
        -0.19013E-01
        -0.11945E-01
        -0.11089E-01
        -0.27781E-02
        -0.14359E-01
        -0.64937E-02
        -0.51595E-02
        -0.18109E-01
        -0.11902E-01
        -0.17297E-01
         0.89446E-02
         0.38464E-01
         0.22854E-01
         0.32865E-02
         0.38306E-01
         0.71840E-02
        -0.23424E-02
         0.20509E-02
         0.94152E-02
         0.17198E-02
         0.82316E-02
         0.57639E-02
        -0.33496E-02
         0.27763E-02
        -0.11707E-01
         0.27329E-02
         0.79061E-03
         0.14040E-02
        -0.19208E-02
        -0.11456E-01
         0.77352E-02
         0.19653E-02
         0.50901E-02
         0.44004E-02
        -0.19121E-02
         0.63455E-02
         0.12045E-01
         0.29182E-01
         0.25871E-01
         0.22631E-01
         0.16586E-01
        -0.39274E-02
        -0.84196E-02
        -0.10559E-01
        -0.13519E-01
        -0.27545E-01
        -0.16047E-01
        -0.10556E-01
        -0.13183E-01
        -0.15547E-01
        -0.16224E-01
        -0.10730E-02
         0.20107E-01
        -0.28989E-01
         0.67515E-01
         0.87133E-01
         0.11231E+00
         0.13449E+00
         0.13167E+00
         0.11516E+00
         0.11046E+00
         0.10919E+00
         0.68632E-01
         0.22771E-01
         0.90374E-02
         0.78658E-02
        -0.33477E-02
        -0.30546E-01
        -0.61170E-01
        -0.84902E-01
        -0.11025E+00
        -0.12219E+00
        -0.10735E+00
        -0.10153E+00
        -0.10102E+00
        -0.70878E-01
        -0.36703E-01
        -0.34692E-01
        -0.19022E-01
        -0.11944E-01
        -0.11094E-01
        -0.27984E-02
        -0.14361E-01
        -0.64988E-02
        -0.51629E-02
        -0.18134E-01
        -0.11924E-01
        -0.17352E-01
         0.89526E-02
         0.38462E-01
         0.22862E-01
         0.32894E-02
         0.38355E-01
         0.71853E-02
        -0.23645E-02
         0.20476E-02
         0.94224E-02
         0.17080E-02
         0.82525E-02
         0.57681E-02
        -0.33543E-02
         0.27722E-02
        -0.11751E-01
         0.27228E-02
         0.80399E-03
         0.14189E-02
        -0.18965E-02
        -0.11473E-01
         0.77343E-02
         0.19535E-02
         0.51018E-02
         0.44084E-02
        -0.18921E-02
         0.63507E-02
         0.12046E-01
         0.29229E-01
         0.25930E-01
         0.22662E-01
         0.16605E-01
        -0.39072E-02
        -0.84238E-02
        -0.10574E-01
        -0.13529E-01
        -0.27551E-01
        -0.16054E-01
        -0.10556E-01
        -0.13170E-01
        -0.15527E-01
        -0.16217E-01
        -0.10543E-02
         0.20088E-01
        -0.28990E-01
         0.67527E-01
         0.87134E-01
         0.11230E+00
         0.13444E+00
         0.13162E+00
         0.11513E+00
         0.11043E+00
         0.10916E+00
         0.68620E-01
         0.22788E-01
         0.90389E-02
         0.78816E-02
        -0.33181E-02
        -0.30566E-01
        -0.61209E-01
        -0.84928E-01
        -0.11025E+00
        -0.12219E+00
        -0.10734E+00
        -0.10153E+00
        -0.10100E+00
        -0.70827E-01
        -0.36663E-01
        -0.34646E-01
        -0.19032E-01
        -0.11943E-01
        -0.11100E-01
        -0.28187E-02
        -0.14363E-01
        -0.65039E-02
        -0.51668E-02
        -0.18158E-01
        -0.11946E-01
        -0.17407E-01
         0.89606E-02
         0.38460E-01
         0.22870E-01
         0.32926E-02
         0.38405E-01
         0.71868E-02
        -0.23866E-02
         0.20443E-02
         0.94296E-02
         0.16960E-02
         0.82735E-02
         0.57722E-02
        -0.33593E-02
         0.27683E-02
        -0.11796E-01
         0.27126E-02
         0.81760E-03
         0.14335E-02
        -0.18721E-02
        -0.11490E-01
         0.77334E-02
         0.19418E-02
         0.51135E-02
         0.44164E-02
        -0.18720E-02
         0.63558E-02
         0.12047E-01
         0.29276E-01
         0.25988E-01
         0.22692E-01
         0.16623E-01
        -0.38869E-02
        -0.84279E-02
        -0.10589E-01
        -0.13538E-01
        -0.27557E-01
        -0.16062E-01
        -0.10555E-01
        -0.13158E-01
        -0.15508E-01
        -0.16211E-01
        -0.10355E-02
         0.20069E-01
        -0.28991E-01
         0.67538E-01
         0.87134E-01
         0.11228E+00
         0.13440E+00
         0.13156E+00
         0.11509E+00
         0.11041E+00
         0.10913E+00
         0.68609E-01
         0.22804E-01
         0.90403E-02
         0.78972E-02
        -0.32885E-02
        -0.30586E-01
        -0.61247E-01
        -0.84953E-01
        -0.11024E+00
        -0.12218E+00
        -0.10734E+00
        -0.10153E+00
        -0.10097E+00
        -0.70776E-01
        -0.36623E-01
        -0.34600E-01
        -0.19041E-01
        -0.11942E-01
        -0.11105E-01
        -0.28392E-02
        -0.14365E-01
        -0.65091E-02
        -0.51702E-02
        -0.18182E-01
        -0.11968E-01
        -0.17462E-01
         0.89686E-02
         0.38458E-01
         0.22877E-01
         0.32958E-02
         0.38454E-01
         0.71882E-02
        -0.24087E-02
         0.20410E-02
         0.94367E-02
         0.16842E-02
         0.82945E-02
         0.57762E-02
        -0.33643E-02
         0.27643E-02
        -0.11840E-01
         0.27025E-02
         0.83091E-03
         0.14481E-02
        -0.18478E-02
        -0.11507E-01
         0.77325E-02
         0.19301E-02
         0.51252E-02
         0.44245E-02
        -0.18517E-02
         0.63609E-02
         0.12048E-01
         0.29322E-01
         0.26047E-01
         0.22723E-01
         0.16642E-01
        -0.38669E-02
        -0.84319E-02
        -0.10605E-01
        -0.13547E-01
        -0.27564E-01
        -0.16069E-01
        -0.10555E-01
        -0.13145E-01
        -0.15488E-01
        -0.16204E-01
        -0.10168E-02
         0.20049E-01
        -0.28993E-01
         0.67549E-01
         0.87135E-01
         0.11227E+00
         0.13435E+00
         0.13150E+00
         0.11506E+00
         0.11039E+00
         0.10910E+00
         0.68598E-01
         0.22821E-01
         0.90416E-02
         0.79128E-02
        -0.32587E-02
        -0.30606E-01
        -0.61286E-01
        -0.84978E-01
        -0.11024E+00
        -0.12217E+00
        -0.10733E+00
        -0.10152E+00
        -0.10094E+00
        -0.70726E-01
        -0.36584E-01
        -0.34554E-01
        -0.19051E-01
        -0.11941E-01
        -0.11110E-01
        -0.28598E-02
        -0.14367E-01
        -0.65143E-02
        -0.51737E-02
        -0.18207E-01
        -0.11990E-01
        -0.17517E-01
         0.89766E-02
         0.38456E-01
         0.22885E-01
         0.32985E-02
         0.38503E-01
         0.71895E-02
        -0.24309E-02
         0.20376E-02
         0.94439E-02
         0.16724E-02
         0.83154E-02
         0.57804E-02
        -0.33692E-02
         0.27604E-02
        -0.11884E-01
         0.26923E-02
         0.84460E-03
         0.14625E-02
        -0.18235E-02
        -0.11524E-01
         0.77316E-02
         0.19182E-02
         0.51368E-02
         0.44324E-02
        -0.18315E-02
         0.63661E-02
         0.12049E-01
         0.29369E-01
         0.26106E-01
         0.22754E-01
         0.16660E-01
        -0.38466E-02
        -0.84359E-02
        -0.10620E-01
        -0.13557E-01
        -0.27569E-01
        -0.16077E-01
        -0.10554E-01
        -0.13133E-01
        -0.15469E-01
        -0.16197E-01
        -0.99808E-03
         0.20030E-01
        -0.28994E-01
         0.67561E-01
         0.87136E-01
         0.11226E+00
         0.13431E+00
         0.13145E+00
         0.11502E+00
         0.11037E+00
         0.10907E+00
         0.68586E-01
         0.22837E-01
         0.90430E-02
         0.79286E-02
        -0.32290E-02
        -0.30626E-01
        -0.61325E-01
        -0.85004E-01
        -0.11024E+00
        -0.12216E+00
        -0.10733E+00
        -0.10152E+00
        -0.10092E+00
        -0.70675E-01
        -0.36544E-01
        -0.34508E-01
        -0.19060E-01
        -0.11940E-01
        -0.11116E-01
        -0.28803E-02
        -0.14369E-01
        -0.65194E-02
        -0.51777E-02
        -0.18231E-01
        -0.12012E-01
        -0.17572E-01
         0.89847E-02
         0.38454E-01
         0.22893E-01
         0.33017E-02
         0.38552E-01
         0.71909E-02
        -0.24532E-02
         0.20343E-02
         0.94510E-02
         0.16606E-02
         0.83364E-02
         0.57844E-02
        -0.33742E-02
         0.27564E-02
        -0.11928E-01
         0.26821E-02
         0.85793E-03
         0.14767E-02
        -0.17993E-02
        -0.11541E-01
         0.77306E-02
         0.19064E-02
         0.51484E-02
         0.44405E-02
        -0.18112E-02
         0.63712E-02
         0.12049E-01
         0.29416E-01
         0.26165E-01
         0.22784E-01
         0.16679E-01
        -0.38264E-02
        -0.84400E-02
        -0.10635E-01
        -0.13566E-01
        -0.27576E-01
        -0.16084E-01
        -0.10554E-01
        -0.13120E-01
        -0.15450E-01
        -0.16191E-01
        -0.97950E-03
         0.20011E-01
        -0.28995E-01
         0.67572E-01
         0.87136E-01
         0.11224E+00
         0.13426E+00
         0.13139E+00
         0.11499E+00
         0.11034E+00
         0.10904E+00
         0.68575E-01
         0.22854E-01
         0.90444E-02
         0.79443E-02
        -0.31994E-02
        -0.30645E-01
        -0.61364E-01
        -0.85029E-01
        -0.11024E+00
        -0.12216E+00
        -0.10732E+00
        -0.10152E+00
        -0.10089E+00
        -0.70624E-01
        -0.36504E-01
        -0.34462E-01
        -0.19070E-01
        -0.11939E-01
        -0.11121E-01
        -0.29007E-02
        -0.14370E-01
        -0.65245E-02
        -0.51812E-02
        -0.18255E-01
        -0.12035E-01
        -0.17626E-01
         0.89927E-02
         0.38452E-01
         0.22900E-01
         0.33044E-02
         0.38602E-01
         0.71923E-02
        -0.24756E-02
         0.20310E-02
         0.94582E-02
         0.16487E-02
         0.83574E-02
         0.57885E-02
        -0.33790E-02
         0.27526E-02
        -0.11972E-01
         0.26719E-02
         0.87150E-03
         0.14907E-02
        -0.17753E-02
        -0.11558E-01
         0.77297E-02
         0.18946E-02
         0.51601E-02
         0.44486E-02
        -0.17909E-02
         0.63764E-02
         0.12050E-01
         0.29464E-01
         0.26224E-01
         0.22814E-01
         0.16698E-01
        -0.38062E-02
        -0.84441E-02
        -0.10650E-01
        -0.13575E-01
        -0.27582E-01
        -0.16091E-01
        -0.10553E-01
        -0.13107E-01
        -0.15430E-01
        -0.16184E-01
        -0.96080E-03
         0.19992E-01
        -0.28997E-01
         0.67583E-01
         0.87137E-01
         0.11223E+00
         0.13421E+00
         0.13133E+00
         0.11495E+00
         0.11032E+00
         0.10900E+00
         0.68564E-01
         0.22870E-01
         0.90457E-02
         0.79600E-02
        -0.31698E-02
        -0.30665E-01
        -0.61403E-01
        -0.85055E-01
        -0.11023E+00
        -0.12215E+00
        -0.10732E+00
        -0.10152E+00
        -0.10086E+00
        -0.70574E-01
        -0.36465E-01
        -0.34416E-01
        -0.19079E-01
        -0.11938E-01
        -0.11126E-01
        -0.29211E-02
        -0.14372E-01
        -0.65296E-02
        -0.51848E-02
        -0.18279E-01
        -0.12057E-01
        -0.17681E-01
         0.90007E-02
         0.38451E-01
         0.22908E-01
         0.33075E-02
         0.38651E-01
         0.71936E-02
        -0.24981E-02
         0.20277E-02
         0.94654E-02
         0.16368E-02
         0.83784E-02
         0.57923E-02
        -0.33839E-02
         0.27488E-02
        -0.12016E-01
         0.26617E-02
         0.88471E-03
         0.15045E-02
        -0.17513E-02
        -0.11575E-01
         0.77288E-02
         0.18828E-02
         0.51716E-02
         0.44567E-02
        -0.17704E-02
         0.63814E-02
         0.12051E-01
         0.29511E-01
         0.26282E-01
         0.22844E-01
         0.16716E-01
        -0.37860E-02
        -0.84483E-02
        -0.10665E-01
        -0.13585E-01
        -0.27588E-01
        -0.16099E-01
        -0.10553E-01
        -0.13095E-01
        -0.15410E-01
        -0.16178E-01
        -0.94209E-03
         0.19973E-01
        -0.28998E-01
         0.67594E-01
         0.87138E-01
         0.11222E+00
         0.13417E+00
         0.13128E+00
         0.11491E+00
         0.11030E+00
         0.10897E+00
         0.68553E-01
         0.22887E-01
         0.90470E-02
         0.79755E-02
        -0.31401E-02
        -0.30685E-01
        -0.61442E-01
        -0.85080E-01
        -0.11023E+00
        -0.12214E+00
        -0.10731E+00
        -0.10151E+00
        -0.10084E+00
        -0.70523E-01
        -0.36426E-01
        -0.34369E-01
        -0.19088E-01
        -0.11937E-01
        -0.11131E-01
        -0.29416E-02
        -0.14374E-01
        -0.65347E-02
        -0.51886E-02
        -0.18303E-01
        -0.12079E-01
        -0.17735E-01
         0.90088E-02
         0.38449E-01
         0.22916E-01
         0.33101E-02
         0.38700E-01
         0.71950E-02
        -0.25207E-02
         0.20243E-02
         0.94725E-02
         0.16251E-02
         0.83994E-02
         0.57960E-02
        -0.33887E-02
         0.27450E-02
        -0.12061E-01
         0.26514E-02
         0.89827E-03
         0.15182E-02
        -0.17273E-02
        -0.11592E-01
         0.77278E-02
         0.18710E-02
         0.51832E-02
         0.44648E-02
        -0.17499E-02
         0.63865E-02
         0.12051E-01
         0.29559E-01
         0.26341E-01
         0.22874E-01
         0.16735E-01
        -0.37661E-02
        -0.84525E-02
        -0.10681E-01
        -0.13594E-01
        -0.27595E-01
        -0.16106E-01
        -0.10552E-01
        -0.13083E-01
        -0.15391E-01
        -0.16171E-01
        -0.92354E-03
         0.19953E-01
        -0.28999E-01
         0.67605E-01
         0.87138E-01
         0.11220E+00
         0.13412E+00
         0.13122E+00
         0.11488E+00
         0.11028E+00
         0.10894E+00
         0.68542E-01
         0.22903E-01
         0.90479E-02
         0.79909E-02
        -0.31105E-02
        -0.30704E-01
        -0.61480E-01
        -0.85105E-01
        -0.11023E+00
        -0.12213E+00
        -0.10731E+00
        -0.10151E+00
        -0.10081E+00
        -0.70472E-01
        -0.36387E-01
        -0.34323E-01
        -0.19098E-01
        -0.11936E-01
        -0.11137E-01
        -0.29622E-02
        -0.14376E-01
        -0.65398E-02
        -0.51922E-02
        -0.18326E-01
        -0.12102E-01
        -0.17790E-01
         0.90168E-02
         0.38447E-01
         0.22923E-01
         0.33130E-02
         0.38749E-01
         0.71964E-02
        -0.25435E-02
         0.20209E-02
         0.94797E-02
         0.16139E-02
         0.84203E-02
         0.57997E-02
        -0.33937E-02
         0.27411E-02
        -0.12105E-01
         0.26413E-02
         0.91170E-03
         0.15317E-02
        -0.17033E-02
        -0.11607E-01
         0.77268E-02
         0.18591E-02
         0.51947E-02
         0.44730E-02
        -0.17294E-02
         0.63918E-02
         0.12052E-01
         0.29607E-01
         0.26400E-01
         0.22902E-01
         0.16753E-01
        -0.37458E-02
        -0.84569E-02
        -0.10696E-01
        -0.13604E-01
        -0.27601E-01
        -0.16113E-01
        -0.10552E-01
        -0.13070E-01
        -0.15371E-01
        -0.16165E-01
        -0.90497E-03
         0.19934E-01
        -0.29000E-01
         0.67616E-01
         0.87139E-01
         0.11219E+00
         0.13407E+00
         0.13116E+00
         0.11484E+00
         0.11025E+00
         0.10890E+00
         0.68533E-01
         0.22920E-01
         0.90484E-02
         0.80064E-02
        -0.30811E-02
        -0.30724E-01
        -0.61519E-01
        -0.85130E-01
        -0.11022E+00
        -0.12212E+00
        -0.10731E+00
        -0.10151E+00
        -0.10078E+00
        -0.70421E-01
        -0.36348E-01
        -0.34277E-01
        -0.19107E-01
        -0.11935E-01
        -0.11142E-01
        -0.29828E-02
        -0.14377E-01
        -0.65448E-02
        -0.51958E-02
        -0.18350E-01
        -0.12125E-01
        -0.17844E-01
         0.90247E-02
         0.38445E-01
         0.22931E-01
         0.33159E-02
         0.38799E-01
         0.71977E-02
        -0.25667E-02
         0.20174E-02
         0.94869E-02
         0.16032E-02
         0.84412E-02
         0.58032E-02
        -0.33986E-02
         0.27374E-02
        -0.12149E-01
         0.26310E-02
         0.92571E-03
         0.15451E-02
        -0.16794E-02
        -0.11622E-01
         0.77257E-02
         0.18472E-02
         0.52062E-02
         0.44811E-02
        -0.17087E-02
         0.63968E-02
         0.12053E-01
         0.29655E-01
         0.26458E-01
         0.22930E-01
         0.16771E-01
        -0.37257E-02
        -0.84615E-02
        -0.10711E-01
        -0.13613E-01
        -0.27608E-01
        -0.16121E-01
        -0.10551E-01
        -0.13058E-01
        -0.15352E-01
        -0.16158E-01
        -0.88626E-03
         0.19915E-01
        -0.29001E-01
         0.67627E-01
         0.87139E-01
         0.11218E+00
         0.13403E+00
         0.13110E+00
         0.11481E+00
         0.11023E+00
         0.10887E+00
         0.68524E-01
         0.22937E-01
         0.90480E-02
         0.80218E-02
        -0.30514E-02
        -0.30743E-01
        -0.61558E-01
        -0.85156E-01
        -0.11022E+00
        -0.12211E+00
        -0.10730E+00
        -0.10151E+00
        -0.10075E+00
        -0.70371E-01
        -0.36309E-01
        -0.34231E-01
        -0.19116E-01
        -0.11934E-01
        -0.11148E-01
        -0.30033E-02
        -0.14380E-01
        -0.65499E-02
        -0.51998E-02
        -0.18374E-01
        -0.12148E-01
        -0.17899E-01
         0.90328E-02
         0.38443E-01
         0.22939E-01
         0.33185E-02
         0.38848E-01
         0.71992E-02
        -0.25901E-02
         0.20140E-02
         0.94942E-02
         0.15928E-02
         0.84623E-02
         0.58068E-02
        -0.34031E-02
         0.27338E-02
        -0.12193E-01
         0.26211E-02
         0.93936E-03
         0.15580E-02
        -0.16558E-02
        -0.11636E-01
         0.77249E-02
         0.18357E-02
         0.52178E-02
         0.44894E-02
        -0.16883E-02
         0.64018E-02
         0.12053E-01
         0.29704E-01
         0.26516E-01
         0.22956E-01
         0.16788E-01
        -0.37059E-02
        -0.84664E-02
        -0.10726E-01
        -0.13623E-01
        -0.27614E-01
        -0.16128E-01
        -0.10551E-01
        -0.13045E-01
        -0.15332E-01
        -0.16152E-01
        -0.86768E-03
         0.19895E-01
        -0.29003E-01
         0.67638E-01
         0.87140E-01
         0.11216E+00
         0.13398E+00
         0.13105E+00
         0.11477E+00
         0.11021E+00
         0.10883E+00
         0.68516E-01
         0.22954E-01
         0.90471E-02
         0.80372E-02
        -0.30218E-02
        -0.30762E-01
        -0.61596E-01
        -0.85181E-01
        -0.11022E+00
        -0.12211E+00
        -0.10729E+00
        -0.10151E+00
        -0.10073E+00
        -0.70321E-01
        -0.36271E-01
        -0.34185E-01
        -0.19206E-01
        -0.11986E-01
        -0.11202E-01
        -0.30356E-02
        -0.14442E-01
        -0.65819E-02
        -0.52264E-02
        -0.18472E-01
        -0.12220E-01
        -0.18024E-01
         0.90783E-02
         0.38599E-01
         0.23039E-01
         0.33350E-02
         0.39058E-01
         0.72312E-02
        -0.26229E-02
         0.20190E-02
         0.95406E-02
         0.15902E-02
         0.85159E-02
         0.58338E-02
        -0.34186E-02
         0.27436E-02
        -0.12287E-01
         0.26254E-02
         0.95585E-03
         0.15744E-02
        -0.16437E-02
        -0.11701E-01
         0.77576E-02
         0.18352E-02
         0.52506E-02
         0.45162E-02
        -0.16768E-02
         0.64304E-02
         0.12101E-01
         0.29874E-01
         0.26682E-01
         0.23078E-01
         0.16874E-01
        -0.37063E-02
        -0.85083E-02
        -0.10778E-01
        -0.13682E-01
        -0.27726E-01
        -0.16197E-01
        -0.10590E-01
        -0.13085E-01
        -0.15376E-01
        -0.16212E-01
        -0.85285E-03
         0.19957E-01
        -0.29129E-01
         0.67932E-01
         0.87502E-01
         0.11263E+00
         0.13452E+00
         0.13157E+00
         0.11525E+00
         0.11068E+00
         0.10929E+00
         0.68812E-01
         0.23063E-01
         0.90807E-02
         0.80830E-02
        -0.30053E-02
        -0.30896E-01
        -0.61866E-01
        -0.85546E-01
        -0.11068E+00
        -0.12262E+00
        -0.10773E+00
        -0.10191E+00
        -0.10111E+00
        -0.70560E-01
        -0.36381E-01
        -0.34280E-01
        -0.28672E-01
        -0.17968E-01
        -0.16699E-01
        -0.45639E-02
        -0.20784E-01
        -0.95663E-02
        -0.78215E-02
        -0.27464E-01
        -0.18215E-01
        -0.26746E-01
         0.13355E-01
         0.54538E-01
         0.33044E-01
         0.48862E-02
         0.55512E-01
         0.10806E-01
        -0.39329E-02
         0.30148E-02
         0.14072E-01
         0.23450E-02
         0.12224E-01
         0.84712E-02
        -0.49096E-02
         0.40762E-02
        -0.18415E-01
         0.39319E-02
         0.14238E-02
         0.23610E-02
        -0.24529E-02
        -0.17505E-01
         0.11594E-01
         0.27336E-02
         0.78739E-02
         0.67635E-02
        -0.23362E-02
         0.93315E-02
         0.17560E-01
         0.43400E-01
         0.39324E-01
         0.34128E-01
         0.24610E-01
        -0.54339E-02
        -0.12498E-01
        -0.15602E-01
        -0.19738E-01
        -0.38862E-01
        -0.23289E-01
        -0.15408E-01
        -0.19133E-01
        -0.22384E-01
        -0.23044E-01
        -0.12159E-02
         0.24967E-01
        -0.36421E-01
         0.84941E-01
         0.10971E+00
         0.14110E+00
         0.16892E+00
         0.16707E+00
         0.14762E+00
         0.14151E+00
         0.13890E+00
         0.87564E-01
         0.29295E-01
         0.11656E-01
         0.10424E-01
        -0.37970E-02
        -0.38842E-01
        -0.77544E-01
        -0.10663E+00
        -0.13789E+00
        -0.15293E+00
        -0.13576E+00
        -0.12900E+00
        -0.12751E+00
        -0.89277E-01
        -0.45877E-01
        -0.43065E-01
  
SCALARS                      strain_xz  double 1
LOOKUP_TABLE default
        -0.11700E-01
         0.80178E-01
         0.26947E+00
        -0.19127E-01
        -0.31467E-09
         0.11157E-09
         0.37307E-09
         0.74509E-10
         0.74158E+00
         0.50125E+00
         0.11159E-08
         0.10051E-08
        -0.30430E-01
         0.12399E+00
        -0.13763E-09
        -0.64472E-09
         0.27834E-01
         0.11922E+00
        -0.46570E-09
        -0.69359E-09
         0.16902E+00
         0.27703E+00
         0.27347E+00
        -0.46314E-09
        -0.21357E-09
         0.37311E-09
         0.29325E+00
         0.22877E+00
        -0.86694E-09
        -0.68771E-09
        -0.65024E-01
         0.13910E+00
        -0.14326E-01
         0.88266E-10
        -0.34109E-09
        -0.21014E-09
        -0.18870E+00
        -0.86650E-01
        -0.50642E-09
        -0.53920E-09
        -0.36880E+00
        -0.50289E+00
        -0.11423E-08
        -0.84241E-09
        -0.40714E+00
        -0.22002E+00
        -0.12545E-08
        -0.60381E-09
         0.10582E+00
        -0.37901E-09
        -0.28163E+00
        -0.10550E-09
         0.10541E+00
        -0.74059E-09
        -0.77784E-01
        -0.19590E-09
        -0.34008E+00
        -0.97506E-01
        -0.16782E-09
        -0.40565E-09
         0.69379E-02
        -0.18852E+00
         0.33566E-09
         0.23018E-09
         0.50155E-01
        -0.33763E-10
         0.16499E+00
         0.22208E-09
         0.10313E+01
         0.70576E+00
         0.13880E-08
         0.10067E-08
         0.44962E+00
         0.73301E-09
        -0.93203E-01
        -0.50707E-09
        -0.28948E+00
        -0.99519E-10
        -0.61506E+00
        -0.15440E-09
        -0.82676E+00
        -0.60071E+00
        -0.56583E-09
        -0.64712E-09
        -0.55290E+00
        -0.69595E-09
        -0.49300E+00
        -0.10020E-08
        -0.30125E+00
        -0.63909E-09
        -0.46583E+00
        -0.34139E+00
        -0.27276E-09
         0.37405E-09
         0.78940E-01
         0.43875E-09
         0.21818E+00
         0.18423E-09
         0.52002E+00
         0.45493E-09
         0.76450E+00
         0.52927E+00
         0.10490E-08
         0.10946E-08
         0.17831E+01
         0.20002E+01
         0.19382E-08
         0.19101E-08
         0.17517E+01
         0.16558E-08
         0.16208E+01
         0.12374E-08
         0.11425E+01
         0.68002E-09
         0.79329E+00
         0.72717E-10
         0.28063E+00
        -0.25899E-09
        -0.35194E+00
        -0.20721E-09
        -0.83772E+00
        -0.20366E-09
        -0.12465E+01
        -0.45928E-09
        -0.17282E+01
        -0.87378E-09
        -0.22025E+01
        -0.10427E-08
        -0.24706E+01
        -0.98381E-09
        -0.24383E+01
        -0.10698E-08
        -0.23108E+01
        -0.13885E-08
        -0.21231E+01
        -0.16373E-08
        -0.18671E+01
        -0.15220E-08
        -0.14211E+01
        -0.12370E-08
        -0.80956E+00
        -0.58395E-09
        -0.68061E-01
         0.11151E-09
         0.45066E+00
         0.27072E-09
         0.71417E+00
         0.44269E-09
         0.10630E+01
         0.86637E-09
         0.14087E+01
         0.14216E-08
         0.18661E+01
         0.17080E-08
         0.21679E+01
         0.17470E-08
        -0.21347E-02
         0.10892E-02
         0.12814E-02
        -0.26467E-02
         0.97542E-02
         0.77454E-02
         0.11315E-02
        -0.16918E-02
        -0.90337E-03
        -0.15743E-02
         0.82074E-03
         0.35319E-02
         0.75019E-02
        -0.24020E-02
        -0.28596E-02
         0.35183E-02
         0.29390E-02
        -0.13799E-02
        -0.20681E-02
        -0.22409E-02
        -0.12124E-01
        -0.13000E-01
        -0.11589E-01
        -0.36135E-02
         0.14670E-02
        -0.10922E-02
        -0.34336E-02
        -0.38579E-03
        -0.38804E-02
        -0.27372E-02
         0.31341E-02
         0.59977E-03
        -0.14766E-02
        -0.46977E-03
         0.13894E-01
         0.90594E-02
         0.82852E-02
        -0.57291E-02
        -0.32579E-02
        -0.68212E-02
        -0.13809E-01
        -0.13379E-01
        -0.13655E-01
        -0.99940E-02
        -0.70496E-02
        -0.53428E-02
         0.10311E-02
         0.44241E-02
         0.12771E-02
         0.39654E-02
         0.10356E-01
         0.89902E-02
         0.38237E-01
         0.41492E-01
         0.36898E-01
         0.31630E-01
         0.23514E-01
         0.11775E-01
        -0.68564E-03
        -0.81763E-02
        -0.12490E-01
        -0.21406E-01
        -0.34599E-01
        -0.44186E-01
        -0.41136E-01
        -0.39691E-01
        -0.42376E-01
        -0.42703E-01
        -0.38786E-01
        -0.33520E-01
        -0.16183E-01
         0.25895E-02
         0.10117E-01
         0.11274E-01
         0.19037E-01
         0.29912E-01
         0.39730E-01
         0.42113E-01
        -0.64259E-02
         0.13191E-02
        -0.25114E-02
        -0.73124E-02
         0.14999E-01
         0.12818E-01
         0.37346E-02
        -0.81523E-02
        -0.37459E-02
        -0.77503E-02
        -0.15658E-02
         0.57116E-02
         0.18791E-01
        -0.14412E-01
        -0.14925E-01
         0.12625E-01
         0.70285E-02
        -0.42097E-02
        -0.28330E-02
        -0.49752E-02
        -0.29517E-01
        -0.28131E-01
        -0.27760E-01
        -0.67149E-02
         0.38139E-02
         0.25680E-02
        -0.13926E-01
         0.18492E-02
        -0.46608E-02
        -0.63558E-02
         0.96996E-02
         0.62765E-02
        -0.62911E-02
        -0.54296E-02
         0.26748E-01
         0.14764E-01
         0.16935E-01
        -0.16552E-01
        -0.27714E-02
        -0.80353E-02
        -0.29518E-01
        -0.30365E-01
        -0.29681E-01
        -0.21462E-01
        -0.16528E-01
        -0.96699E-02
         0.10452E-01
         0.12339E-01
        -0.16311E-02
         0.19638E-02
         0.20129E-01
         0.17732E-01
         0.11163E+00
         0.11249E+00
         0.10096E+00
         0.83273E-01
         0.62117E-01
         0.28599E-01
        -0.71021E-02
        -0.23024E-01
        -0.30333E-01
        -0.55588E-01
        -0.98745E-01
        -0.11650E+00
        -0.97752E-01
        -0.93011E-01
        -0.10244E+00
        -0.10548E+00
        -0.96261E-01
        -0.91022E-01
        -0.46384E-01
         0.12055E-01
         0.26672E-01
         0.27027E-01
         0.48040E-01
         0.83185E-01
         0.10646E+00
         0.10613E+00
        -0.64381E-02
         0.13240E-02
        -0.25161E-02
        -0.73174E-02
         0.14984E-01
         0.12806E-01
         0.37583E-02
        -0.81316E-02
        -0.37500E-02
        -0.77442E-02
        -0.15341E-02
         0.57255E-02
         0.18803E-01
        -0.14376E-01
        -0.14917E-01
         0.12638E-01
         0.70439E-02
        -0.41981E-02
        -0.28316E-02
        -0.49665E-02
        -0.29514E-01
        -0.28128E-01
        -0.27758E-01
        -0.67153E-02
         0.38225E-02
         0.25723E-02
        -0.13931E-01
         0.18144E-02
        -0.46936E-02
        -0.63598E-02
         0.97138E-02
         0.62757E-02
        -0.62649E-02
        -0.54320E-02
         0.26762E-01
         0.14757E-01
         0.16929E-01
        -0.16579E-01
        -0.27980E-02
        -0.80606E-02
        -0.29537E-01
        -0.30382E-01
        -0.29682E-01
        -0.21459E-01
        -0.16522E-01
        -0.96649E-02
         0.10450E-01
         0.12343E-01
        -0.16192E-02
         0.19571E-02
         0.20116E-01
         0.17706E-01
         0.11159E+00
         0.11246E+00
         0.10095E+00
         0.83273E-01
         0.62098E-01
         0.28591E-01
        -0.71102E-02
        -0.23038E-01
        -0.30308E-01
        -0.55566E-01
        -0.98730E-01
        -0.11650E+00
        -0.97742E-01
        -0.93006E-01
        -0.10246E+00
        -0.10550E+00
        -0.96278E-01
        -0.91040E-01
        -0.46371E-01
         0.12060E-01
         0.26652E-01
         0.27016E-01
         0.48005E-01
         0.83134E-01
         0.10641E+00
         0.10608E+00
        -0.64503E-02
         0.13289E-02
        -0.25208E-02
        -0.73222E-02
         0.14970E-01
         0.12795E-01
         0.37822E-02
        -0.81110E-02
        -0.37539E-02
        -0.77377E-02
        -0.15024E-02
         0.57393E-02
         0.18814E-01
        -0.14341E-01
        -0.14909E-01
         0.12651E-01
         0.70596E-02
        -0.41863E-02
        -0.28302E-02
        -0.49580E-02
        -0.29512E-01
        -0.28125E-01
        -0.27756E-01
        -0.67156E-02
         0.38317E-02
         0.25770E-02
        -0.13935E-01
         0.17801E-02
        -0.47266E-02
        -0.63638E-02
         0.97283E-02
         0.62752E-02
        -0.62385E-02
        -0.54344E-02
         0.26775E-01
         0.14751E-01
         0.16924E-01
        -0.16605E-01
        -0.28245E-02
        -0.80861E-02
        -0.29555E-01
        -0.30400E-01
        -0.29684E-01
        -0.21456E-01
        -0.16516E-01
        -0.96602E-02
         0.10448E-01
         0.12347E-01
        -0.16070E-02
         0.19502E-02
         0.20103E-01
         0.17680E-01
         0.11156E+00
         0.11243E+00
         0.10094E+00
         0.83274E-01
         0.62079E-01
         0.28582E-01
        -0.71184E-02
        -0.23052E-01
        -0.30282E-01
        -0.55544E-01
        -0.98715E-01
        -0.11650E+00
        -0.97734E-01
        -0.93001E-01
        -0.10247E+00
        -0.10553E+00
        -0.96295E-01
        -0.91058E-01
        -0.46359E-01
         0.12066E-01
         0.26633E-01
         0.27005E-01
         0.47970E-01
         0.83083E-01
         0.10636E+00
         0.10604E+00
        -0.64625E-02
         0.13339E-02
        -0.25255E-02
        -0.73270E-02
         0.14955E-01
         0.12783E-01
         0.38058E-02
        -0.80903E-02
        -0.37573E-02
        -0.77301E-02
        -0.14709E-02
         0.57535E-02
         0.18825E-01
        -0.14305E-01
        -0.14901E-01
         0.12666E-01
         0.70760E-02
        -0.41745E-02
        -0.28290E-02
        -0.49492E-02
        -0.29510E-01
        -0.28123E-01
        -0.27756E-01
        -0.67160E-02
         0.38426E-02
         0.25827E-02
        -0.13938E-01
         0.17468E-02
        -0.47594E-02
        -0.63676E-02
         0.97440E-02
         0.62759E-02
        -0.62120E-02
        -0.54369E-02
         0.26788E-01
         0.14744E-01
         0.16918E-01
        -0.16632E-01
        -0.28510E-02
        -0.81115E-02
        -0.29575E-01
        -0.30419E-01
        -0.29688E-01
        -0.21454E-01
        -0.16509E-01
        -0.96550E-02
         0.10446E-01
         0.12351E-01
        -0.15947E-02
         0.19433E-02
         0.20090E-01
         0.17654E-01
         0.11152E+00
         0.11240E+00
         0.10093E+00
         0.83274E-01
         0.62060E-01
         0.28573E-01
        -0.71266E-02
        -0.23067E-01
        -0.30257E-01
        -0.55522E-01
        -0.98700E-01
        -0.11650E+00
        -0.97727E-01
        -0.92997E-01
        -0.10249E+00
        -0.10555E+00
        -0.96315E-01
        -0.91075E-01
        -0.46346E-01
         0.12071E-01
         0.26613E-01
         0.26995E-01
         0.47935E-01
         0.83033E-01
         0.10631E+00
         0.10599E+00
        -0.64745E-02
         0.13388E-02
        -0.25302E-02
        -0.73318E-02
         0.14940E-01
         0.12771E-01
         0.38297E-02
        -0.80693E-02
        -0.37602E-02
        -0.77212E-02
        -0.14393E-02
         0.57674E-02
         0.18837E-01
        -0.14270E-01
        -0.14893E-01
         0.12682E-01
         0.70932E-02
        -0.41626E-02
        -0.28274E-02
        -0.49403E-02
        -0.29509E-01
        -0.28121E-01
        -0.27757E-01
        -0.67164E-02
         0.38552E-02
         0.25892E-02
        -0.13941E-01
         0.17146E-02
        -0.47921E-02
        -0.63711E-02
         0.97606E-02
         0.62774E-02
        -0.61855E-02
        -0.54393E-02
         0.26802E-01
         0.14737E-01
         0.16913E-01
        -0.16658E-01
        -0.28773E-02
        -0.81371E-02
        -0.29595E-01
        -0.30440E-01
        -0.29694E-01
        -0.21453E-01
        -0.16503E-01
        -0.96494E-02
         0.10445E-01
         0.12356E-01
        -0.15826E-02
         0.19364E-02
         0.20077E-01
         0.17627E-01
         0.11148E+00
         0.11237E+00
         0.10092E+00
         0.83274E-01
         0.62041E-01
         0.28565E-01
        -0.71346E-02
        -0.23081E-01
        -0.30231E-01
        -0.55500E-01
        -0.98684E-01
        -0.11651E+00
        -0.97723E-01
        -0.92993E-01
        -0.10250E+00
        -0.10558E+00
        -0.96335E-01
        -0.91092E-01
        -0.46333E-01
         0.12077E-01
         0.26594E-01
         0.26984E-01
         0.47899E-01
         0.82982E-01
         0.10625E+00
         0.10594E+00
        -0.64861E-02
         0.13442E-02
        -0.25343E-02
        -0.73365E-02
         0.14926E-01
         0.12759E-01
         0.38535E-02
        -0.80481E-02
        -0.37630E-02
        -0.77121E-02
        -0.14076E-02
         0.57814E-02
         0.18848E-01
        -0.14234E-01
        -0.14885E-01
         0.12698E-01
         0.71103E-02
        -0.41508E-02
        -0.28258E-02
        -0.49318E-02
        -0.29509E-01
        -0.28120E-01
        -0.27760E-01
        -0.67170E-02
         0.38678E-02
         0.25959E-02
        -0.13943E-01
         0.16826E-02
        -0.48251E-02
        -0.63752E-02
         0.97773E-02
         0.62788E-02
        -0.61586E-02
        -0.54415E-02
         0.26816E-01
         0.14731E-01
         0.16908E-01
        -0.16684E-01
        -0.29037E-02
        -0.81627E-02
        -0.29615E-01
        -0.30461E-01
        -0.29701E-01
        -0.21452E-01
        -0.16497E-01
        -0.96446E-02
         0.10443E-01
         0.12360E-01
        -0.15701E-02
         0.19302E-02
         0.20065E-01
         0.17602E-01
         0.11144E+00
         0.11234E+00
         0.10091E+00
         0.83275E-01
         0.62022E-01
         0.28556E-01
        -0.71425E-02
        -0.23095E-01
        -0.30206E-01
        -0.55478E-01
        -0.98668E-01
        -0.11651E+00
        -0.97719E-01
        -0.92990E-01
        -0.10252E+00
        -0.10562E+00
        -0.96357E-01
        -0.91109E-01
        -0.46320E-01
         0.12081E-01
         0.26574E-01
         0.26973E-01
         0.47864E-01
         0.82931E-01
         0.10620E+00
         0.10590E+00
        -0.64968E-02
         0.13507E-02
        -0.25375E-02
        -0.73411E-02
         0.14912E-01
         0.12748E-01
         0.38778E-02
        -0.80263E-02
        -0.37659E-02
        -0.77036E-02
        -0.13759E-02
         0.57954E-02
         0.18860E-01
        -0.14199E-01
        -0.14876E-01
         0.12714E-01
         0.71268E-02
        -0.41388E-02
        -0.28246E-02
        -0.49234E-02
        -0.29509E-01
        -0.28119E-01
        -0.27762E-01
        -0.67178E-02
         0.38789E-02
         0.26019E-02
        -0.13946E-01
         0.16498E-02
        -0.48584E-02
        -0.63799E-02
         0.97929E-02
         0.62790E-02
        -0.61312E-02
        -0.54430E-02
         0.26830E-01
         0.14726E-01
         0.16903E-01
        -0.16710E-01
        -0.29303E-02
        -0.81889E-02
        -0.29635E-01
        -0.30482E-01
        -0.29708E-01
        -0.21451E-01
        -0.16491E-01
        -0.96403E-02
         0.10441E-01
         0.12364E-01
        -0.15565E-02
         0.19253E-02
         0.20054E-01
         0.17576E-01
         0.11140E+00
         0.11231E+00
         0.10090E+00
         0.83275E-01
         0.62003E-01
         0.28548E-01
        -0.71504E-02
        -0.23109E-01
        -0.30180E-01
        -0.55456E-01
        -0.98652E-01
        -0.11652E+00
        -0.97716E-01
        -0.92987E-01
        -0.10253E+00
        -0.10565E+00
        -0.96379E-01
        -0.91125E-01
        -0.46306E-01
         0.12086E-01
         0.26554E-01
         0.26963E-01
         0.47830E-01
         0.82881E-01
         0.10615E+00
         0.10585E+00
        -0.65070E-02
         0.13576E-02
        -0.25403E-02
        -0.73455E-02
         0.14898E-01
         0.12736E-01
         0.39024E-02
        -0.80044E-02
        -0.37690E-02
        -0.76953E-02
        -0.13440E-02
         0.58093E-02
         0.18872E-01
        -0.14163E-01
        -0.14868E-01
         0.12730E-01
         0.71429E-02
        -0.41268E-02
        -0.28231E-02
        -0.49156E-02
        -0.29508E-01
        -0.28118E-01
        -0.27765E-01
        -0.67184E-02
         0.38893E-02
         0.26074E-02
        -0.13949E-01
         0.16169E-02
        -0.48921E-02
        -0.63850E-02
         0.98082E-02
         0.62786E-02
        -0.61034E-02
        -0.54443E-02
         0.26844E-01
         0.14721E-01
         0.16899E-01
        -0.16736E-01
        -0.29569E-02
        -0.82149E-02
        -0.29656E-01
        -0.30504E-01
        -0.29715E-01
        -0.21451E-01
        -0.16486E-01
        -0.96367E-02
         0.10438E-01
         0.12368E-01
        -0.15425E-02
         0.19211E-02
         0.20044E-01
         0.17551E-01
         0.11137E+00
         0.11229E+00
         0.10089E+00
         0.83275E-01
         0.61984E-01
         0.28539E-01
        -0.71583E-02
        -0.23123E-01
        -0.30155E-01
        -0.55434E-01
        -0.98636E-01
        -0.11652E+00
        -0.97712E-01
        -0.92984E-01
        -0.10255E+00
        -0.10568E+00
        -0.96401E-01
        -0.91141E-01
        -0.46293E-01
         0.12089E-01
         0.26533E-01
         0.26953E-01
         0.47796E-01
         0.82831E-01
         0.10610E+00
         0.10580E+00
        -0.65172E-02
         0.13645E-02
        -0.25430E-02
        -0.73499E-02
         0.14884E-01
         0.12724E-01
         0.39268E-02
        -0.79825E-02
        -0.37721E-02
        -0.76872E-02
        -0.13122E-02
         0.58233E-02
         0.18884E-01
        -0.14127E-01
        -0.14860E-01
         0.12746E-01
         0.71590E-02
        -0.41148E-02
        -0.28215E-02
        -0.49075E-02
        -0.29508E-01
        -0.28118E-01
        -0.27767E-01
        -0.67194E-02
         0.38997E-02
         0.26129E-02
        -0.13953E-01
         0.15840E-02
        -0.49258E-02
        -0.63901E-02
         0.98235E-02
         0.62783E-02
        -0.60757E-02
        -0.54456E-02
         0.26859E-01
         0.14716E-01
         0.16895E-01
        -0.16762E-01
        -0.29836E-02
        -0.82409E-02
        -0.29676E-01
        -0.30525E-01
        -0.29722E-01
        -0.21451E-01
        -0.16482E-01
        -0.96331E-02
         0.10436E-01
         0.12372E-01
        -0.15285E-02
         0.19171E-02
         0.20034E-01
         0.17526E-01
         0.11133E+00
         0.11226E+00
         0.10088E+00
         0.83276E-01
         0.61964E-01
         0.28530E-01
        -0.71662E-02
        -0.23137E-01
        -0.30129E-01
        -0.55412E-01
        -0.98620E-01
        -0.11653E+00
        -0.97708E-01
        -0.92981E-01
        -0.10257E+00
        -0.10571E+00
        -0.96423E-01
        -0.91156E-01
        -0.46279E-01
         0.12093E-01
         0.26512E-01
         0.26942E-01
         0.47762E-01
         0.82781E-01
         0.10604E+00
         0.10576E+00
        -0.65274E-02
         0.13714E-02
        -0.25457E-02
        -0.73544E-02
         0.14870E-01
         0.12712E-01
         0.39514E-02
        -0.79606E-02
        -0.37752E-02
        -0.76790E-02
        -0.12805E-02
         0.58372E-02
         0.18896E-01
        -0.14092E-01
        -0.14852E-01
         0.12761E-01
         0.71751E-02
        -0.41029E-02
        -0.28200E-02
        -0.48996E-02
        -0.29507E-01
        -0.28117E-01
        -0.27769E-01
        -0.67203E-02
         0.39101E-02
         0.26185E-02
        -0.13956E-01
         0.15513E-02
        -0.49593E-02
        -0.63951E-02
         0.98387E-02
         0.62778E-02
        -0.60481E-02
        -0.54470E-02
         0.26873E-01
         0.14711E-01
         0.16891E-01
        -0.16788E-01
        -0.30103E-02
        -0.82672E-02
        -0.29697E-01
        -0.30546E-01
        -0.29729E-01
        -0.21451E-01
        -0.16477E-01
        -0.96292E-02
         0.10433E-01
         0.12376E-01
        -0.15146E-02
         0.19127E-02
         0.20023E-01
         0.17501E-01
         0.11129E+00
         0.11223E+00
         0.10088E+00
         0.83276E-01
         0.61945E-01
         0.28521E-01
        -0.71740E-02
        -0.23151E-01
        -0.30104E-01
        -0.55390E-01
        -0.98604E-01
        -0.11653E+00
        -0.97704E-01
        -0.92978E-01
        -0.10258E+00
        -0.10575E+00
        -0.96444E-01
        -0.91172E-01
        -0.46266E-01
         0.12097E-01
         0.26491E-01
         0.26932E-01
         0.47728E-01
         0.82731E-01
         0.10599E+00
         0.10571E+00
        -0.65375E-02
         0.13783E-02
        -0.25485E-02
        -0.73587E-02
         0.14856E-01
         0.12701E-01
         0.39758E-02
        -0.79386E-02
        -0.37783E-02
        -0.76710E-02
        -0.12487E-02
         0.58514E-02
         0.18907E-01
        -0.14057E-01
        -0.14843E-01
         0.12777E-01
         0.71912E-02
        -0.40911E-02
        -0.28188E-02
        -0.48914E-02
        -0.29507E-01
        -0.28116E-01
        -0.27772E-01
        -0.67212E-02
         0.39203E-02
         0.26239E-02
        -0.13959E-01
         0.15185E-02
        -0.49928E-02
        -0.64000E-02
         0.98539E-02
         0.62773E-02
        -0.60204E-02
        -0.54483E-02
         0.26888E-01
         0.14706E-01
         0.16887E-01
        -0.16814E-01
        -0.30370E-02
        -0.82930E-02
        -0.29717E-01
        -0.30568E-01
        -0.29737E-01
        -0.21451E-01
        -0.16472E-01
        -0.96257E-02
         0.10430E-01
         0.12380E-01
        -0.15006E-02
         0.19085E-02
         0.20013E-01
         0.17476E-01
         0.11125E+00
         0.11220E+00
         0.10087E+00
         0.83275E-01
         0.61926E-01
         0.28513E-01
        -0.71816E-02
        -0.23165E-01
        -0.30078E-01
        -0.55368E-01
        -0.98588E-01
        -0.11654E+00
        -0.97700E-01
        -0.92975E-01
        -0.10260E+00
        -0.10578E+00
        -0.96466E-01
        -0.91188E-01
        -0.46252E-01
         0.12101E-01
         0.26470E-01
         0.26921E-01
         0.47694E-01
         0.82682E-01
         0.10594E+00
         0.10566E+00
        -0.65477E-02
         0.13852E-02
        -0.25511E-02
        -0.73631E-02
         0.14842E-01
         0.12689E-01
         0.40003E-02
        -0.79167E-02
        -0.37814E-02
        -0.76628E-02
        -0.12169E-02
         0.58655E-02
         0.18919E-01
        -0.14022E-01
        -0.14835E-01
         0.12793E-01
         0.72073E-02
        -0.40791E-02
        -0.28173E-02
        -0.48835E-02
        -0.29506E-01
        -0.28115E-01
        -0.27774E-01
        -0.67222E-02
         0.39305E-02
         0.26295E-02
        -0.13963E-01
         0.14859E-02
        -0.50260E-02
        -0.64052E-02
         0.98692E-02
         0.62769E-02
        -0.59926E-02
        -0.54496E-02
         0.26903E-01
         0.14701E-01
         0.16883E-01
        -0.16840E-01
        -0.30638E-02
        -0.83194E-02
        -0.29738E-01
        -0.30589E-01
        -0.29744E-01
        -0.21451E-01
        -0.16467E-01
        -0.96222E-02
         0.10427E-01
         0.12384E-01
        -0.14865E-02
         0.19045E-02
         0.20002E-01
         0.17450E-01
         0.11121E+00
         0.11217E+00
         0.10086E+00
         0.83276E-01
         0.61907E-01
         0.28504E-01
        -0.71894E-02
        -0.23179E-01
        -0.30053E-01
        -0.55346E-01
        -0.98572E-01
        -0.11654E+00
        -0.97696E-01
        -0.92972E-01
        -0.10262E+00
        -0.10581E+00
        -0.96488E-01
        -0.91204E-01
        -0.46239E-01
         0.12104E-01
         0.26449E-01
         0.26911E-01
         0.47660E-01
         0.82632E-01
         0.10589E+00
         0.10561E+00
        -0.65579E-02
         0.13922E-02
        -0.25537E-02
        -0.73675E-02
         0.14828E-01
         0.12677E-01
         0.40247E-02
        -0.78947E-02
        -0.37844E-02
        -0.76546E-02
        -0.11853E-02
         0.58794E-02
         0.18931E-01
        -0.13986E-01
        -0.14826E-01
         0.12809E-01
         0.72233E-02
        -0.40672E-02
        -0.28159E-02
        -0.48754E-02
        -0.29506E-01
        -0.28114E-01
        -0.27777E-01
        -0.67232E-02
         0.39406E-02
         0.26350E-02
        -0.13966E-01
         0.14533E-02
        -0.50595E-02
        -0.64101E-02
         0.98844E-02
         0.62764E-02
        -0.59648E-02
        -0.54509E-02
         0.26917E-01
         0.14697E-01
         0.16879E-01
        -0.16866E-01
        -0.30907E-02
        -0.83455E-02
        -0.29759E-01
        -0.30610E-01
        -0.29751E-01
        -0.21451E-01
        -0.16463E-01
        -0.96181E-02
         0.10425E-01
         0.12388E-01
        -0.14724E-02
         0.19002E-02
         0.19992E-01
         0.17425E-01
         0.11117E+00
         0.11214E+00
         0.10085E+00
         0.83276E-01
         0.61888E-01
         0.28495E-01
        -0.71972E-02
        -0.23193E-01
        -0.30028E-01
        -0.55324E-01
        -0.98556E-01
        -0.11654E+00
        -0.97692E-01
        -0.92969E-01
        -0.10263E+00
        -0.10584E+00
        -0.96510E-01
        -0.91219E-01
        -0.46225E-01
         0.12108E-01
         0.26428E-01
         0.26901E-01
         0.47626E-01
         0.82582E-01
         0.10584E+00
         0.10557E+00
        -0.65681E-02
         0.13991E-02
        -0.25564E-02
        -0.73718E-02
         0.14815E-01
         0.12665E-01
         0.40489E-02
        -0.78728E-02
        -0.37874E-02
        -0.76463E-02
        -0.11537E-02
         0.58934E-02
         0.18943E-01
        -0.13951E-01
        -0.14818E-01
         0.12824E-01
         0.72394E-02
        -0.40553E-02
        -0.28148E-02
        -0.48675E-02
        -0.29505E-01
        -0.28113E-01
        -0.27779E-01
        -0.67242E-02
         0.39507E-02
         0.26405E-02
        -0.13969E-01
         0.14209E-02
        -0.50929E-02
        -0.64150E-02
         0.98995E-02
         0.62759E-02
        -0.59370E-02
        -0.54522E-02
         0.26932E-01
         0.14692E-01
         0.16875E-01
        -0.16892E-01
        -0.31176E-02
        -0.83719E-02
        -0.29779E-01
        -0.30631E-01
        -0.29758E-01
        -0.21451E-01
        -0.16458E-01
        -0.96146E-02
         0.10422E-01
         0.12392E-01
        -0.14583E-02
         0.18960E-02
         0.19981E-01
         0.17400E-01
         0.11114E+00
         0.11211E+00
         0.10084E+00
         0.83276E-01
         0.61869E-01
         0.28487E-01
        -0.72050E-02
        -0.23207E-01
        -0.30002E-01
        -0.55302E-01
        -0.98540E-01
        -0.11655E+00
        -0.97688E-01
        -0.92965E-01
        -0.10265E+00
        -0.10588E+00
        -0.96532E-01
        -0.91235E-01
        -0.46212E-01
         0.12112E-01
         0.26408E-01
         0.26890E-01
         0.47592E-01
         0.82532E-01
         0.10578E+00
         0.10552E+00
        -0.65784E-02
         0.14059E-02
        -0.25590E-02
        -0.73761E-02
         0.14801E-01
         0.12653E-01
         0.40733E-02
        -0.78509E-02
        -0.37904E-02
        -0.76382E-02
        -0.11221E-02
         0.59077E-02
         0.18955E-01
        -0.13916E-01
        -0.14809E-01
         0.12840E-01
         0.72554E-02
        -0.40434E-02
        -0.28134E-02
        -0.48593E-02
        -0.29505E-01
        -0.28112E-01
        -0.27781E-01
        -0.67251E-02
         0.39607E-02
         0.26459E-02
        -0.13972E-01
         0.13884E-02
        -0.51263E-02
        -0.64199E-02
         0.99147E-02
         0.62754E-02
        -0.59091E-02
        -0.54535E-02
         0.26947E-01
         0.14687E-01
         0.16871E-01
        -0.16917E-01
        -0.31445E-02
        -0.83981E-02
        -0.29799E-01
        -0.30653E-01
        -0.29765E-01
        -0.21451E-01
        -0.16453E-01
        -0.96111E-02
         0.10419E-01
         0.12396E-01
        -0.14440E-02
         0.18919E-02
         0.19971E-01
         0.17374E-01
         0.11110E+00
         0.11209E+00
         0.10083E+00
         0.83276E-01
         0.61850E-01
         0.28478E-01
        -0.72125E-02
        -0.23220E-01
        -0.29977E-01
        -0.55280E-01
        -0.98524E-01
        -0.11655E+00
        -0.97684E-01
        -0.92962E-01
        -0.10267E+00
        -0.10591E+00
        -0.96554E-01
        -0.91250E-01
        -0.46198E-01
         0.12115E-01
         0.26387E-01
         0.26880E-01
         0.47558E-01
         0.82482E-01
         0.10573E+00
         0.10547E+00
        -0.65886E-02
         0.14129E-02
        -0.25616E-02
        -0.73804E-02
         0.14787E-01
         0.12642E-01
         0.40975E-02
        -0.78289E-02
        -0.37934E-02
        -0.76299E-02
        -0.10906E-02
         0.59217E-02
         0.18966E-01
        -0.13881E-01
        -0.14801E-01
         0.12856E-01
         0.72714E-02
        -0.40317E-02
        -0.28120E-02
        -0.48514E-02
        -0.29504E-01
        -0.28112E-01
        -0.27784E-01
        -0.67262E-02
         0.39705E-02
         0.26514E-02
        -0.13975E-01
         0.13560E-02
        -0.51597E-02
        -0.64247E-02
         0.99298E-02
         0.62749E-02
        -0.58813E-02
        -0.54548E-02
         0.26962E-01
         0.14682E-01
         0.16867E-01
        -0.16943E-01
        -0.31716E-02
        -0.84242E-02
        -0.29820E-01
        -0.30674E-01
        -0.29772E-01
        -0.21450E-01
        -0.16448E-01
        -0.96071E-02
         0.10416E-01
         0.12400E-01
        -0.14299E-02
         0.18876E-02
         0.19960E-01
         0.17349E-01
         0.11106E+00
         0.11206E+00
         0.10082E+00
         0.83276E-01
         0.61831E-01
         0.28469E-01
        -0.72200E-02
        -0.23233E-01
        -0.29951E-01
        -0.55258E-01
        -0.98508E-01
        -0.11656E+00
        -0.97680E-01
        -0.92959E-01
        -0.10268E+00
        -0.10594E+00
        -0.96575E-01
        -0.91266E-01
        -0.46185E-01
         0.12119E-01
         0.26366E-01
         0.26870E-01
         0.47524E-01
         0.82432E-01
         0.10568E+00
         0.10543E+00
        -0.65988E-02
         0.14197E-02
        -0.25643E-02
        -0.73847E-02
         0.14773E-01
         0.12630E-01
         0.41218E-02
        -0.78069E-02
        -0.37963E-02
        -0.76214E-02
        -0.10590E-02
         0.59358E-02
         0.18978E-01
        -0.13845E-01
        -0.14792E-01
         0.12872E-01
         0.72875E-02
        -0.40199E-02
        -0.28107E-02
        -0.48433E-02
        -0.29504E-01
        -0.28110E-01
        -0.27786E-01
        -0.67273E-02
         0.39801E-02
         0.26569E-02
        -0.13978E-01
         0.13233E-02
        -0.51927E-02
        -0.64296E-02
         0.99451E-02
         0.62746E-02
        -0.58536E-02
        -0.54563E-02
         0.26977E-01
         0.14677E-01
         0.16863E-01
        -0.16968E-01
        -0.31989E-02
        -0.84507E-02
        -0.29839E-01
        -0.30694E-01
        -0.29779E-01
        -0.21451E-01
        -0.16443E-01
        -0.96036E-02
         0.10414E-01
         0.12404E-01
        -0.14158E-02
         0.18833E-02
         0.19950E-01
         0.17324E-01
         0.11102E+00
         0.11203E+00
         0.10081E+00
         0.83276E-01
         0.61811E-01
         0.28460E-01
        -0.72273E-02
        -0.23247E-01
        -0.29926E-01
        -0.55236E-01
        -0.98492E-01
        -0.11657E+00
        -0.97677E-01
        -0.92956E-01
        -0.10270E+00
        -0.10597E+00
        -0.96597E-01
        -0.91281E-01
        -0.46171E-01
         0.12122E-01
         0.26345E-01
         0.26859E-01
         0.47490E-01
         0.82382E-01
         0.10563E+00
         0.10538E+00
        -0.66090E-02
         0.14266E-02
        -0.25669E-02
        -0.73890E-02
         0.14759E-01
         0.12618E-01
         0.41460E-02
        -0.77850E-02
        -0.37989E-02
        -0.76119E-02
        -0.10275E-02
         0.59499E-02
         0.18990E-01
        -0.13810E-01
        -0.14783E-01
         0.12887E-01
         0.73033E-02
        -0.40080E-02
        -0.28097E-02
        -0.48355E-02
        -0.29503E-01
        -0.28109E-01
        -0.27789E-01
        -0.67282E-02
         0.39892E-02
         0.26625E-02
        -0.13979E-01
         0.12897E-02
        -0.52260E-02
        -0.64347E-02
         0.99603E-02
         0.62740E-02
        -0.58256E-02
        -0.54576E-02
         0.26991E-01
         0.14673E-01
         0.16859E-01
        -0.16993E-01
        -0.32270E-02
        -0.84766E-02
        -0.29858E-01
        -0.30714E-01
        -0.29785E-01
        -0.21451E-01
        -0.16439E-01
        -0.95998E-02
         0.10411E-01
         0.12408E-01
        -0.14017E-02
         0.18791E-02
         0.19940E-01
         0.17299E-01
         0.11098E+00
         0.11200E+00
         0.10080E+00
         0.83276E-01
         0.61792E-01
         0.28452E-01
        -0.72347E-02
        -0.23260E-01
        -0.29901E-01
        -0.55213E-01
        -0.98476E-01
        -0.11657E+00
        -0.97676E-01
        -0.92953E-01
        -0.10271E+00
        -0.10600E+00
        -0.96619E-01
        -0.91297E-01
        -0.46158E-01
         0.12126E-01
         0.26324E-01
         0.26849E-01
         0.47456E-01
         0.82332E-01
         0.10558E+00
         0.10533E+00
        -0.66192E-02
         0.14334E-02
        -0.25694E-02
        -0.73932E-02
         0.14745E-01
         0.12607E-01
         0.41703E-02
        -0.77630E-02
        -0.38013E-02
        -0.76015E-02
        -0.99605E-03
         0.59640E-02
         0.19002E-01
        -0.13774E-01
        -0.14774E-01
         0.12903E-01
         0.73191E-02
        -0.39962E-02
        -0.28084E-02
        -0.48275E-02
        -0.29503E-01
        -0.28108E-01
        -0.27791E-01
        -0.67293E-02
         0.39975E-02
         0.26680E-02
        -0.13980E-01
         0.12552E-02
        -0.52592E-02
        -0.64397E-02
         0.99755E-02
         0.62735E-02
        -0.57977E-02
        -0.54590E-02
         0.27006E-01
         0.14668E-01
         0.16856E-01
        -0.17017E-01
        -0.32559E-02
        -0.85027E-02
        -0.29875E-01
        -0.30731E-01
        -0.29790E-01
        -0.21451E-01
        -0.16434E-01
        -0.95963E-02
         0.10408E-01
         0.12412E-01
        -0.13875E-02
         0.18749E-02
         0.19929E-01
         0.17273E-01
         0.11094E+00
         0.11197E+00
         0.10079E+00
         0.83276E-01
         0.61773E-01
         0.28443E-01
        -0.72420E-02
        -0.23274E-01
        -0.29876E-01
        -0.55190E-01
        -0.98459E-01
        -0.11659E+00
        -0.97676E-01
        -0.92951E-01
        -0.10273E+00
        -0.10604E+00
        -0.96641E-01
        -0.91312E-01
        -0.46144E-01
         0.12129E-01
         0.26303E-01
         0.26839E-01
         0.47422E-01
         0.82282E-01
         0.10552E+00
         0.10529E+00
        -0.66295E-02
         0.14403E-02
        -0.25721E-02
        -0.73975E-02
         0.14732E-01
         0.12595E-01
         0.41942E-02
        -0.77411E-02
        -0.38035E-02
        -0.75909E-02
        -0.96484E-03
         0.59778E-02
         0.19014E-01
        -0.13739E-01
        -0.14764E-01
         0.12919E-01
         0.73349E-02
        -0.39845E-02
        -0.28071E-02
        -0.48197E-02
        -0.29502E-01
        -0.28107E-01
        -0.27794E-01
        -0.67303E-02
         0.40055E-02
         0.26734E-02
        -0.13980E-01
         0.12205E-02
        -0.52921E-02
        -0.64445E-02
         0.99907E-02
         0.62730E-02
        -0.57700E-02
        -0.54604E-02
         0.27021E-01
         0.14663E-01
         0.16852E-01
        -0.17041E-01
        -0.32850E-02
        -0.85280E-02
        -0.29891E-01
        -0.30748E-01
        -0.29795E-01
        -0.21451E-01
        -0.16429E-01
        -0.95927E-02
         0.10406E-01
         0.12416E-01
        -0.13734E-02
         0.18706E-02
         0.19919E-01
         0.17248E-01
         0.11090E+00
         0.11195E+00
         0.10078E+00
         0.83276E-01
         0.61754E-01
         0.28434E-01
        -0.72492E-02
        -0.23286E-01
        -0.29852E-01
        -0.55166E-01
        -0.98442E-01
        -0.11660E+00
        -0.97677E-01
        -0.92948E-01
        -0.10275E+00
        -0.10607E+00
        -0.96662E-01
        -0.91327E-01
        -0.46131E-01
         0.12133E-01
         0.26283E-01
         0.26828E-01
         0.47389E-01
         0.82233E-01
         0.10547E+00
         0.10524E+00
        -0.66669E-02
         0.14518E-02
        -0.25857E-02
        -0.74317E-02
         0.14777E-01
         0.12635E-01
         0.42330E-02
        -0.77542E-02
        -0.38210E-02
        -0.76140E-02
        -0.94165E-03
         0.60130E-02
         0.19101E-01
        -0.13765E-01
        -0.14819E-01
         0.12986E-01
         0.73802E-02
        -0.39899E-02
        -0.28166E-02
        -0.48308E-02
        -0.29617E-01
        -0.28218E-01
        -0.27903E-01
        -0.67585E-02
         0.40295E-02
         0.26891E-02
        -0.14041E-01
         0.11932E-02
        -0.53448E-02
        -0.64758E-02
         0.10046E-01
         0.62977E-02
        -0.57683E-02
        -0.54846E-02
         0.27145E-01
         0.14719E-01
         0.16916E-01
        -0.17136E-01
        -0.33255E-02
        -0.85872E-02
        -0.30032E-01
        -0.30893E-01
        -0.29922E-01
        -0.21533E-01
        -0.16489E-01
        -0.96263E-02
         0.10446E-01
         0.12472E-01
        -0.13665E-02
         0.18738E-02
         0.19990E-01
         0.17294E-01
         0.11134E+00
         0.11238E+00
         0.10120E+00
         0.83623E-01
         0.61998E-01
         0.28545E-01
        -0.72905E-02
        -0.23399E-01
        -0.29961E-01
        -0.55390E-01
        -0.98864E-01
        -0.11711E+00
        -0.98074E-01
        -0.93313E-01
        -0.10316E+00
        -0.10650E+00
        -0.97054E-01
        -0.91709E-01
        -0.46313E-01
         0.12191E-01
         0.26375E-01
         0.26926E-01
         0.47552E-01
         0.82523E-01
         0.10585E+00
         0.10562E+00
        -0.99580E-02
         0.21833E-02
        -0.38549E-02
        -0.11117E-01
         0.21242E-01
         0.18335E-01
         0.63494E-02
        -0.11508E-01
        -0.56891E-02
        -0.11281E-01
        -0.13650E-02
         0.84986E-02
         0.27394E-01
        -0.20131E-01
        -0.21044E-01
         0.19411E-01
         0.11005E-01
        -0.59564E-02
        -0.41522E-02
        -0.71380E-02
        -0.42436E-01
        -0.40953E-01
        -0.40090E-01
        -0.10042E-01
         0.60305E-02
         0.40311E-02
        -0.20718E-01
         0.17542E-02
        -0.80478E-02
        -0.96793E-02
         0.15024E-01
         0.93898E-02
        -0.86087E-02
        -0.82061E-02
         0.38319E-01
         0.21350E-01
         0.24547E-01
        -0.24907E-01
        -0.49182E-02
        -0.12710E-01
        -0.43792E-01
        -0.45375E-01
        -0.43911E-01
        -0.31160E-01
        -0.23782E-01
        -0.13490E-01
         0.15016E-01
         0.18168E-01
        -0.19868E-02
         0.27265E-02
         0.28407E-01
         0.25020E-01
         0.13940E+00
         0.14045E+00
         0.12652E+00
         0.10485E+00
         0.77660E-01
         0.35833E-01
        -0.92712E-02
        -0.29978E-01
        -0.38290E-01
        -0.70386E-01
        -0.12580E+00
        -0.14874E+00
        -0.12595E+00
        -0.12020E+00
        -0.13118E+00
        -0.13389E+00
        -0.12163E+00
        -0.11430E+00
        -0.57688E-01
         0.15216E-01
         0.33232E-01
         0.34077E-01
         0.59960E-01
         0.10443E+00
         0.13352E+00
         0.13276E+00
  
SCALARS                      strain_xy  double 1
LOOKUP_TABLE default
         0.71780E-04
         0.16121E-03
         0.14213E-02
        -0.52747E-04
        -0.47728E-19
         0.46643E-20
         0.70129E-19
         0.10683E-19
         0.14536E-01
        -0.64892E-02
         0.31216E-18
         0.24754E-18
        -0.51138E-03
         0.10586E-03
         0.27553E-19
        -0.82754E-20
        -0.16830E-03
        -0.25687E-02
         0.13717E-20
         0.20903E-19
         0.18572E-02
         0.11309E-01
         0.11861E-01
         0.21255E-18
         0.16926E-18
        -0.24718E-18
         0.11800E-02
         0.92811E-02
         0.28619E-18
         0.44042E-18
         0.44899E-03
        -0.82120E-03
        -0.74595E-04
        -0.15106E-19
         0.59591E-19
        -0.76219E-21
         0.38303E-02
         0.16527E-02
         0.15948E-18
         0.13212E-18
         0.72885E-02
         0.62053E-02
         0.27188E-18
         0.18323E-18
         0.74165E-02
         0.13910E-02
        -0.99042E-20
         0.73737E-19
        -0.16988E-02
         0.21792E-19
         0.47199E-03
        -0.49131E-21
        -0.97317E-04
         0.16471E-18
        -0.47288E-03
         0.25346E-19
        -0.67465E-02
         0.35116E-03
         0.58904E-21
        -0.28898E-20
        -0.58074E-04
         0.57174E-02
         0.16052E-19
         0.41173E-19
        -0.25467E-03
        -0.32591E-20
        -0.35661E-02
         0.26115E-19
         0.17731E-01
         0.64020E-02
         0.20172E-19
        -0.19317E-18
         0.14177E-01
        -0.30886E-18
        -0.47654E-02
         0.20687E-18
        -0.14886E-01
         0.30820E-19
        -0.26118E-01
         0.40078E-19
        -0.52099E-01
        -0.29308E-01
         0.94222E-19
        -0.23892E-19
        -0.38465E-02
        -0.28750E-20
         0.14034E-01
        -0.25931E-18
         0.20107E-01
        -0.28954E-18
         0.43206E-01
         0.19507E-01
        -0.18328E-18
         0.20344E-18
        -0.31856E-02
         0.18524E-18
        -0.79280E-02
         0.79572E-19
        -0.18340E-01
         0.21128E-18
        -0.44887E-01
        -0.25878E-01
         0.45303E-18
         0.22651E-18
         0.69452E-01
        -0.29800E-01
        -0.29434E-18
         0.36045E-18
         0.16786E+00
        -0.83651E-18
         0.22504E+00
        -0.91442E-18
         0.19217E+00
        -0.62061E-18
         0.15322E+00
        -0.65828E-19
         0.62565E-01
         0.18554E-18
        -0.79158E-01
         0.11488E-18
        -0.17716E+00
         0.10502E-18
        -0.23460E+00
         0.22532E-18
        -0.24050E+00
         0.27395E-18
        -0.21305E+00
         0.10793E-18
        -0.12343E+00
         0.65804E-19
         0.88884E-02
         0.10756E-18
         0.11334E+00
         0.72097E-19
         0.18860E+00
        -0.25711E-18
         0.25685E+00
        -0.67463E-18
         0.21403E+00
        -0.85615E-18
         0.13066E+00
        -0.52987E-18
         0.13996E-01
         0.10109E-18
        -0.97117E-01
         0.21426E-18
        -0.14275E+00
         0.34145E-18
        -0.17086E+00
         0.67240E-18
        -0.15360E+00
         0.87251E-18
        -0.14536E+00
         0.61988E-18
        -0.12274E+00
         0.49024E-18
        -0.63554E-05
         0.16472E-05
         0.16960E-05
        -0.11130E-05
         0.12943E-04
         0.11193E-04
         0.16726E-06
        -0.39066E-05
        -0.18472E-05
        -0.46335E-05
        -0.12034E-05
        -0.21969E-04
        -0.32376E-04
         0.12033E-05
         0.18089E-04
        -0.27922E-05
         0.20579E-05
         0.62920E-06
         0.11896E-05
        -0.98092E-06
         0.48276E-05
         0.42954E-05
        -0.12713E-04
         0.33511E-06
         0.29502E-05
         0.32446E-06
         0.51768E-07
         0.10189E-06
         0.12241E-05
        -0.42671E-05
        -0.24228E-05
         0.49147E-06
         0.82998E-06
        -0.63364E-07
        -0.29075E-05
        -0.10499E-04
        -0.21743E-04
         0.32132E-04
         0.16669E-04
         0.28909E-04
         0.54280E-04
         0.13542E-04
        -0.11662E-04
        -0.23316E-04
        -0.26753E-04
        -0.32151E-04
         0.41762E-05
         0.13177E-04
         0.40513E-05
         0.13108E-04
         0.39316E-04
         0.16044E-04
        -0.11720E-03
         0.15766E-03
        -0.37793E-03
        -0.45077E-03
        -0.42658E-03
        -0.24971E-03
         0.14365E-04
         0.15411E-03
         0.22454E-03
         0.36312E-03
         0.37621E-03
         0.22061E-03
         0.91726E-04
         0.39236E-04
        -0.64793E-04
        -0.26002E-03
        -0.43400E-03
        -0.48359E-03
        -0.27021E-03
         0.50143E-04
         0.18737E-03
         0.19729E-03
         0.30914E-03
         0.33278E-03
         0.26391E-03
         0.24755E-03
        -0.60680E-04
         0.78562E-05
        -0.13840E-04
        -0.95587E-05
         0.10736E-03
         0.41266E-04
         0.95335E-05
        -0.72756E-04
        -0.21923E-04
        -0.65055E-04
         0.69483E-05
        -0.10971E-03
        -0.21383E-03
         0.23564E-04
         0.28246E-03
        -0.45209E-04
         0.76272E-05
         0.43614E-05
         0.13229E-04
         0.44918E-05
         0.11882E-03
         0.80396E-04
        -0.45994E-04
         0.93897E-05
         0.21557E-04
        -0.35902E-05
         0.48856E-05
        -0.12059E-05
        -0.48553E-05
        -0.35836E-04
        -0.37433E-04
        -0.63806E-05
         0.15693E-04
         0.11760E-04
         0.27625E-04
        -0.46477E-04
        -0.10179E-03
         0.23806E-03
         0.35148E-04
         0.89807E-04
         0.24238E-03
        -0.61609E-04
        -0.12404E-03
        -0.11203E-03
        -0.11109E-03
        -0.13278E-03
         0.83505E-04
         0.65192E-04
        -0.10831E-04
         0.15395E-04
         0.16351E-03
         0.10807E-04
        -0.11319E-02
         0.16317E-02
        -0.34084E-02
        -0.36331E-02
        -0.34986E-02
        -0.19334E-02
         0.47023E-03
         0.13307E-02
         0.16800E-02
         0.30467E-02
         0.33983E-02
         0.13213E-02
         0.44158E-03
         0.35999E-03
        -0.18367E-03
        -0.16045E-02
        -0.29338E-02
        -0.38619E-02
        -0.25610E-02
         0.73808E-03
         0.14336E-02
         0.13732E-02
         0.24340E-02
         0.29674E-02
         0.19730E-02
         0.18623E-02
        -0.60832E-04
         0.78868E-05
        -0.13873E-04
        -0.96353E-05
         0.10727E-03
         0.41260E-04
         0.96062E-05
        -0.72694E-04
        -0.21986E-04
        -0.65246E-04
         0.68117E-05
        -0.10997E-03
        -0.21401E-03
         0.23507E-04
         0.28267E-03
        -0.45259E-04
         0.77135E-05
         0.43429E-05
         0.13232E-04
         0.44588E-05
         0.11910E-03
         0.80464E-04
        -0.46001E-04
         0.93857E-05
         0.21704E-04
        -0.35897E-05
         0.49446E-05
        -0.11899E-05
        -0.48572E-05
        -0.35935E-04
        -0.37494E-04
        -0.63658E-05
         0.15662E-04
         0.11784E-04
         0.27379E-04
        -0.46486E-04
        -0.10175E-03
         0.23881E-03
         0.35561E-04
         0.90194E-04
         0.24272E-03
        -0.61479E-04
        -0.12418E-03
        -0.11207E-03
        -0.11106E-03
        -0.13271E-03
         0.83497E-04
         0.65175E-04
        -0.10737E-04
         0.15322E-04
         0.16333E-03
         0.10628E-04
        -0.11305E-02
         0.16314E-02
        -0.34087E-02
        -0.36331E-02
        -0.34971E-02
        -0.19322E-02
         0.47056E-03
         0.13311E-02
         0.16782E-02
         0.30446E-02
         0.33971E-02
         0.13220E-02
         0.44150E-03
         0.36071E-03
        -0.18220E-03
        -0.16057E-02
        -0.29356E-02
        -0.38636E-02
        -0.25602E-02
         0.73837E-03
         0.14325E-02
         0.13726E-02
         0.24316E-02
         0.29634E-02
         0.19699E-02
         0.18590E-02
        -0.60986E-04
         0.79171E-05
        -0.13906E-04
        -0.97127E-05
         0.10718E-03
         0.41256E-04
         0.96793E-05
        -0.72632E-04
        -0.22049E-04
        -0.65432E-04
         0.66753E-05
        -0.11023E-03
        -0.21419E-03
         0.23446E-04
         0.28287E-03
        -0.45310E-04
         0.78011E-05
         0.43241E-05
         0.13234E-04
         0.44259E-05
         0.11938E-03
         0.80530E-04
        -0.46016E-04
         0.93805E-05
         0.21853E-04
        -0.35887E-05
         0.50076E-05
        -0.11743E-05
        -0.48558E-05
        -0.36030E-04
        -0.37556E-04
        -0.63484E-05
         0.15631E-04
         0.11809E-04
         0.27132E-04
        -0.46498E-04
        -0.10171E-03
         0.23956E-03
         0.35976E-04
         0.90586E-04
         0.24307E-03
        -0.61332E-04
        -0.12430E-03
        -0.11213E-03
        -0.11103E-03
        -0.13265E-03
         0.83490E-04
         0.65155E-04
        -0.10642E-04
         0.15247E-04
         0.16316E-03
         0.10449E-04
        -0.11291E-02
         0.16310E-02
        -0.34091E-02
        -0.36332E-02
        -0.34956E-02
        -0.19310E-02
         0.47090E-03
         0.13315E-02
         0.16764E-02
         0.30426E-02
         0.33959E-02
         0.13226E-02
         0.44143E-03
         0.36143E-03
        -0.18072E-03
        -0.16070E-02
        -0.29375E-02
        -0.38652E-02
        -0.25595E-02
         0.73866E-03
         0.14313E-02
         0.13720E-02
         0.24292E-02
         0.29595E-02
         0.19667E-02
         0.18558E-02
        -0.61139E-04
         0.79482E-05
        -0.13939E-04
        -0.97904E-05
         0.10709E-03
         0.41251E-04
         0.97525E-05
        -0.72567E-04
        -0.22109E-04
        -0.65606E-04
         0.65390E-05
        -0.11049E-03
        -0.21438E-03
         0.23389E-04
         0.28308E-03
        -0.45366E-04
         0.78911E-05
         0.43052E-05
         0.13238E-04
         0.43911E-05
         0.11968E-03
         0.80593E-04
        -0.46056E-04
         0.93717E-05
         0.22009E-04
        -0.35868E-05
         0.50724E-05
        -0.11613E-05
        -0.48453E-05
        -0.36118E-04
        -0.37619E-04
        -0.63262E-05
         0.15598E-04
         0.11833E-04
         0.26885E-04
        -0.46508E-04
        -0.10167E-03
         0.24031E-03
         0.36393E-04
         0.90983E-04
         0.24346E-03
        -0.61138E-04
        -0.12442E-03
        -0.11223E-03
        -0.11102E-03
        -0.13259E-03
         0.83492E-04
         0.65139E-04
        -0.10547E-04
         0.15172E-04
         0.16298E-03
         0.10272E-04
        -0.11276E-02
         0.16307E-02
        -0.34094E-02
        -0.36332E-02
        -0.34941E-02
        -0.19297E-02
         0.47124E-03
         0.13320E-02
         0.16747E-02
         0.30405E-02
         0.33947E-02
         0.13235E-02
         0.44141E-03
         0.36214E-03
        -0.17923E-03
        -0.16083E-02
        -0.29397E-02
        -0.38670E-02
        -0.25587E-02
         0.73895E-03
         0.14302E-02
         0.13714E-02
         0.24268E-02
         0.29556E-02
         0.19636E-02
         0.18525E-02
        -0.61291E-04
         0.79794E-05
        -0.13972E-04
        -0.98678E-05
         0.10700E-03
         0.41246E-04
         0.98257E-05
        -0.72499E-04
        -0.22165E-04
        -0.65765E-04
         0.64023E-05
        -0.11075E-03
        -0.21457E-03
         0.23332E-04
         0.28329E-03
        -0.45426E-04
         0.79833E-05
         0.42862E-05
         0.13241E-04
         0.43549E-05
         0.11998E-03
         0.80648E-04
        -0.46118E-04
         0.93592E-05
         0.22172E-04
        -0.35834E-05
         0.51443E-05
        -0.11506E-05
        -0.48251E-05
        -0.36197E-04
        -0.37684E-04
        -0.62979E-05
         0.15566E-04
         0.11857E-04
         0.26637E-04
        -0.46517E-04
        -0.10164E-03
         0.24107E-03
         0.36811E-04
         0.91391E-04
         0.24388E-03
        -0.60892E-04
        -0.12452E-03
        -0.11237E-03
        -0.11103E-03
        -0.13253E-03
         0.83501E-04
         0.65128E-04
        -0.10453E-04
         0.15098E-04
         0.16281E-03
         0.10094E-04
        -0.11262E-02
         0.16304E-02
        -0.34097E-02
        -0.36333E-02
        -0.34926E-02
        -0.19285E-02
         0.47158E-03
         0.13324E-02
         0.16729E-02
         0.30385E-02
         0.33936E-02
         0.13244E-02
         0.44143E-03
         0.36284E-03
        -0.17773E-03
        -0.16098E-02
        -0.29422E-02
        -0.38689E-02
        -0.25580E-02
         0.73924E-03
         0.14290E-02
         0.13708E-02
         0.24244E-02
         0.29517E-02
         0.19605E-02
         0.18492E-02
        -0.61437E-04
         0.80125E-05
        -0.14002E-04
        -0.99460E-05
         0.10690E-03
         0.41241E-04
         0.98978E-05
        -0.72422E-04
        -0.22222E-04
        -0.65916E-04
         0.62658E-05
        -0.11101E-03
        -0.21475E-03
         0.23278E-04
         0.28350E-03
        -0.45489E-04
         0.80774E-05
         0.42675E-05
         0.13244E-04
         0.43186E-05
         0.12029E-03
         0.80703E-04
        -0.46192E-04
         0.93455E-05
         0.22333E-04
        -0.35795E-05
         0.52215E-05
        -0.11408E-05
        -0.48006E-05
        -0.36277E-04
        -0.37746E-04
        -0.62661E-05
         0.15533E-04
         0.11882E-04
         0.26387E-04
        -0.46532E-04
        -0.10161E-03
         0.24182E-03
         0.37233E-04
         0.91805E-04
         0.24431E-03
        -0.60631E-04
        -0.12461E-03
        -0.11253E-03
        -0.11106E-03
        -0.13248E-03
         0.83511E-04
         0.65122E-04
        -0.10358E-04
         0.15030E-04
         0.16264E-03
         0.99172E-05
        -0.11247E-02
         0.16300E-02
        -0.34100E-02
        -0.36333E-02
        -0.34911E-02
        -0.19272E-02
         0.47190E-03
         0.13328E-02
         0.16712E-02
         0.30364E-02
         0.33925E-02
         0.13255E-02
         0.44148E-03
         0.36354E-03
        -0.17624E-03
        -0.16114E-02
        -0.29447E-02
        -0.38709E-02
        -0.25572E-02
         0.73949E-03
         0.14279E-02
         0.13702E-02
         0.24220E-02
         0.29478E-02
         0.19574E-02
         0.18460E-02
        -0.61571E-04
         0.80510E-05
        -0.14026E-04
        -0.10026E-04
         0.10681E-03
         0.41237E-04
         0.99688E-05
        -0.72330E-04
        -0.22280E-04
        -0.66061E-04
         0.61294E-05
        -0.11127E-03
        -0.21496E-03
         0.23238E-04
         0.28370E-03
        -0.45554E-04
         0.81729E-05
         0.42486E-05
         0.13248E-04
         0.42825E-05
         0.12060E-03
         0.80760E-04
        -0.46267E-04
         0.93325E-05
         0.22485E-04
        -0.35743E-05
         0.53124E-05
        -0.11308E-05
        -0.47745E-05
        -0.36358E-04
        -0.37803E-04
        -0.62307E-05
         0.15499E-04
         0.11907E-04
         0.26136E-04
        -0.46550E-04
        -0.10158E-03
         0.24259E-03
         0.37659E-04
         0.92224E-04
         0.24476E-03
        -0.60362E-04
        -0.12470E-03
        -0.11269E-03
        -0.11110E-03
        -0.13245E-03
         0.83526E-04
         0.65133E-04
        -0.10257E-04
         0.14973E-04
         0.16249E-03
         0.97387E-05
        -0.11233E-02
         0.16297E-02
        -0.34103E-02
        -0.36334E-02
        -0.34896E-02
        -0.19260E-02
         0.47222E-03
         0.13332E-02
         0.16694E-02
         0.30343E-02
         0.33914E-02
         0.13265E-02
         0.44152E-03
         0.36425E-03
        -0.17475E-03
        -0.16129E-02
        -0.29473E-02
        -0.38727E-02
        -0.25564E-02
         0.73970E-03
         0.14267E-02
         0.13697E-02
         0.24196E-02
         0.29439E-02
         0.19542E-02
         0.18427E-02
        -0.61699E-04
         0.80912E-05
        -0.14048E-04
        -0.10107E-04
         0.10673E-03
         0.41232E-04
         0.10039E-04
        -0.72230E-04
        -0.22340E-04
        -0.66203E-04
         0.59928E-05
        -0.11153E-03
        -0.21516E-03
         0.23200E-04
         0.28391E-03
        -0.45620E-04
         0.82694E-05
         0.42295E-05
         0.13251E-04
         0.42470E-05
         0.12091E-03
         0.80818E-04
        -0.46339E-04
         0.93198E-05
         0.22631E-04
        -0.35686E-05
         0.54069E-05
        -0.11205E-05
        -0.47479E-05
        -0.36442E-04
        -0.37858E-04
        -0.61932E-05
         0.15465E-04
         0.11931E-04
         0.25883E-04
        -0.46574E-04
        -0.10156E-03
         0.24335E-03
         0.38086E-04
         0.92644E-04
         0.24520E-03
        -0.60095E-04
        -0.12479E-03
        -0.11286E-03
        -0.11114E-03
        -0.13243E-03
         0.83543E-04
         0.65149E-04
        -0.10155E-04
         0.14921E-04
         0.16233E-03
         0.95612E-05
        -0.11218E-02
         0.16294E-02
        -0.34106E-02
        -0.36334E-02
        -0.34881E-02
        -0.19248E-02
         0.47254E-03
         0.13336E-02
         0.16676E-02
         0.30323E-02
         0.33903E-02
         0.13275E-02
         0.44157E-03
         0.36497E-03
        -0.17325E-03
        -0.16144E-02
        -0.29498E-02
        -0.38746E-02
        -0.25556E-02
         0.73988E-03
         0.14255E-02
         0.13691E-02
         0.24173E-02
         0.29400E-02
         0.19511E-02
         0.18394E-02
        -0.61827E-04
         0.81318E-05
        -0.14070E-04
        -0.10188E-04
         0.10664E-03
         0.41226E-04
         0.10109E-04
        -0.72130E-04
        -0.22400E-04
        -0.66345E-04
         0.58562E-05
        -0.11179E-03
        -0.21537E-03
         0.23166E-04
         0.28412E-03
        -0.45686E-04
         0.83666E-05
         0.42105E-05
         0.13254E-04
         0.42110E-05
         0.12121E-03
         0.80877E-04
        -0.46413E-04
         0.93075E-05
         0.22778E-04
        -0.35628E-05
         0.55038E-05
        -0.11095E-05
        -0.47205E-05
        -0.36525E-04
        -0.37913E-04
        -0.61561E-05
         0.15430E-04
         0.11956E-04
         0.25628E-04
        -0.46593E-04
        -0.10155E-03
         0.24412E-03
         0.38517E-04
         0.93062E-04
         0.24565E-03
        -0.59828E-04
        -0.12489E-03
        -0.11302E-03
        -0.11119E-03
        -0.13241E-03
         0.83558E-04
         0.65165E-04
        -0.10054E-04
         0.14871E-04
         0.16219E-03
         0.93831E-05
        -0.11204E-02
         0.16291E-02
        -0.34109E-02
        -0.36334E-02
        -0.34866E-02
        -0.19235E-02
         0.47285E-03
         0.13340E-02
         0.16659E-02
         0.30302E-02
         0.33892E-02
         0.13286E-02
         0.44163E-03
         0.36569E-03
        -0.17176E-03
        -0.16160E-02
        -0.29523E-02
        -0.38764E-02
        -0.25548E-02
         0.74007E-03
         0.14243E-02
         0.13686E-02
         0.24149E-02
         0.29361E-02
         0.19480E-02
         0.18362E-02
        -0.61955E-04
         0.81727E-05
        -0.14092E-04
        -0.10269E-04
         0.10656E-03
         0.41220E-04
         0.10179E-04
        -0.72029E-04
        -0.22460E-04
        -0.66486E-04
         0.57195E-05
        -0.11206E-03
        -0.21558E-03
         0.23128E-04
         0.28432E-03
        -0.45751E-04
         0.84645E-05
         0.41916E-05
         0.13257E-04
         0.41752E-05
         0.12152E-03
         0.80933E-04
        -0.46482E-04
         0.92951E-05
         0.22925E-04
        -0.35570E-05
         0.55982E-05
        -0.10981E-05
        -0.46924E-05
        -0.36608E-04
        -0.37967E-04
        -0.61188E-05
         0.15395E-04
         0.11981E-04
         0.25373E-04
        -0.46616E-04
        -0.10153E-03
         0.24489E-03
         0.38950E-04
         0.93487E-04
         0.24609E-03
        -0.59561E-04
        -0.12498E-03
        -0.11319E-03
        -0.11123E-03
        -0.13239E-03
         0.83575E-04
         0.65184E-04
        -0.99527E-05
         0.14819E-04
         0.16203E-03
         0.92062E-05
        -0.11189E-02
         0.16287E-02
        -0.34111E-02
        -0.36335E-02
        -0.34851E-02
        -0.19222E-02
         0.47316E-03
         0.13344E-02
         0.16641E-02
         0.30281E-02
         0.33881E-02
         0.13296E-02
         0.44168E-03
         0.36642E-03
        -0.17027E-03
        -0.16175E-02
        -0.29549E-02
        -0.38782E-02
        -0.25539E-02
         0.74025E-03
         0.14231E-02
         0.13680E-02
         0.24125E-02
         0.29322E-02
         0.19449E-02
         0.18329E-02
        -0.62083E-04
         0.82132E-05
        -0.14114E-04
        -0.10349E-04
         0.10647E-03
         0.41216E-04
         0.10249E-04
        -0.71927E-04
        -0.22520E-04
        -0.66627E-04
         0.55824E-05
        -0.11232E-03
        -0.21579E-03
         0.23093E-04
         0.28453E-03
        -0.45817E-04
         0.85629E-05
         0.41729E-05
         0.13262E-04
         0.41390E-05
         0.12183E-03
         0.80988E-04
        -0.46556E-04
         0.92831E-05
         0.23072E-04
        -0.35511E-05
         0.56944E-05
        -0.10861E-05
        -0.46635E-05
        -0.36691E-04
        -0.38022E-04
        -0.60816E-05
         0.15360E-04
         0.12005E-04
         0.25117E-04
        -0.46637E-04
        -0.10151E-03
         0.24567E-03
         0.39385E-04
         0.93905E-04
         0.24654E-03
        -0.59294E-04
        -0.12507E-03
        -0.11335E-03
        -0.11127E-03
        -0.13237E-03
         0.83592E-04
         0.65200E-04
        -0.98511E-05
         0.14767E-04
         0.16189E-03
         0.90294E-05
        -0.11175E-02
         0.16284E-02
        -0.34114E-02
        -0.36335E-02
        -0.34835E-02
        -0.19210E-02
         0.47346E-03
         0.13348E-02
         0.16624E-02
         0.30261E-02
         0.33870E-02
         0.13306E-02
         0.44173E-03
         0.36713E-03
        -0.16878E-03
        -0.16191E-02
        -0.29574E-02
        -0.38801E-02
        -0.25531E-02
         0.74042E-03
         0.14219E-02
         0.13674E-02
         0.24102E-02
         0.29283E-02
         0.19419E-02
         0.18297E-02
        -0.62210E-04
         0.82537E-05
        -0.14135E-04
        -0.10431E-04
         0.10638E-03
         0.41210E-04
         0.10319E-04
        -0.71824E-04
        -0.22580E-04
        -0.66766E-04
         0.54454E-05
        -0.11259E-03
        -0.21599E-03
         0.23057E-04
         0.28473E-03
        -0.45883E-04
         0.86617E-05
         0.41539E-05
         0.13265E-04
         0.41035E-05
         0.12213E-03
         0.81041E-04
        -0.46629E-04
         0.92712E-05
         0.23219E-04
        -0.35455E-05
         0.57884E-05
        -0.10736E-05
        -0.46335E-05
        -0.36775E-04
        -0.38076E-04
        -0.60444E-05
         0.15324E-04
         0.12030E-04
         0.24859E-04
        -0.46659E-04
        -0.10149E-03
         0.24644E-03
         0.39823E-04
         0.94332E-04
         0.24698E-03
        -0.59029E-04
        -0.12516E-03
        -0.11351E-03
        -0.11131E-03
        -0.13235E-03
         0.83607E-04
         0.65220E-04
        -0.97495E-05
         0.14718E-04
         0.16174E-03
         0.88531E-05
        -0.11160E-02
         0.16281E-02
        -0.34116E-02
        -0.36335E-02
        -0.34820E-02
        -0.19198E-02
         0.47376E-03
         0.13352E-02
         0.16607E-02
         0.30240E-02
         0.33859E-02
         0.13316E-02
         0.44178E-03
         0.36784E-03
        -0.16728E-03
        -0.16206E-02
        -0.29600E-02
        -0.38819E-02
        -0.25523E-02
         0.74060E-03
         0.14207E-02
         0.13669E-02
         0.24078E-02
         0.29244E-02
         0.19388E-02
         0.18264E-02
        -0.62339E-04
         0.82946E-05
        -0.14156E-04
        -0.10512E-04
         0.10630E-03
         0.41205E-04
         0.10389E-04
        -0.71720E-04
        -0.22640E-04
        -0.66903E-04
         0.53086E-05
        -0.11285E-03
        -0.21620E-03
         0.23018E-04
         0.28493E-03
        -0.45948E-04
         0.87609E-05
         0.41348E-05
         0.13268E-04
         0.40680E-05
         0.12244E-03
         0.81097E-04
        -0.46701E-04
         0.92594E-05
         0.23365E-04
        -0.35395E-05
         0.58852E-05
        -0.10604E-05
        -0.46031E-05
        -0.36857E-04
        -0.38130E-04
        -0.60067E-05
         0.15287E-04
         0.12055E-04
         0.24601E-04
        -0.46683E-04
        -0.10148E-03
         0.24721E-03
         0.40263E-04
         0.94755E-04
         0.24743E-03
        -0.58760E-04
        -0.12525E-03
        -0.11368E-03
        -0.11136E-03
        -0.13232E-03
         0.83625E-04
         0.65237E-04
        -0.96478E-05
         0.14667E-04
         0.16158E-03
         0.86777E-05
        -0.11146E-02
         0.16277E-02
        -0.34118E-02
        -0.36336E-02
        -0.34806E-02
        -0.19185E-02
         0.47408E-03
         0.13356E-02
         0.16589E-02
         0.30219E-02
         0.33847E-02
         0.13326E-02
         0.44183E-03
         0.36856E-03
        -0.16578E-03
        -0.16222E-02
        -0.29625E-02
        -0.38837E-02
        -0.25515E-02
         0.74078E-03
         0.14196E-02
         0.13663E-02
         0.24054E-02
         0.29206E-02
         0.19357E-02
         0.18232E-02
        -0.62467E-04
         0.83349E-05
        -0.14178E-04
        -0.10594E-04
         0.10621E-03
         0.41199E-04
         0.10459E-04
        -0.71615E-04
        -0.22700E-04
        -0.67040E-04
         0.51718E-05
        -0.11311E-03
        -0.21641E-03
         0.22982E-04
         0.28513E-03
        -0.46013E-04
         0.88608E-05
         0.41160E-05
         0.13273E-04
         0.40327E-05
         0.12275E-03
         0.81152E-04
        -0.46774E-04
         0.92476E-05
         0.23512E-04
        -0.35334E-05
         0.59794E-05
        -0.10468E-05
        -0.45721E-05
        -0.36940E-04
        -0.38184E-04
        -0.59695E-05
         0.15250E-04
         0.12080E-04
         0.24342E-04
        -0.46704E-04
        -0.10146E-03
         0.24798E-03
         0.40705E-04
         0.95181E-04
         0.24788E-03
        -0.58491E-04
        -0.12534E-03
        -0.11384E-03
        -0.11141E-03
        -0.13231E-03
         0.83642E-04
         0.65253E-04
        -0.95463E-05
         0.14616E-04
         0.16144E-03
         0.85040E-05
        -0.11131E-02
         0.16274E-02
        -0.34121E-02
        -0.36336E-02
        -0.34791E-02
        -0.19173E-02
         0.47438E-03
         0.13360E-02
         0.16571E-02
         0.30198E-02
         0.33836E-02
         0.13336E-02
         0.44188E-03
         0.36928E-03
        -0.16429E-03
        -0.16237E-02
        -0.29651E-02
        -0.38855E-02
        -0.25507E-02
         0.74095E-03
         0.14184E-02
         0.13658E-02
         0.24031E-02
         0.29167E-02
         0.19327E-02
         0.18199E-02
        -0.62595E-04
         0.83748E-05
        -0.14199E-04
        -0.10675E-04
         0.10613E-03
         0.41192E-04
         0.10530E-04
        -0.71510E-04
        -0.22760E-04
        -0.67177E-04
         0.50348E-05
        -0.11338E-03
        -0.21661E-03
         0.22943E-04
         0.28534E-03
        -0.46078E-04
         0.89614E-05
         0.40974E-05
         0.13276E-04
         0.39971E-05
         0.12306E-03
         0.81205E-04
        -0.46844E-04
         0.92360E-05
         0.23659E-04
        -0.35272E-05
         0.60753E-05
        -0.10326E-05
        -0.45405E-05
        -0.37022E-04
        -0.38238E-04
        -0.59319E-05
         0.15213E-04
         0.12104E-04
         0.24082E-04
        -0.46728E-04
        -0.10144E-03
         0.24876E-03
         0.41149E-04
         0.95606E-04
         0.24833E-03
        -0.58223E-04
        -0.12543E-03
        -0.11400E-03
        -0.11145E-03
        -0.13229E-03
         0.83656E-04
         0.65273E-04
        -0.94436E-05
         0.14565E-04
         0.16129E-03
         0.83294E-05
        -0.11117E-02
         0.16270E-02
        -0.34123E-02
        -0.36336E-02
        -0.34776E-02
        -0.19160E-02
         0.47467E-03
         0.13363E-02
         0.16554E-02
         0.30177E-02
         0.33825E-02
         0.13346E-02
         0.44192E-03
         0.37000E-03
        -0.16279E-03
        -0.16253E-02
        -0.29676E-02
        -0.38874E-02
        -0.25499E-02
         0.74111E-03
         0.14172E-02
         0.13652E-02
         0.24007E-02
         0.29128E-02
         0.19296E-02
         0.18167E-02
        -0.62723E-04
         0.84156E-05
        -0.14220E-04
        -0.10757E-04
         0.10604E-03
         0.41188E-04
         0.10600E-04
        -0.71404E-04
        -0.22820E-04
        -0.67313E-04
         0.48974E-05
        -0.11364E-03
        -0.21683E-03
         0.22906E-04
         0.28553E-03
        -0.46144E-04
         0.90628E-05
         0.40787E-05
         0.13280E-04
         0.39619E-05
         0.12336E-03
         0.81257E-04
        -0.46916E-04
         0.92246E-05
         0.23805E-04
        -0.35210E-05
         0.61687E-05
        -0.10178E-05
        -0.45083E-05
        -0.37104E-04
        -0.38292E-04
        -0.58947E-05
         0.15176E-04
         0.12129E-04
         0.23820E-04
        -0.46749E-04
        -0.10143E-03
         0.24953E-03
         0.41595E-04
         0.96028E-04
         0.24877E-03
        -0.57954E-04
        -0.12552E-03
        -0.11416E-03
        -0.11150E-03
        -0.13226E-03
         0.83673E-04
         0.65290E-04
        -0.93423E-05
         0.14514E-04
         0.16114E-03
         0.81553E-05
        -0.11102E-02
         0.16267E-02
        -0.34126E-02
        -0.36336E-02
        -0.34761E-02
        -0.19148E-02
         0.47495E-03
         0.13367E-02
         0.16537E-02
         0.30156E-02
         0.33815E-02
         0.13357E-02
         0.44197E-03
         0.37071E-03
        -0.16129E-03
        -0.16268E-02
        -0.29702E-02
        -0.38892E-02
        -0.25491E-02
         0.74128E-03
         0.14160E-02
         0.13647E-02
         0.23984E-02
         0.29089E-02
         0.19266E-02
         0.18134E-02
        -0.62851E-04
         0.84559E-05
        -0.14242E-04
        -0.10838E-04
         0.10596E-03
         0.41181E-04
         0.10670E-04
        -0.71297E-04
        -0.22880E-04
        -0.67444E-04
         0.47599E-05
        -0.11391E-03
        -0.21703E-03
         0.22866E-04
         0.28573E-03
        -0.46209E-04
         0.91650E-05
         0.40600E-05
         0.13284E-04
         0.39270E-05
         0.12367E-03
         0.81306E-04
        -0.46988E-04
         0.92134E-05
         0.23950E-04
        -0.35147E-05
         0.62645E-05
        -0.10023E-05
        -0.44749E-05
        -0.37185E-04
        -0.38346E-04
        -0.58574E-05
         0.15138E-04
         0.12155E-04
         0.23557E-04
        -0.46770E-04
        -0.10141E-03
         0.25031E-03
         0.42048E-04
         0.96456E-04
         0.24921E-03
        -0.57688E-04
        -0.12561E-03
        -0.11432E-03
        -0.11154E-03
        -0.13225E-03
         0.83691E-04
         0.65309E-04
        -0.92414E-05
         0.14463E-04
         0.16099E-03
         0.79832E-05
        -0.11087E-02
         0.16263E-02
        -0.34128E-02
        -0.36337E-02
        -0.34746E-02
        -0.19135E-02
         0.47522E-03
         0.13370E-02
         0.16519E-02
         0.30134E-02
         0.33804E-02
         0.13367E-02
         0.44200E-03
         0.37141E-03
        -0.15980E-03
        -0.16283E-02
        -0.29727E-02
        -0.38910E-02
        -0.25483E-02
         0.74145E-03
         0.14148E-02
         0.13641E-02
         0.23960E-02
         0.29051E-02
         0.19236E-02
         0.18102E-02
        -0.62980E-04
         0.84961E-05
        -0.14263E-04
        -0.10921E-04
         0.10587E-03
         0.41175E-04
         0.10740E-04
        -0.71188E-04
        -0.22939E-04
        -0.67567E-04
         0.46224E-05
        -0.11418E-03
        -0.21724E-03
         0.22828E-04
         0.28592E-03
        -0.46275E-04
         0.92683E-05
         0.40411E-05
         0.13289E-04
         0.38937E-05
         0.12397E-03
         0.81354E-04
        -0.47061E-04
         0.92016E-05
         0.24093E-04
        -0.35087E-05
         0.63589E-05
        -0.98561E-06
        -0.44411E-05
        -0.37265E-04
        -0.38399E-04
        -0.58193E-05
         0.15099E-04
         0.12180E-04
         0.23293E-04
        -0.46794E-04
        -0.10139E-03
         0.25108E-03
         0.42511E-04
         0.96871E-04
         0.24964E-03
        -0.57414E-04
        -0.12570E-03
        -0.11449E-03
        -0.11158E-03
        -0.13222E-03
         0.83706E-04
         0.65327E-04
        -0.91408E-05
         0.14412E-04
         0.16084E-03
         0.78112E-05
        -0.11073E-02
         0.16260E-02
        -0.34130E-02
        -0.36337E-02
        -0.34731E-02
        -0.19123E-02
         0.47550E-03
         0.13374E-02
         0.16502E-02
         0.30112E-02
         0.33793E-02
         0.13378E-02
         0.44201E-03
         0.37212E-03
        -0.15831E-03
        -0.16298E-02
        -0.29753E-02
        -0.38928E-02
        -0.25474E-02
         0.74162E-03
         0.14136E-02
         0.13636E-02
         0.23936E-02
         0.29012E-02
         0.19206E-02
         0.18069E-02
        -0.63108E-04
         0.85362E-05
        -0.14284E-04
        -0.11003E-04
         0.10578E-03
         0.41168E-04
         0.10811E-04
        -0.71078E-04
        -0.22996E-04
        -0.67681E-04
         0.44849E-05
        -0.11444E-03
        -0.21745E-03
         0.22789E-04
         0.28610E-03
        -0.46339E-04
         0.93730E-05
         0.40224E-05
         0.13293E-04
         0.38615E-05
         0.12428E-03
         0.81400E-04
        -0.47133E-04
         0.91905E-05
         0.24231E-04
        -0.35022E-05
         0.64569E-05
        -0.96760E-06
        -0.44066E-05
        -0.37341E-04
        -0.38453E-04
        -0.57819E-05
         0.15060E-04
         0.12205E-04
         0.23028E-04
        -0.46816E-04
        -0.10137E-03
         0.25185E-03
         0.42986E-04
         0.97287E-04
         0.25005E-03
        -0.57137E-04
        -0.12579E-03
        -0.11465E-03
        -0.11163E-03
        -0.13221E-03
         0.83724E-04
         0.65345E-04
        -0.90395E-05
         0.14362E-04
         0.16069E-03
         0.76384E-05
        -0.11058E-02
         0.16256E-02
        -0.34132E-02
        -0.36337E-02
        -0.34716E-02
        -0.19110E-02
         0.47577E-03
         0.13377E-02
         0.16485E-02
         0.30089E-02
         0.33783E-02
         0.13389E-02
         0.44200E-03
         0.37283E-03
        -0.15681E-03
        -0.16314E-02
        -0.29778E-02
        -0.38946E-02
        -0.25466E-02
         0.74178E-03
         0.14125E-02
         0.13630E-02
         0.23912E-02
         0.28974E-02
         0.19176E-02
         0.18037E-02
        -0.63237E-04
         0.85765E-05
        -0.14306E-04
        -0.11085E-04
         0.10570E-03
         0.41163E-04
         0.10881E-04
        -0.70969E-04
        -0.23053E-04
        -0.67793E-04
         0.43483E-05
        -0.11470E-03
        -0.21765E-03
         0.22748E-04
         0.28629E-03
        -0.46405E-04
         0.94787E-05
         0.40038E-05
         0.13297E-04
         0.38302E-05
         0.12459E-03
         0.81445E-04
        -0.47200E-04
         0.91801E-05
         0.24368E-04
        -0.34961E-05
         0.65523E-05
        -0.94870E-06
        -0.43720E-05
        -0.37415E-04
        -0.38507E-04
        -0.57452E-05
         0.15021E-04
         0.12231E-04
         0.22765E-04
        -0.46838E-04
        -0.10135E-03
         0.25262E-03
         0.43466E-04
         0.97689E-04
         0.25044E-03
        -0.56864E-04
        -0.12589E-03
        -0.11481E-03
        -0.11167E-03
        -0.13219E-03
         0.83742E-04
         0.65365E-04
        -0.89394E-05
         0.14310E-04
         0.16055E-03
         0.74675E-05
        -0.11044E-02
         0.16253E-02
        -0.34135E-02
        -0.36338E-02
        -0.34701E-02
        -0.19097E-02
         0.47603E-03
         0.13381E-02
         0.16468E-02
         0.30066E-02
         0.33773E-02
         0.13400E-02
         0.44196E-03
         0.37353E-03
        -0.15531E-03
        -0.16329E-02
        -0.29804E-02
        -0.38965E-02
        -0.25458E-02
         0.74196E-03
         0.14113E-02
         0.13624E-02
         0.23889E-02
         0.28935E-02
         0.19146E-02
         0.18005E-02
        -0.63998E-04
         0.86970E-05
        -0.14477E-04
        -0.11274E-04
         0.10671E-03
         0.41573E-04
         0.11059E-04
        -0.71609E-04
        -0.23335E-04
        -0.68608E-04
         0.42742E-05
        -0.11613E-03
        -0.22009E-03
         0.22954E-04
         0.28964E-03
        -0.46930E-04
         0.96750E-05
         0.40253E-05
         0.13432E-04
         0.38399E-05
         0.12612E-03
         0.82315E-04
        -0.47694E-04
         0.92673E-05
         0.24750E-04
        -0.35283E-05
         0.67110E-05
        -0.93918E-06
        -0.43923E-05
        -0.37881E-04
        -0.38948E-04
        -0.57763E-05
         0.15135E-04
         0.12379E-04
         0.22764E-04
        -0.47319E-04
        -0.10234E-03
         0.25610E-03
         0.44380E-04
         0.99114E-04
         0.25350E-03
        -0.57264E-04
        -0.12731E-03
        -0.11603E-03
        -0.11279E-03
        -0.13349E-03
         0.84593E-04
         0.66025E-04
        -0.89381E-05
         0.14404E-04
         0.16206E-03
         0.73738E-05
        -0.11166E-02
         0.16452E-02
        -0.34561E-02
        -0.36781E-02
        -0.35119E-02
        -0.19329E-02
         0.48267E-03
         0.13557E-02
         0.16667E-02
         0.30445E-02
         0.34206E-02
         0.13576E-02
         0.44694E-03
         0.37836E-03
        -0.15561E-03
        -0.16523E-02
        -0.30159E-02
        -0.39443E-02
        -0.25769E-02
         0.75164E-03
         0.14271E-02
         0.13777E-02
         0.24151E-02
         0.29243E-02
         0.19343E-02
         0.18185E-02
        -0.14513E-03
         0.19956E-04
        -0.32737E-04
        -0.25760E-04
         0.22507E-03
         0.89291E-04
         0.25301E-04
        -0.16106E-03
        -0.52647E-04
        -0.15375E-03
         0.93063E-05
        -0.23742E-03
        -0.46245E-03
         0.50251E-04
         0.59899E-03
        -0.10654E-03
         0.22008E-04
         0.91096E-05
         0.29730E-04
         0.85253E-05
         0.26450E-03
         0.17697E-03
        -0.10027E-03
         0.20812E-04
         0.56603E-04
        -0.80534E-05
         0.15068E-04
        -0.21146E-05
        -0.10080E-04
        -0.86424E-04
        -0.88485E-04
        -0.13050E-04
         0.34419E-04
         0.28204E-04
         0.45734E-04
        -0.10157E-03
        -0.21978E-03
         0.55366E-03
         0.98973E-04
         0.22190E-03
         0.55172E-03
        -0.12605E-03
        -0.28019E-03
        -0.24751E-03
        -0.23917E-03
        -0.26784E-03
         0.17832E-03
         0.14255E-03
        -0.19350E-04
         0.31088E-04
         0.33409E-03
         0.15498E-04
        -0.18112E-02
         0.26602E-02
        -0.55963E-02
        -0.59827E-02
        -0.57096E-02
        -0.31633E-02
         0.80961E-03
         0.23097E-02
         0.28279E-02
         0.51109E-02
         0.57505E-02
         0.22690E-02
         0.76007E-03
         0.64730E-03
        -0.25751E-03
        -0.26913E-02
        -0.48842E-02
        -0.63350E-02
        -0.41429E-02
         0.12125E-02
         0.23415E-02
         0.22780E-02
         0.39687E-02
         0.48368E-02
         0.31776E-02
         0.29651E-02
  
SCALARS                      strain_eq  double 1
LOOKUP_TABLE default
         0.13978E+02
         0.13798E+02
         0.13911E+02
         0.14117E+02
         0.32484E-08
         0.36018E-08
         0.34994E-08
         0.31487E-08
         0.13778E+02
         0.13846E+02
         0.35425E-08
         0.33878E-08
         0.13536E+02
         0.13527E+02
         0.38757E-08
         0.36909E-08
         0.14087E+02
         0.13540E+02
         0.28913E-08
         0.32518E-08
         0.13339E+02
         0.13177E+02
         0.13425E+02
         0.39918E-08
         0.38078E-08
         0.37874E-08
         0.13188E+02
         0.12956E+02
         0.38665E-08
         0.35117E-08
         0.14077E+02
         0.13839E+02
         0.14307E+02
         0.31463E-08
         0.29545E-08
         0.28301E-08
         0.13938E+02
         0.13636E+02
         0.34301E-08
         0.31271E-08
         0.13816E+02
         0.13580E+02
         0.31906E-08
         0.27525E-08
         0.14013E+02
         0.14104E+02
         0.34453E-08
         0.35728E-08
         0.13398E+02
         0.30878E-08
         0.14086E+02
         0.35904E-08
         0.13124E+02
         0.33758E-08
         0.13052E+02
         0.31160E-08
         0.13050E+02
         0.13308E+02
         0.31576E-08
         0.31050E-08
         0.14072E+02
         0.13978E+02
         0.31859E-08
         0.36064E-08
         0.14129E+02
         0.30579E-08
         0.14019E+02
         0.33491E-08
         0.13709E+02
         0.13695E+02
         0.35824E-08
         0.35801E-08
         0.13635E+02
         0.36230E-08
         0.12873E+02
         0.28960E-08
         0.12831E+02
         0.26955E-08
         0.12846E+02
         0.28080E-08
         0.12943E+02
         0.13070E+02
         0.27160E-08
         0.28210E-08
         0.13309E+02
         0.26567E-08
         0.14005E+02
         0.35672E-08
         0.13889E+02
         0.36325E-08
         0.13785E+02
         0.13754E+02
         0.36291E-08
         0.35600E-08
         0.13822E+02
         0.31947E-08
         0.13865E+02
         0.31280E-08
         0.13821E+02
         0.33834E-08
         0.13793E+02
         0.13843E+02
         0.34782E-08
         0.34688E-08
         0.13520E+02
         0.13607E+02
         0.33074E-08
         0.31924E-08
         0.13480E+02
         0.32120E-08
         0.13581E+02
         0.31359E-08
         0.13470E+02
         0.31321E-08
         0.13202E+02
         0.29365E-08
         0.12932E+02
         0.24847E-08
         0.12778E+02
         0.20995E-08
         0.12763E+02
         0.20363E-08
         0.12771E+02
         0.21695E-08
         0.12941E+02
         0.22380E-08
         0.13228E+02
         0.20965E-08
         0.13556E+02
         0.19135E-08
         0.13767E+02
         0.19803E-08
         0.13972E+02
         0.23474E-08
         0.14105E+02
         0.27404E-08
         0.14091E+02
         0.29207E-08
         0.13803E+02
         0.31187E-08
         0.13610E+02
         0.32774E-08
         0.13505E+02
         0.30579E-08
         0.13604E+02
         0.26922E-08
         0.13675E+02
         0.26870E-08
         0.13599E+02
         0.29568E-08
         0.13621E+02
         0.31375E-08
         0.13678E+02
         0.30359E-08
         0.13757E+02
         0.29683E-08
         0.37217E+00
         0.36576E+00
         0.36664E+00
         0.37469E+00
         0.35931E+00
         0.36747E+00
         0.35709E+00
         0.36263E+00
         0.37350E+00
         0.36692E+00
         0.35091E+00
         0.34928E+00
         0.35432E+00
         0.35444E+00
         0.35148E+00
         0.37434E+00
         0.37289E+00
         0.37686E+00
         0.36503E+00
         0.36732E+00
         0.36424E+00
         0.36646E+00
         0.36234E+00
         0.36322E+00
         0.36715E+00
         0.36685E+00
         0.36006E+00
         0.36068E+00
         0.35539E+00
         0.36333E+00
         0.37363E+00
         0.36565E+00
         0.37356E+00
         0.36841E+00
         0.34787E+00
         0.35481E+00
         0.35807E+00
         0.35440E+00
         0.35382E+00
         0.34727E+00
         0.34253E+00
         0.35416E+00
         0.36444E+00
         0.36301E+00
         0.35779E+00
         0.34818E+00
         0.35635E+00
         0.36468E+00
         0.36410E+00
         0.35768E+00
         0.35087E+00
         0.36006E+00
         0.33191E+00
         0.34192E+00
         0.34056E+00
         0.34298E+00
         0.34276E+00
         0.33805E+00
         0.33236E+00
         0.32997E+00
         0.33061E+00
         0.33025E+00
         0.32766E+00
         0.34197E+00
         0.34631E+00
         0.34795E+00
         0.35142E+00
         0.35406E+00
         0.35417E+00
         0.35030E+00
         0.33550E+00
         0.33936E+00
         0.34411E+00
         0.34379E+00
         0.34297E+00
         0.33796E+00
         0.34525E+00
         0.34794E+00
         0.23079E-01
         0.13867E-01
         0.13080E-01
         0.89694E-02
         0.23967E-01
         0.16571E-01
         0.73145E-02
         0.22698E-01
         0.14219E-01
         0.21388E-01
         0.10428E-01
         0.44935E-01
         0.34122E-01
         0.17066E-01
         0.47062E-01
         0.16769E-01
         0.84956E-02
         0.54202E-02
         0.11292E-01
         0.61131E-02
         0.35337E-01
         0.33153E-01
         0.32286E-01
         0.84020E-02
         0.13803E-01
         0.43889E-02
         0.16101E-01
         0.26152E-02
         0.58972E-02
         0.14971E-01
         0.14326E-01
         0.76199E-02
         0.92790E-02
         0.80271E-02
         0.30981E-01
         0.18540E-01
         0.23998E-01
         0.38381E-01
         0.29524E-01
         0.27479E-01
         0.39027E-01
         0.35379E-01
         0.35615E-01
         0.27571E-01
         0.24622E-01
         0.33682E-01
         0.22081E-01
         0.18776E-01
         0.15483E-01
         0.18283E-01
         0.29894E-01
         0.20525E-01
         0.13122E+00
         0.13436E+00
         0.14044E+00
         0.13942E+00
         0.14862E+00
         0.15956E+00
         0.15312E+00
         0.13616E+00
         0.13269E+00
         0.14200E+00
         0.13917E+00
         0.13728E+00
         0.11349E+00
         0.10789E+00
         0.11852E+00
         0.12695E+00
         0.13174E+00
         0.14386E+00
         0.13838E+00
         0.14212E+00
         0.12798E+00
         0.12152E+00
         0.12959E+00
         0.12669E+00
         0.13036E+00
         0.12927E+00
         0.23096E-01
         0.13870E-01
         0.13087E-01
         0.89823E-02
         0.23956E-01
         0.16561E-01
         0.73366E-02
         0.22720E-01
         0.14243E-01
         0.21451E-01
         0.10428E-01
         0.44933E-01
         0.34136E-01
         0.17026E-01
         0.47111E-01
         0.16783E-01
         0.85194E-02
         0.54066E-02
         0.11298E-01
         0.60996E-02
         0.35340E-01
         0.33150E-01
         0.32284E-01
         0.84018E-02
         0.13862E-01
         0.43879E-02
         0.16107E-01
         0.25875E-02
         0.59253E-02
         0.14998E-01
         0.14339E-01
         0.76174E-02
         0.92633E-02
         0.80345E-02
         0.30995E-01
         0.18534E-01
         0.23993E-01
         0.38440E-01
         0.29590E-01
         0.27517E-01
         0.39053E-01
         0.35398E-01
         0.35619E-01
         0.27570E-01
         0.24617E-01
         0.33680E-01
         0.22081E-01
         0.18774E-01
         0.15461E-01
         0.18258E-01
         0.29878E-01
         0.20493E-01
         0.13117E+00
         0.13432E+00
         0.14044E+00
         0.13942E+00
         0.14859E+00
         0.15951E+00
         0.15305E+00
         0.13612E+00
         0.13266E+00
         0.14196E+00
         0.13915E+00
         0.13728E+00
         0.11348E+00
         0.10788E+00
         0.11853E+00
         0.12698E+00
         0.13177E+00
         0.14389E+00
         0.13837E+00
         0.14212E+00
         0.12797E+00
         0.12151E+00
         0.12955E+00
         0.12660E+00
         0.13029E+00
         0.12920E+00
         0.23114E-01
         0.13873E-01
         0.13095E-01
         0.89952E-02
         0.23945E-01
         0.16552E-01
         0.73589E-02
         0.22742E-01
         0.14268E-01
         0.21514E-01
         0.10428E-01
         0.44932E-01
         0.34149E-01
         0.16986E-01
         0.47159E-01
         0.16797E-01
         0.85436E-02
         0.53928E-02
         0.11305E-01
         0.60864E-02
         0.35343E-01
         0.33148E-01
         0.32282E-01
         0.84014E-02
         0.13921E-01
         0.43866E-02
         0.16112E-01
         0.25609E-02
         0.59532E-02
         0.15023E-01
         0.14353E-01
         0.76149E-02
         0.92476E-02
         0.80417E-02
         0.31009E-01
         0.18530E-01
         0.23987E-01
         0.38500E-01
         0.29656E-01
         0.27556E-01
         0.39080E-01
         0.35416E-01
         0.35624E-01
         0.27571E-01
         0.24613E-01
         0.33679E-01
         0.22081E-01
         0.18773E-01
         0.15439E-01
         0.18233E-01
         0.29862E-01
         0.20462E-01
         0.13112E+00
         0.13429E+00
         0.14044E+00
         0.13942E+00
         0.14857E+00
         0.15945E+00
         0.15299E+00
         0.13609E+00
         0.13262E+00
         0.14192E+00
         0.13913E+00
         0.13729E+00
         0.11347E+00
         0.10788E+00
         0.11855E+00
         0.12701E+00
         0.13180E+00
         0.14392E+00
         0.13836E+00
         0.14211E+00
         0.12795E+00
         0.12150E+00
         0.12950E+00
         0.12652E+00
         0.13022E+00
         0.12913E+00
         0.23131E-01
         0.13877E-01
         0.13102E-01
         0.90081E-02
         0.23934E-01
         0.16543E-01
         0.73814E-02
         0.22764E-01
         0.14292E-01
         0.21575E-01
         0.10428E-01
         0.44931E-01
         0.34163E-01
         0.16946E-01
         0.47208E-01
         0.16812E-01
         0.85687E-02
         0.53789E-02
         0.11312E-01
         0.60726E-02
         0.35348E-01
         0.33147E-01
         0.32282E-01
         0.84006E-02
         0.13979E-01
         0.43846E-02
         0.16116E-01
         0.25373E-02
         0.59795E-02
         0.15046E-01
         0.14368E-01
         0.76130E-02
         0.92318E-02
         0.80490E-02
         0.31022E-01
         0.18525E-01
         0.23981E-01
         0.38560E-01
         0.29724E-01
         0.27596E-01
         0.39108E-01
         0.35436E-01
         0.35630E-01
         0.27574E-01
         0.24610E-01
         0.33679E-01
         0.22083E-01
         0.18772E-01
         0.15417E-01
         0.18208E-01
         0.29844E-01
         0.20430E-01
         0.13108E+00
         0.13426E+00
         0.14044E+00
         0.13942E+00
         0.14854E+00
         0.15940E+00
         0.15293E+00
         0.13605E+00
         0.13259E+00
         0.14187E+00
         0.13910E+00
         0.13730E+00
         0.11346E+00
         0.10788E+00
         0.11856E+00
         0.12704E+00
         0.13184E+00
         0.14395E+00
         0.13836E+00
         0.14210E+00
         0.12794E+00
         0.12149E+00
         0.12946E+00
         0.12644E+00
         0.13014E+00
         0.12906E+00
         0.23148E-01
         0.13880E-01
         0.13110E-01
         0.90210E-02
         0.23923E-01
         0.16533E-01
         0.74037E-02
         0.22785E-01
         0.14317E-01
         0.21635E-01
         0.10428E-01
         0.44929E-01
         0.34177E-01
         0.16906E-01
         0.47257E-01
         0.16828E-01
         0.85948E-02
         0.53650E-02
         0.11319E-01
         0.60584E-02
         0.35353E-01
         0.33146E-01
         0.32284E-01
         0.83993E-02
         0.14035E-01
         0.43816E-02
         0.16120E-01
         0.25168E-02
         0.60042E-02
         0.15067E-01
         0.14383E-01
         0.76114E-02
         0.92160E-02
         0.80563E-02
         0.31036E-01
         0.18519E-01
         0.23976E-01
         0.38620E-01
         0.29793E-01
         0.27638E-01
         0.39138E-01
         0.35456E-01
         0.35638E-01
         0.27580E-01
         0.24609E-01
         0.33680E-01
         0.22086E-01
         0.18772E-01
         0.15395E-01
         0.18183E-01
         0.29828E-01
         0.20398E-01
         0.13103E+00
         0.13423E+00
         0.14044E+00
         0.13942E+00
         0.14852E+00
         0.15935E+00
         0.15286E+00
         0.13602E+00
         0.13256E+00
         0.14183E+00
         0.13908E+00
         0.13730E+00
         0.11346E+00
         0.10787E+00
         0.11858E+00
         0.12708E+00
         0.13189E+00
         0.14399E+00
         0.13835E+00
         0.14209E+00
         0.12792E+00
         0.12149E+00
         0.12941E+00
         0.12635E+00
         0.13007E+00
         0.12899E+00
         0.23165E-01
         0.13882E-01
         0.13117E-01
         0.90339E-02
         0.23913E-01
         0.16524E-01
         0.74254E-02
         0.22805E-01
         0.14341E-01
         0.21693E-01
         0.10429E-01
         0.44928E-01
         0.34190E-01
         0.16867E-01
         0.47305E-01
         0.16844E-01
         0.86210E-02
         0.53511E-02
         0.11327E-01
         0.60446E-02
         0.35360E-01
         0.33146E-01
         0.32288E-01
         0.83980E-02
         0.14090E-01
         0.43783E-02
         0.16124E-01
         0.24979E-02
         0.60287E-02
         0.15087E-01
         0.14398E-01
         0.76092E-02
         0.92002E-02
         0.80636E-02
         0.31050E-01
         0.18515E-01
         0.23971E-01
         0.38681E-01
         0.29862E-01
         0.27682E-01
         0.39168E-01
         0.35477E-01
         0.35647E-01
         0.27587E-01
         0.24610E-01
         0.33683E-01
         0.22089E-01
         0.18772E-01
         0.15375E-01
         0.18158E-01
         0.29812E-01
         0.20368E-01
         0.13098E+00
         0.13420E+00
         0.14043E+00
         0.13943E+00
         0.14849E+00
         0.15929E+00
         0.15280E+00
         0.13598E+00
         0.13252E+00
         0.14179E+00
         0.13906E+00
         0.13731E+00
         0.11345E+00
         0.10787E+00
         0.11860E+00
         0.12713E+00
         0.13193E+00
         0.14402E+00
         0.13834E+00
         0.14208E+00
         0.12791E+00
         0.12148E+00
         0.12937E+00
         0.12627E+00
         0.13000E+00
         0.12892E+00
         0.23180E-01
         0.13882E-01
         0.13124E-01
         0.90470E-02
         0.23902E-01
         0.16515E-01
         0.74464E-02
         0.22822E-01
         0.14366E-01
         0.21748E-01
         0.10432E-01
         0.44929E-01
         0.34206E-01
         0.16827E-01
         0.47354E-01
         0.16861E-01
         0.86468E-02
         0.53371E-02
         0.11335E-01
         0.60310E-02
         0.35365E-01
         0.33146E-01
         0.32291E-01
         0.83970E-02
         0.14143E-01
         0.43743E-02
         0.16128E-01
         0.24796E-02
         0.60535E-02
         0.15107E-01
         0.14411E-01
         0.76054E-02
         0.91843E-02
         0.80706E-02
         0.31065E-01
         0.18512E-01
         0.23967E-01
         0.38742E-01
         0.29933E-01
         0.27725E-01
         0.39199E-01
         0.35499E-01
         0.35656E-01
         0.27594E-01
         0.24611E-01
         0.33687E-01
         0.22093E-01
         0.18774E-01
         0.15357E-01
         0.18134E-01
         0.29798E-01
         0.20337E-01
         0.13093E+00
         0.13416E+00
         0.14043E+00
         0.13943E+00
         0.14847E+00
         0.15924E+00
         0.15273E+00
         0.13594E+00
         0.13249E+00
         0.14175E+00
         0.13903E+00
         0.13732E+00
         0.11345E+00
         0.10787E+00
         0.11862E+00
         0.12717E+00
         0.13198E+00
         0.14405E+00
         0.13833E+00
         0.14207E+00
         0.12790E+00
         0.12147E+00
         0.12932E+00
         0.12619E+00
         0.12993E+00
         0.12886E+00
         0.23195E-01
         0.13882E-01
         0.13131E-01
         0.90600E-02
         0.23892E-01
         0.16505E-01
         0.74666E-02
         0.22838E-01
         0.14392E-01
         0.21803E-01
         0.10436E-01
         0.44929E-01
         0.34221E-01
         0.16788E-01
         0.47404E-01
         0.16878E-01
         0.86723E-02
         0.53230E-02
         0.11342E-01
         0.60180E-02
         0.35372E-01
         0.33146E-01
         0.32295E-01
         0.83959E-02
         0.14196E-01
         0.43701E-02
         0.16133E-01
         0.24618E-02
         0.60791E-02
         0.15127E-01
         0.14425E-01
         0.76009E-02
         0.91683E-02
         0.80776E-02
         0.31080E-01
         0.18509E-01
         0.23964E-01
         0.38804E-01
         0.30003E-01
         0.27769E-01
         0.39230E-01
         0.35520E-01
         0.35666E-01
         0.27602E-01
         0.24614E-01
         0.33693E-01
         0.22099E-01
         0.18777E-01
         0.15341E-01
         0.18111E-01
         0.29783E-01
         0.20307E-01
         0.13089E+00
         0.13413E+00
         0.14043E+00
         0.13943E+00
         0.14845E+00
         0.15918E+00
         0.15267E+00
         0.13591E+00
         0.13246E+00
         0.14170E+00
         0.13901E+00
         0.13733E+00
         0.11345E+00
         0.10787E+00
         0.11863E+00
         0.12721E+00
         0.13202E+00
         0.14409E+00
         0.13832E+00
         0.14206E+00
         0.12789E+00
         0.12147E+00
         0.12928E+00
         0.12611E+00
         0.12985E+00
         0.12879E+00
         0.23209E-01
         0.13882E-01
         0.13137E-01
         0.90731E-02
         0.23882E-01
         0.16496E-01
         0.74869E-02
         0.22853E-01
         0.14417E-01
         0.21857E-01
         0.10439E-01
         0.44929E-01
         0.34236E-01
         0.16749E-01
         0.47454E-01
         0.16895E-01
         0.86978E-02
         0.53089E-02
         0.11350E-01
         0.60046E-02
         0.35377E-01
         0.33146E-01
         0.32298E-01
         0.83951E-02
         0.14248E-01
         0.43660E-02
         0.16137E-01
         0.24446E-02
         0.61050E-02
         0.15147E-01
         0.14438E-01
         0.75964E-02
         0.91525E-02
         0.80846E-02
         0.31096E-01
         0.18506E-01
         0.23961E-01
         0.38865E-01
         0.30074E-01
         0.27813E-01
         0.39262E-01
         0.35542E-01
         0.35675E-01
         0.27610E-01
         0.24616E-01
         0.33698E-01
         0.22104E-01
         0.18780E-01
         0.15325E-01
         0.18089E-01
         0.29770E-01
         0.20276E-01
         0.13084E+00
         0.13410E+00
         0.14043E+00
         0.13943E+00
         0.14842E+00
         0.15913E+00
         0.15260E+00
         0.13587E+00
         0.13242E+00
         0.14166E+00
         0.13899E+00
         0.13734E+00
         0.11344E+00
         0.10787E+00
         0.11865E+00
         0.12725E+00
         0.13207E+00
         0.14412E+00
         0.13831E+00
         0.14206E+00
         0.12788E+00
         0.12146E+00
         0.12923E+00
         0.12602E+00
         0.12978E+00
         0.12872E+00
         0.23223E-01
         0.13882E-01
         0.13144E-01
         0.90863E-02
         0.23872E-01
         0.16486E-01
         0.75073E-02
         0.22869E-01
         0.14442E-01
         0.21912E-01
         0.10443E-01
         0.44929E-01
         0.34252E-01
         0.16710E-01
         0.47503E-01
         0.16911E-01
         0.87235E-02
         0.52950E-02
         0.11357E-01
         0.59915E-02
         0.35384E-01
         0.33146E-01
         0.32301E-01
         0.83943E-02
         0.14301E-01
         0.43619E-02
         0.16142E-01
         0.24280E-02
         0.61310E-02
         0.15167E-01
         0.14451E-01
         0.75918E-02
         0.91367E-02
         0.80916E-02
         0.31110E-01
         0.18503E-01
         0.23958E-01
         0.38927E-01
         0.30145E-01
         0.27857E-01
         0.39293E-01
         0.35563E-01
         0.35684E-01
         0.27617E-01
         0.24619E-01
         0.33704E-01
         0.22110E-01
         0.18783E-01
         0.15308E-01
         0.18066E-01
         0.29755E-01
         0.20246E-01
         0.13079E+00
         0.13407E+00
         0.14043E+00
         0.13943E+00
         0.14840E+00
         0.15908E+00
         0.15254E+00
         0.13583E+00
         0.13239E+00
         0.14161E+00
         0.13897E+00
         0.13735E+00
         0.11344E+00
         0.10786E+00
         0.11867E+00
         0.12730E+00
         0.13211E+00
         0.14415E+00
         0.13830E+00
         0.14205E+00
         0.12787E+00
         0.12146E+00
         0.12919E+00
         0.12594E+00
         0.12971E+00
         0.12865E+00
         0.23238E-01
         0.13882E-01
         0.13151E-01
         0.90993E-02
         0.23862E-01
         0.16477E-01
         0.75280E-02
         0.22884E-01
         0.14468E-01
         0.21966E-01
         0.10447E-01
         0.44929E-01
         0.34268E-01
         0.16671E-01
         0.47553E-01
         0.16928E-01
         0.87491E-02
         0.52810E-02
         0.11365E-01
         0.59780E-02
         0.35390E-01
         0.33146E-01
         0.32305E-01
         0.83935E-02
         0.14353E-01
         0.43578E-02
         0.16147E-01
         0.24119E-02
         0.61572E-02
         0.15187E-01
         0.14464E-01
         0.75873E-02
         0.91210E-02
         0.80986E-02
         0.31126E-01
         0.18500E-01
         0.23954E-01
         0.38989E-01
         0.30216E-01
         0.27900E-01
         0.39324E-01
         0.35585E-01
         0.35693E-01
         0.27625E-01
         0.24621E-01
         0.33709E-01
         0.22115E-01
         0.18786E-01
         0.15292E-01
         0.18043E-01
         0.29741E-01
         0.20215E-01
         0.13074E+00
         0.13404E+00
         0.14043E+00
         0.13943E+00
         0.14837E+00
         0.15902E+00
         0.15247E+00
         0.13580E+00
         0.13236E+00
         0.14157E+00
         0.13894E+00
         0.13736E+00
         0.11343E+00
         0.10786E+00
         0.11869E+00
         0.12734E+00
         0.13216E+00
         0.14419E+00
         0.13829E+00
         0.14204E+00
         0.12785E+00
         0.12145E+00
         0.12914E+00
         0.12586E+00
         0.12964E+00
         0.12858E+00
         0.23252E-01
         0.13882E-01
         0.13157E-01
         0.91126E-02
         0.23852E-01
         0.16468E-01
         0.75484E-02
         0.22900E-01
         0.14493E-01
         0.22020E-01
         0.10451E-01
         0.44930E-01
         0.34283E-01
         0.16632E-01
         0.47602E-01
         0.16945E-01
         0.87748E-02
         0.52670E-02
         0.11372E-01
         0.59649E-02
         0.35396E-01
         0.33146E-01
         0.32309E-01
         0.83929E-02
         0.14405E-01
         0.43540E-02
         0.16151E-01
         0.23964E-02
         0.61834E-02
         0.15207E-01
         0.14477E-01
         0.75829E-02
         0.91053E-02
         0.81056E-02
         0.31141E-01
         0.18497E-01
         0.23951E-01
         0.39051E-01
         0.30286E-01
         0.27944E-01
         0.39355E-01
         0.35606E-01
         0.35703E-01
         0.27633E-01
         0.24624E-01
         0.33715E-01
         0.22120E-01
         0.18790E-01
         0.15276E-01
         0.18020E-01
         0.29727E-01
         0.20185E-01
         0.13069E+00
         0.13401E+00
         0.14042E+00
         0.13943E+00
         0.14835E+00
         0.15897E+00
         0.15241E+00
         0.13576E+00
         0.13232E+00
         0.14153E+00
         0.13892E+00
         0.13737E+00
         0.11343E+00
         0.10786E+00
         0.11871E+00
         0.12738E+00
         0.13220E+00
         0.14422E+00
         0.13829E+00
         0.14203E+00
         0.12784E+00
         0.12145E+00
         0.12910E+00
         0.12578E+00
         0.12956E+00
         0.12851E+00
         0.23266E-01
         0.13882E-01
         0.13164E-01
         0.91258E-02
         0.23842E-01
         0.16458E-01
         0.75689E-02
         0.22916E-01
         0.14519E-01
         0.22075E-01
         0.10455E-01
         0.44930E-01
         0.34299E-01
         0.16593E-01
         0.47652E-01
         0.16961E-01
         0.88005E-02
         0.52529E-02
         0.11379E-01
         0.59516E-02
         0.35402E-01
         0.33146E-01
         0.32312E-01
         0.83922E-02
         0.14457E-01
         0.43500E-02
         0.16156E-01
         0.23813E-02
         0.62101E-02
         0.15227E-01
         0.14491E-01
         0.75783E-02
         0.90897E-02
         0.81126E-02
         0.31156E-01
         0.18494E-01
         0.23948E-01
         0.39112E-01
         0.30357E-01
         0.27987E-01
         0.39387E-01
         0.35628E-01
         0.35712E-01
         0.27641E-01
         0.24627E-01
         0.33719E-01
         0.22126E-01
         0.18793E-01
         0.15260E-01
         0.17997E-01
         0.29712E-01
         0.20154E-01
         0.13065E+00
         0.13397E+00
         0.14042E+00
         0.13943E+00
         0.14832E+00
         0.15891E+00
         0.15234E+00
         0.13572E+00
         0.13229E+00
         0.14148E+00
         0.13890E+00
         0.13738E+00
         0.11342E+00
         0.10786E+00
         0.11873E+00
         0.12742E+00
         0.13225E+00
         0.14425E+00
         0.13828E+00
         0.14202E+00
         0.12783E+00
         0.12144E+00
         0.12905E+00
         0.12570E+00
         0.12949E+00
         0.12844E+00
         0.23280E-01
         0.13882E-01
         0.13171E-01
         0.91390E-02
         0.23832E-01
         0.16449E-01
         0.75897E-02
         0.22931E-01
         0.14544E-01
         0.22129E-01
         0.10460E-01
         0.44930E-01
         0.34314E-01
         0.16554E-01
         0.47701E-01
         0.16978E-01
         0.88263E-02
         0.52389E-02
         0.11387E-01
         0.59386E-02
         0.35408E-01
         0.33146E-01
         0.32315E-01
         0.83915E-02
         0.14509E-01
         0.43460E-02
         0.16160E-01
         0.23668E-02
         0.62371E-02
         0.15247E-01
         0.14504E-01
         0.75738E-02
         0.90742E-02
         0.81197E-02
         0.31172E-01
         0.18492E-01
         0.23945E-01
         0.39174E-01
         0.30429E-01
         0.28030E-01
         0.39418E-01
         0.35649E-01
         0.35721E-01
         0.27648E-01
         0.24629E-01
         0.33725E-01
         0.22131E-01
         0.18796E-01
         0.15243E-01
         0.17974E-01
         0.29699E-01
         0.20124E-01
         0.13060E+00
         0.13394E+00
         0.14042E+00
         0.13943E+00
         0.14830E+00
         0.15886E+00
         0.15228E+00
         0.13569E+00
         0.13226E+00
         0.14144E+00
         0.13888E+00
         0.13739E+00
         0.11342E+00
         0.10786E+00
         0.11874E+00
         0.12746E+00
         0.13230E+00
         0.14429E+00
         0.13827E+00
         0.14201E+00
         0.12782E+00
         0.12143E+00
         0.12901E+00
         0.12561E+00
         0.12942E+00
         0.12838E+00
         0.23294E-01
         0.13882E-01
         0.13177E-01
         0.91523E-02
         0.23822E-01
         0.16439E-01
         0.76102E-02
         0.22947E-01
         0.14570E-01
         0.22183E-01
         0.10464E-01
         0.44931E-01
         0.34330E-01
         0.16516E-01
         0.47751E-01
         0.16995E-01
         0.88522E-02
         0.52249E-02
         0.11394E-01
         0.59252E-02
         0.35414E-01
         0.33146E-01
         0.32319E-01
         0.83909E-02
         0.14562E-01
         0.43421E-02
         0.16165E-01
         0.23528E-02
         0.62643E-02
         0.15267E-01
         0.14517E-01
         0.75693E-02
         0.90587E-02
         0.81267E-02
         0.31187E-01
         0.18489E-01
         0.23941E-01
         0.39236E-01
         0.30500E-01
         0.28074E-01
         0.39449E-01
         0.35670E-01
         0.35730E-01
         0.27656E-01
         0.24632E-01
         0.33731E-01
         0.22137E-01
         0.18799E-01
         0.15227E-01
         0.17951E-01
         0.29685E-01
         0.20094E-01
         0.13055E+00
         0.13391E+00
         0.14042E+00
         0.13943E+00
         0.14828E+00
         0.15880E+00
         0.15221E+00
         0.13565E+00
         0.13222E+00
         0.14139E+00
         0.13885E+00
         0.13739E+00
         0.11341E+00
         0.10785E+00
         0.11876E+00
         0.12751E+00
         0.13234E+00
         0.14432E+00
         0.13826E+00
         0.14200E+00
         0.12781E+00
         0.12143E+00
         0.12896E+00
         0.12553E+00
         0.12935E+00
         0.12831E+00
         0.23308E-01
         0.13881E-01
         0.13184E-01
         0.91656E-02
         0.23812E-01
         0.16430E-01
         0.76309E-02
         0.22962E-01
         0.14595E-01
         0.22237E-01
         0.10469E-01
         0.44931E-01
         0.34346E-01
         0.16477E-01
         0.47800E-01
         0.17011E-01
         0.88781E-02
         0.52111E-02
         0.11402E-01
         0.59122E-02
         0.35420E-01
         0.33146E-01
         0.32322E-01
         0.83903E-02
         0.14613E-01
         0.43382E-02
         0.16169E-01
         0.23393E-02
         0.62917E-02
         0.15287E-01
         0.14530E-01
         0.75649E-02
         0.90434E-02
         0.81338E-02
         0.31202E-01
         0.18486E-01
         0.23938E-01
         0.39298E-01
         0.30571E-01
         0.28116E-01
         0.39480E-01
         0.35692E-01
         0.35739E-01
         0.27663E-01
         0.24635E-01
         0.33736E-01
         0.22142E-01
         0.18802E-01
         0.15211E-01
         0.17928E-01
         0.29670E-01
         0.20063E-01
         0.13050E+00
         0.13388E+00
         0.14042E+00
         0.13943E+00
         0.14825E+00
         0.15875E+00
         0.15214E+00
         0.13561E+00
         0.13219E+00
         0.14135E+00
         0.13883E+00
         0.13740E+00
         0.11341E+00
         0.10785E+00
         0.11878E+00
         0.12755E+00
         0.13239E+00
         0.14435E+00
         0.13825E+00
         0.14199E+00
         0.12780E+00
         0.12142E+00
         0.12892E+00
         0.12545E+00
         0.12928E+00
         0.12824E+00
         0.23322E-01
         0.13881E-01
         0.13190E-01
         0.91789E-02
         0.23802E-01
         0.16421E-01
         0.76517E-02
         0.22977E-01
         0.14621E-01
         0.22291E-01
         0.10474E-01
         0.44931E-01
         0.34361E-01
         0.16438E-01
         0.47850E-01
         0.17028E-01
         0.89041E-02
         0.51971E-02
         0.11409E-01
         0.58990E-02
         0.35426E-01
         0.33145E-01
         0.32326E-01
         0.83898E-02
         0.14665E-01
         0.43342E-02
         0.16174E-01
         0.23260E-02
         0.63190E-02
         0.15306E-01
         0.14543E-01
         0.75605E-02
         0.90282E-02
         0.81410E-02
         0.31218E-01
         0.18483E-01
         0.23935E-01
         0.39361E-01
         0.30642E-01
         0.28159E-01
         0.39510E-01
         0.35713E-01
         0.35748E-01
         0.27672E-01
         0.24637E-01
         0.33742E-01
         0.22148E-01
         0.18805E-01
         0.15195E-01
         0.17905E-01
         0.29656E-01
         0.20033E-01
         0.13046E+00
         0.13385E+00
         0.14041E+00
         0.13943E+00
         0.14823E+00
         0.15869E+00
         0.15208E+00
         0.13557E+00
         0.13216E+00
         0.14130E+00
         0.13881E+00
         0.13741E+00
         0.11341E+00
         0.10785E+00
         0.11880E+00
         0.12759E+00
         0.13243E+00
         0.14439E+00
         0.13824E+00
         0.14199E+00
         0.12779E+00
         0.12142E+00
         0.12887E+00
         0.12537E+00
         0.12920E+00
         0.12817E+00
         0.23337E-01
         0.13881E-01
         0.13197E-01
         0.91923E-02
         0.23792E-01
         0.16412E-01
         0.76724E-02
         0.22993E-01
         0.14647E-01
         0.22344E-01
         0.10479E-01
         0.44932E-01
         0.34376E-01
         0.16399E-01
         0.47899E-01
         0.17045E-01
         0.89301E-02
         0.51831E-02
         0.11417E-01
         0.58864E-02
         0.35432E-01
         0.33145E-01
         0.32329E-01
         0.83891E-02
         0.14717E-01
         0.43306E-02
         0.16176E-01
         0.23127E-02
         0.63469E-02
         0.15325E-01
         0.14556E-01
         0.75559E-02
         0.90130E-02
         0.81482E-02
         0.31233E-01
         0.18481E-01
         0.23932E-01
         0.39423E-01
         0.30713E-01
         0.28200E-01
         0.39539E-01
         0.35732E-01
         0.35756E-01
         0.27679E-01
         0.24640E-01
         0.33747E-01
         0.22153E-01
         0.18808E-01
         0.15179E-01
         0.17882E-01
         0.29643E-01
         0.20003E-01
         0.13041E+00
         0.13382E+00
         0.14041E+00
         0.13943E+00
         0.14820E+00
         0.15864E+00
         0.15201E+00
         0.13554E+00
         0.13213E+00
         0.14125E+00
         0.13879E+00
         0.13743E+00
         0.11341E+00
         0.10785E+00
         0.11881E+00
         0.12763E+00
         0.13248E+00
         0.14442E+00
         0.13823E+00
         0.14198E+00
         0.12777E+00
         0.12141E+00
         0.12883E+00
         0.12528E+00
         0.12913E+00
         0.12810E+00
         0.23351E-01
         0.13881E-01
         0.13204E-01
         0.92057E-02
         0.23782E-01
         0.16402E-01
         0.76931E-02
         0.23008E-01
         0.14673E-01
         0.22397E-01
         0.10484E-01
         0.44932E-01
         0.34392E-01
         0.16360E-01
         0.47949E-01
         0.17061E-01
         0.89561E-02
         0.51691E-02
         0.11425E-01
         0.58737E-02
         0.35438E-01
         0.33144E-01
         0.32333E-01
         0.83886E-02
         0.14768E-01
         0.43267E-02
         0.16178E-01
         0.22992E-02
         0.63749E-02
         0.15342E-01
         0.14570E-01
         0.75515E-02
         0.89978E-02
         0.81553E-02
         0.31249E-01
         0.18478E-01
         0.23929E-01
         0.39486E-01
         0.30784E-01
         0.28241E-01
         0.39566E-01
         0.35749E-01
         0.35764E-01
         0.27687E-01
         0.24643E-01
         0.33753E-01
         0.22159E-01
         0.18812E-01
         0.15163E-01
         0.17859E-01
         0.29628E-01
         0.19972E-01
         0.13036E+00
         0.13379E+00
         0.14041E+00
         0.13943E+00
         0.14818E+00
         0.15858E+00
         0.15195E+00
         0.13550E+00
         0.13209E+00
         0.14120E+00
         0.13876E+00
         0.13744E+00
         0.11341E+00
         0.10785E+00
         0.11883E+00
         0.12767E+00
         0.13252E+00
         0.14445E+00
         0.13822E+00
         0.14197E+00
         0.12776E+00
         0.12141E+00
         0.12878E+00
         0.12520E+00
         0.12906E+00
         0.12804E+00
         0.23365E-01
         0.13881E-01
         0.13210E-01
         0.92191E-02
         0.23772E-01
         0.16393E-01
         0.77141E-02
         0.23023E-01
         0.14699E-01
         0.22450E-01
         0.10490E-01
         0.44932E-01
         0.34407E-01
         0.16321E-01
         0.47998E-01
         0.17078E-01
         0.89822E-02
         0.51553E-02
         0.11432E-01
         0.58614E-02
         0.35444E-01
         0.33144E-01
         0.32336E-01
         0.83882E-02
         0.14820E-01
         0.43231E-02
         0.16180E-01
         0.22858E-02
         0.64030E-02
         0.15359E-01
         0.14583E-01
         0.75472E-02
         0.89829E-02
         0.81627E-02
         0.31265E-01
         0.18476E-01
         0.23925E-01
         0.39548E-01
         0.30854E-01
         0.28279E-01
         0.39592E-01
         0.35766E-01
         0.35771E-01
         0.27695E-01
         0.24645E-01
         0.33758E-01
         0.22164E-01
         0.18815E-01
         0.15147E-01
         0.17836E-01
         0.29615E-01
         0.19943E-01
         0.13031E+00
         0.13376E+00
         0.14041E+00
         0.13943E+00
         0.14815E+00
         0.15853E+00
         0.15188E+00
         0.13546E+00
         0.13206E+00
         0.14115E+00
         0.13874E+00
         0.13746E+00
         0.11341E+00
         0.10785E+00
         0.11885E+00
         0.12772E+00
         0.13257E+00
         0.14449E+00
         0.13821E+00
         0.14196E+00
         0.12775E+00
         0.12140E+00
         0.12874E+00
         0.12512E+00
         0.12899E+00
         0.12797E+00
         0.23867E-01
         0.14608E-01
         0.13963E-01
         0.10072E-01
         0.24404E-01
         0.17113E-01
         0.90595E-02
         0.23639E-01
         0.15353E-01
         0.23111E-01
         0.11750E-01
         0.45594E-01
         0.35033E-01
         0.17220E-01
         0.48729E-01
         0.17636E-01
         0.10013E-01
         0.63805E-02
         0.12329E-01
         0.74952E-02
         0.35982E-01
         0.33697E-01
         0.32852E-01
         0.94395E-02
         0.15679E-01
         0.59491E-02
         0.17100E-01
         0.55776E-02
         0.82467E-02
         0.16219E-01
         0.15211E-01
         0.86724E-02
         0.98385E-02
         0.91883E-02
         0.31935E-01
         0.19216E-01
         0.24554E-01
         0.40269E-01
         0.31607E-01
         0.29017E-01
         0.40259E-01
         0.36392E-01
         0.36342E-01
         0.28222E-01
         0.25238E-01
         0.34396E-01
         0.22843E-01
         0.19484E-01
         0.15879E-01
         0.18528E-01
         0.30228E-01
         0.20587E-01
         0.13156E+00
         0.13500E+00
         0.14174E+00
         0.14072E+00
         0.14950E+00
         0.15997E+00
         0.15329E+00
         0.13681E+00
         0.13340E+00
         0.14257E+00
         0.14013E+00
         0.13879E+00
         0.11447E+00
         0.10882E+00
         0.11989E+00
         0.12883E+00
         0.13372E+00
         0.14578E+00
         0.13954E+00
         0.14331E+00
         0.12892E+00
         0.12251E+00
         0.12988E+00
         0.12621E+00
         0.13009E+00
         0.12906E+00
         0.57216E-01
         0.51571E-01
         0.50514E-01
         0.44692E-01
         0.62495E-01
         0.54514E-01
         0.52154E-01
         0.61888E-01
         0.49302E-01
         0.61377E-01
         0.57847E-01
         0.89822E-01
         0.75634E-01
         0.62177E-01
         0.94892E-01
         0.50307E-01
         0.48251E-01
         0.41293E-01
         0.50735E-01
         0.50952E-01
         0.73179E-01
         0.72096E-01
         0.68623E-01
         0.47689E-01
         0.56484E-01
         0.44900E-01
         0.62013E-01
         0.56218E-01
         0.57212E-01
         0.58420E-01
         0.48881E-01
         0.47188E-01
         0.44878E-01
         0.46362E-01
         0.72409E-01
         0.58870E-01
         0.63133E-01
         0.85654E-01
         0.76520E-01
         0.73703E-01
         0.84895E-01
         0.79006E-01
         0.76685E-01
         0.63441E-01
         0.62194E-01
         0.74431E-01
         0.61749E-01
         0.56785E-01
         0.53493E-01
         0.56772E-01
         0.69286E-01
         0.58309E-01
         0.19050E+00
         0.19303E+00
         0.20174E+00
         0.19971E+00
         0.21100E+00
         0.22582E+00
         0.22070E+00
         0.20268E+00
         0.19877E+00
         0.20954E+00
         0.20550E+00
         0.20089E+00
         0.16963E+00
         0.16130E+00
         0.17261E+00
         0.18185E+00
         0.18743E+00
         0.20355E+00
         0.19903E+00
         0.20372E+00
         0.18553E+00
         0.17751E+00
         0.18679E+00
         0.18275E+00
         0.18634E+00
         0.18450E+00
  
SCALARS                     nodal_mass  double 1
LOOKUP_TABLE default
         0.24608E-05
         0.19551E-05
         0.20945E-05
         0.35953E-05
         0.12304E-05
         0.97770E-06
         0.10472E-05
         0.17973E-05
         0.19315E-05
         0.24627E-05
         0.96570E-06
         0.12312E-05
         0.13823E-05
         0.16614E-05
         0.69133E-06
         0.83095E-06
         0.27274E-05
         0.20125E-05
         0.13635E-05
         0.10066E-05
         0.81737E-06
         0.15393E-05
         0.16929E-05
         0.40889E-06
         0.76975E-06
         0.84649E-06
         0.13859E-05
         0.17532E-05
         0.69345E-06
         0.87672E-06
         0.32470E-05
         0.25355E-05
         0.32225E-05
         0.16233E-05
         0.12675E-05
         0.16109E-05
         0.18980E-05
         0.21673E-05
         0.94902E-06
         0.10836E-05
         0.20482E-05
         0.22683E-05
         0.10242E-05
         0.11342E-05
         0.17426E-05
         0.10823E-05
         0.87140E-06
         0.54121E-06
         0.20598E-05
         0.10301E-05
         0.17103E-05
         0.85523E-06
         0.17977E-05
         0.89958E-06
         0.18362E-05
         0.91859E-06
         0.15911E-05
         0.19369E-05
         0.79575E-06
         0.96860E-06
         0.24553E-05
         0.17361E-05
         0.12277E-05
         0.86816E-06
         0.27409E-05
         0.13702E-05
         0.23792E-05
         0.11891E-05
         0.10821E-05
         0.16705E-05
         0.54106E-06
         0.83538E-06
         0.18955E-05
         0.94787E-06
         0.20026E-05
         0.10014E-05
         0.19316E-05
         0.96578E-06
         0.15181E-05
         0.75906E-06
         0.95443E-06
         0.15782E-05
         0.47723E-06
         0.78918E-06
         0.20886E-05
         0.10443E-05
         0.16867E-05
         0.84342E-06
         0.14838E-05
         0.74203E-06
         0.97224E-06
         0.16569E-05
         0.48620E-06
         0.82849E-06
         0.22482E-05
         0.11241E-05
         0.23568E-05
         0.11783E-05
         0.19018E-05
         0.95085E-06
         0.11709E-05
         0.20091E-05
         0.58544E-06
         0.10044E-05
         0.74681E-06
         0.94889E-06
         0.37348E-06
         0.47447E-06
         0.88885E-06
         0.44455E-06
         0.10466E-05
         0.52333E-06
         0.10205E-05
         0.51021E-06
         0.99108E-06
         0.49550E-06
         0.10560E-05
         0.52791E-06
         0.11142E-05
         0.55694E-06
         0.10497E-05
         0.52469E-06
         0.82085E-06
         0.41039E-06
         0.66950E-06
         0.33475E-06
         0.86397E-06
         0.43199E-06
         0.11504E-05
         0.57519E-06
         0.12637E-05
         0.63182E-06
         0.12132E-05
         0.60658E-06
         0.10948E-05
         0.54745E-06
         0.99429E-06
         0.49718E-06
         0.80759E-06
         0.40382E-06
         0.67982E-06
         0.33995E-06
         0.88797E-06
         0.44401E-06
         0.11753E-05
         0.58766E-06
         0.12140E-05
         0.60702E-06
         0.98236E-06
         0.49125E-06
         0.79766E-06
         0.39889E-06
         0.97540E-06
         0.48769E-06
         0.11548E-05
         0.57743E-06
         0.24609E-05
         0.19547E-05
         0.20946E-05
         0.35969E-05
         0.19318E-05
         0.24634E-05
         0.13815E-05
         0.16603E-05
         0.27283E-05
         0.20111E-05
         0.81658E-06
         0.15390E-05
         0.16927E-05
         0.13839E-05
         0.17528E-05
         0.32479E-05
         0.25367E-05
         0.32241E-05
         0.18980E-05
         0.21675E-05
         0.20481E-05
         0.22684E-05
         0.17424E-05
         0.10822E-05
         0.20589E-05
         0.17102E-05
         0.17950E-05
         0.18344E-05
         0.15904E-05
         0.19365E-05
         0.24555E-05
         0.17359E-05
         0.27423E-05
         0.23814E-05
         0.10820E-05
         0.16702E-05
         0.18953E-05
         0.20025E-05
         0.19317E-05
         0.15181E-05
         0.95442E-06
         0.15780E-05
         0.20884E-05
         0.16864E-05
         0.14835E-05
         0.97197E-06
         0.16567E-05
         0.22482E-05
         0.23571E-05
         0.19022E-05
         0.11709E-05
         0.20101E-05
         0.74658E-06
         0.94886E-06
         0.88841E-06
         0.10467E-05
         0.10207E-05
         0.99128E-06
         0.10565E-05
         0.11150E-05
         0.10503E-05
         0.82102E-06
         0.66954E-06
         0.86398E-06
         0.11506E-05
         0.12640E-05
         0.12133E-05
         0.10948E-05
         0.99421E-06
         0.80751E-06
         0.67970E-06
         0.88789E-06
         0.11752E-05
         0.12140E-05
         0.98215E-06
         0.79747E-06
         0.97551E-06
         0.11548E-05
         0.24611E-05
         0.19543E-05
         0.20949E-05
         0.35987E-05
         0.19321E-05
         0.24642E-05
         0.13808E-05
         0.16594E-05
         0.27293E-05
         0.20098E-05
         0.81582E-06
         0.15388E-05
         0.16927E-05
         0.13821E-05
         0.17525E-05
         0.32489E-05
         0.25379E-05
         0.32257E-05
         0.18982E-05
         0.21678E-05
         0.20480E-05
         0.22685E-05
         0.17423E-05
         0.10821E-05
         0.20580E-05
         0.17101E-05
         0.17924E-05
         0.18326E-05
         0.15898E-05
         0.19361E-05
         0.24558E-05
         0.17357E-05
         0.27438E-05
         0.23836E-05
         0.10821E-05
         0.16699E-05
         0.18951E-05
         0.20024E-05
         0.19318E-05
         0.15183E-05
         0.95445E-06
         0.15778E-05
         0.20884E-05
         0.16862E-05
         0.14831E-05
         0.97174E-06
         0.16566E-05
         0.22483E-05
         0.23575E-05
         0.19026E-05
         0.11709E-05
         0.20112E-05
         0.74636E-06
         0.94886E-06
         0.88800E-06
         0.10467E-05
         0.10210E-05
         0.99152E-06
         0.10570E-05
         0.11159E-05
         0.10509E-05
         0.82122E-06
         0.66961E-06
         0.86402E-06
         0.11507E-05
         0.12643E-05
         0.12135E-05
         0.10948E-05
         0.99417E-06
         0.80747E-06
         0.67961E-06
         0.88784E-06
         0.11752E-05
         0.12140E-05
         0.98197E-06
         0.79731E-06
         0.97565E-06
         0.11548E-05
         0.24612E-05
         0.19539E-05
         0.20950E-05
         0.36004E-05
         0.19324E-05
         0.24650E-05
         0.13801E-05
         0.16584E-05
         0.27303E-05
         0.20085E-05
         0.81504E-06
         0.15385E-05
         0.16925E-05
         0.13801E-05
         0.17521E-05
         0.32498E-05
         0.25390E-05
         0.32274E-05
         0.18982E-05
         0.21681E-05
         0.20479E-05
         0.22686E-05
         0.17421E-05
         0.10820E-05
         0.20571E-05
         0.17099E-05
         0.17897E-05
         0.18308E-05
         0.15891E-05
         0.19356E-05
         0.24561E-05
         0.17355E-05
         0.27453E-05
         0.23857E-05
         0.10820E-05
         0.16696E-05
         0.18948E-05
         0.20022E-05
         0.19320E-05
         0.15183E-05
         0.95445E-06
         0.15776E-05
         0.20883E-05
         0.16859E-05
         0.14828E-05
         0.97149E-06
         0.16564E-05
         0.22483E-05
         0.23578E-05
         0.19030E-05
         0.11710E-05
         0.20122E-05
         0.74613E-06
         0.94884E-06
         0.88756E-06
         0.10467E-05
         0.10212E-05
         0.99173E-06
         0.10574E-05
         0.11167E-05
         0.10515E-05
         0.82140E-06
         0.66966E-06
         0.86404E-06
         0.11509E-05
         0.12646E-05
         0.12136E-05
         0.10947E-05
         0.99410E-06
         0.80740E-06
         0.67950E-06
         0.88777E-06
         0.11752E-05
         0.12140E-05
         0.98177E-06
         0.79713E-06
         0.97576E-06
         0.11547E-05
         0.24613E-05
         0.19535E-05
         0.20952E-05
         0.36022E-05
         0.19327E-05
         0.24657E-05
         0.13794E-05
         0.16574E-05
         0.27313E-05
         0.20072E-05
         0.81426E-06
         0.15382E-05
         0.16924E-05
         0.13782E-05
         0.17517E-05
         0.32508E-05
         0.25402E-05
         0.32290E-05
         0.18983E-05
         0.21684E-05
         0.20479E-05
         0.22687E-05
         0.17420E-05
         0.10819E-05
         0.20563E-05
         0.17098E-05
         0.17870E-05
         0.18290E-05
         0.15884E-05
         0.19352E-05
         0.24563E-05
         0.17353E-05
         0.27467E-05
         0.23879E-05
         0.10820E-05
         0.16693E-05
         0.18946E-05
         0.20021E-05
         0.19321E-05
         0.15184E-05
         0.95445E-06
         0.15773E-05
         0.20882E-05
         0.16857E-05
         0.14824E-05
         0.97124E-06
         0.16563E-05
         0.22484E-05
         0.23582E-05
         0.19034E-05
         0.11710E-05
         0.20132E-05
         0.74590E-06
         0.94883E-06
         0.88713E-06
         0.10468E-05
         0.10215E-05
         0.99194E-06
         0.10579E-05
         0.11175E-05
         0.10521E-05
         0.82159E-06
         0.66972E-06
         0.86406E-06
         0.11510E-05
         0.12649E-05
         0.12138E-05
         0.10947E-05
         0.99404E-06
         0.80734E-06
         0.67940E-06
         0.88771E-06
         0.11752E-05
         0.12140E-05
         0.98157E-06
         0.79696E-06
         0.97588E-06
         0.11547E-05
         0.24615E-05
         0.19531E-05
         0.20954E-05
         0.36039E-05
         0.19331E-05
         0.24665E-05
         0.13787E-05
         0.16564E-05
         0.27322E-05
         0.20059E-05
         0.81349E-06
         0.15380E-05
         0.16923E-05
         0.13763E-05
         0.17514E-05
         0.32518E-05
         0.25414E-05
         0.32306E-05
         0.18984E-05
         0.21687E-05
         0.20478E-05
         0.22688E-05
         0.17418E-05
         0.10818E-05
         0.20554E-05
         0.17096E-05
         0.17843E-05
         0.18272E-05
         0.15878E-05
         0.19347E-05
         0.24566E-05
         0.17351E-05
         0.27482E-05
         0.23901E-05
         0.10820E-05
         0.16690E-05
         0.18943E-05
         0.20019E-05
         0.19322E-05
         0.15185E-05
         0.95446E-06
         0.15771E-05
         0.20881E-05
         0.16855E-05
         0.14821E-05
         0.97100E-06
         0.16562E-05
         0.22484E-05
         0.23586E-05
         0.19038E-05
         0.11710E-05
         0.20142E-05
         0.74568E-06
         0.94882E-06
         0.88671E-06
         0.10468E-05
         0.10217E-05
         0.99216E-06
         0.10583E-05
         0.11183E-05
         0.10528E-05
         0.82178E-06
         0.66977E-06
         0.86408E-06
         0.11512E-05
         0.12652E-05
         0.12139E-05
         0.10947E-05
         0.99398E-06
         0.80728E-06
         0.67930E-06
         0.88766E-06
         0.11752E-05
         0.12140E-05
         0.98138E-06
         0.79679E-06
         0.97601E-06
         0.11547E-05
         0.24616E-05
         0.19527E-05
         0.20956E-05
         0.36056E-05
         0.19334E-05
         0.24672E-05
         0.13779E-05
         0.16554E-05
         0.27332E-05
         0.20046E-05
         0.81271E-06
         0.15377E-05
         0.16922E-05
         0.13744E-05
         0.17510E-05
         0.32527E-05
         0.25425E-05
         0.32322E-05
         0.18984E-05
         0.21689E-05
         0.20477E-05
         0.22689E-05
         0.17416E-05
         0.10816E-05
         0.20545E-05
         0.17095E-05
         0.17817E-05
         0.18254E-05
         0.15871E-05
         0.19343E-05
         0.24568E-05
         0.17349E-05
         0.27496E-05
         0.23922E-05
         0.10820E-05
         0.16686E-05
         0.18941E-05
         0.20018E-05
         0.19324E-05
         0.15186E-05
         0.95446E-06
         0.15769E-05
         0.20880E-05
         0.16852E-05
         0.14817E-05
         0.97074E-06
         0.16560E-05
         0.22484E-05
         0.23589E-05
         0.19042E-05
         0.11710E-05
         0.20152E-05
         0.74544E-06
         0.94880E-06
         0.88627E-06
         0.10469E-05
         0.10219E-05
         0.99237E-06
         0.10588E-05
         0.11191E-05
         0.10534E-05
         0.82196E-06
         0.66982E-06
         0.86410E-06
         0.11513E-05
         0.12654E-05
         0.12140E-05
         0.10947E-05
         0.99391E-06
         0.80721E-06
         0.67919E-06
         0.88759E-06
         0.11751E-05
         0.12140E-05
         0.98118E-06
         0.79661E-06
         0.97612E-06
         0.11546E-05
         0.24618E-05
         0.19523E-05
         0.20957E-05
         0.36073E-05
         0.19337E-05
         0.24680E-05
         0.13772E-05
         0.16545E-05
         0.27341E-05
         0.20033E-05
         0.81194E-06
         0.15374E-05
         0.16921E-05
         0.13725E-05
         0.17506E-05
         0.32537E-05
         0.25437E-05
         0.32339E-05
         0.18985E-05
         0.21692E-05
         0.20476E-05
         0.22690E-05
         0.17414E-05
         0.10815E-05
         0.20536E-05
         0.17093E-05
         0.17790E-05
         0.18236E-05
         0.15864E-05
         0.19339E-05
         0.24571E-05
         0.17347E-05
         0.27511E-05
         0.23944E-05
         0.10820E-05
         0.16683E-05
         0.18938E-05
         0.20016E-05
         0.19325E-05
         0.15186E-05
         0.95446E-06
         0.15767E-05
         0.20878E-05
         0.16850E-05
         0.14814E-05
         0.97050E-06
         0.16559E-05
         0.22484E-05
         0.23593E-05
         0.19046E-05
         0.11711E-05
         0.20162E-05
         0.74522E-06
         0.94878E-06
         0.88584E-06
         0.10469E-05
         0.10222E-05
         0.99258E-06
         0.10593E-05
         0.11199E-05
         0.10540E-05
         0.82215E-06
         0.66988E-06
         0.86413E-06
         0.11515E-05
         0.12657E-05
         0.12142E-05
         0.10946E-05
         0.99385E-06
         0.80715E-06
         0.67909E-06
         0.88752E-06
         0.11751E-05
         0.12140E-05
         0.98098E-06
         0.79643E-06
         0.97624E-06
         0.11546E-05
         0.24619E-05
         0.19519E-05
         0.20959E-05
         0.36091E-05
         0.19340E-05
         0.24688E-05
         0.13765E-05
         0.16535E-05
         0.27351E-05
         0.20020E-05
         0.81117E-06
         0.15372E-05
         0.16920E-05
         0.13706E-05
         0.17503E-05
         0.32546E-05
         0.25448E-05
         0.32355E-05
         0.18986E-05
         0.21695E-05
         0.20475E-05
         0.22691E-05
         0.17413E-05
         0.10814E-05
         0.20527E-05
         0.17092E-05
         0.17763E-05
         0.18219E-05
         0.15858E-05
         0.19334E-05
         0.24573E-05
         0.17345E-05
         0.27525E-05
         0.23966E-05
         0.10820E-05
         0.16680E-05
         0.18936E-05
         0.20015E-05
         0.19326E-05
         0.15187E-05
         0.95447E-06
         0.15765E-05
         0.20878E-05
         0.16848E-05
         0.14810E-05
         0.97025E-06
         0.16557E-05
         0.22485E-05
         0.23597E-05
         0.19050E-05
         0.11711E-05
         0.20172E-05
         0.74499E-06
         0.94877E-06
         0.88541E-06
         0.10469E-05
         0.10224E-05
         0.99280E-06
         0.10597E-05
         0.11207E-05
         0.10546E-05
         0.82234E-06
         0.66994E-06
         0.86415E-06
         0.11517E-05
         0.12660E-05
         0.12143E-05
         0.10946E-05
         0.99379E-06
         0.80709E-06
         0.67898E-06
         0.88746E-06
         0.11751E-05
         0.12140E-05
         0.98079E-06
         0.79626E-06
         0.97636E-06
         0.11546E-05
         0.24621E-05
         0.19515E-05
         0.20961E-05
         0.36108E-05
         0.19343E-05
         0.24695E-05
         0.13758E-05
         0.16525E-05
         0.27361E-05
         0.20006E-05
         0.81039E-06
         0.15369E-05
         0.16919E-05
         0.13686E-05
         0.17499E-05
         0.32556E-05
         0.25460E-05
         0.32371E-05
         0.18986E-05
         0.21697E-05
         0.20474E-05
         0.22692E-05
         0.17411E-05
         0.10813E-05
         0.20519E-05
         0.17091E-05
         0.17736E-05
         0.18201E-05
         0.15851E-05
         0.19330E-05
         0.24575E-05
         0.17342E-05
         0.27540E-05
         0.23987E-05
         0.10820E-05
         0.16677E-05
         0.18933E-05
         0.20014E-05
         0.19328E-05
         0.15188E-05
         0.95448E-06
         0.15763E-05
         0.20876E-05
         0.16845E-05
         0.14807E-05
         0.97000E-06
         0.16556E-05
         0.22485E-05
         0.23600E-05
         0.19053E-05
         0.11711E-05
         0.20182E-05
         0.74476E-06
         0.94875E-06
         0.88498E-06
         0.10470E-05
         0.10227E-05
         0.99301E-06
         0.10602E-05
         0.11215E-05
         0.10553E-05
         0.82252E-06
         0.66999E-06
         0.86417E-06
         0.11518E-05
         0.12663E-05
         0.12145E-05
         0.10946E-05
         0.99373E-06
         0.80702E-06
         0.67888E-06
         0.88740E-06
         0.11751E-05
         0.12140E-05
         0.98058E-06
         0.79608E-06
         0.97648E-06
         0.11546E-05
         0.24622E-05
         0.19511E-05
         0.20963E-05
         0.36125E-05
         0.19346E-05
         0.24703E-05
         0.13751E-05
         0.16515E-05
         0.27370E-05
         0.19993E-05
         0.80962E-06
         0.15366E-05
         0.16917E-05
         0.13667E-05
         0.17495E-05
         0.32565E-05
         0.25471E-05
         0.32388E-05
         0.18987E-05
         0.21700E-05
         0.20473E-05
         0.22693E-05
         0.17409E-05
         0.10812E-05
         0.20510E-05
         0.17089E-05
         0.17710E-05
         0.18183E-05
         0.15844E-05
         0.19325E-05
         0.24578E-05
         0.17340E-05
         0.27554E-05
         0.24009E-05
         0.10820E-05
         0.16674E-05
         0.18931E-05
         0.20012E-05
         0.19329E-05
         0.15189E-05
         0.95448E-06
         0.15760E-05
         0.20875E-05
         0.16843E-05
         0.14803E-05
         0.96975E-06
         0.16555E-05
         0.22485E-05
         0.23604E-05
         0.19057E-05
         0.11712E-05
         0.20192E-05
         0.74453E-06
         0.94874E-06
         0.88455E-06
         0.10470E-05
         0.10229E-05
         0.99322E-06
         0.10606E-05
         0.11223E-05
         0.10559E-05
         0.82270E-06
         0.67004E-06
         0.86419E-06
         0.11520E-05
         0.12666E-05
         0.12146E-05
         0.10945E-05
         0.99366E-06
         0.80696E-06
         0.67877E-06
         0.88733E-06
         0.11751E-05
         0.12140E-05
         0.98038E-06
         0.79590E-06
         0.97660E-06
         0.11545E-05
         0.24623E-05
         0.19507E-05
         0.20964E-05
         0.36142E-05
         0.19349E-05
         0.24710E-05
         0.13743E-05
         0.16505E-05
         0.27380E-05
         0.19980E-05
         0.80885E-06
         0.15364E-05
         0.16916E-05
         0.13648E-05
         0.17492E-05
         0.32575E-05
         0.25483E-05
         0.32404E-05
         0.18988E-05
         0.21703E-05
         0.20473E-05
         0.22694E-05
         0.17407E-05
         0.10811E-05
         0.20501E-05
         0.17088E-05
         0.17683E-05
         0.18165E-05
         0.15837E-05
         0.19321E-05
         0.24580E-05
         0.17338E-05
         0.27569E-05
         0.24031E-05
         0.10820E-05
         0.16670E-05
         0.18928E-05
         0.20011E-05
         0.19330E-05
         0.15189E-05
         0.95448E-06
         0.15758E-05
         0.20874E-05
         0.16840E-05
         0.14800E-05
         0.96950E-06
         0.16553E-05
         0.22485E-05
         0.23608E-05
         0.19061E-05
         0.11712E-05
         0.20202E-05
         0.74430E-06
         0.94872E-06
         0.88412E-06
         0.10470E-05
         0.10231E-05
         0.99344E-06
         0.10611E-05
         0.11231E-05
         0.10565E-05
         0.82289E-06
         0.67009E-06
         0.86422E-06
         0.11521E-05
         0.12669E-05
         0.12147E-05
         0.10945E-05
         0.99360E-06
         0.80690E-06
         0.67867E-06
         0.88727E-06
         0.11750E-05
         0.12140E-05
         0.98019E-06
         0.79573E-06
         0.97672E-06
         0.11545E-05
         0.24625E-05
         0.19503E-05
         0.20966E-05
         0.36160E-05
         0.19352E-05
         0.24718E-05
         0.13736E-05
         0.16496E-05
         0.27389E-05
         0.19967E-05
         0.80807E-06
         0.15361E-05
         0.16915E-05
         0.13629E-05
         0.17488E-05
         0.32584E-05
         0.25495E-05
         0.32420E-05
         0.18988E-05
         0.21705E-05
         0.20472E-05
         0.22695E-05
         0.17406E-05
         0.10810E-05
         0.20492E-05
         0.17086E-05
         0.17656E-05
         0.18147E-05
         0.15831E-05
         0.19317E-05
         0.24583E-05
         0.17336E-05
         0.27583E-05
         0.24053E-05
         0.10820E-05
         0.16667E-05
         0.18926E-05
         0.20009E-05
         0.19331E-05
         0.15190E-05
         0.95449E-06
         0.15756E-05
         0.20873E-05
         0.16838E-05
         0.14796E-05
         0.96925E-06
         0.16552E-05
         0.22486E-05
         0.23611E-05
         0.19065E-05
         0.11712E-05
         0.20212E-05
         0.74407E-06
         0.94870E-06
         0.88368E-06
         0.10471E-05
         0.10234E-05
         0.99365E-06
         0.10616E-05
         0.11239E-05
         0.10571E-05
         0.82307E-06
         0.67014E-06
         0.86424E-06
         0.11523E-05
         0.12672E-05
         0.12149E-05
         0.10945E-05
         0.99354E-06
         0.80683E-06
         0.67856E-06
         0.88721E-06
         0.11750E-05
         0.12140E-05
         0.97999E-06
         0.79555E-06
         0.97684E-06
         0.11545E-05
         0.24626E-05
         0.19499E-05
         0.20968E-05
         0.36177E-05
         0.19355E-05
         0.24725E-05
         0.13729E-05
         0.16486E-05
         0.27399E-05
         0.19954E-05
         0.80730E-06
         0.15358E-05
         0.16914E-05
         0.13610E-05
         0.17484E-05
         0.32594E-05
         0.25506E-05
         0.32437E-05
         0.18989E-05
         0.21708E-05
         0.20471E-05
         0.22696E-05
         0.17404E-05
         0.10808E-05
         0.20483E-05
         0.17085E-05
         0.17629E-05
         0.18129E-05
         0.15824E-05
         0.19312E-05
         0.24585E-05
         0.17334E-05
         0.27598E-05
         0.24074E-05
         0.10820E-05
         0.16664E-05
         0.18923E-05
         0.20008E-05
         0.19333E-05
         0.15191E-05
         0.95449E-06
         0.15754E-05
         0.20872E-05
         0.16835E-05
         0.14793E-05
         0.96901E-06
         0.16550E-05
         0.22486E-05
         0.23615E-05
         0.19069E-05
         0.11713E-05
         0.20222E-05
         0.74384E-06
         0.94869E-06
         0.88325E-06
         0.10471E-05
         0.10236E-05
         0.99386E-06
         0.10620E-05
         0.11247E-05
         0.10577E-05
         0.82326E-06
         0.67020E-06
         0.86426E-06
         0.11524E-05
         0.12674E-05
         0.12150E-05
         0.10944E-05
         0.99348E-06
         0.80677E-06
         0.67846E-06
         0.88714E-06
         0.11750E-05
         0.12140E-05
         0.97979E-06
         0.79538E-06
         0.97696E-06
         0.11544E-05
         0.24628E-05
         0.19495E-05
         0.20970E-05
         0.36194E-05
         0.19358E-05
         0.24733E-05
         0.13722E-05
         0.16476E-05
         0.27409E-05
         0.19941E-05
         0.80652E-06
         0.15355E-05
         0.16913E-05
         0.13591E-05
         0.17481E-05
         0.32604E-05
         0.25518E-05
         0.32453E-05
         0.18990E-05
         0.21711E-05
         0.20470E-05
         0.22697E-05
         0.17402E-05
         0.10807E-05
         0.20474E-05
         0.17084E-05
         0.17603E-05
         0.18111E-05
         0.15817E-05
         0.19308E-05
         0.24588E-05
         0.17332E-05
         0.27613E-05
         0.24096E-05
         0.10819E-05
         0.16661E-05
         0.18921E-05
         0.20006E-05
         0.19334E-05
         0.15192E-05
         0.95450E-06
         0.15752E-05
         0.20871E-05
         0.16833E-05
         0.14789E-05
         0.96876E-06
         0.16549E-05
         0.22486E-05
         0.23619E-05
         0.19073E-05
         0.11713E-05
         0.20232E-05
         0.74362E-06
         0.94868E-06
         0.88282E-06
         0.10472E-05
         0.10238E-05
         0.99408E-06
         0.10625E-05
         0.11255E-05
         0.10584E-05
         0.82345E-06
         0.67025E-06
         0.86428E-06
         0.11526E-05
         0.12677E-05
         0.12152E-05
         0.10944E-05
         0.99342E-06
         0.80671E-06
         0.67836E-06
         0.88709E-06
         0.11750E-05
         0.12140E-05
         0.97959E-06
         0.79521E-06
         0.97708E-06
         0.11544E-05
         0.24629E-05
         0.19491E-05
         0.20972E-05
         0.36212E-05
         0.19361E-05
         0.24741E-05
         0.13715E-05
         0.16466E-05
         0.27418E-05
         0.19928E-05
         0.80575E-06
         0.15353E-05
         0.16912E-05
         0.13572E-05
         0.17477E-05
         0.32613E-05
         0.25529E-05
         0.32469E-05
         0.18990E-05
         0.21714E-05
         0.20469E-05
         0.22698E-05
         0.17400E-05
         0.10806E-05
         0.20466E-05
         0.17082E-05
         0.17576E-05
         0.18093E-05
         0.15810E-05
         0.19303E-05
         0.24590E-05
         0.17330E-05
         0.27627E-05
         0.24118E-05
         0.10819E-05
         0.16658E-05
         0.18919E-05
         0.20005E-05
         0.19335E-05
         0.15192E-05
         0.95450E-06
         0.15750E-05
         0.20870E-05
         0.16831E-05
         0.14786E-05
         0.96851E-06
         0.16548E-05
         0.22487E-05
         0.23622E-05
         0.19077E-05
         0.11713E-05
         0.20242E-05
         0.74339E-06
         0.94866E-06
         0.88239E-06
         0.10472E-05
         0.10241E-05
         0.99429E-06
         0.10630E-05
         0.11263E-05
         0.10590E-05
         0.82363E-06
         0.67030E-06
         0.86430E-06
         0.11527E-05
         0.12680E-05
         0.12153E-05
         0.10944E-05
         0.99335E-06
         0.80665E-06
         0.67825E-06
         0.88702E-06
         0.11749E-05
         0.12140E-05
         0.97939E-06
         0.79503E-06
         0.97720E-06
         0.11544E-05
         0.24631E-05
         0.19487E-05
         0.20973E-05
         0.36229E-05
         0.19364E-05
         0.24748E-05
         0.13707E-05
         0.16456E-05
         0.27428E-05
         0.19915E-05
         0.80498E-06
         0.15350E-05
         0.16911E-05
         0.13553E-05
         0.17473E-05
         0.32623E-05
         0.25541E-05
         0.32486E-05
         0.18991E-05
         0.21716E-05
         0.20468E-05
         0.22699E-05
         0.17399E-05
         0.10805E-05
         0.20457E-05
         0.17081E-05
         0.17549E-05
         0.18075E-05
         0.15804E-05
         0.19299E-05
         0.24592E-05
         0.17328E-05
         0.27642E-05
         0.24140E-05
         0.10819E-05
         0.16654E-05
         0.18916E-05
         0.20003E-05
         0.19337E-05
         0.15193E-05
         0.95450E-06
         0.15748E-05
         0.20869E-05
         0.16828E-05
         0.14782E-05
         0.96826E-06
         0.16546E-05
         0.22487E-05
         0.23626E-05
         0.19081E-05
         0.11714E-05
         0.20253E-05
         0.74316E-06
         0.94864E-06
         0.88196E-06
         0.10472E-05
         0.10243E-05
         0.99450E-06
         0.10634E-05
         0.11271E-05
         0.10596E-05
         0.82381E-06
         0.67036E-06
         0.86432E-06
         0.11529E-05
         0.12683E-05
         0.12154E-05
         0.10943E-05
         0.99329E-06
         0.80658E-06
         0.67815E-06
         0.88696E-06
         0.11749E-05
         0.12140E-05
         0.97919E-06
         0.79485E-06
         0.97732E-06
         0.11544E-05
         0.24632E-05
         0.19483E-05
         0.20975E-05
         0.36246E-05
         0.19368E-05
         0.24756E-05
         0.13700E-05
         0.16447E-05
         0.27437E-05
         0.19902E-05
         0.80421E-06
         0.15347E-05
         0.16910E-05
         0.13534E-05
         0.17470E-05
         0.32632E-05
         0.25552E-05
         0.32502E-05
         0.18992E-05
         0.21719E-05
         0.20467E-05
         0.22700E-05
         0.17397E-05
         0.10804E-05
         0.20448E-05
         0.17079E-05
         0.17523E-05
         0.18057E-05
         0.15797E-05
         0.19295E-05
         0.24595E-05
         0.17326E-05
         0.27656E-05
         0.24161E-05
         0.10819E-05
         0.16651E-05
         0.18914E-05
         0.20002E-05
         0.19338E-05
         0.15194E-05
         0.95451E-06
         0.15745E-05
         0.20868E-05
         0.16826E-05
         0.14779E-05
         0.96801E-06
         0.16545E-05
         0.22487E-05
         0.23630E-05
         0.19085E-05
         0.11714E-05
         0.20263E-05
         0.74293E-06
         0.94863E-06
         0.88153E-06
         0.10473E-05
         0.10245E-05
         0.99472E-06
         0.10639E-05
         0.11279E-05
         0.10602E-05
         0.82400E-06
         0.67041E-06
         0.86435E-06
         0.11530E-05
         0.12686E-05
         0.12156E-05
         0.10943E-05
         0.99323E-06
         0.80652E-06
         0.67804E-06
         0.88690E-06
         0.11749E-05
         0.12140E-05
         0.97900E-06
         0.79468E-06
         0.97744E-06
         0.11543E-05
         0.24633E-05
         0.19479E-05
         0.20977E-05
         0.36264E-05
         0.19371E-05
         0.24763E-05
         0.13693E-05
         0.16437E-05
         0.27447E-05
         0.19888E-05
         0.80343E-06
         0.15345E-05
         0.16908E-05
         0.13515E-05
         0.17466E-05
         0.32642E-05
         0.25564E-05
         0.32518E-05
         0.18992E-05
         0.21722E-05
         0.20466E-05
         0.22701E-05
         0.17395E-05
         0.10803E-05
         0.20439E-05
         0.17078E-05
         0.17496E-05
         0.18039E-05
         0.15790E-05
         0.19290E-05
         0.24597E-05
         0.17323E-05
         0.27671E-05
         0.24183E-05
         0.10819E-05
         0.16648E-05
         0.18911E-05
         0.20001E-05
         0.19339E-05
         0.15195E-05
         0.95452E-06
         0.15743E-05
         0.20867E-05
         0.16823E-05
         0.14775E-05
         0.96776E-06
         0.16543E-05
         0.22487E-05
         0.23633E-05
         0.19089E-05
         0.11714E-05
         0.20273E-05
         0.74270E-06
         0.94861E-06
         0.88109E-06
         0.10473E-05
         0.10248E-05
         0.99493E-06
         0.10643E-05
         0.11287E-05
         0.10609E-05
         0.82418E-06
         0.67046E-06
         0.86437E-06
         0.11532E-05
         0.12689E-05
         0.12157E-05
         0.10943E-05
         0.99316E-06
         0.80646E-06
         0.67794E-06
         0.88683E-06
         0.11749E-05
         0.12140E-05
         0.97879E-06
         0.79450E-06
         0.97755E-06
         0.11543E-05
         0.24635E-05
         0.19475E-05
         0.20979E-05
         0.36281E-05
         0.19374E-05
         0.24771E-05
         0.13686E-05
         0.16427E-05
         0.27456E-05
         0.19875E-05
         0.80266E-06
         0.15342E-05
         0.16907E-05
         0.13496E-05
         0.17463E-05
         0.32651E-05
         0.25575E-05
         0.32534E-05
         0.18993E-05
         0.21724E-05
         0.20466E-05
         0.22702E-05
         0.17393E-05
         0.10802E-05
         0.20430E-05
         0.17076E-05
         0.17469E-05
         0.18021E-05
         0.15784E-05
         0.19286E-05
         0.24600E-05
         0.17321E-05
         0.27685E-05
         0.24205E-05
         0.10819E-05
         0.16645E-05
         0.18909E-05
         0.19999E-05
         0.19341E-05
         0.15195E-05
         0.95452E-06
         0.15741E-05
         0.20866E-05
         0.16821E-05
         0.14772E-05
         0.96751E-06
         0.16542E-05
         0.22488E-05
         0.23637E-05
         0.19092E-05
         0.11715E-05
         0.20283E-05
         0.74247E-06
         0.94860E-06
         0.88066E-06
         0.10473E-05
         0.10250E-05
         0.99514E-06
         0.10648E-05
         0.11295E-05
         0.10615E-05
         0.82437E-06
         0.67052E-06
         0.86439E-06
         0.11533E-05
         0.12691E-05
         0.12159E-05
         0.10942E-05
         0.99310E-06
         0.80639E-06
         0.67783E-06
         0.88676E-06
         0.11748E-05
         0.12140E-05
         0.97859E-06
         0.79433E-06
         0.97767E-06
         0.11543E-05
         0.24636E-05
         0.19471E-05
         0.20980E-05
         0.36298E-05
         0.19377E-05
         0.24779E-05
         0.13679E-05
         0.16417E-05
         0.27466E-05
         0.19862E-05
         0.80189E-06
         0.15339E-05
         0.16906E-05
         0.13477E-05
         0.17459E-05
         0.32661E-05
         0.25587E-05
         0.32551E-05
         0.18994E-05
         0.21727E-05
         0.20465E-05
         0.22703E-05
         0.17392E-05
         0.10800E-05
         0.20421E-05
         0.17075E-05
         0.17443E-05
         0.18003E-05
         0.15777E-05
         0.19281E-05
         0.24602E-05
         0.17319E-05
         0.27700E-05
         0.24227E-05
         0.10819E-05
         0.16642E-05
         0.18906E-05
         0.19998E-05
         0.19342E-05
         0.15196E-05
         0.95453E-06
         0.15739E-05
         0.20865E-05
         0.16819E-05
         0.14768E-05
         0.96727E-06
         0.16541E-05
         0.22488E-05
         0.23640E-05
         0.19096E-05
         0.11715E-05
         0.20293E-05
         0.74225E-06
         0.94859E-06
         0.88023E-06
         0.10474E-05
         0.10253E-05
         0.99535E-06
         0.10653E-05
         0.11303E-05
         0.10621E-05
         0.82456E-06
         0.67057E-06
         0.86441E-06
         0.11535E-05
         0.12694E-05
         0.12160E-05
         0.10942E-05
         0.99304E-06
         0.80633E-06
         0.67773E-06
         0.88671E-06
         0.11748E-05
         0.12140E-05
         0.97840E-06
         0.79415E-06
         0.97780E-06
         0.11542E-05
         0.24637E-05
         0.19466E-05
         0.20982E-05
         0.36315E-05
         0.19380E-05
         0.24786E-05
         0.13671E-05
         0.16407E-05
         0.27475E-05
         0.19849E-05
         0.80110E-06
         0.15336E-05
         0.16905E-05
         0.13457E-05
         0.17455E-05
         0.32669E-05
         0.25598E-05
         0.32567E-05
         0.18994E-05
         0.21729E-05
         0.20464E-05
         0.22703E-05
         0.17390E-05
         0.10799E-05
         0.20412E-05
         0.17073E-05
         0.17416E-05
         0.17985E-05
         0.15770E-05
         0.19277E-05
         0.24604E-05
         0.17317E-05
         0.27714E-05
         0.24248E-05
         0.10819E-05
         0.16638E-05
         0.18903E-05
         0.19996E-05
         0.19343E-05
         0.15196E-05
         0.95451E-06
         0.15737E-05
         0.20864E-05
         0.16816E-05
         0.14765E-05
         0.96700E-06
         0.16539E-05
         0.22488E-05
         0.23644E-05
         0.19100E-05
         0.11715E-05
         0.20303E-05
         0.74200E-06
         0.94855E-06
         0.87978E-06
         0.10474E-05
         0.10255E-05
         0.99555E-06
         0.10657E-05
         0.11311E-05
         0.10627E-05
         0.82472E-06
         0.67061E-06
         0.86442E-06
         0.11536E-05
         0.12697E-05
         0.12161E-05
         0.10941E-05
         0.99295E-06
         0.80625E-06
         0.67761E-06
         0.88662E-06
         0.11748E-05
         0.12140E-05
         0.97818E-06
         0.79396E-06
         0.97790E-06
         0.11542E-05
         0.24639E-05
         0.19463E-05
         0.20984E-05
         0.36333E-05
         0.19383E-05
         0.24794E-05
         0.13664E-05
         0.16398E-05
         0.27485E-05
         0.19836E-05
         0.80034E-06
         0.15334E-05
         0.16904E-05
         0.13439E-05
         0.17452E-05
         0.32679E-05
         0.25610E-05
         0.32583E-05
         0.18995E-05
         0.21732E-05
         0.20463E-05
         0.22704E-05
         0.17388E-05
         0.10798E-05
         0.20404E-05
         0.17072E-05
         0.17389E-05
         0.17967E-05
         0.15763E-05
         0.19272E-05
         0.24607E-05
         0.17315E-05
         0.27729E-05
         0.24270E-05
         0.10819E-05
         0.16635E-05
         0.18901E-05
         0.19995E-05
         0.19345E-05
         0.15197E-05
         0.95453E-06
         0.15735E-05
         0.20863E-05
         0.16814E-05
         0.14761E-05
         0.96677E-06
         0.16538E-05
         0.22488E-05
         0.23647E-05
         0.19104E-05
         0.11716E-05
         0.20313E-05
         0.74179E-06
         0.94855E-06
         0.87936E-06
         0.10475E-05
         0.10257E-05
         0.99577E-06
         0.10662E-05
         0.11319E-05
         0.10633E-05
         0.82492E-06
         0.67068E-06
         0.86446E-06
         0.11538E-05
         0.12700E-05
         0.12163E-05
         0.10941E-05
         0.99291E-06
         0.80620E-06
         0.67752E-06
         0.88657E-06
         0.11748E-05
         0.12140E-05
         0.97800E-06
         0.79380E-06
         0.97803E-06
         0.11542E-05
         0.12320E-05
         0.97306E-06
         0.10493E-05
         0.18171E-05
         0.96926E-06
         0.12399E-05
         0.68306E-06
         0.81967E-06
         0.13745E-05
         0.99152E-06
         0.39999E-06
         0.76665E-06
         0.84519E-06
         0.67148E-06
         0.87252E-06
         0.16343E-05
         0.12808E-05
         0.16296E-05
         0.94981E-06
         0.10867E-05
         0.10232E-05
         0.11353E-05
         0.86940E-06
         0.53990E-06
         0.10200E-05
         0.85360E-06
         0.86884E-06
         0.89793E-06
         0.78802E-06
         0.96354E-06
         0.12305E-05
         0.86572E-06
         0.13869E-05
         0.12141E-05
         0.54095E-06
         0.83170E-06
         0.94503E-06
         0.99975E-06
         0.96729E-06
         0.75992E-06
         0.47728E-06
         0.78670E-06
         0.10432E-05
         0.84065E-06
         0.73800E-06
         0.48334E-06
         0.82688E-06
         0.11245E-05
         0.11825E-05
         0.95534E-06
         0.58581E-06
         0.10159E-05
         0.37085E-06
         0.47429E-06
         0.43959E-06
         0.52375E-06
         0.51294E-06
         0.49796E-06
         0.53322E-06
         0.56619E-06
         0.53185E-06
         0.41252E-06
         0.33536E-06
         0.43225E-06
         0.57696E-06
         0.63509E-06
         0.60820E-06
         0.54708E-06
         0.49646E-06
         0.40310E-06
         0.33875E-06
         0.44329E-06
         0.58740E-06
         0.60700E-06
         0.48897E-06
         0.39687E-06
         0.48906E-06
         0.57710E-06
  
SCALARS                 Poissons_ratio  double 1
LOOKUP_TABLE default
         0.30000E+00
         0.30000E+00
         0.30000E+00
         0.30000E+00
         0.30000E+00
         0.30000E+00
         0.30000E+00
         0.30000E+00
         0.30000E+00
         0.30000E+00
         0.30000E+00
         0.30000E+00
         0.30000E+00
         0.30000E+00
         0.30000E+00
         0.30000E+00
         0.30000E+00
         0.30000E+00
         0.30000E+00
         0.30000E+00
         0.30000E+00
         0.30000E+00
         0.30000E+00
         0.30000E+00
         0.30000E+00
         0.30000E+00
         0.30000E+00
         0.30000E+00
         0.30000E+00
         0.30000E+00
         0.30000E+00
         0.30000E+00
         0.30000E+00
         0.30000E+00
         0.30000E+00
         0.30000E+00
         0.30000E+00
         0.30000E+00
         0.30000E+00
         0.30000E+00
         0.30000E+00
         0.30000E+00
         0.30000E+00
         0.30000E+00
         0.30000E+00
         0.30000E+00
         0.30000E+00
         0.30000E+00
         0.30000E+00
         0.30000E+00
         0.30000E+00
         0.30000E+00
         0.30000E+00
         0.30000E+00
         0.30000E+00
         0.30000E+00
         0.30000E+00
         0.30000E+00
         0.30000E+00
         0.30000E+00
         0.30000E+00
         0.30000E+00
         0.30000E+00
         0.30000E+00
         0.30000E+00
         0.30000E+00
         0.30000E+00
         0.30000E+00
         0.30000E+00
         0.30000E+00
         0.30000E+00
         0.30000E+00
         0.30000E+00
         0.30000E+00
         0.30000E+00
         0.30000E+00
         0.30000E+00
         0.30000E+00
         0.30000E+00
         0.30000E+00
         0.30000E+00
         0.30000E+00
         0.30000E+00
         0.30000E+00
         0.30000E+00
         0.30000E+00
         0.30000E+00
         0.30000E+00
         0.30000E+00
         0.30000E+00
         0.30000E+00
         0.30000E+00
         0.30000E+00
         0.30000E+00
         0.30000E+00
         0.30000E+00
         0.30000E+00
         0.30000E+00
         0.30000E+00
         0.30000E+00
         0.30000E+00
         0.30000E+00
         0.30000E+00
         0.30000E+00
         0.30000E+00
         0.30000E+00
         0.30000E+00
         0.30000E+00
         0.30000E+00
         0.30000E+00
         0.30000E+00
         0.30000E+00
         0.30000E+00
         0.30000E+00
         0.30000E+00
         0.30000E+00
         0.30000E+00
         0.30000E+00
         0.30000E+00
         0.30000E+00
         0.30000E+00
         0.30000E+00
         0.30000E+00
         0.30000E+00
         0.30000E+00
         0.30000E+00
         0.30000E+00
         0.30000E+00
         0.30000E+00
         0.30000E+00
         0.30000E+00
         0.30000E+00
         0.30000E+00
         0.30000E+00
         0.30000E+00
         0.30000E+00
         0.30000E+00
         0.30000E+00
         0.30000E+00
         0.30000E+00
         0.30000E+00
         0.30000E+00
         0.30000E+00
         0.30000E+00
         0.30000E+00
         0.30000E+00
         0.30000E+00
         0.30000E+00
         0.30000E+00
         0.30000E+00
         0.30000E+00
         0.30000E+00
         0.30000E+00
         0.30000E+00
         0.30000E+00
         0.30000E+00
         0.30000E+00
         0.30000E+00
         0.30000E+00
         0.30000E+00
         0.30000E+00
         0.30000E+00
         0.30000E+00
         0.30000E+00
         0.30000E+00
         0.30000E+00
         0.30000E+00
         0.30000E+00
         0.30000E+00
         0.30000E+00
         0.30000E+00
         0.30000E+00
         0.30000E+00
         0.30000E+00
         0.30000E+00
         0.30000E+00
         0.30000E+00
         0.30000E+00
         0.30000E+00
         0.30000E+00
         0.30000E+00
         0.30000E+00
         0.30000E+00
         0.30000E+00
         0.30000E+00
         0.30000E+00
         0.30000E+00
         0.30000E+00
         0.30000E+00
         0.30000E+00
         0.30000E+00
         0.30000E+00
         0.30000E+00
         0.30000E+00
         0.30000E+00
         0.30000E+00
         0.30000E+00
         0.30000E+00
         0.30000E+00
         0.30000E+00
         0.30000E+00
         0.30000E+00
         0.30000E+00
         0.30000E+00
         0.30000E+00
         0.30000E+00
         0.30000E+00
         0.30000E+00
         0.30000E+00
         0.30000E+00
         0.30000E+00
         0.30000E+00
         0.30000E+00
         0.30000E+00
         0.30000E+00
         0.30000E+00
         0.30000E+00
         0.30000E+00
         0.30000E+00
         0.30000E+00
         0.30000E+00
         0.30000E+00
         0.30000E+00
         0.30000E+00
         0.30000E+00
         0.30000E+00
         0.30000E+00
         0.30000E+00
         0.30000E+00
         0.30000E+00
         0.30000E+00
         0.30000E+00
         0.30000E+00
         0.30000E+00
         0.30000E+00
         0.30000E+00
         0.30000E+00
         0.30000E+00
         0.30000E+00
         0.30000E+00
         0.30000E+00
         0.30000E+00
         0.30000E+00
         0.30000E+00
         0.30000E+00
         0.30000E+00
         0.30000E+00
         0.30000E+00
         0.30000E+00
         0.30000E+00
         0.30000E+00
         0.30000E+00
         0.30000E+00
         0.30000E+00
         0.30000E+00
         0.30000E+00
         0.30000E+00
         0.30000E+00
         0.30000E+00
         0.30000E+00
         0.30000E+00
         0.30000E+00
         0.30000E+00
         0.30000E+00
         0.30000E+00
         0.30000E+00
         0.30000E+00
         0.30000E+00
         0.30000E+00
         0.30000E+00
         0.30000E+00
         0.30000E+00
         0.30000E+00
         0.30000E+00
         0.30000E+00
         0.30000E+00
         0.30000E+00
         0.30000E+00
         0.30000E+00
         0.30000E+00
         0.30000E+00
         0.30000E+00
         0.30000E+00
         0.30000E+00
         0.30000E+00
         0.30000E+00
         0.30000E+00
         0.30000E+00
         0.30000E+00
         0.30000E+00
         0.30000E+00
         0.30000E+00
         0.30000E+00
         0.30000E+00
         0.30000E+00
         0.30000E+00
         0.30000E+00
         0.30000E+00
         0.30000E+00
         0.30000E+00
         0.30000E+00
         0.30000E+00
         0.30000E+00
         0.30000E+00
         0.30000E+00
         0.30000E+00
         0.30000E+00
         0.30000E+00
         0.30000E+00
         0.30000E+00
         0.30000E+00
         0.30000E+00
         0.30000E+00
         0.30000E+00
         0.30000E+00
         0.30000E+00
         0.30000E+00
         0.30000E+00
         0.30000E+00
         0.30000E+00
         0.30000E+00
         0.30000E+00
         0.30000E+00
         0.30000E+00
         0.30000E+00
         0.30000E+00
         0.30000E+00
         0.30000E+00
         0.30000E+00
         0.30000E+00
         0.30000E+00
         0.30000E+00
         0.30000E+00
         0.30000E+00
         0.30000E+00
         0.30000E+00
         0.30000E+00
         0.30000E+00
         0.30000E+00
         0.30000E+00
         0.30000E+00
         0.30000E+00
         0.30000E+00
         0.30000E+00
         0.30000E+00
         0.30000E+00
         0.30000E+00
         0.30000E+00
         0.30000E+00
         0.30000E+00
         0.30000E+00
         0.30000E+00
         0.30000E+00
         0.30000E+00
         0.30000E+00
         0.30000E+00
         0.30000E+00
         0.30000E+00
         0.30000E+00
         0.30000E+00
         0.30000E+00
         0.30000E+00
         0.30000E+00
         0.30000E+00
         0.30000E+00
         0.30000E+00
         0.30000E+00
         0.30000E+00
         0.30000E+00
         0.30000E+00
         0.30000E+00
         0.30000E+00
         0.30000E+00
         0.30000E+00
         0.30000E+00
         0.30000E+00
         0.30000E+00
         0.30000E+00
         0.30000E+00
         0.30000E+00
         0.30000E+00
         0.30000E+00
         0.30000E+00
         0.30000E+00
         0.30000E+00
         0.30000E+00
         0.30000E+00
         0.30000E+00
         0.30000E+00
         0.30000E+00
         0.30000E+00
         0.30000E+00
         0.30000E+00
         0.30000E+00
         0.30000E+00
         0.30000E+00
         0.30000E+00
         0.30000E+00
         0.30000E+00
         0.30000E+00
         0.30000E+00
         0.30000E+00
         0.30000E+00
         0.30000E+00
         0.30000E+00
         0.30000E+00
         0.30000E+00
         0.30000E+00
         0.30000E+00
         0.30000E+00
         0.30000E+00
         0.30000E+00
         0.30000E+00
         0.30000E+00
         0.30000E+00
         0.30000E+00
         0.30000E+00
         0.30000E+00
         0.30000E+00
         0.30000E+00
         0.30000E+00
         0.30000E+00
         0.30000E+00
         0.30000E+00
         0.30000E+00
         0.30000E+00
         0.30000E+00
         0.30000E+00
         0.30000E+00
         0.30000E+00
         0.30000E+00
         0.30000E+00
         0.30000E+00
         0.30000E+00
         0.30000E+00
         0.30000E+00
         0.30000E+00
         0.30000E+00
         0.30000E+00
         0.30000E+00
         0.30000E+00
         0.30000E+00
         0.30000E+00
         0.30000E+00
         0.30000E+00
         0.30000E+00
         0.30000E+00
         0.30000E+00
         0.30000E+00
         0.30000E+00
         0.30000E+00
         0.30000E+00
         0.30000E+00
         0.30000E+00
         0.30000E+00
         0.30000E+00
         0.30000E+00
         0.30000E+00
         0.30000E+00
         0.30000E+00
         0.30000E+00
         0.30000E+00
         0.30000E+00
         0.30000E+00
         0.30000E+00
         0.30000E+00
         0.30000E+00
         0.30000E+00
         0.30000E+00
         0.30000E+00
         0.30000E+00
         0.30000E+00
         0.30000E+00
         0.30000E+00
         0.30000E+00
         0.30000E+00
         0.30000E+00
         0.30000E+00
         0.30000E+00
         0.30000E+00
         0.30000E+00
         0.30000E+00
         0.30000E+00
         0.30000E+00
         0.30000E+00
         0.30000E+00
         0.30000E+00
         0.30000E+00
         0.30000E+00
         0.30000E+00
         0.30000E+00
         0.30000E+00
         0.30000E+00
         0.30000E+00
         0.30000E+00
         0.30000E+00
         0.30000E+00
         0.30000E+00
         0.30000E+00
         0.30000E+00
         0.30000E+00
         0.30000E+00
         0.30000E+00
         0.30000E+00
         0.30000E+00
         0.30000E+00
         0.30000E+00
         0.30000E+00
         0.30000E+00
         0.30000E+00
         0.30000E+00
         0.30000E+00
         0.30000E+00
         0.30000E+00
         0.30000E+00
         0.30000E+00
         0.30000E+00
         0.30000E+00
         0.30000E+00
         0.30000E+00
         0.30000E+00
         0.30000E+00
         0.30000E+00
         0.30000E+00
         0.30000E+00
         0.30000E+00
         0.30000E+00
         0.30000E+00
         0.30000E+00
         0.30000E+00
         0.30000E+00
         0.30000E+00
         0.30000E+00
         0.30000E+00
         0.30000E+00
         0.30000E+00
         0.30000E+00
         0.30000E+00
         0.30000E+00
         0.30000E+00
         0.30000E+00
         0.30000E+00
         0.30000E+00
         0.30000E+00
         0.30000E+00
         0.30000E+00
         0.30000E+00
         0.30000E+00
         0.30000E+00
         0.30000E+00
         0.30000E+00
         0.30000E+00
         0.30000E+00
         0.30000E+00
         0.30000E+00
         0.30000E+00
         0.30000E+00
         0.30000E+00
         0.30000E+00
         0.30000E+00
         0.30000E+00
         0.30000E+00
         0.30000E+00
         0.30000E+00
         0.30000E+00
         0.30000E+00
         0.30000E+00
         0.30000E+00
         0.30000E+00
         0.30000E+00
         0.30000E+00
         0.30000E+00
         0.30000E+00
         0.30000E+00
         0.30000E+00
         0.30000E+00
         0.30000E+00
         0.30000E+00
         0.30000E+00
         0.30000E+00
         0.30000E+00
         0.30000E+00
         0.30000E+00
         0.30000E+00
         0.30000E+00
         0.30000E+00
         0.30000E+00
         0.30000E+00
         0.30000E+00
         0.30000E+00
         0.30000E+00
         0.30000E+00
         0.30000E+00
         0.30000E+00
         0.30000E+00
         0.30000E+00
         0.30000E+00
         0.30000E+00
         0.30000E+00
         0.30000E+00
         0.30000E+00
         0.30000E+00
         0.30000E+00
         0.30000E+00
         0.30000E+00
         0.30000E+00
         0.30000E+00
         0.30000E+00
         0.30000E+00
         0.30000E+00
         0.30000E+00
         0.30000E+00
         0.30000E+00
         0.30000E+00
         0.30000E+00
         0.30000E+00
         0.30000E+00
         0.30000E+00
         0.30000E+00
         0.30000E+00
         0.30000E+00
         0.30000E+00
         0.30000E+00
         0.30000E+00
         0.30000E+00
         0.30000E+00
         0.30000E+00
         0.30000E+00
         0.30000E+00
         0.30000E+00
         0.30000E+00
         0.30000E+00
         0.30000E+00
         0.30000E+00
         0.30000E+00
         0.30000E+00
         0.30000E+00
         0.30000E+00
         0.30000E+00
         0.30000E+00
         0.30000E+00
         0.30000E+00
         0.30000E+00
         0.30000E+00
         0.30000E+00
         0.30000E+00
         0.30000E+00
         0.30000E+00
         0.30000E+00
         0.30000E+00
         0.30000E+00
         0.30000E+00
         0.30000E+00
         0.30000E+00
         0.30000E+00
         0.30000E+00
         0.30000E+00
         0.30000E+00
         0.30000E+00
         0.30000E+00
         0.30000E+00
         0.30000E+00
         0.30000E+00
         0.30000E+00
         0.30000E+00
         0.30000E+00
         0.30000E+00
         0.30000E+00
         0.30000E+00
         0.30000E+00
         0.30000E+00
         0.30000E+00
         0.30000E+00
         0.30000E+00
         0.30000E+00
         0.30000E+00
         0.30000E+00
         0.30000E+00
         0.30000E+00
         0.30000E+00
         0.30000E+00
         0.30000E+00
         0.30000E+00
         0.30000E+00
         0.30000E+00
         0.30000E+00
         0.30000E+00
         0.30000E+00
         0.30000E+00
         0.30000E+00
         0.30000E+00
         0.30000E+00
         0.30000E+00
         0.30000E+00
         0.30000E+00
         0.30000E+00
         0.30000E+00
         0.30000E+00
         0.30000E+00
         0.30000E+00
         0.30000E+00
         0.30000E+00
         0.30000E+00
         0.30000E+00
         0.30000E+00
         0.30000E+00
         0.30000E+00
         0.30000E+00
         0.30000E+00
         0.30000E+00
         0.30000E+00
         0.30000E+00
         0.30000E+00
         0.30000E+00
         0.30000E+00
         0.30000E+00
         0.30000E+00
         0.30000E+00
         0.30000E+00
         0.30000E+00
         0.30000E+00
         0.30000E+00
         0.30000E+00
         0.30000E+00
         0.30000E+00
         0.30000E+00
         0.30000E+00
         0.30000E+00
         0.30000E+00
         0.30000E+00
         0.30000E+00
         0.30000E+00
         0.30000E+00
         0.30000E+00
         0.30000E+00
         0.30000E+00
         0.30000E+00
         0.30000E+00
         0.30000E+00
         0.30000E+00
         0.30000E+00
         0.30000E+00
         0.30000E+00
         0.30000E+00
         0.30000E+00
         0.30000E+00
         0.30000E+00
         0.30000E+00
         0.30000E+00
         0.30000E+00
         0.30000E+00
         0.30000E+00
         0.30000E+00
         0.30000E+00
         0.30000E+00
         0.30000E+00
         0.30000E+00
         0.30000E+00
         0.30000E+00
         0.30000E+00
         0.30000E+00
         0.30000E+00
         0.30000E+00
         0.30000E+00
         0.30000E+00
         0.30000E+00
         0.30000E+00
         0.30000E+00
         0.30000E+00
         0.30000E+00
         0.30000E+00
         0.30000E+00
         0.30000E+00
         0.30000E+00
         0.30000E+00
         0.30000E+00
         0.30000E+00
         0.30000E+00
         0.30000E+00
         0.30000E+00
         0.30000E+00
         0.30000E+00
         0.30000E+00
         0.30000E+00
         0.30000E+00
         0.30000E+00
         0.30000E+00
         0.30000E+00
         0.30000E+00
         0.30000E+00
         0.30000E+00
         0.30000E+00
         0.30000E+00
         0.30000E+00
         0.30000E+00
         0.30000E+00
         0.30000E+00
         0.30000E+00
         0.30000E+00
         0.30000E+00
         0.30000E+00
         0.30000E+00
         0.30000E+00
         0.30000E+00
         0.30000E+00
         0.30000E+00
         0.30000E+00
         0.30000E+00
         0.30000E+00
         0.30000E+00
         0.30000E+00
         0.30000E+00
         0.30000E+00
         0.30000E+00
         0.30000E+00
         0.30000E+00
         0.30000E+00
         0.30000E+00
         0.30000E+00
         0.30000E+00
         0.30000E+00
         0.30000E+00
         0.30000E+00
         0.30000E+00
         0.30000E+00
         0.30000E+00
         0.30000E+00
         0.30000E+00
         0.30000E+00
         0.30000E+00
         0.30000E+00
         0.30000E+00
         0.30000E+00
         0.30000E+00
         0.30000E+00
         0.30000E+00
         0.30000E+00
         0.30000E+00
         0.30000E+00
         0.30000E+00
         0.30000E+00
         0.30000E+00
         0.30000E+00
         0.30000E+00
         0.30000E+00
         0.30000E+00
         0.30000E+00
         0.30000E+00
         0.30000E+00
         0.30000E+00
         0.30000E+00
         0.30000E+00
         0.30000E+00
         0.30000E+00
         0.30000E+00
         0.30000E+00
         0.30000E+00
         0.30000E+00
         0.30000E+00
         0.30000E+00
         0.30000E+00
         0.30000E+00
         0.30000E+00
         0.30000E+00
         0.30000E+00
         0.30000E+00
         0.30000E+00
         0.30000E+00
         0.30000E+00
         0.30000E+00
         0.30000E+00
         0.30000E+00
         0.30000E+00
         0.30000E+00
         0.30000E+00
         0.30000E+00
         0.30000E+00
         0.30000E+00
         0.30000E+00
         0.30000E+00
         0.30000E+00
         0.30000E+00
         0.30000E+00
         0.30000E+00
         0.30000E+00
         0.30000E+00
         0.30000E+00
         0.30000E+00
         0.30000E+00
         0.30000E+00
         0.30000E+00
         0.30000E+00
         0.30000E+00
         0.30000E+00
         0.30000E+00
         0.30000E+00
         0.30000E+00
         0.30000E+00
         0.30000E+00
         0.30000E+00
         0.30000E+00
         0.30000E+00
         0.30000E+00
         0.30000E+00
         0.30000E+00
         0.30000E+00
         0.30000E+00
         0.30000E+00
         0.30000E+00
         0.30000E+00
         0.30000E+00
         0.30000E+00
         0.30000E+00
         0.30000E+00
         0.30000E+00
         0.30000E+00
         0.30000E+00
         0.30000E+00
         0.30000E+00
         0.30000E+00
         0.30000E+00
         0.30000E+00
         0.30000E+00
         0.30000E+00
         0.30000E+00
         0.30000E+00
         0.30000E+00
         0.30000E+00
         0.30000E+00
         0.30000E+00
         0.30000E+00
         0.30000E+00
         0.30000E+00
         0.30000E+00
         0.30000E+00
         0.30000E+00
         0.30000E+00
         0.30000E+00
         0.30000E+00
         0.30000E+00
         0.30000E+00
         0.30000E+00
         0.30000E+00
         0.30000E+00
         0.30000E+00
         0.30000E+00
         0.30000E+00
         0.30000E+00
         0.30000E+00
         0.30000E+00
         0.30000E+00
         0.30000E+00
         0.30000E+00
         0.30000E+00
         0.30000E+00
         0.30000E+00
         0.30000E+00
         0.30000E+00
         0.30000E+00
         0.30000E+00
         0.30000E+00
         0.30000E+00
         0.30000E+00
         0.30000E+00
         0.30000E+00
         0.30000E+00
         0.30000E+00
         0.30000E+00
         0.30000E+00
         0.30000E+00
         0.30000E+00
         0.30000E+00
         0.30000E+00
         0.30000E+00
         0.30000E+00
         0.30000E+00
         0.30000E+00
         0.30000E+00
         0.30000E+00
         0.30000E+00
         0.30000E+00
         0.30000E+00
         0.30000E+00
         0.30000E+00
         0.30000E+00
         0.30000E+00
         0.30000E+00
         0.30000E+00
         0.30000E+00
         0.30000E+00
         0.30000E+00
         0.30000E+00
         0.30000E+00
         0.30000E+00
         0.30000E+00
         0.30000E+00
         0.30000E+00
         0.30000E+00
         0.30000E+00
         0.30000E+00
         0.30000E+00
         0.30000E+00
         0.30000E+00
         0.30000E+00
         0.30000E+00
         0.30000E+00
         0.30000E+00
         0.30000E+00
         0.30000E+00
         0.30000E+00
         0.30000E+00
         0.30000E+00
         0.30000E+00
         0.30000E+00
         0.30000E+00
         0.30000E+00
         0.30000E+00
         0.30000E+00
         0.30000E+00
         0.30000E+00
         0.30000E+00
         0.30000E+00
         0.30000E+00
         0.30000E+00
         0.30000E+00
         0.30000E+00
         0.30000E+00
         0.30000E+00
         0.30000E+00
         0.30000E+00
         0.30000E+00
         0.30000E+00
         0.30000E+00
         0.30000E+00
         0.30000E+00
         0.30000E+00
         0.30000E+00
         0.30000E+00
         0.30000E+00
         0.30000E+00
         0.30000E+00
         0.30000E+00
         0.30000E+00
         0.30000E+00
         0.30000E+00
         0.30000E+00
         0.30000E+00
         0.30000E+00
         0.30000E+00
         0.30000E+00
         0.30000E+00
         0.30000E+00
         0.30000E+00
         0.30000E+00
         0.30000E+00
         0.30000E+00
         0.30000E+00
         0.30000E+00
         0.30000E+00
         0.30000E+00
         0.30000E+00
         0.30000E+00
         0.30000E+00
         0.30000E+00
         0.30000E+00
         0.30000E+00
         0.30000E+00
         0.30000E+00
         0.30000E+00
         0.30000E+00
         0.30000E+00
         0.30000E+00
         0.30000E+00
         0.30000E+00
         0.30000E+00
         0.30000E+00
         0.30000E+00
         0.30000E+00
         0.30000E+00
         0.30000E+00
         0.30000E+00
         0.30000E+00
         0.30000E+00
         0.30000E+00
         0.30000E+00
         0.30000E+00
         0.30000E+00
         0.30000E+00
         0.30000E+00
         0.30000E+00
         0.30000E+00
         0.30000E+00
         0.30000E+00
         0.30000E+00
         0.30000E+00
         0.30000E+00
         0.30000E+00
         0.30000E+00
         0.30000E+00
         0.30000E+00
         0.30000E+00
         0.30000E+00
         0.30000E+00
         0.30000E+00
         0.30000E+00
         0.30000E+00
         0.30000E+00
         0.30000E+00
         0.30000E+00
         0.30000E+00
         0.30000E+00
         0.30000E+00
         0.30000E+00
         0.30000E+00
         0.30000E+00
         0.30000E+00
         0.30000E+00
         0.30000E+00
         0.30000E+00
         0.30000E+00
         0.30000E+00
         0.30000E+00
         0.30000E+00
         0.30000E+00
         0.30000E+00
         0.30000E+00
         0.30000E+00
         0.30000E+00
         0.30000E+00
         0.30000E+00
         0.30000E+00
         0.30000E+00
         0.30000E+00
         0.30000E+00
         0.30000E+00
         0.30000E+00
         0.30000E+00
         0.30000E+00
         0.30000E+00
         0.30000E+00
         0.30000E+00
         0.30000E+00
         0.30000E+00
         0.30000E+00
         0.30000E+00
         0.30000E+00
         0.30000E+00
         0.30000E+00
         0.30000E+00
         0.30000E+00
         0.30000E+00
         0.30000E+00
         0.30000E+00
         0.30000E+00
         0.30000E+00
         0.30000E+00
         0.30000E+00
         0.30000E+00
         0.30000E+00
         0.30000E+00
         0.30000E+00
         0.30000E+00
         0.30000E+00
         0.30000E+00
         0.30000E+00
         0.30000E+00
         0.30000E+00
         0.30000E+00
         0.30000E+00
         0.30000E+00
         0.30000E+00
         0.30000E+00
         0.30000E+00
         0.30000E+00
         0.30000E+00
         0.30000E+00
         0.30000E+00
         0.30000E+00
         0.30000E+00
         0.30000E+00
         0.30000E+00
         0.30000E+00
         0.30000E+00
         0.30000E+00
         0.30000E+00
         0.30000E+00
         0.30000E+00
         0.30000E+00
         0.30000E+00
         0.30000E+00
         0.30000E+00
         0.30000E+00
         0.30000E+00
         0.30000E+00
         0.30000E+00
         0.30000E+00
         0.30000E+00
         0.30000E+00
         0.30000E+00
         0.30000E+00
         0.30000E+00
         0.30000E+00
         0.30000E+00
         0.30000E+00
         0.30000E+00
         0.30000E+00
         0.30000E+00
         0.30000E+00
         0.30000E+00
         0.30000E+00
         0.30000E+00
         0.30000E+00
         0.30000E+00
         0.30000E+00
         0.30000E+00
         0.30000E+00
         0.30000E+00
         0.30000E+00
         0.30000E+00
         0.30000E+00
         0.30000E+00
         0.30000E+00
         0.30000E+00
         0.30000E+00
         0.30000E+00
         0.30000E+00
         0.30000E+00
         0.30000E+00
         0.30000E+00
         0.30000E+00
         0.30000E+00
         0.30000E+00
         0.30000E+00
         0.30000E+00
         0.30000E+00
         0.30000E+00
         0.30000E+00
         0.30000E+00
         0.30000E+00
         0.30000E+00
         0.30000E+00
         0.30000E+00
         0.30000E+00
         0.30000E+00
         0.30000E+00
         0.30000E+00
         0.30000E+00
         0.30000E+00
         0.30000E+00
         0.30000E+00
         0.30000E+00
         0.30000E+00
         0.30000E+00
         0.30000E+00
         0.30000E+00
         0.30000E+00
         0.30000E+00
         0.30000E+00
         0.30000E+00
         0.30000E+00
         0.30000E+00
         0.30000E+00
         0.30000E+00
         0.30000E+00
         0.30000E+00
         0.30000E+00
         0.30000E+00
         0.30000E+00
         0.30000E+00
         0.30000E+00
         0.30000E+00
         0.30000E+00
         0.30000E+00
         0.30000E+00
         0.30000E+00
         0.30000E+00
         0.30000E+00
         0.30000E+00
         0.30000E+00
         0.30000E+00
         0.30000E+00
         0.30000E+00
         0.30000E+00
         0.30000E+00
         0.30000E+00
         0.30000E+00
         0.30000E+00
         0.30000E+00
         0.30000E+00
         0.30000E+00
         0.30000E+00
         0.30000E+00
         0.30000E+00
         0.30000E+00
         0.30000E+00
         0.30000E+00
         0.30000E+00
         0.30000E+00
         0.30000E+00
         0.30000E+00
         0.30000E+00
         0.30000E+00
         0.30000E+00
         0.30000E+00
         0.30000E+00
         0.30000E+00
         0.30000E+00
         0.30000E+00
         0.30000E+00
         0.30000E+00
         0.30000E+00
         0.30000E+00
         0.30000E+00
         0.30000E+00
         0.30000E+00
         0.30000E+00
         0.30000E+00
         0.30000E+00
         0.30000E+00
         0.30000E+00
         0.30000E+00
         0.30000E+00
         0.30000E+00
         0.30000E+00
         0.30000E+00
         0.30000E+00
         0.30000E+00
         0.30000E+00
         0.30000E+00
         0.30000E+00
         0.30000E+00
         0.30000E+00
         0.30000E+00
         0.30000E+00
         0.30000E+00
         0.30000E+00
         0.30000E+00
         0.30000E+00
         0.30000E+00
         0.30000E+00
         0.30000E+00
         0.30000E+00
         0.30000E+00
         0.30000E+00
         0.30000E+00
         0.30000E+00
         0.30000E+00
         0.30000E+00
         0.30000E+00
         0.30000E+00
         0.30000E+00
         0.30000E+00
         0.30000E+00
         0.30000E+00
         0.30000E+00
         0.30000E+00
         0.30000E+00
         0.30000E+00
         0.30000E+00
         0.30000E+00
         0.30000E+00
         0.30000E+00
         0.30000E+00
         0.30000E+00
         0.30000E+00
         0.30000E+00
         0.30000E+00
         0.30000E+00
         0.30000E+00
         0.30000E+00
         0.30000E+00
         0.30000E+00
         0.30000E+00
         0.30000E+00
         0.30000E+00
         0.30000E+00
         0.30000E+00
         0.30000E+00
         0.30000E+00
         0.30000E+00
         0.30000E+00
         0.30000E+00
         0.30000E+00
         0.30000E+00
         0.30000E+00
         0.30000E+00
         0.30000E+00
         0.30000E+00
         0.30000E+00
         0.30000E+00
         0.30000E+00
         0.30000E+00
         0.30000E+00
         0.30000E+00
         0.30000E+00
         0.30000E+00
         0.30000E+00
         0.30000E+00
         0.30000E+00
         0.30000E+00
         0.30000E+00
         0.30000E+00
         0.30000E+00
         0.30000E+00
         0.30000E+00
         0.30000E+00
         0.30000E+00
         0.30000E+00
         0.30000E+00
         0.30000E+00
         0.30000E+00
         0.30000E+00
         0.30000E+00
         0.30000E+00
         0.30000E+00
         0.30000E+00
         0.30000E+00
         0.30000E+00
         0.30000E+00
         0.30000E+00
         0.30000E+00
         0.30000E+00
         0.30000E+00
         0.30000E+00
         0.30000E+00
         0.30000E+00
         0.30000E+00
         0.30000E+00
         0.30000E+00
         0.30000E+00
         0.30000E+00
         0.30000E+00
         0.30000E+00
         0.30000E+00
         0.30000E+00
         0.30000E+00
         0.30000E+00
         0.30000E+00
         0.30000E+00
         0.30000E+00
         0.30000E+00
         0.30000E+00
         0.30000E+00
         0.30000E+00
         0.30000E+00
         0.30000E+00
         0.30000E+00
         0.30000E+00
         0.30000E+00
         0.30000E+00
         0.30000E+00
         0.30000E+00
         0.30000E+00
         0.30000E+00
         0.30000E+00
         0.30000E+00
         0.30000E+00
         0.30000E+00
         0.30000E+00
         0.30000E+00
         0.30000E+00
         0.30000E+00
         0.30000E+00
         0.30000E+00
         0.30000E+00
         0.30000E+00
         0.30000E+00
         0.30000E+00
         0.30000E+00
         0.30000E+00
         0.30000E+00
         0.30000E+00
         0.30000E+00
         0.30000E+00
         0.30000E+00
         0.30000E+00
         0.30000E+00
         0.30000E+00
         0.30000E+00
         0.30000E+00
         0.30000E+00
         0.30000E+00
         0.30000E+00
         0.30000E+00
         0.30000E+00
         0.30000E+00
         0.30000E+00
         0.30000E+00
         0.30000E+00
         0.30000E+00
         0.30000E+00
         0.30000E+00
         0.30000E+00
         0.30000E+00
         0.30000E+00
         0.30000E+00
         0.30000E+00
         0.30000E+00
         0.30000E+00
         0.30000E+00
         0.30000E+00
         0.30000E+00
         0.30000E+00
         0.30000E+00
         0.30000E+00
         0.30000E+00
         0.30000E+00
         0.30000E+00
         0.30000E+00
         0.30000E+00
         0.30000E+00
         0.30000E+00
         0.30000E+00
         0.30000E+00
         0.30000E+00
         0.30000E+00
         0.30000E+00
         0.30000E+00
         0.30000E+00
         0.30000E+00
         0.30000E+00
         0.30000E+00
         0.30000E+00
         0.30000E+00
         0.30000E+00
         0.30000E+00
         0.30000E+00
         0.30000E+00
         0.30000E+00
         0.30000E+00
         0.30000E+00
         0.30000E+00
         0.30000E+00
         0.30000E+00
         0.30000E+00
         0.30000E+00
         0.30000E+00
         0.30000E+00
         0.30000E+00
         0.30000E+00
         0.30000E+00
         0.30000E+00
         0.30000E+00
         0.30000E+00
         0.30000E+00
         0.30000E+00
         0.30000E+00
         0.30000E+00
         0.30000E+00
         0.30000E+00
         0.30000E+00
         0.30000E+00
         0.30000E+00
         0.30000E+00
         0.30000E+00
         0.30000E+00
         0.30000E+00
         0.30000E+00
         0.30000E+00
         0.30000E+00
         0.30000E+00
         0.30000E+00
         0.30000E+00
         0.30000E+00
         0.30000E+00
         0.30000E+00
         0.30000E+00
         0.30000E+00
         0.30000E+00
         0.30000E+00
         0.30000E+00
         0.30000E+00
         0.30000E+00
         0.30000E+00
         0.30000E+00
         0.30000E+00
         0.30000E+00
         0.30000E+00
         0.30000E+00
         0.30000E+00
         0.30000E+00
         0.30000E+00
         0.30000E+00
         0.30000E+00
         0.30000E+00
         0.30000E+00
         0.30000E+00
         0.30000E+00
         0.30000E+00
         0.30000E+00
         0.30000E+00
         0.30000E+00
         0.30000E+00
         0.30000E+00
         0.30000E+00
         0.30000E+00
         0.30000E+00
         0.30000E+00
         0.30000E+00
         0.30000E+00
         0.30000E+00
         0.30000E+00
         0.30000E+00
         0.30000E+00
         0.30000E+00
         0.30000E+00
         0.30000E+00
         0.30000E+00
         0.30000E+00
         0.30000E+00
         0.30000E+00
         0.30000E+00
         0.30000E+00
         0.30000E+00
         0.30000E+00
         0.30000E+00
         0.30000E+00
         0.30000E+00
         0.30000E+00
         0.30000E+00
         0.30000E+00
         0.30000E+00
         0.30000E+00
         0.30000E+00
         0.30000E+00
         0.30000E+00
         0.30000E+00
         0.30000E+00
         0.30000E+00
         0.30000E+00
         0.30000E+00
         0.30000E+00
         0.30000E+00
         0.30000E+00
         0.30000E+00
         0.30000E+00
         0.30000E+00
         0.30000E+00
         0.30000E+00
         0.30000E+00
         0.30000E+00
         0.30000E+00
         0.30000E+00
         0.30000E+00
         0.30000E+00
         0.30000E+00
         0.30000E+00
         0.30000E+00
         0.30000E+00
         0.30000E+00
         0.30000E+00
         0.30000E+00
         0.30000E+00
         0.30000E+00
         0.30000E+00
         0.30000E+00
         0.30000E+00
         0.30000E+00
         0.30000E+00
         0.30000E+00
         0.30000E+00
         0.30000E+00
         0.30000E+00
         0.30000E+00
         0.30000E+00
         0.30000E+00
         0.30000E+00
         0.30000E+00
         0.30000E+00
         0.30000E+00
         0.30000E+00
         0.30000E+00
         0.30000E+00
         0.30000E+00
         0.30000E+00
         0.30000E+00
         0.30000E+00
         0.30000E+00
         0.30000E+00
         0.30000E+00
         0.30000E+00
         0.30000E+00
         0.30000E+00
         0.30000E+00
         0.30000E+00
         0.30000E+00
         0.30000E+00
         0.30000E+00
         0.30000E+00
         0.30000E+00
         0.30000E+00
         0.30000E+00
         0.30000E+00
         0.30000E+00
         0.30000E+00
         0.30000E+00
         0.30000E+00
         0.30000E+00
         0.30000E+00
         0.30000E+00
         0.30000E+00
         0.30000E+00
         0.30000E+00
         0.30000E+00
         0.30000E+00
         0.30000E+00
         0.30000E+00
         0.30000E+00
         0.30000E+00
         0.30000E+00
         0.30000E+00
         0.30000E+00
         0.30000E+00
         0.30000E+00
         0.30000E+00
         0.30000E+00
         0.30000E+00
         0.30000E+00
         0.30000E+00
         0.30000E+00
         0.30000E+00
         0.30000E+00
         0.30000E+00
         0.30000E+00
         0.30000E+00
         0.30000E+00
         0.30000E+00
         0.30000E+00
         0.30000E+00
         0.30000E+00
         0.30000E+00
         0.30000E+00
         0.30000E+00
         0.30000E+00
         0.30000E+00
         0.30000E+00
         0.30000E+00
         0.30000E+00
         0.30000E+00
         0.30000E+00
         0.30000E+00
         0.30000E+00
         0.30000E+00
         0.30000E+00
         0.30000E+00
         0.30000E+00
         0.30000E+00
         0.30000E+00
         0.30000E+00
         0.30000E+00
         0.30000E+00
         0.30000E+00
         0.30000E+00
         0.30000E+00
         0.30000E+00
         0.30000E+00
         0.30000E+00
         0.30000E+00
         0.30000E+00
         0.30000E+00
         0.30000E+00
         0.30000E+00
         0.30000E+00
         0.30000E+00
         0.30000E+00
         0.30000E+00
         0.30000E+00
         0.30000E+00
         0.30000E+00
         0.30000E+00
         0.30000E+00
         0.30000E+00
         0.30000E+00
         0.30000E+00
         0.30000E+00
         0.30000E+00
         0.30000E+00
         0.30000E+00
         0.30000E+00
         0.30000E+00
         0.30000E+00
         0.30000E+00
         0.30000E+00
         0.30000E+00
         0.30000E+00
         0.30000E+00
         0.30000E+00
         0.30000E+00
         0.30000E+00
         0.30000E+00
         0.30000E+00
         0.30000E+00
         0.30000E+00
         0.30000E+00
         0.30000E+00
         0.30000E+00
         0.30000E+00
         0.30000E+00
         0.30000E+00
         0.30000E+00
         0.30000E+00
         0.30000E+00
         0.30000E+00
         0.30000E+00
         0.30000E+00
         0.30000E+00
         0.30000E+00
         0.30000E+00
         0.30000E+00
         0.30000E+00
         0.30000E+00
         0.30000E+00
         0.30000E+00
         0.30000E+00
         0.30000E+00
         0.30000E+00
         0.30000E+00
         0.30000E+00
         0.30000E+00
         0.30000E+00
         0.30000E+00
         0.30000E+00
         0.30000E+00
         0.30000E+00
         0.30000E+00
         0.30000E+00
         0.30000E+00
         0.30000E+00
         0.30000E+00
         0.30000E+00
         0.30000E+00
         0.30000E+00
         0.30000E+00
         0.30000E+00
         0.30000E+00
         0.30000E+00
         0.30000E+00
         0.30000E+00
         0.30000E+00
         0.30000E+00
         0.30000E+00
         0.30000E+00
         0.30000E+00
         0.30000E+00
         0.30000E+00
         0.30000E+00
         0.30000E+00
         0.30000E+00
         0.30000E+00
         0.30000E+00
         0.30000E+00
         0.30000E+00
         0.30000E+00
         0.30000E+00
         0.30000E+00
         0.30000E+00
         0.30000E+00
         0.30000E+00
         0.30000E+00
         0.30000E+00
         0.30000E+00
         0.30000E+00
         0.30000E+00
         0.30000E+00
         0.30000E+00
         0.30000E+00
         0.30000E+00
         0.30000E+00
         0.30000E+00
         0.30000E+00
         0.30000E+00
         0.30000E+00
         0.30000E+00
         0.30000E+00
         0.30000E+00
         0.30000E+00
         0.30000E+00
         0.30000E+00
         0.30000E+00
         0.30000E+00
         0.30000E+00
         0.30000E+00
         0.30000E+00
         0.30000E+00
         0.30000E+00
         0.30000E+00
         0.30000E+00
         0.30000E+00
         0.30000E+00
         0.30000E+00
         0.30000E+00
         0.30000E+00
         0.30000E+00
         0.30000E+00
         0.30000E+00
         0.30000E+00
         0.30000E+00
         0.30000E+00
         0.30000E+00
         0.30000E+00
         0.30000E+00
         0.30000E+00
         0.30000E+00
         0.30000E+00
         0.30000E+00
         0.30000E+00
         0.30000E+00
         0.30000E+00
         0.30000E+00
         0.30000E+00
         0.30000E+00
         0.30000E+00
         0.30000E+00
         0.30000E+00
         0.30000E+00
         0.30000E+00
         0.30000E+00
         0.30000E+00
         0.30000E+00
         0.30000E+00
         0.30000E+00
         0.30000E+00
         0.30000E+00
         0.30000E+00
         0.30000E+00
         0.30000E+00
         0.30000E+00
         0.30000E+00
         0.30000E+00
         0.30000E+00
         0.30000E+00
         0.30000E+00
         0.30000E+00
         0.30000E+00
         0.30000E+00
         0.30000E+00
         0.30000E+00
         0.30000E+00
         0.30000E+00
         0.30000E+00
         0.30000E+00
         0.30000E+00
         0.30000E+00
         0.30000E+00
         0.30000E+00
         0.30000E+00
         0.30000E+00
         0.30000E+00
         0.30000E+00
         0.30000E+00
  
SCALARS                 Youngs_modulus  double 1
LOOKUP_TABLE default
         0.78200E+11
         0.78200E+11
         0.78200E+11
         0.78200E+11
         0.78200E+11
         0.78200E+11
         0.78200E+11
         0.78200E+11
         0.78200E+11
         0.78200E+11
         0.78200E+11
         0.78200E+11
         0.78200E+11
         0.78200E+11
         0.78200E+11
         0.78200E+11
         0.78200E+11
         0.78200E+11
         0.78200E+11
         0.78200E+11
         0.78200E+11
         0.78200E+11
         0.78200E+11
         0.78200E+11
         0.78200E+11
         0.78200E+11
         0.78200E+11
         0.78200E+11
         0.78200E+11
         0.78200E+11
         0.78200E+11
         0.78200E+11
         0.78200E+11
         0.78200E+11
         0.78200E+11
         0.78200E+11
         0.78200E+11
         0.78200E+11
         0.78200E+11
         0.78200E+11
         0.78200E+11
         0.78200E+11
         0.78200E+11
         0.78200E+11
         0.78200E+11
         0.78200E+11
         0.78200E+11
         0.78200E+11
         0.78200E+11
         0.78200E+11
         0.78200E+11
         0.78200E+11
         0.78200E+11
         0.78200E+11
         0.78200E+11
         0.78200E+11
         0.78200E+11
         0.78200E+11
         0.78200E+11
         0.78200E+11
         0.78200E+11
         0.78200E+11
         0.78200E+11
         0.78200E+11
         0.78200E+11
         0.78200E+11
         0.78200E+11
         0.78200E+11
         0.78200E+11
         0.78200E+11
         0.78200E+11
         0.78200E+11
         0.78200E+11
         0.78200E+11
         0.78200E+11
         0.78200E+11
         0.78200E+11
         0.78200E+11
         0.78200E+11
         0.78200E+11
         0.78200E+11
         0.78200E+11
         0.78200E+11
         0.78200E+11
         0.78200E+11
         0.78200E+11
         0.78200E+11
         0.78200E+11
         0.78200E+11
         0.78200E+11
         0.78200E+11
         0.78200E+11
         0.78200E+11
         0.78200E+11
         0.78200E+11
         0.78200E+11
         0.78200E+11
         0.78200E+11
         0.78200E+11
         0.78200E+11
         0.78200E+11
         0.78200E+11
         0.78200E+11
         0.78200E+11
         0.78200E+11
         0.78200E+11
         0.78200E+11
         0.78200E+11
         0.78200E+11
         0.78200E+11
         0.78200E+11
         0.78200E+11
         0.78200E+11
         0.78200E+11
         0.78200E+11
         0.78200E+11
         0.78200E+11
         0.78200E+11
         0.78200E+11
         0.78200E+11
         0.78200E+11
         0.78200E+11
         0.78200E+11
         0.78200E+11
         0.78200E+11
         0.78200E+11
         0.78200E+11
         0.78200E+11
         0.78200E+11
         0.78200E+11
         0.78200E+11
         0.78200E+11
         0.78200E+11
         0.78200E+11
         0.78200E+11
         0.78200E+11
         0.78200E+11
         0.78200E+11
         0.78200E+11
         0.78200E+11
         0.78200E+11
         0.78200E+11
         0.78200E+11
         0.78200E+11
         0.78200E+11
         0.78200E+11
         0.78200E+11
         0.78200E+11
         0.78200E+11
         0.78200E+11
         0.78200E+11
         0.78200E+11
         0.78200E+11
         0.78200E+11
         0.78200E+11
         0.78200E+11
         0.78200E+11
         0.78200E+11
         0.78200E+11
         0.78200E+11
         0.78200E+11
         0.78200E+11
         0.78200E+11
         0.78200E+11
         0.78200E+11
         0.78200E+11
         0.78200E+11
         0.78200E+11
         0.78200E+11
         0.78200E+11
         0.78200E+11
         0.78200E+11
         0.78200E+11
         0.78200E+11
         0.78200E+11
         0.78200E+11
         0.78200E+11
         0.78200E+11
         0.78200E+11
         0.78200E+11
         0.78200E+11
         0.78200E+11
         0.78200E+11
         0.78200E+11
         0.78200E+11
         0.78200E+11
         0.78200E+11
         0.78200E+11
         0.78200E+11
         0.78200E+11
         0.78200E+11
         0.78200E+11
         0.78200E+11
         0.78200E+11
         0.78200E+11
         0.78200E+11
         0.78200E+11
         0.78200E+11
         0.78200E+11
         0.78200E+11
         0.78200E+11
         0.78200E+11
         0.78200E+11
         0.78200E+11
         0.78200E+11
         0.78200E+11
         0.78200E+11
         0.78200E+11
         0.78200E+11
         0.78200E+11
         0.78200E+11
         0.78200E+11
         0.78200E+11
         0.78200E+11
         0.78200E+11
         0.78200E+11
         0.78200E+11
         0.78200E+11
         0.78200E+11
         0.78200E+11
         0.78200E+11
         0.78200E+11
         0.78200E+11
         0.78200E+11
         0.78200E+11
         0.78200E+11
         0.78200E+11
         0.78200E+11
         0.78200E+11
         0.78200E+11
         0.78200E+11
         0.78200E+11
         0.78200E+11
         0.78200E+11
         0.78200E+11
         0.78200E+11
         0.78200E+11
         0.78200E+11
         0.78200E+11
         0.78200E+11
         0.78200E+11
         0.78200E+11
         0.78200E+11
         0.78200E+11
         0.78200E+11
         0.78200E+11
         0.78200E+11
         0.78200E+11
         0.78200E+11
         0.78200E+11
         0.78200E+11
         0.78200E+11
         0.78200E+11
         0.78200E+11
         0.78200E+11
         0.78200E+11
         0.78200E+11
         0.78200E+11
         0.78200E+11
         0.78200E+11
         0.78200E+11
         0.78200E+11
         0.78200E+11
         0.78200E+11
         0.78200E+11
         0.78200E+11
         0.78200E+11
         0.78200E+11
         0.78200E+11
         0.78200E+11
         0.78200E+11
         0.78200E+11
         0.78200E+11
         0.78200E+11
         0.78200E+11
         0.78200E+11
         0.78200E+11
         0.78200E+11
         0.78200E+11
         0.78200E+11
         0.78200E+11
         0.78200E+11
         0.78200E+11
         0.78200E+11
         0.78200E+11
         0.78200E+11
         0.78200E+11
         0.78200E+11
         0.78200E+11
         0.78200E+11
         0.78200E+11
         0.78200E+11
         0.78200E+11
         0.78200E+11
         0.78200E+11
         0.78200E+11
         0.78200E+11
         0.78200E+11
         0.78200E+11
         0.78200E+11
         0.78200E+11
         0.78200E+11
         0.78200E+11
         0.78200E+11
         0.78200E+11
         0.78200E+11
         0.78200E+11
         0.78200E+11
         0.78200E+11
         0.78200E+11
         0.78200E+11
         0.78200E+11
         0.78200E+11
         0.78200E+11
         0.78200E+11
         0.78200E+11
         0.78200E+11
         0.78200E+11
         0.78200E+11
         0.78200E+11
         0.78200E+11
         0.78200E+11
         0.78200E+11
         0.78200E+11
         0.78200E+11
         0.78200E+11
         0.78200E+11
         0.78200E+11
         0.78200E+11
         0.78200E+11
         0.78200E+11
         0.78200E+11
         0.78200E+11
         0.78200E+11
         0.78200E+11
         0.78200E+11
         0.78200E+11
         0.78200E+11
         0.78200E+11
         0.78200E+11
         0.78200E+11
         0.78200E+11
         0.78200E+11
         0.78200E+11
         0.78200E+11
         0.78200E+11
         0.78200E+11
         0.78200E+11
         0.78200E+11
         0.78200E+11
         0.78200E+11
         0.78200E+11
         0.78200E+11
         0.78200E+11
         0.78200E+11
         0.78200E+11
         0.78200E+11
         0.78200E+11
         0.78200E+11
         0.78200E+11
         0.78200E+11
         0.78200E+11
         0.78200E+11
         0.78200E+11
         0.78200E+11
         0.78200E+11
         0.78200E+11
         0.78200E+11
         0.78200E+11
         0.78200E+11
         0.78200E+11
         0.78200E+11
         0.78200E+11
         0.78200E+11
         0.78200E+11
         0.78200E+11
         0.78200E+11
         0.78200E+11
         0.78200E+11
         0.78200E+11
         0.78200E+11
         0.78200E+11
         0.78200E+11
         0.78200E+11
         0.78200E+11
         0.78200E+11
         0.78200E+11
         0.78200E+11
         0.78200E+11
         0.78200E+11
         0.78200E+11
         0.78200E+11
         0.78200E+11
         0.78200E+11
         0.78200E+11
         0.78200E+11
         0.78200E+11
         0.78200E+11
         0.78200E+11
         0.78200E+11
         0.78200E+11
         0.78200E+11
         0.78200E+11
         0.78200E+11
         0.78200E+11
         0.78200E+11
         0.78200E+11
         0.78200E+11
         0.78200E+11
         0.78200E+11
         0.78200E+11
         0.78200E+11
         0.78200E+11
         0.78200E+11
         0.78200E+11
         0.78200E+11
         0.78200E+11
         0.78200E+11
         0.78200E+11
         0.78200E+11
         0.78200E+11
         0.78200E+11
         0.78200E+11
         0.78200E+11
         0.78200E+11
         0.78200E+11
         0.78200E+11
         0.78200E+11
         0.78200E+11
         0.78200E+11
         0.78200E+11
         0.78200E+11
         0.78200E+11
         0.78200E+11
         0.78200E+11
         0.78200E+11
         0.78200E+11
         0.78200E+11
         0.78200E+11
         0.78200E+11
         0.78200E+11
         0.78200E+11
         0.78200E+11
         0.78200E+11
         0.78200E+11
         0.78200E+11
         0.78200E+11
         0.78200E+11
         0.78200E+11
         0.78200E+11
         0.78200E+11
         0.78200E+11
         0.78200E+11
         0.78200E+11
         0.78200E+11
         0.78200E+11
         0.78200E+11
         0.78200E+11
         0.78200E+11
         0.78200E+11
         0.78200E+11
         0.78200E+11
         0.78200E+11
         0.78200E+11
         0.78200E+11
         0.78200E+11
         0.78200E+11
         0.78200E+11
         0.78200E+11
         0.78200E+11
         0.78200E+11
         0.78200E+11
         0.78200E+11
         0.78200E+11
         0.78200E+11
         0.78200E+11
         0.78200E+11
         0.78200E+11
         0.78200E+11
         0.78200E+11
         0.78200E+11
         0.78200E+11
         0.78200E+11
         0.78200E+11
         0.78200E+11
         0.78200E+11
         0.78200E+11
         0.78200E+11
         0.78200E+11
         0.78200E+11
         0.78200E+11
         0.78200E+11
         0.78200E+11
         0.78200E+11
         0.78200E+11
         0.78200E+11
         0.78200E+11
         0.78200E+11
         0.78200E+11
         0.78200E+11
         0.78200E+11
         0.78200E+11
         0.78200E+11
         0.78200E+11
         0.78200E+11
         0.78200E+11
         0.78200E+11
         0.78200E+11
         0.78200E+11
         0.78200E+11
         0.78200E+11
         0.78200E+11
         0.78200E+11
         0.78200E+11
         0.78200E+11
         0.78200E+11
         0.78200E+11
         0.78200E+11
         0.78200E+11
         0.78200E+11
         0.78200E+11
         0.78200E+11
         0.78200E+11
         0.78200E+11
         0.78200E+11
         0.78200E+11
         0.78200E+11
         0.78200E+11
         0.78200E+11
         0.78200E+11
         0.78200E+11
         0.78200E+11
         0.78200E+11
         0.78200E+11
         0.78200E+11
         0.78200E+11
         0.78200E+11
         0.78200E+11
         0.78200E+11
         0.78200E+11
         0.78200E+11
         0.78200E+11
         0.78200E+11
         0.78200E+11
         0.78200E+11
         0.78200E+11
         0.78200E+11
         0.78200E+11
         0.78200E+11
         0.78200E+11
         0.78200E+11
         0.78200E+11
         0.78200E+11
         0.78200E+11
         0.78200E+11
         0.78200E+11
         0.78200E+11
         0.78200E+11
         0.78200E+11
         0.78200E+11
         0.78200E+11
         0.78200E+11
         0.78200E+11
         0.78200E+11
         0.78200E+11
         0.78200E+11
         0.78200E+11
         0.78200E+11
         0.78200E+11
         0.78200E+11
         0.78200E+11
         0.78200E+11
         0.78200E+11
         0.78200E+11
         0.78200E+11
         0.78200E+11
         0.78200E+11
         0.78200E+11
         0.78200E+11
         0.78200E+11
         0.78200E+11
         0.78200E+11
         0.78200E+11
         0.78200E+11
         0.78200E+11
         0.78200E+11
         0.78200E+11
         0.78200E+11
         0.78200E+11
         0.78200E+11
         0.78200E+11
         0.78200E+11
         0.78200E+11
         0.78200E+11
         0.78200E+11
         0.78200E+11
         0.78200E+11
         0.78200E+11
         0.78200E+11
         0.78200E+11
         0.78200E+11
         0.78200E+11
         0.78200E+11
         0.78200E+11
         0.78200E+11
         0.78200E+11
         0.78200E+11
         0.78200E+11
         0.78200E+11
         0.78200E+11
         0.78200E+11
         0.78200E+11
         0.78200E+11
         0.78200E+11
         0.78200E+11
         0.78200E+11
         0.78200E+11
         0.78200E+11
         0.78200E+11
         0.78200E+11
         0.78200E+11
         0.78200E+11
         0.78200E+11
         0.78200E+11
         0.78200E+11
         0.78200E+11
         0.78200E+11
         0.78200E+11
         0.78200E+11
         0.78200E+11
         0.78200E+11
         0.78200E+11
         0.78200E+11
         0.78200E+11
         0.78200E+11
         0.78200E+11
         0.78200E+11
         0.78200E+11
         0.78200E+11
         0.78200E+11
         0.78200E+11
         0.78200E+11
         0.78200E+11
         0.78200E+11
         0.78200E+11
         0.78200E+11
         0.78200E+11
         0.78200E+11
         0.78200E+11
         0.78200E+11
         0.78200E+11
         0.78200E+11
         0.78200E+11
         0.78200E+11
         0.78200E+11
         0.78200E+11
         0.78200E+11
         0.78200E+11
         0.78200E+11
         0.78200E+11
         0.78200E+11
         0.78200E+11
         0.78200E+11
         0.78200E+11
         0.78200E+11
         0.78200E+11
         0.78200E+11
         0.78200E+11
         0.78200E+11
         0.78200E+11
         0.78200E+11
         0.78200E+11
         0.78200E+11
         0.78200E+11
         0.78200E+11
         0.78200E+11
         0.78200E+11
         0.78200E+11
         0.78200E+11
         0.78200E+11
         0.78200E+11
         0.78200E+11
         0.78200E+11
         0.78200E+11
         0.78200E+11
         0.78200E+11
         0.78200E+11
         0.78200E+11
         0.78200E+11
         0.78200E+11
         0.78200E+11
         0.78200E+11
         0.78200E+11
         0.78200E+11
         0.78200E+11
         0.78200E+11
         0.78200E+11
         0.78200E+11
         0.78200E+11
         0.78200E+11
         0.78200E+11
         0.78200E+11
         0.78200E+11
         0.78200E+11
         0.78200E+11
         0.78200E+11
         0.78200E+11
         0.78200E+11
         0.78200E+11
         0.78200E+11
         0.78200E+11
         0.78200E+11
         0.78200E+11
         0.78200E+11
         0.78200E+11
         0.78200E+11
         0.78200E+11
         0.78200E+11
         0.78200E+11
         0.78200E+11
         0.78200E+11
         0.78200E+11
         0.78200E+11
         0.78200E+11
         0.78200E+11
         0.78200E+11
         0.78200E+11
         0.78200E+11
         0.78200E+11
         0.78200E+11
         0.78200E+11
         0.78200E+11
         0.78200E+11
         0.78200E+11
         0.78200E+11
         0.78200E+11
         0.78200E+11
         0.78200E+11
         0.78200E+11
         0.78200E+11
         0.78200E+11
         0.78200E+11
         0.78200E+11
         0.78200E+11
         0.78200E+11
         0.78200E+11
         0.78200E+11
         0.78200E+11
         0.78200E+11
         0.78200E+11
         0.78200E+11
         0.78200E+11
         0.78200E+11
         0.78200E+11
         0.78200E+11
         0.78200E+11
         0.78200E+11
         0.78200E+11
         0.78200E+11
         0.78200E+11
         0.78200E+11
         0.78200E+11
         0.78200E+11
         0.78200E+11
         0.78200E+11
         0.78200E+11
         0.78200E+11
         0.78200E+11
         0.78200E+11
         0.78200E+11
         0.78200E+11
         0.78200E+11
         0.78200E+11
         0.78200E+11
         0.78200E+11
         0.78200E+11
         0.78200E+11
         0.78200E+11
         0.78200E+11
         0.78200E+11
         0.78200E+11
         0.78200E+11
         0.78200E+11
         0.78200E+11
         0.78200E+11
         0.78200E+11
         0.78200E+11
         0.78200E+11
         0.78200E+11
         0.78200E+11
         0.78200E+11
         0.78200E+11
         0.78200E+11
         0.78200E+11
         0.78200E+11
         0.78200E+11
         0.78200E+11
         0.78200E+11
         0.78200E+11
         0.78200E+11
         0.78200E+11
         0.78200E+11
         0.78200E+11
         0.78200E+11
         0.78200E+11
         0.78200E+11
         0.78200E+11
         0.78200E+11
         0.78200E+11
         0.78200E+11
         0.78200E+11
         0.78200E+11
         0.78200E+11
         0.78200E+11
         0.78200E+11
         0.78200E+11
         0.78200E+11
         0.78200E+11
         0.78200E+11
         0.78200E+11
         0.78200E+11
         0.78200E+11
         0.78200E+11
         0.78200E+11
         0.78200E+11
         0.78200E+11
         0.78200E+11
         0.78200E+11
         0.78200E+11
         0.78200E+11
         0.78200E+11
         0.78200E+11
         0.78200E+11
         0.78200E+11
         0.78200E+11
         0.78200E+11
         0.78200E+11
         0.78200E+11
         0.78200E+11
         0.78200E+11
         0.78200E+11
         0.78200E+11
         0.78200E+11
         0.78200E+11
         0.78200E+11
         0.78200E+11
         0.78200E+11
         0.78200E+11
         0.78200E+11
         0.78200E+11
         0.78200E+11
         0.78200E+11
         0.78200E+11
         0.78200E+11
         0.78200E+11
         0.78200E+11
         0.78200E+11
         0.78200E+11
         0.78200E+11
         0.78200E+11
         0.78200E+11
         0.78200E+11
         0.78200E+11
         0.78200E+11
         0.78200E+11
         0.78200E+11
         0.78200E+11
         0.78200E+11
         0.78200E+11
         0.78200E+11
         0.78200E+11
         0.78200E+11
         0.78200E+11
         0.78200E+11
         0.78200E+11
         0.78200E+11
         0.78200E+11
         0.78200E+11
         0.78200E+11
         0.78200E+11
         0.78200E+11
         0.78200E+11
         0.78200E+11
         0.78200E+11
         0.78200E+11
         0.78200E+11
         0.78200E+11
         0.78200E+11
         0.78200E+11
         0.78200E+11
         0.78200E+11
         0.78200E+11
         0.78200E+11
         0.78200E+11
         0.78200E+11
         0.78200E+11
         0.78200E+11
         0.78200E+11
         0.78200E+11
         0.78200E+11
         0.78200E+11
         0.78200E+11
         0.78200E+11
         0.78200E+11
         0.78200E+11
         0.78200E+11
         0.78200E+11
         0.78200E+11
         0.78200E+11
         0.78200E+11
         0.78200E+11
         0.78200E+11
         0.78200E+11
         0.78200E+11
         0.78200E+11
         0.78200E+11
         0.78200E+11
         0.78200E+11
         0.78200E+11
         0.78200E+11
         0.78200E+11
         0.78200E+11
         0.78200E+11
         0.78200E+11
         0.78200E+11
         0.78200E+11
         0.78200E+11
         0.78200E+11
         0.78200E+11
         0.78200E+11
         0.78200E+11
         0.78200E+11
         0.78200E+11
         0.78200E+11
         0.78200E+11
         0.78200E+11
         0.78200E+11
         0.78200E+11
         0.78200E+11
         0.78200E+11
         0.78200E+11
         0.78200E+11
         0.78200E+11
         0.78200E+11
         0.78200E+11
         0.78200E+11
         0.78200E+11
         0.78200E+11
         0.78200E+11
         0.78200E+11
         0.78200E+11
         0.78200E+11
         0.78200E+11
         0.78200E+11
         0.78200E+11
         0.78200E+11
         0.78200E+11
         0.78200E+11
         0.78200E+11
         0.78200E+11
         0.78200E+11
         0.78200E+11
         0.78200E+11
         0.78200E+11
         0.78200E+11
         0.78200E+11
         0.78200E+11
         0.78200E+11
         0.78200E+11
         0.78200E+11
         0.78200E+11
         0.78200E+11
         0.78200E+11
         0.78200E+11
         0.78200E+11
         0.78200E+11
         0.78200E+11
         0.78200E+11
         0.78200E+11
         0.78200E+11
         0.78200E+11
         0.78200E+11
         0.78200E+11
         0.78200E+11
         0.78200E+11
         0.78200E+11
         0.78200E+11
         0.78200E+11
         0.78200E+11
         0.78200E+11
         0.78200E+11
         0.78200E+11
         0.78200E+11
         0.78200E+11
         0.78200E+11
         0.78200E+11
         0.78200E+11
         0.78200E+11
         0.78200E+11
         0.78200E+11
         0.78200E+11
         0.78200E+11
         0.78200E+11
         0.78200E+11
         0.78200E+11
         0.78200E+11
         0.78200E+11
         0.78200E+11
         0.78200E+11
         0.78200E+11
         0.78200E+11
         0.78200E+11
         0.78200E+11
         0.78200E+11
         0.78200E+11
         0.78200E+11
         0.78200E+11
         0.78200E+11
         0.78200E+11
         0.78200E+11
         0.78200E+11
         0.78200E+11
         0.78200E+11
         0.78200E+11
         0.78200E+11
         0.78200E+11
         0.78200E+11
         0.78200E+11
         0.78200E+11
         0.78200E+11
         0.78200E+11
         0.78200E+11
         0.78200E+11
         0.78200E+11
         0.78200E+11
         0.78200E+11
         0.78200E+11
         0.78200E+11
         0.78200E+11
         0.78200E+11
         0.78200E+11
         0.78200E+11
         0.78200E+11
         0.78200E+11
         0.78200E+11
         0.78200E+11
         0.78200E+11
         0.78200E+11
         0.78200E+11
         0.78200E+11
         0.78200E+11
         0.78200E+11
         0.78200E+11
         0.78200E+11
         0.78200E+11
         0.78200E+11
         0.78200E+11
         0.78200E+11
         0.78200E+11
         0.78200E+11
         0.78200E+11
         0.78200E+11
         0.78200E+11
         0.78200E+11
         0.78200E+11
         0.78200E+11
         0.78200E+11
         0.78200E+11
         0.78200E+11
         0.78200E+11
         0.78200E+11
         0.78200E+11
         0.78200E+11
         0.78200E+11
         0.78200E+11
         0.78200E+11
         0.78200E+11
         0.78200E+11
         0.78200E+11
         0.78200E+11
         0.78200E+11
         0.78200E+11
         0.78200E+11
         0.78200E+11
         0.78200E+11
         0.78200E+11
         0.78200E+11
         0.78200E+11
         0.78200E+11
         0.78200E+11
         0.78200E+11
         0.78200E+11
         0.78200E+11
         0.78200E+11
         0.78200E+11
         0.78200E+11
         0.78200E+11
         0.78200E+11
         0.78200E+11
         0.78200E+11
         0.78200E+11
         0.78200E+11
         0.78200E+11
         0.78200E+11
         0.78200E+11
         0.78200E+11
         0.78200E+11
         0.78200E+11
         0.78200E+11
         0.78200E+11
         0.78200E+11
         0.78200E+11
         0.78200E+11
         0.78200E+11
         0.78200E+11
         0.78200E+11
         0.78200E+11
         0.78200E+11
         0.78200E+11
         0.78200E+11
         0.78200E+11
         0.78200E+11
         0.78200E+11
         0.78200E+11
         0.78200E+11
         0.78200E+11
         0.78200E+11
         0.78200E+11
         0.78200E+11
         0.78200E+11
         0.78200E+11
         0.78200E+11
         0.78200E+11
         0.78200E+11
         0.78200E+11
         0.78200E+11
         0.78200E+11
         0.78200E+11
         0.78200E+11
         0.78200E+11
         0.78200E+11
         0.78200E+11
         0.78200E+11
         0.78200E+11
         0.78200E+11
         0.78200E+11
         0.78200E+11
         0.78200E+11
         0.78200E+11
         0.78200E+11
         0.78200E+11
         0.78200E+11
         0.78200E+11
         0.78200E+11
         0.78200E+11
         0.78200E+11
         0.78200E+11
         0.78200E+11
         0.78200E+11
         0.78200E+11
         0.78200E+11
         0.78200E+11
         0.78200E+11
         0.78200E+11
         0.78200E+11
         0.78200E+11
         0.78200E+11
         0.78200E+11
         0.78200E+11
         0.78200E+11
         0.78200E+11
         0.78200E+11
         0.78200E+11
         0.78200E+11
         0.78200E+11
         0.78200E+11
         0.78200E+11
         0.78200E+11
         0.78200E+11
         0.78200E+11
         0.78200E+11
         0.78200E+11
         0.78200E+11
         0.78200E+11
         0.78200E+11
         0.78200E+11
         0.78200E+11
         0.78200E+11
         0.78200E+11
         0.78200E+11
         0.78200E+11
         0.78200E+11
         0.78200E+11
         0.78200E+11
         0.78200E+11
         0.78200E+11
         0.78200E+11
         0.78200E+11
         0.78200E+11
         0.78200E+11
         0.78200E+11
         0.78200E+11
         0.78200E+11
         0.78200E+11
         0.78200E+11
         0.78200E+11
         0.78200E+11
         0.78200E+11
         0.78200E+11
         0.78200E+11
         0.78200E+11
         0.78200E+11
         0.78200E+11
         0.78200E+11
         0.78200E+11
         0.78200E+11
         0.78200E+11
         0.78200E+11
         0.78200E+11
         0.78200E+11
         0.78200E+11
         0.78200E+11
         0.78200E+11
         0.78200E+11
         0.78200E+11
         0.78200E+11
         0.78200E+11
         0.78200E+11
         0.78200E+11
         0.78200E+11
         0.78200E+11
         0.78200E+11
         0.78200E+11
         0.78200E+11
         0.78200E+11
         0.78200E+11
         0.78200E+11
         0.78200E+11
         0.78200E+11
         0.78200E+11
         0.78200E+11
         0.78200E+11
         0.78200E+11
         0.78200E+11
         0.78200E+11
         0.78200E+11
         0.78200E+11
         0.78200E+11
         0.78200E+11
         0.78200E+11
         0.78200E+11
         0.78200E+11
         0.78200E+11
         0.78200E+11
         0.78200E+11
         0.78200E+11
         0.78200E+11
         0.78200E+11
         0.78200E+11
         0.78200E+11
         0.78200E+11
         0.78200E+11
         0.78200E+11
         0.78200E+11
         0.78200E+11
         0.78200E+11
         0.78200E+11
         0.78200E+11
         0.78200E+11
         0.78200E+11
         0.78200E+11
         0.78200E+11
         0.78200E+11
         0.78200E+11
         0.78200E+11
         0.78200E+11
         0.78200E+11
         0.78200E+11
         0.78200E+11
         0.78200E+11
         0.78200E+11
         0.78200E+11
         0.78200E+11
         0.78200E+11
         0.78200E+11
         0.78200E+11
         0.78200E+11
         0.78200E+11
         0.78200E+11
         0.78200E+11
         0.78200E+11
         0.78200E+11
         0.78200E+11
         0.78200E+11
         0.78200E+11
         0.78200E+11
         0.78200E+11
         0.78200E+11
         0.78200E+11
         0.78200E+11
         0.78200E+11
         0.78200E+11
         0.78200E+11
         0.78200E+11
         0.78200E+11
         0.78200E+11
         0.78200E+11
         0.78200E+11
         0.78200E+11
         0.78200E+11
         0.78200E+11
         0.78200E+11
         0.78200E+11
         0.78200E+11
         0.78200E+11
         0.78200E+11
         0.78200E+11
         0.78200E+11
         0.78200E+11
         0.78200E+11
         0.78200E+11
         0.78200E+11
         0.78200E+11
         0.78200E+11
         0.78200E+11
         0.78200E+11
         0.78200E+11
         0.78200E+11
         0.78200E+11
         0.78200E+11
         0.78200E+11
         0.78200E+11
         0.78200E+11
         0.78200E+11
         0.78200E+11
         0.78200E+11
         0.78200E+11
         0.78200E+11
         0.78200E+11
         0.78200E+11
         0.78200E+11
         0.78200E+11
         0.78200E+11
         0.78200E+11
         0.78200E+11
         0.78200E+11
         0.78200E+11
         0.78200E+11
         0.78200E+11
         0.78200E+11
         0.78200E+11
         0.78200E+11
         0.78200E+11
         0.78200E+11
         0.78200E+11
         0.78200E+11
         0.78200E+11
         0.78200E+11
         0.78200E+11
         0.78200E+11
         0.78200E+11
         0.78200E+11
         0.78200E+11
         0.78200E+11
         0.78200E+11
         0.78200E+11
         0.78200E+11
         0.78200E+11
         0.78200E+11
         0.78200E+11
         0.78200E+11
         0.78200E+11
         0.78200E+11
         0.78200E+11
         0.78200E+11
         0.78200E+11
         0.78200E+11
         0.78200E+11
         0.78200E+11
         0.78200E+11
         0.78200E+11
         0.78200E+11
         0.78200E+11
         0.78200E+11
         0.78200E+11
         0.78200E+11
         0.78200E+11
         0.78200E+11
         0.78200E+11
         0.78200E+11
         0.78200E+11
         0.78200E+11
         0.78200E+11
         0.78200E+11
         0.78200E+11
         0.78200E+11
         0.78200E+11
         0.78200E+11
         0.78200E+11
         0.78200E+11
         0.78200E+11
         0.78200E+11
         0.78200E+11
         0.78200E+11
         0.78200E+11
         0.78200E+11
         0.78200E+11
         0.78200E+11
         0.78200E+11
         0.78200E+11
         0.78200E+11
         0.78200E+11
         0.78200E+11
         0.78200E+11
         0.78200E+11
         0.78200E+11
         0.78200E+11
         0.78200E+11
         0.78200E+11
         0.78200E+11
         0.78200E+11
         0.78200E+11
         0.78200E+11
         0.78200E+11
         0.78200E+11
         0.78200E+11
         0.78200E+11
         0.78200E+11
         0.78200E+11
         0.78200E+11
         0.78200E+11
         0.78200E+11
         0.78200E+11
         0.78200E+11
         0.78200E+11
         0.78200E+11
         0.78200E+11
         0.78200E+11
         0.78200E+11
         0.78200E+11
         0.78200E+11
         0.78200E+11
         0.78200E+11
         0.78200E+11
         0.78200E+11
         0.78200E+11
         0.78200E+11
         0.78200E+11
         0.78200E+11
         0.78200E+11
         0.78200E+11
         0.78200E+11
         0.78200E+11
         0.78200E+11
         0.78200E+11
         0.78200E+11
         0.78200E+11
         0.78200E+11
         0.78200E+11
         0.78200E+11
         0.78200E+11
         0.78200E+11
         0.78200E+11
         0.78200E+11
         0.78200E+11
         0.78200E+11
         0.78200E+11
         0.78200E+11
         0.78200E+11
         0.78200E+11
         0.78200E+11
         0.78200E+11
         0.78200E+11
         0.78200E+11
         0.78200E+11
         0.78200E+11
         0.78200E+11
         0.78200E+11
         0.78200E+11
         0.78200E+11
         0.78200E+11
         0.78200E+11
         0.78200E+11
         0.78200E+11
         0.78200E+11
         0.78200E+11
         0.78200E+11
         0.78200E+11
         0.78200E+11
         0.78200E+11
         0.78200E+11
         0.78200E+11
         0.78200E+11
         0.78200E+11
         0.78200E+11
         0.78200E+11
         0.78200E+11
         0.78200E+11
         0.78200E+11
         0.78200E+11
         0.78200E+11
         0.78200E+11
         0.78200E+11
         0.78200E+11
         0.78200E+11
         0.78200E+11
         0.78200E+11
         0.78200E+11
         0.78200E+11
         0.78200E+11
         0.78200E+11
         0.78200E+11
         0.78200E+11
         0.78200E+11
         0.78200E+11
         0.78200E+11
         0.78200E+11
         0.78200E+11
         0.78200E+11
         0.78200E+11
         0.78200E+11
         0.78200E+11
         0.78200E+11
         0.78200E+11
         0.78200E+11
         0.78200E+11
         0.78200E+11
         0.78200E+11
         0.78200E+11
         0.78200E+11
         0.78200E+11
         0.78200E+11
         0.78200E+11
         0.78200E+11
         0.78200E+11
         0.78200E+11
         0.78200E+11
         0.78200E+11
         0.78200E+11
         0.78200E+11
         0.78200E+11
         0.78200E+11
         0.78200E+11
         0.78200E+11
         0.78200E+11
         0.78200E+11
         0.78200E+11
         0.78200E+11
         0.78200E+11
         0.78200E+11
         0.78200E+11
         0.78200E+11
         0.78200E+11
         0.78200E+11
         0.78200E+11
         0.78200E+11
         0.78200E+11
         0.78200E+11
         0.78200E+11
         0.78200E+11
         0.78200E+11
         0.78200E+11
         0.78200E+11
         0.78200E+11
         0.78200E+11
         0.78200E+11
         0.78200E+11
         0.78200E+11
         0.78200E+11
         0.78200E+11
         0.78200E+11
         0.78200E+11
         0.78200E+11
         0.78200E+11
         0.78200E+11
         0.78200E+11
         0.78200E+11
         0.78200E+11
         0.78200E+11
         0.78200E+11
         0.78200E+11
         0.78200E+11
         0.78200E+11
         0.78200E+11
         0.78200E+11
         0.78200E+11
         0.78200E+11
         0.78200E+11
         0.78200E+11
         0.78200E+11
         0.78200E+11
         0.78200E+11
         0.78200E+11
         0.78200E+11
         0.78200E+11
         0.78200E+11
         0.78200E+11
         0.78200E+11
         0.78200E+11
         0.78200E+11
         0.78200E+11
         0.78200E+11
         0.78200E+11
         0.78200E+11
         0.78200E+11
         0.78200E+11
         0.78200E+11
         0.78200E+11
         0.78200E+11
         0.78200E+11
         0.78200E+11
         0.78200E+11
         0.78200E+11
         0.78200E+11
         0.78200E+11
         0.78200E+11
         0.78200E+11
         0.78200E+11
         0.78200E+11
         0.78200E+11
         0.78200E+11
         0.78200E+11
         0.78200E+11
         0.78200E+11
         0.78200E+11
         0.78200E+11
         0.78200E+11
         0.78200E+11
         0.78200E+11
         0.78200E+11
         0.78200E+11
         0.78200E+11
         0.78200E+11
         0.78200E+11
         0.78200E+11
         0.78200E+11
         0.78200E+11
         0.78200E+11
         0.78200E+11
         0.78200E+11
         0.78200E+11
         0.78200E+11
         0.78200E+11
         0.78200E+11
         0.78200E+11
         0.78200E+11
         0.78200E+11
         0.78200E+11
         0.78200E+11
         0.78200E+11
         0.78200E+11
         0.78200E+11
         0.78200E+11
         0.78200E+11
         0.78200E+11
         0.78200E+11
         0.78200E+11
         0.78200E+11
         0.78200E+11
         0.78200E+11
         0.78200E+11
         0.78200E+11
         0.78200E+11
         0.78200E+11
         0.78200E+11
         0.78200E+11
         0.78200E+11
         0.78200E+11
         0.78200E+11
         0.78200E+11
         0.78200E+11
         0.78200E+11
         0.78200E+11
         0.78200E+11
         0.78200E+11
         0.78200E+11
         0.78200E+11
         0.78200E+11
         0.78200E+11
         0.78200E+11
         0.78200E+11
         0.78200E+11
         0.78200E+11
         0.78200E+11
         0.78200E+11
         0.78200E+11
         0.78200E+11
         0.78200E+11
         0.78200E+11
         0.78200E+11
         0.78200E+11
         0.78200E+11
         0.78200E+11
         0.78200E+11
         0.78200E+11
         0.78200E+11
         0.78200E+11
         0.78200E+11
         0.78200E+11
         0.78200E+11
         0.78200E+11
         0.78200E+11
         0.78200E+11
         0.78200E+11
         0.78200E+11
         0.78200E+11
         0.78200E+11
         0.78200E+11
         0.78200E+11
         0.78200E+11
         0.78200E+11
         0.78200E+11
         0.78200E+11
         0.78200E+11
         0.78200E+11
         0.78200E+11
         0.78200E+11
         0.78200E+11
         0.78200E+11
         0.78200E+11
         0.78200E+11
         0.78200E+11
         0.78200E+11
         0.78200E+11
         0.78200E+11
         0.78200E+11
         0.78200E+11
         0.78200E+11
         0.78200E+11
         0.78200E+11
         0.78200E+11
         0.78200E+11
         0.78200E+11
         0.78200E+11
         0.78200E+11
         0.78200E+11
         0.78200E+11
         0.78200E+11
         0.78200E+11
         0.78200E+11
         0.78200E+11
         0.78200E+11
         0.78200E+11
         0.78200E+11
         0.78200E+11
         0.78200E+11
         0.78200E+11
         0.78200E+11
         0.78200E+11
         0.78200E+11
         0.78200E+11
         0.78200E+11
         0.78200E+11
         0.78200E+11
         0.78200E+11
         0.78200E+11
         0.78200E+11
         0.78200E+11
         0.78200E+11
         0.78200E+11
         0.78200E+11
         0.78200E+11
         0.78200E+11
         0.78200E+11
         0.78200E+11
         0.78200E+11
         0.78200E+11
         0.78200E+11
         0.78200E+11
         0.78200E+11
         0.78200E+11
         0.78200E+11
         0.78200E+11
         0.78200E+11
         0.78200E+11
         0.78200E+11
         0.78200E+11
         0.78200E+11
         0.78200E+11
         0.78200E+11
         0.78200E+11
         0.78200E+11
         0.78200E+11
         0.78200E+11
         0.78200E+11
         0.78200E+11
         0.78200E+11
         0.78200E+11
         0.78200E+11
         0.78200E+11
         0.78200E+11
         0.78200E+11
         0.78200E+11
         0.78200E+11
         0.78200E+11
         0.78200E+11
         0.78200E+11
         0.78200E+11
         0.78200E+11
         0.78200E+11
         0.78200E+11
         0.78200E+11
         0.78200E+11
         0.78200E+11
         0.78200E+11
         0.78200E+11
         0.78200E+11
         0.78200E+11
         0.78200E+11
         0.78200E+11
         0.78200E+11
         0.78200E+11
         0.78200E+11
         0.78200E+11
         0.78200E+11
         0.78200E+11
         0.78200E+11
         0.78200E+11
         0.78200E+11
         0.78200E+11
         0.78200E+11
         0.78200E+11
         0.78200E+11
         0.78200E+11
         0.78200E+11
         0.78200E+11
         0.78200E+11
         0.78200E+11
         0.78200E+11
         0.78200E+11
         0.78200E+11
         0.78200E+11
         0.78200E+11
         0.78200E+11
         0.78200E+11
         0.78200E+11
         0.78200E+11
         0.78200E+11
         0.78200E+11
         0.78200E+11
         0.78200E+11
         0.78200E+11
         0.78200E+11
         0.78200E+11
         0.78200E+11
         0.78200E+11
         0.78200E+11
         0.78200E+11
         0.78200E+11
         0.78200E+11
         0.78200E+11
         0.78200E+11
         0.78200E+11
         0.78200E+11
         0.78200E+11
         0.78200E+11
         0.78200E+11
         0.78200E+11
         0.78200E+11
         0.78200E+11
         0.78200E+11
         0.78200E+11
         0.78200E+11
         0.78200E+11
         0.78200E+11
         0.78200E+11
         0.78200E+11
         0.78200E+11
         0.78200E+11
         0.78200E+11
         0.78200E+11
         0.78200E+11
         0.78200E+11
         0.78200E+11
         0.78200E+11
         0.78200E+11
         0.78200E+11
         0.78200E+11
         0.78200E+11
         0.78200E+11
         0.78200E+11
         0.78200E+11
         0.78200E+11
         0.78200E+11
         0.78200E+11
         0.78200E+11
         0.78200E+11
         0.78200E+11
         0.78200E+11
         0.78200E+11
         0.78200E+11
         0.78200E+11
         0.78200E+11
         0.78200E+11
         0.78200E+11
         0.78200E+11
         0.78200E+11
         0.78200E+11
         0.78200E+11
         0.78200E+11
         0.78200E+11
         0.78200E+11
         0.78200E+11
         0.78200E+11
         0.78200E+11
         0.78200E+11
         0.78200E+11
         0.78200E+11
         0.78200E+11
         0.78200E+11
         0.78200E+11
         0.78200E+11
         0.78200E+11
         0.78200E+11
         0.78200E+11
         0.78200E+11
         0.78200E+11
         0.78200E+11
         0.78200E+11
         0.78200E+11
         0.78200E+11
         0.78200E+11
         0.78200E+11
         0.78200E+11
         0.78200E+11
         0.78200E+11
         0.78200E+11
         0.78200E+11
         0.78200E+11
         0.78200E+11
         0.78200E+11
         0.78200E+11
         0.78200E+11
         0.78200E+11
         0.78200E+11
         0.78200E+11
         0.78200E+11
         0.78200E+11
         0.78200E+11
         0.78200E+11
         0.78200E+11
         0.78200E+11
         0.78200E+11
         0.78200E+11
         0.78200E+11
         0.78200E+11
         0.78200E+11
         0.78200E+11
         0.78200E+11
         0.78200E+11
  
SCALARS                        density  double 1
LOOKUP_TABLE default
         0.27000E+04
         0.27000E+04
         0.27000E+04
         0.27000E+04
         0.27000E+04
         0.27000E+04
         0.27000E+04
         0.27000E+04
         0.27000E+04
         0.27000E+04
         0.27000E+04
         0.27000E+04
         0.27000E+04
         0.27000E+04
         0.27000E+04
         0.27000E+04
         0.27000E+04
         0.27000E+04
         0.27000E+04
         0.27000E+04
         0.27000E+04
         0.27000E+04
         0.27000E+04
         0.27000E+04
         0.27000E+04
         0.27000E+04
         0.27000E+04
         0.27000E+04
         0.27000E+04
         0.27000E+04
         0.27000E+04
         0.27000E+04
         0.27000E+04
         0.27000E+04
         0.27000E+04
         0.27000E+04
         0.27000E+04
         0.27000E+04
         0.27000E+04
         0.27000E+04
         0.27000E+04
         0.27000E+04
         0.27000E+04
         0.27000E+04
         0.27000E+04
         0.27000E+04
         0.27000E+04
         0.27000E+04
         0.27000E+04
         0.27000E+04
         0.27000E+04
         0.27000E+04
         0.27000E+04
         0.27000E+04
         0.27000E+04
         0.27000E+04
         0.27000E+04
         0.27000E+04
         0.27000E+04
         0.27000E+04
         0.27000E+04
         0.27000E+04
         0.27000E+04
         0.27000E+04
         0.27000E+04
         0.27000E+04
         0.27000E+04
         0.27000E+04
         0.27000E+04
         0.27000E+04
         0.27000E+04
         0.27000E+04
         0.27000E+04
         0.27000E+04
         0.27000E+04
         0.27000E+04
         0.27000E+04
         0.27000E+04
         0.27000E+04
         0.27000E+04
         0.27000E+04
         0.27000E+04
         0.27000E+04
         0.27000E+04
         0.27000E+04
         0.27000E+04
         0.27000E+04
         0.27000E+04
         0.27000E+04
         0.27000E+04
         0.27000E+04
         0.27000E+04
         0.27000E+04
         0.27000E+04
         0.27000E+04
         0.27000E+04
         0.27000E+04
         0.27000E+04
         0.27000E+04
         0.27000E+04
         0.27000E+04
         0.27000E+04
         0.27000E+04
         0.27000E+04
         0.27000E+04
         0.27000E+04
         0.27000E+04
         0.27000E+04
         0.27000E+04
         0.27000E+04
         0.27000E+04
         0.27000E+04
         0.27000E+04
         0.27000E+04
         0.27000E+04
         0.27000E+04
         0.27000E+04
         0.27000E+04
         0.27000E+04
         0.27000E+04
         0.27000E+04
         0.27000E+04
         0.27000E+04
         0.27000E+04
         0.27000E+04
         0.27000E+04
         0.27000E+04
         0.27000E+04
         0.27000E+04
         0.27000E+04
         0.27000E+04
         0.27000E+04
         0.27000E+04
         0.27000E+04
         0.27000E+04
         0.27000E+04
         0.27000E+04
         0.27000E+04
         0.27000E+04
         0.27000E+04
         0.27000E+04
         0.27000E+04
         0.27000E+04
         0.27000E+04
         0.27000E+04
         0.27000E+04
         0.27000E+04
         0.27000E+04
         0.27000E+04
         0.27000E+04
         0.27000E+04
         0.27000E+04
         0.27000E+04
         0.27000E+04
         0.27000E+04
         0.27000E+04
         0.27000E+04
         0.27000E+04
         0.27000E+04
         0.27000E+04
         0.27000E+04
         0.27000E+04
         0.27000E+04
         0.27000E+04
         0.27000E+04
         0.27000E+04
         0.27000E+04
         0.27000E+04
         0.27000E+04
         0.27000E+04
         0.27000E+04
         0.27000E+04
         0.27000E+04
         0.27000E+04
         0.27000E+04
         0.27000E+04
         0.27000E+04
         0.27000E+04
         0.27000E+04
         0.27000E+04
         0.27000E+04
         0.27000E+04
         0.27000E+04
         0.27000E+04
         0.27000E+04
         0.27000E+04
         0.27000E+04
         0.27000E+04
         0.27000E+04
         0.27000E+04
         0.27000E+04
         0.27000E+04
         0.27000E+04
         0.27000E+04
         0.27000E+04
         0.27000E+04
         0.27000E+04
         0.27000E+04
         0.27000E+04
         0.27000E+04
         0.27000E+04
         0.27000E+04
         0.27000E+04
         0.27000E+04
         0.27000E+04
         0.27000E+04
         0.27000E+04
         0.27000E+04
         0.27000E+04
         0.27000E+04
         0.27000E+04
         0.27000E+04
         0.27000E+04
         0.27000E+04
         0.27000E+04
         0.27000E+04
         0.27000E+04
         0.27000E+04
         0.27000E+04
         0.27000E+04
         0.27000E+04
         0.27000E+04
         0.27000E+04
         0.27000E+04
         0.27000E+04
         0.27000E+04
         0.27000E+04
         0.27000E+04
         0.27000E+04
         0.27000E+04
         0.27000E+04
         0.27000E+04
         0.27000E+04
         0.27000E+04
         0.27000E+04
         0.27000E+04
         0.27000E+04
         0.27000E+04
         0.27000E+04
         0.27000E+04
         0.27000E+04
         0.27000E+04
         0.27000E+04
         0.27000E+04
         0.27000E+04
         0.27000E+04
         0.27000E+04
         0.27000E+04
         0.27000E+04
         0.27000E+04
         0.27000E+04
         0.27000E+04
         0.27000E+04
         0.27000E+04
         0.27000E+04
         0.27000E+04
         0.27000E+04
         0.27000E+04
         0.27000E+04
         0.27000E+04
         0.27000E+04
         0.27000E+04
         0.27000E+04
         0.27000E+04
         0.27000E+04
         0.27000E+04
         0.27000E+04
         0.27000E+04
         0.27000E+04
         0.27000E+04
         0.27000E+04
         0.27000E+04
         0.27000E+04
         0.27000E+04
         0.27000E+04
         0.27000E+04
         0.27000E+04
         0.27000E+04
         0.27000E+04
         0.27000E+04
         0.27000E+04
         0.27000E+04
         0.27000E+04
         0.27000E+04
         0.27000E+04
         0.27000E+04
         0.27000E+04
         0.27000E+04
         0.27000E+04
         0.27000E+04
         0.27000E+04
         0.27000E+04
         0.27000E+04
         0.27000E+04
         0.27000E+04
         0.27000E+04
         0.27000E+04
         0.27000E+04
         0.27000E+04
         0.27000E+04
         0.27000E+04
         0.27000E+04
         0.27000E+04
         0.27000E+04
         0.27000E+04
         0.27000E+04
         0.27000E+04
         0.27000E+04
         0.27000E+04
         0.27000E+04
         0.27000E+04
         0.27000E+04
         0.27000E+04
         0.27000E+04
         0.27000E+04
         0.27000E+04
         0.27000E+04
         0.27000E+04
         0.27000E+04
         0.27000E+04
         0.27000E+04
         0.27000E+04
         0.27000E+04
         0.27000E+04
         0.27000E+04
         0.27000E+04
         0.27000E+04
         0.27000E+04
         0.27000E+04
         0.27000E+04
         0.27000E+04
         0.27000E+04
         0.27000E+04
         0.27000E+04
         0.27000E+04
         0.27000E+04
         0.27000E+04
         0.27000E+04
         0.27000E+04
         0.27000E+04
         0.27000E+04
         0.27000E+04
         0.27000E+04
         0.27000E+04
         0.27000E+04
         0.27000E+04
         0.27000E+04
         0.27000E+04
         0.27000E+04
         0.27000E+04
         0.27000E+04
         0.27000E+04
         0.27000E+04
         0.27000E+04
         0.27000E+04
         0.27000E+04
         0.27000E+04
         0.27000E+04
         0.27000E+04
         0.27000E+04
         0.27000E+04
         0.27000E+04
         0.27000E+04
         0.27000E+04
         0.27000E+04
         0.27000E+04
         0.27000E+04
         0.27000E+04
         0.27000E+04
         0.27000E+04
         0.27000E+04
         0.27000E+04
         0.27000E+04
         0.27000E+04
         0.27000E+04
         0.27000E+04
         0.27000E+04
         0.27000E+04
         0.27000E+04
         0.27000E+04
         0.27000E+04
         0.27000E+04
         0.27000E+04
         0.27000E+04
         0.27000E+04
         0.27000E+04
         0.27000E+04
         0.27000E+04
         0.27000E+04
         0.27000E+04
         0.27000E+04
         0.27000E+04
         0.27000E+04
         0.27000E+04
         0.27000E+04
         0.27000E+04
         0.27000E+04
         0.27000E+04
         0.27000E+04
         0.27000E+04
         0.27000E+04
         0.27000E+04
         0.27000E+04
         0.27000E+04
         0.27000E+04
         0.27000E+04
         0.27000E+04
         0.27000E+04
         0.27000E+04
         0.27000E+04
         0.27000E+04
         0.27000E+04
         0.27000E+04
         0.27000E+04
         0.27000E+04
         0.27000E+04
         0.27000E+04
         0.27000E+04
         0.27000E+04
         0.27000E+04
         0.27000E+04
         0.27000E+04
         0.27000E+04
         0.27000E+04
         0.27000E+04
         0.27000E+04
         0.27000E+04
         0.27000E+04
         0.27000E+04
         0.27000E+04
         0.27000E+04
         0.27000E+04
         0.27000E+04
         0.27000E+04
         0.27000E+04
         0.27000E+04
         0.27000E+04
         0.27000E+04
         0.27000E+04
         0.27000E+04
         0.27000E+04
         0.27000E+04
         0.27000E+04
         0.27000E+04
         0.27000E+04
         0.27000E+04
         0.27000E+04
         0.27000E+04
         0.27000E+04
         0.27000E+04
         0.27000E+04
         0.27000E+04
         0.27000E+04
         0.27000E+04
         0.27000E+04
         0.27000E+04
         0.27000E+04
         0.27000E+04
         0.27000E+04
         0.27000E+04
         0.27000E+04
         0.27000E+04
         0.27000E+04
         0.27000E+04
         0.27000E+04
         0.27000E+04
         0.27000E+04
         0.27000E+04
         0.27000E+04
         0.27000E+04
         0.27000E+04
         0.27000E+04
         0.27000E+04
         0.27000E+04
         0.27000E+04
         0.27000E+04
         0.27000E+04
         0.27000E+04
         0.27000E+04
         0.27000E+04
         0.27000E+04
         0.27000E+04
         0.27000E+04
         0.27000E+04
         0.27000E+04
         0.27000E+04
         0.27000E+04
         0.27000E+04
         0.27000E+04
         0.27000E+04
         0.27000E+04
         0.27000E+04
         0.27000E+04
         0.27000E+04
         0.27000E+04
         0.27000E+04
         0.27000E+04
         0.27000E+04
         0.27000E+04
         0.27000E+04
         0.27000E+04
         0.27000E+04
         0.27000E+04
         0.27000E+04
         0.27000E+04
         0.27000E+04
         0.27000E+04
         0.27000E+04
         0.27000E+04
         0.27000E+04
         0.27000E+04
         0.27000E+04
         0.27000E+04
         0.27000E+04
         0.27000E+04
         0.27000E+04
         0.27000E+04
         0.27000E+04
         0.27000E+04
         0.27000E+04
         0.27000E+04
         0.27000E+04
         0.27000E+04
         0.27000E+04
         0.27000E+04
         0.27000E+04
         0.27000E+04
         0.27000E+04
         0.27000E+04
         0.27000E+04
         0.27000E+04
         0.27000E+04
         0.27000E+04
         0.27000E+04
         0.27000E+04
         0.27000E+04
         0.27000E+04
         0.27000E+04
         0.27000E+04
         0.27000E+04
         0.27000E+04
         0.27000E+04
         0.27000E+04
         0.27000E+04
         0.27000E+04
         0.27000E+04
         0.27000E+04
         0.27000E+04
         0.27000E+04
         0.27000E+04
         0.27000E+04
         0.27000E+04
         0.27000E+04
         0.27000E+04
         0.27000E+04
         0.27000E+04
         0.27000E+04
         0.27000E+04
         0.27000E+04
         0.27000E+04
         0.27000E+04
         0.27000E+04
         0.27000E+04
         0.27000E+04
         0.27000E+04
         0.27000E+04
         0.27000E+04
         0.27000E+04
         0.27000E+04
         0.27000E+04
         0.27000E+04
         0.27000E+04
         0.27000E+04
         0.27000E+04
         0.27000E+04
         0.27000E+04
         0.27000E+04
         0.27000E+04
         0.27000E+04
         0.27000E+04
         0.27000E+04
         0.27000E+04
         0.27000E+04
         0.27000E+04
         0.27000E+04
         0.27000E+04
         0.27000E+04
         0.27000E+04
         0.27000E+04
         0.27000E+04
         0.27000E+04
         0.27000E+04
         0.27000E+04
         0.27000E+04
         0.27000E+04
         0.27000E+04
         0.27000E+04
         0.27000E+04
         0.27000E+04
         0.27000E+04
         0.27000E+04
         0.27000E+04
         0.27000E+04
         0.27000E+04
         0.27000E+04
         0.27000E+04
         0.27000E+04
         0.27000E+04
         0.27000E+04
         0.27000E+04
         0.27000E+04
         0.27000E+04
         0.27000E+04
         0.27000E+04
         0.27000E+04
         0.27000E+04
         0.27000E+04
         0.27000E+04
         0.27000E+04
         0.27000E+04
         0.27000E+04
         0.27000E+04
         0.27000E+04
         0.27000E+04
         0.27000E+04
         0.27000E+04
         0.27000E+04
         0.27000E+04
         0.27000E+04
         0.27000E+04
         0.27000E+04
         0.27000E+04
         0.27000E+04
         0.27000E+04
         0.27000E+04
         0.27000E+04
         0.27000E+04
         0.27000E+04
         0.27000E+04
         0.27000E+04
         0.27000E+04
         0.27000E+04
         0.27000E+04
         0.27000E+04
         0.27000E+04
         0.27000E+04
         0.27000E+04
         0.27000E+04
         0.27000E+04
         0.27000E+04
         0.27000E+04
         0.27000E+04
         0.27000E+04
         0.27000E+04
         0.27000E+04
         0.27000E+04
         0.27000E+04
         0.27000E+04
         0.27000E+04
         0.27000E+04
         0.27000E+04
         0.27000E+04
         0.27000E+04
         0.27000E+04
         0.27000E+04
         0.27000E+04
         0.27000E+04
         0.27000E+04
         0.27000E+04
         0.27000E+04
         0.27000E+04
         0.27000E+04
         0.27000E+04
         0.27000E+04
         0.27000E+04
         0.27000E+04
         0.27000E+04
         0.27000E+04
         0.27000E+04
         0.27000E+04
         0.27000E+04
         0.27000E+04
         0.27000E+04
         0.27000E+04
         0.27000E+04
         0.27000E+04
         0.27000E+04
         0.27000E+04
         0.27000E+04
         0.27000E+04
         0.27000E+04
         0.27000E+04
         0.27000E+04
         0.27000E+04
         0.27000E+04
         0.27000E+04
         0.27000E+04
         0.27000E+04
         0.27000E+04
         0.27000E+04
         0.27000E+04
         0.27000E+04
         0.27000E+04
         0.27000E+04
         0.27000E+04
         0.27000E+04
         0.27000E+04
         0.27000E+04
         0.27000E+04
         0.27000E+04
         0.27000E+04
         0.27000E+04
         0.27000E+04
         0.27000E+04
         0.27000E+04
         0.27000E+04
         0.27000E+04
         0.27000E+04
         0.27000E+04
         0.27000E+04
         0.27000E+04
         0.27000E+04
         0.27000E+04
         0.27000E+04
         0.27000E+04
         0.27000E+04
         0.27000E+04
         0.27000E+04
         0.27000E+04
         0.27000E+04
         0.27000E+04
         0.27000E+04
         0.27000E+04
         0.27000E+04
         0.27000E+04
         0.27000E+04
         0.27000E+04
         0.27000E+04
         0.27000E+04
         0.27000E+04
         0.27000E+04
         0.27000E+04
         0.27000E+04
         0.27000E+04
         0.27000E+04
         0.27000E+04
         0.27000E+04
         0.27000E+04
         0.27000E+04
         0.27000E+04
         0.27000E+04
         0.27000E+04
         0.27000E+04
         0.27000E+04
         0.27000E+04
         0.27000E+04
         0.27000E+04
         0.27000E+04
         0.27000E+04
         0.27000E+04
         0.27000E+04
         0.27000E+04
         0.27000E+04
         0.27000E+04
         0.27000E+04
         0.27000E+04
         0.27000E+04
         0.27000E+04
         0.27000E+04
         0.27000E+04
         0.27000E+04
         0.27000E+04
         0.27000E+04
         0.27000E+04
         0.27000E+04
         0.27000E+04
         0.27000E+04
         0.27000E+04
         0.27000E+04
         0.27000E+04
         0.27000E+04
         0.27000E+04
         0.27000E+04
         0.27000E+04
         0.27000E+04
         0.27000E+04
         0.27000E+04
         0.27000E+04
         0.27000E+04
         0.27000E+04
         0.27000E+04
         0.27000E+04
         0.27000E+04
         0.27000E+04
         0.27000E+04
         0.27000E+04
         0.27000E+04
         0.27000E+04
         0.27000E+04
         0.27000E+04
         0.27000E+04
         0.27000E+04
         0.27000E+04
         0.27000E+04
         0.27000E+04
         0.27000E+04
         0.27000E+04
         0.27000E+04
         0.27000E+04
         0.27000E+04
         0.27000E+04
         0.27000E+04
         0.27000E+04
         0.27000E+04
         0.27000E+04
         0.27000E+04
         0.27000E+04
         0.27000E+04
         0.27000E+04
         0.27000E+04
         0.27000E+04
         0.27000E+04
         0.27000E+04
         0.27000E+04
         0.27000E+04
         0.27000E+04
         0.27000E+04
         0.27000E+04
         0.27000E+04
         0.27000E+04
         0.27000E+04
         0.27000E+04
         0.27000E+04
         0.27000E+04
         0.27000E+04
         0.27000E+04
         0.27000E+04
         0.27000E+04
         0.27000E+04
         0.27000E+04
         0.27000E+04
         0.27000E+04
         0.27000E+04
         0.27000E+04
         0.27000E+04
         0.27000E+04
         0.27000E+04
         0.27000E+04
         0.27000E+04
         0.27000E+04
         0.27000E+04
         0.27000E+04
         0.27000E+04
         0.27000E+04
         0.27000E+04
         0.27000E+04
         0.27000E+04
         0.27000E+04
         0.27000E+04
         0.27000E+04
         0.27000E+04
         0.27000E+04
         0.27000E+04
         0.27000E+04
         0.27000E+04
         0.27000E+04
         0.27000E+04
         0.27000E+04
         0.27000E+04
         0.27000E+04
         0.27000E+04
         0.27000E+04
         0.27000E+04
         0.27000E+04
         0.27000E+04
         0.27000E+04
         0.27000E+04
         0.27000E+04
         0.27000E+04
         0.27000E+04
         0.27000E+04
         0.27000E+04
         0.27000E+04
         0.27000E+04
         0.27000E+04
         0.27000E+04
         0.27000E+04
         0.27000E+04
         0.27000E+04
         0.27000E+04
         0.27000E+04
         0.27000E+04
         0.27000E+04
         0.27000E+04
         0.27000E+04
         0.27000E+04
         0.27000E+04
         0.27000E+04
         0.27000E+04
         0.27000E+04
         0.27000E+04
         0.27000E+04
         0.27000E+04
         0.27000E+04
         0.27000E+04
         0.27000E+04
         0.27000E+04
         0.27000E+04
         0.27000E+04
         0.27000E+04
         0.27000E+04
         0.27000E+04
         0.27000E+04
         0.27000E+04
         0.27000E+04
         0.27000E+04
         0.27000E+04
         0.27000E+04
         0.27000E+04
         0.27000E+04
         0.27000E+04
         0.27000E+04
         0.27000E+04
         0.27000E+04
         0.27000E+04
         0.27000E+04
         0.27000E+04
         0.27000E+04
         0.27000E+04
         0.27000E+04
         0.27000E+04
         0.27000E+04
         0.27000E+04
         0.27000E+04
         0.27000E+04
         0.27000E+04
         0.27000E+04
         0.27000E+04
         0.27000E+04
         0.27000E+04
         0.27000E+04
         0.27000E+04
         0.27000E+04
         0.27000E+04
         0.27000E+04
         0.27000E+04
         0.27000E+04
         0.27000E+04
         0.27000E+04
         0.27000E+04
         0.27000E+04
         0.27000E+04
         0.27000E+04
         0.27000E+04
         0.27000E+04
         0.27000E+04
         0.27000E+04
         0.27000E+04
         0.27000E+04
         0.27000E+04
         0.27000E+04
         0.27000E+04
         0.27000E+04
         0.27000E+04
         0.27000E+04
         0.27000E+04
         0.27000E+04
         0.27000E+04
         0.27000E+04
         0.27000E+04
         0.27000E+04
         0.27000E+04
         0.27000E+04
         0.27000E+04
         0.27000E+04
         0.27000E+04
         0.27000E+04
         0.27000E+04
         0.27000E+04
         0.27000E+04
         0.27000E+04
         0.27000E+04
         0.27000E+04
         0.27000E+04
         0.27000E+04
         0.27000E+04
         0.27000E+04
         0.27000E+04
         0.27000E+04
         0.27000E+04
         0.27000E+04
         0.27000E+04
         0.27000E+04
         0.27000E+04
         0.27000E+04
         0.27000E+04
         0.27000E+04
         0.27000E+04
         0.27000E+04
         0.27000E+04
         0.27000E+04
         0.27000E+04
         0.27000E+04
         0.27000E+04
         0.27000E+04
         0.27000E+04
         0.27000E+04
         0.27000E+04
         0.27000E+04
         0.27000E+04
         0.27000E+04
         0.27000E+04
         0.27000E+04
         0.27000E+04
         0.27000E+04
         0.27000E+04
         0.27000E+04
         0.27000E+04
         0.27000E+04
         0.27000E+04
         0.27000E+04
         0.27000E+04
         0.27000E+04
         0.27000E+04
         0.27000E+04
         0.27000E+04
         0.27000E+04
         0.27000E+04
         0.27000E+04
         0.27000E+04
         0.27000E+04
         0.27000E+04
         0.27000E+04
         0.27000E+04
         0.27000E+04
         0.27000E+04
         0.27000E+04
         0.27000E+04
         0.27000E+04
         0.27000E+04
         0.27000E+04
         0.27000E+04
         0.27000E+04
         0.27000E+04
         0.27000E+04
         0.27000E+04
         0.27000E+04
         0.27000E+04
         0.27000E+04
         0.27000E+04
         0.27000E+04
         0.27000E+04
         0.27000E+04
         0.27000E+04
         0.27000E+04
         0.27000E+04
         0.27000E+04
         0.27000E+04
         0.27000E+04
         0.27000E+04
         0.27000E+04
         0.27000E+04
         0.27000E+04
         0.27000E+04
         0.27000E+04
         0.27000E+04
         0.27000E+04
         0.27000E+04
         0.27000E+04
         0.27000E+04
         0.27000E+04
         0.27000E+04
         0.27000E+04
         0.27000E+04
         0.27000E+04
         0.27000E+04
         0.27000E+04
         0.27000E+04
         0.27000E+04
         0.27000E+04
         0.27000E+04
         0.27000E+04
         0.27000E+04
         0.27000E+04
         0.27000E+04
         0.27000E+04
         0.27000E+04
         0.27000E+04
         0.27000E+04
         0.27000E+04
         0.27000E+04
         0.27000E+04
         0.27000E+04
         0.27000E+04
         0.27000E+04
         0.27000E+04
         0.27000E+04
         0.27000E+04
         0.27000E+04
         0.27000E+04
         0.27000E+04
         0.27000E+04
         0.27000E+04
         0.27000E+04
         0.27000E+04
         0.27000E+04
         0.27000E+04
         0.27000E+04
         0.27000E+04
         0.27000E+04
         0.27000E+04
         0.27000E+04
         0.27000E+04
         0.27000E+04
         0.27000E+04
         0.27000E+04
         0.27000E+04
         0.27000E+04
         0.27000E+04
         0.27000E+04
         0.27000E+04
         0.27000E+04
         0.27000E+04
         0.27000E+04
         0.27000E+04
         0.27000E+04
         0.27000E+04
         0.27000E+04
         0.27000E+04
         0.27000E+04
         0.27000E+04
         0.27000E+04
         0.27000E+04
         0.27000E+04
         0.27000E+04
         0.27000E+04
         0.27000E+04
         0.27000E+04
         0.27000E+04
         0.27000E+04
         0.27000E+04
         0.27000E+04
         0.27000E+04
         0.27000E+04
         0.27000E+04
         0.27000E+04
         0.27000E+04
         0.27000E+04
         0.27000E+04
         0.27000E+04
         0.27000E+04
         0.27000E+04
         0.27000E+04
         0.27000E+04
         0.27000E+04
         0.27000E+04
         0.27000E+04
         0.27000E+04
         0.27000E+04
         0.27000E+04
         0.27000E+04
         0.27000E+04
         0.27000E+04
         0.27000E+04
         0.27000E+04
         0.27000E+04
         0.27000E+04
         0.27000E+04
         0.27000E+04
         0.27000E+04
         0.27000E+04
         0.27000E+04
         0.27000E+04
         0.27000E+04
         0.27000E+04
         0.27000E+04
         0.27000E+04
         0.27000E+04
         0.27000E+04
         0.27000E+04
         0.27000E+04
         0.27000E+04
         0.27000E+04
         0.27000E+04
         0.27000E+04
         0.27000E+04
         0.27000E+04
         0.27000E+04
         0.27000E+04
         0.27000E+04
         0.27000E+04
         0.27000E+04
         0.27000E+04
         0.27000E+04
         0.27000E+04
         0.27000E+04
         0.27000E+04
         0.27000E+04
         0.27000E+04
         0.27000E+04
         0.27000E+04
         0.27000E+04
         0.27000E+04
         0.27000E+04
         0.27000E+04
         0.27000E+04
         0.27000E+04
         0.27000E+04
         0.27000E+04
         0.27000E+04
         0.27000E+04
         0.27000E+04
         0.27000E+04
         0.27000E+04
         0.27000E+04
         0.27000E+04
         0.27000E+04
         0.27000E+04
         0.27000E+04
         0.27000E+04
         0.27000E+04
         0.27000E+04
         0.27000E+04
         0.27000E+04
         0.27000E+04
         0.27000E+04
         0.27000E+04
         0.27000E+04
         0.27000E+04
         0.27000E+04
         0.27000E+04
         0.27000E+04
         0.27000E+04
         0.27000E+04
         0.27000E+04
         0.27000E+04
         0.27000E+04
         0.27000E+04
         0.27000E+04
         0.27000E+04
         0.27000E+04
         0.27000E+04
         0.27000E+04
         0.27000E+04
         0.27000E+04
         0.27000E+04
         0.27000E+04
         0.27000E+04
         0.27000E+04
         0.27000E+04
         0.27000E+04
         0.27000E+04
         0.27000E+04
         0.27000E+04
         0.27000E+04
         0.27000E+04
         0.27000E+04
         0.27000E+04
         0.27000E+04
         0.27000E+04
         0.27000E+04
         0.27000E+04
         0.27000E+04
         0.27000E+04
         0.27000E+04
         0.27000E+04
         0.27000E+04
         0.27000E+04
         0.27000E+04
         0.27000E+04
         0.27000E+04
         0.27000E+04
         0.27000E+04
         0.27000E+04
         0.27000E+04
         0.27000E+04
         0.27000E+04
         0.27000E+04
         0.27000E+04
         0.27000E+04
         0.27000E+04
         0.27000E+04
         0.27000E+04
         0.27000E+04
         0.27000E+04
         0.27000E+04
         0.27000E+04
         0.27000E+04
         0.27000E+04
         0.27000E+04
         0.27000E+04
         0.27000E+04
         0.27000E+04
         0.27000E+04
         0.27000E+04
         0.27000E+04
         0.27000E+04
         0.27000E+04
         0.27000E+04
         0.27000E+04
         0.27000E+04
         0.27000E+04
         0.27000E+04
         0.27000E+04
         0.27000E+04
         0.27000E+04
         0.27000E+04
         0.27000E+04
         0.27000E+04
         0.27000E+04
         0.27000E+04
         0.27000E+04
         0.27000E+04
         0.27000E+04
         0.27000E+04
         0.27000E+04
         0.27000E+04
         0.27000E+04
         0.27000E+04
         0.27000E+04
         0.27000E+04
         0.27000E+04
         0.27000E+04
         0.27000E+04
         0.27000E+04
         0.27000E+04
         0.27000E+04
         0.27000E+04
         0.27000E+04
         0.27000E+04
         0.27000E+04
         0.27000E+04
         0.27000E+04
         0.27000E+04
         0.27000E+04
         0.27000E+04
         0.27000E+04
         0.27000E+04
         0.27000E+04
         0.27000E+04
         0.27000E+04
         0.27000E+04
         0.27000E+04
         0.27000E+04
         0.27000E+04
         0.27000E+04
         0.27000E+04
         0.27000E+04
         0.27000E+04
         0.27000E+04
         0.27000E+04
         0.27000E+04
         0.27000E+04
         0.27000E+04
         0.27000E+04
         0.27000E+04
         0.27000E+04
         0.27000E+04
         0.27000E+04
         0.27000E+04
         0.27000E+04
         0.27000E+04
         0.27000E+04
         0.27000E+04
         0.27000E+04
         0.27000E+04
         0.27000E+04
         0.27000E+04
         0.27000E+04
         0.27000E+04
         0.27000E+04
         0.27000E+04
         0.27000E+04
         0.27000E+04
         0.27000E+04
         0.27000E+04
         0.27000E+04
         0.27000E+04
         0.27000E+04
         0.27000E+04
         0.27000E+04
         0.27000E+04
         0.27000E+04
         0.27000E+04
         0.27000E+04
         0.27000E+04
         0.27000E+04
         0.27000E+04
         0.27000E+04
         0.27000E+04
         0.27000E+04
         0.27000E+04
         0.27000E+04
         0.27000E+04
         0.27000E+04
         0.27000E+04
         0.27000E+04
         0.27000E+04
         0.27000E+04
         0.27000E+04
         0.27000E+04
         0.27000E+04
         0.27000E+04
         0.27000E+04
         0.27000E+04
         0.27000E+04
         0.27000E+04
         0.27000E+04
         0.27000E+04
         0.27000E+04
         0.27000E+04
         0.27000E+04
         0.27000E+04
         0.27000E+04
         0.27000E+04
         0.27000E+04
         0.27000E+04
         0.27000E+04
         0.27000E+04
         0.27000E+04
         0.27000E+04
         0.27000E+04
         0.27000E+04
         0.27000E+04
         0.27000E+04
         0.27000E+04
         0.27000E+04
         0.27000E+04
         0.27000E+04
         0.27000E+04
         0.27000E+04
         0.27000E+04
         0.27000E+04
         0.27000E+04
         0.27000E+04
         0.27000E+04
         0.27000E+04
         0.27000E+04
         0.27000E+04
         0.27000E+04
         0.27000E+04
         0.27000E+04
         0.27000E+04
         0.27000E+04
         0.27000E+04
         0.27000E+04
         0.27000E+04
         0.27000E+04
         0.27000E+04
         0.27000E+04
         0.27000E+04
         0.27000E+04
         0.27000E+04
         0.27000E+04
         0.27000E+04
         0.27000E+04
         0.27000E+04
         0.27000E+04
         0.27000E+04
         0.27000E+04
         0.27000E+04
         0.27000E+04
         0.27000E+04
         0.27000E+04
         0.27000E+04
         0.27000E+04
         0.27000E+04
         0.27000E+04
         0.27000E+04
         0.27000E+04
         0.27000E+04
         0.27000E+04
         0.27000E+04
         0.27000E+04
         0.27000E+04
         0.27000E+04
         0.27000E+04
         0.27000E+04
         0.27000E+04
         0.27000E+04
         0.27000E+04
         0.27000E+04
         0.27000E+04
         0.27000E+04
         0.27000E+04
         0.27000E+04
         0.27000E+04
         0.27000E+04
         0.27000E+04
         0.27000E+04
         0.27000E+04
         0.27000E+04
         0.27000E+04
         0.27000E+04
         0.27000E+04
         0.27000E+04
         0.27000E+04
         0.27000E+04
         0.27000E+04
         0.27000E+04
         0.27000E+04
         0.27000E+04
         0.27000E+04
         0.27000E+04
         0.27000E+04
         0.27000E+04
         0.27000E+04
         0.27000E+04
         0.27000E+04
         0.27000E+04
         0.27000E+04
         0.27000E+04
         0.27000E+04
         0.27000E+04
         0.27000E+04
         0.27000E+04
         0.27000E+04
         0.27000E+04
         0.27000E+04
         0.27000E+04
         0.27000E+04
         0.27000E+04
         0.27000E+04
         0.27000E+04
         0.27000E+04
         0.27000E+04
         0.27000E+04
         0.27000E+04
         0.27000E+04
         0.27000E+04
         0.27000E+04
         0.27000E+04
         0.27000E+04
         0.27000E+04
         0.27000E+04
         0.27000E+04
         0.27000E+04
         0.27000E+04
         0.27000E+04
         0.27000E+04
         0.27000E+04
         0.27000E+04
         0.27000E+04
         0.27000E+04
         0.27000E+04
         0.27000E+04
         0.27000E+04
         0.27000E+04
         0.27000E+04
         0.27000E+04
         0.27000E+04
         0.27000E+04
         0.27000E+04
         0.27000E+04
         0.27000E+04
         0.27000E+04
         0.27000E+04
         0.27000E+04
         0.27000E+04
         0.27000E+04
         0.27000E+04
         0.27000E+04
         0.27000E+04
         0.27000E+04
         0.27000E+04
         0.27000E+04
         0.27000E+04
         0.27000E+04
         0.27000E+04
         0.27000E+04
         0.27000E+04
         0.27000E+04
         0.27000E+04
         0.27000E+04
         0.27000E+04
         0.27000E+04
         0.27000E+04
         0.27000E+04
         0.27000E+04
         0.27000E+04
         0.27000E+04
         0.27000E+04
         0.27000E+04
         0.27000E+04
         0.27000E+04
         0.27000E+04
         0.27000E+04
         0.27000E+04
         0.27000E+04
         0.27000E+04
         0.27000E+04
         0.27000E+04
         0.27000E+04
         0.27000E+04
         0.27000E+04
         0.27000E+04
         0.27000E+04
         0.27000E+04
         0.27000E+04
         0.27000E+04
         0.27000E+04
         0.27000E+04
         0.27000E+04
         0.27000E+04
         0.27000E+04
         0.27000E+04
         0.27000E+04
         0.27000E+04
         0.27000E+04
         0.27000E+04
         0.27000E+04
         0.27000E+04
         0.27000E+04
         0.27000E+04
         0.27000E+04
         0.27000E+04
         0.27000E+04
         0.27000E+04
         0.27000E+04
         0.27000E+04
         0.27000E+04
         0.27000E+04
         0.27000E+04
         0.27000E+04
         0.27000E+04
         0.27000E+04
         0.27000E+04
         0.27000E+04
         0.27000E+04
         0.27000E+04
         0.27000E+04
         0.27000E+04
         0.27000E+04
         0.27000E+04
         0.27000E+04
         0.27000E+04
         0.27000E+04
         0.27000E+04
         0.27000E+04
         0.27000E+04
         0.27000E+04
         0.27000E+04
         0.27000E+04
         0.27000E+04
         0.27000E+04
         0.27000E+04
         0.27000E+04
         0.27000E+04
         0.27000E+04
         0.27000E+04
         0.27000E+04
         0.27000E+04
         0.27000E+04
         0.27000E+04
         0.27000E+04
         0.27000E+04
         0.27000E+04
         0.27000E+04
         0.27000E+04
         0.27000E+04
         0.27000E+04
         0.27000E+04
         0.27000E+04
         0.27000E+04
         0.27000E+04
         0.27000E+04
         0.27000E+04
         0.27000E+04
         0.27000E+04
         0.27000E+04
         0.27000E+04
         0.27000E+04
         0.27000E+04
         0.27000E+04
         0.27000E+04
         0.27000E+04
         0.27000E+04
         0.27000E+04
         0.27000E+04
         0.27000E+04
         0.27000E+04
         0.27000E+04
         0.27000E+04
         0.27000E+04
         0.27000E+04
         0.27000E+04
         0.27000E+04
         0.27000E+04
         0.27000E+04
         0.27000E+04
         0.27000E+04
         0.27000E+04
         0.27000E+04
         0.27000E+04
         0.27000E+04
         0.27000E+04
         0.27000E+04
         0.27000E+04
         0.27000E+04
         0.27000E+04
         0.27000E+04
         0.27000E+04
         0.27000E+04
         0.27000E+04
         0.27000E+04
         0.27000E+04
         0.27000E+04
         0.27000E+04
         0.27000E+04
         0.27000E+04
         0.27000E+04
         0.27000E+04
         0.27000E+04
         0.27000E+04
         0.27000E+04
         0.27000E+04
         0.27000E+04
         0.27000E+04
         0.27000E+04
         0.27000E+04
         0.27000E+04
         0.27000E+04
         0.27000E+04
         0.27000E+04
         0.27000E+04
         0.27000E+04
         0.27000E+04
         0.27000E+04
         0.27000E+04
         0.27000E+04
         0.27000E+04
         0.27000E+04
         0.27000E+04
         0.27000E+04
         0.27000E+04
         0.27000E+04
         0.27000E+04
         0.27000E+04
         0.27000E+04
         0.27000E+04
         0.27000E+04
         0.27000E+04
         0.27000E+04
         0.27000E+04
         0.27000E+04
         0.27000E+04
         0.27000E+04
         0.27000E+04
         0.27000E+04
         0.27000E+04
         0.27000E+04
         0.27000E+04
         0.27000E+04
         0.27000E+04
         0.27000E+04
         0.27000E+04
         0.27000E+04
         0.27000E+04
         0.27000E+04
         0.27000E+04
         0.27000E+04
         0.27000E+04
         0.27000E+04
         0.27000E+04
         0.27000E+04
         0.27000E+04
         0.27000E+04
         0.27000E+04
         0.27000E+04
         0.27000E+04
         0.27000E+04
         0.27000E+04
         0.27000E+04
         0.27000E+04
         0.27000E+04
         0.27000E+04
         0.27000E+04
         0.27000E+04
         0.27000E+04
         0.27000E+04
         0.27000E+04
         0.27000E+04
         0.27000E+04
         0.27000E+04
         0.27000E+04
         0.27000E+04
         0.27000E+04
         0.27000E+04
         0.27000E+04
         0.27000E+04
         0.27000E+04
         0.27000E+04
         0.27000E+04
         0.27000E+04
         0.27000E+04
         0.27000E+04
         0.27000E+04
         0.27000E+04
         0.27000E+04
         0.27000E+04
         0.27000E+04
         0.27000E+04
         0.27000E+04
         0.27000E+04
         0.27000E+04
         0.27000E+04
         0.27000E+04
         0.27000E+04
         0.27000E+04
         0.27000E+04
         0.27000E+04
         0.27000E+04
         0.27000E+04
         0.27000E+04
         0.27000E+04
         0.27000E+04
         0.27000E+04
         0.27000E+04
         0.27000E+04
         0.27000E+04
         0.27000E+04
         0.27000E+04
         0.27000E+04
         0.27000E+04
         0.27000E+04
         0.27000E+04
         0.27000E+04
         0.27000E+04
         0.27000E+04
         0.27000E+04
         0.27000E+04
         0.27000E+04
         0.27000E+04
         0.27000E+04
         0.27000E+04
         0.27000E+04
         0.27000E+04
         0.27000E+04
         0.27000E+04
         0.27000E+04
         0.27000E+04
         0.27000E+04
         0.27000E+04
         0.27000E+04
         0.27000E+04
         0.27000E+04
         0.27000E+04
         0.27000E+04
         0.27000E+04
         0.27000E+04
         0.27000E+04
         0.27000E+04
         0.27000E+04
         0.27000E+04
         0.27000E+04
         0.27000E+04
         0.27000E+04
         0.27000E+04
         0.27000E+04
         0.27000E+04
         0.27000E+04
         0.27000E+04
         0.27000E+04
         0.27000E+04
         0.27000E+04
         0.27000E+04
         0.27000E+04
         0.27000E+04
         0.27000E+04
         0.27000E+04
         0.27000E+04
         0.27000E+04
         0.27000E+04
         0.27000E+04
         0.27000E+04
         0.27000E+04
         0.27000E+04
         0.27000E+04
         0.27000E+04
         0.27000E+04
         0.27000E+04
         0.27000E+04
         0.27000E+04
         0.27000E+04
         0.27000E+04
         0.27000E+04
         0.27000E+04
         0.27000E+04
         0.27000E+04
         0.27000E+04
         0.27000E+04
         0.27000E+04
         0.27000E+04
         0.27000E+04
         0.27000E+04
         0.27000E+04
         0.27000E+04
         0.27000E+04
         0.27000E+04
         0.27000E+04
         0.27000E+04
         0.27000E+04
         0.27000E+04
         0.27000E+04
         0.27000E+04
         0.27000E+04
         0.27000E+04
         0.27000E+04
         0.27000E+04
         0.27000E+04
         0.27000E+04
         0.27000E+04
         0.27000E+04
         0.27000E+04
         0.27000E+04
         0.27000E+04
         0.27000E+04
         0.27000E+04
         0.27000E+04
         0.27000E+04
         0.27000E+04
         0.27000E+04
         0.27000E+04
         0.27000E+04
         0.27000E+04
         0.27000E+04
         0.27000E+04
         0.27000E+04
         0.27000E+04
         0.27000E+04
         0.27000E+04
         0.27000E+04
         0.27000E+04
         0.27000E+04
         0.27000E+04
         0.27000E+04
         0.27000E+04
         0.27000E+04
         0.27000E+04
         0.27000E+04
         0.27000E+04
         0.27000E+04
         0.27000E+04
         0.27000E+04
         0.27000E+04
         0.27000E+04
         0.27000E+04
         0.27000E+04
         0.27000E+04
         0.27000E+04
