# vtk DataFile Version 2.0
               (MEGA VTK FILE)
ASCII
DATASET UNSTRUCTURED_GRID
POINTS       1950    double
  0.10378E-02  0.67292E-03 -0.17921E-01
  0.17452E-02  0.12308E-02 -0.17910E-01
  0.23177E-02  0.59151E-03 -0.17908E-01
  0.16698E-02 -0.33775E-03 -0.17929E-01
  0.10379E-02  0.67237E-03 -0.11750E-01
  0.17453E-02  0.12301E-02 -0.11750E-01
  0.23178E-02  0.59098E-03 -0.11750E-01
  0.16700E-02 -0.33851E-03 -0.11750E-01
  0.30377E-02  0.14882E-03 -0.17887E-01
  0.27791E-02 -0.67643E-03 -0.17912E-01
  0.30377E-02  0.14846E-03 -0.11750E-01
  0.27788E-02 -0.67692E-03 -0.11750E-01
  0.12850E-02  0.18412E-02 -0.17897E-01
  0.65139E-03  0.14576E-02 -0.17913E-01
  0.12851E-02  0.18410E-02 -0.11750E-01
  0.65164E-03  0.14566E-02 -0.11750E-01
  0.12757E-03  0.29933E-03 -0.17922E-01
 -0.12822E-03  0.11672E-02 -0.17925E-01
  0.12783E-03  0.29819E-03 -0.11750E-01
 -0.12804E-03  0.11655E-02 -0.11750E-01
  0.94500E-03  0.22748E-02 -0.17889E-01
  0.11327E-02  0.28286E-02 -0.17879E-01
  0.17490E-02  0.24238E-02 -0.17884E-01
  0.94533E-03  0.22746E-02 -0.11750E-01
  0.11330E-02  0.28291E-02 -0.11750E-01
  0.17494E-02  0.24236E-02 -0.11750E-01
  0.40588E-03  0.21685E-02 -0.17909E-01
  0.39779E-03  0.29366E-02 -0.17902E-01
  0.40594E-03  0.21684E-02 -0.11750E-01
  0.39781E-03  0.29369E-02 -0.11750E-01
 -0.76303E-03 -0.10033E-02 -0.17931E-01
 -0.86604E-03  0.78969E-04 -0.17937E-01
  0.46119E-03 -0.70318E-03 -0.17927E-01
 -0.76268E-03 -0.10032E-02 -0.11750E-01
 -0.86593E-03  0.78160E-04 -0.11750E-01
  0.46164E-03 -0.70391E-03 -0.11750E-01
 -0.18300E-02 -0.71196E-03 -0.17908E-01
 -0.18440E-02  0.82749E-04 -0.17931E-01
 -0.18297E-02 -0.71210E-03 -0.11750E-01
 -0.18441E-02  0.82626E-04 -0.11750E-01
 -0.27238E-02 -0.77865E-03 -0.17902E-01
 -0.28028E-02  0.40713E-04 -0.17921E-01
 -0.27238E-02 -0.77882E-03 -0.11750E-01
 -0.28031E-02  0.40439E-04 -0.11750E-01
 -0.25365E-02 -0.15195E-02 -0.17884E-01
 -0.19287E-02 -0.13230E-02 -0.17893E-01
 -0.25363E-02 -0.15195E-02 -0.11750E-01
 -0.19283E-02 -0.13231E-02 -0.11750E-01
 -0.99363E-03  0.98847E-03 -0.17938E-01
 -0.99377E-03  0.98712E-03 -0.11750E-01
 -0.14380E-02 -0.17325E-02 -0.17905E-01
 -0.14377E-02 -0.17325E-02 -0.11750E-01
 -0.31574E-03  0.20220E-02 -0.17930E-01
 -0.31594E-03  0.20217E-02 -0.11750E-01
 -0.11068E-02  0.18615E-02 -0.17937E-01
 -0.11071E-02  0.18616E-02 -0.11750E-01
 -0.18845E-02  0.17175E-02 -0.17917E-01
 -0.18713E-02  0.90940E-03 -0.17933E-01
 -0.18846E-02  0.17175E-02 -0.11750E-01
 -0.18714E-02  0.90916E-03 -0.11750E-01
 -0.15871E-03 -0.19800E-02 -0.17926E-01
 -0.94089E-03 -0.23489E-02 -0.17905E-01
 -0.15844E-03 -0.19800E-02 -0.11750E-01
 -0.94029E-03 -0.23489E-02 -0.11750E-01
  0.78856E-03 -0.17074E-02 -0.17925E-01
  0.78922E-03 -0.17074E-02 -0.11750E-01
  0.17211E-02 -0.14894E-02 -0.17916E-01
  0.17211E-02 -0.14892E-02 -0.11750E-01
  0.32050E-02  0.76036E-03 -0.17855E-01
  0.28046E-02  0.12477E-02 -0.17880E-01
  0.32047E-02  0.75936E-03 -0.11750E-01
  0.28047E-02  0.12473E-02 -0.11750E-01
  0.23059E-02  0.18665E-02 -0.17889E-01
  0.23060E-02  0.18664E-02 -0.11750E-01
 -0.40614E-03  0.29038E-02 -0.17915E-01
 -0.40627E-03  0.29049E-02 -0.11750E-01
 -0.12092E-02  0.27207E-02 -0.17913E-01
 -0.12092E-02  0.27212E-02 -0.11750E-01
 -0.19448E-02  0.24642E-02 -0.17890E-01
 -0.19448E-02  0.24645E-02 -0.11750E-01
 -0.25029E-02  0.22359E-02 -0.17863E-01
 -0.26371E-02  0.16503E-02 -0.17896E-01
 -0.25029E-02  0.22359E-02 -0.11750E-01
 -0.26372E-02  0.16503E-02 -0.11750E-01
 -0.27671E-02  0.87493E-03 -0.17923E-01
 -0.27674E-02  0.87466E-03 -0.11750E-01
 -0.21123E-02 -0.21373E-02 -0.17886E-01
 -0.21122E-02 -0.21373E-02 -0.11750E-01
 -0.16087E-02 -0.26931E-02 -0.17876E-01
 -0.16087E-02 -0.26931E-02 -0.11750E-01
 -0.11939E-02 -0.31291E-02 -0.17852E-01
 -0.58641E-03 -0.30382E-02 -0.17885E-01
 -0.11937E-02 -0.31291E-02 -0.11750E-01
 -0.58606E-03 -0.30382E-02 -0.11750E-01
  0.20912E-03 -0.28748E-02 -0.17907E-01
  0.20952E-03 -0.28748E-02 -0.11750E-01
  0.10586E-02 -0.26423E-02 -0.17904E-01
  0.10589E-02 -0.26420E-02 -0.11750E-01
  0.18413E-02 -0.23707E-02 -0.17886E-01
  0.18413E-02 -0.23705E-02 -0.11750E-01
  0.24544E-02 -0.21445E-02 -0.17861E-01
  0.26022E-02 -0.15105E-02 -0.17891E-01
  0.24543E-02 -0.21439E-02 -0.11750E-01
  0.26021E-02 -0.15106E-02 -0.11750E-01
  0.37964E-02  0.93572E-03 -0.17787E-01
  0.39100E-02  0.00000E+00 -0.17798E-01
  0.37964E-02  0.93572E-03 -0.11750E-01
  0.39100E-02  0.00000E+00 -0.11750E-01
  0.34621E-02  0.18171E-02 -0.17797E-01
  0.34621E-02  0.18171E-02 -0.11750E-01
  0.29267E-02  0.25928E-02 -0.17788E-01
  0.29267E-02  0.25928E-02 -0.11750E-01
  0.22211E-02  0.32179E-02 -0.17789E-01
  0.22211E-02  0.32179E-02 -0.11750E-01
  0.13865E-02  0.36559E-02 -0.17788E-01
  0.13865E-02  0.36559E-02 -0.11750E-01
  0.47130E-03  0.38815E-02 -0.17795E-01
  0.47130E-03  0.38815E-02 -0.11750E-01
 -0.47130E-03  0.38815E-02 -0.17798E-01
 -0.47130E-03  0.38815E-02 -0.11750E-01
 -0.13865E-02  0.36559E-02 -0.17796E-01
 -0.13865E-02  0.36559E-02 -0.11750E-01
 -0.22211E-02  0.32179E-02 -0.17795E-01
 -0.22211E-02  0.32179E-02 -0.11750E-01
 -0.29267E-02  0.25928E-02 -0.17784E-01
 -0.29267E-02  0.25928E-02 -0.11750E-01
 -0.34621E-02  0.18171E-02 -0.17798E-01
 -0.34621E-02  0.18171E-02 -0.11750E-01
 -0.37964E-02  0.93572E-03 -0.17802E-01
 -0.37964E-02  0.93572E-03 -0.11750E-01
 -0.39100E-02  0.22152E-17 -0.17801E-01
 -0.39100E-02 -0.47884E-18 -0.11750E-01
 -0.37964E-02 -0.93572E-03 -0.17796E-01
 -0.37964E-02 -0.93572E-03 -0.11750E-01
 -0.34621E-02 -0.18171E-02 -0.17791E-01
 -0.34621E-02 -0.18171E-02 -0.11750E-01
 -0.29267E-02 -0.25928E-02 -0.17788E-01
 -0.29267E-02 -0.25928E-02 -0.11750E-01
 -0.22211E-02 -0.32179E-02 -0.17796E-01
 -0.22211E-02 -0.32179E-02 -0.11750E-01
 -0.13865E-02 -0.36559E-02 -0.17788E-01
 -0.13865E-02 -0.36559E-02 -0.11750E-01
 -0.47130E-03 -0.38815E-02 -0.17800E-01
 -0.47130E-03 -0.38815E-02 -0.11750E-01
  0.47130E-03 -0.38815E-02 -0.17796E-01
  0.47130E-03 -0.38815E-02 -0.11750E-01
  0.13865E-02 -0.36559E-02 -0.17792E-01
  0.13865E-02 -0.36559E-02 -0.11750E-01
  0.22211E-02 -0.32179E-02 -0.17799E-01
  0.22211E-02 -0.32179E-02 -0.11750E-01
  0.29267E-02 -0.25928E-02 -0.17789E-01
  0.29267E-02 -0.25928E-02 -0.11750E-01
  0.34621E-02 -0.18171E-02 -0.17799E-01
  0.34621E-02 -0.18171E-02 -0.11750E-01
  0.37964E-02 -0.93572E-03 -0.17799E-01
  0.37964E-02 -0.93572E-03 -0.11750E-01
  0.10376E-02  0.67348E-03 -0.19870E-01
  0.17450E-02  0.12314E-02 -0.19868E-01
  0.23175E-02  0.59203E-03 -0.19868E-01
  0.16696E-02 -0.33700E-03 -0.19871E-01
  0.30377E-02  0.14918E-03 -0.19864E-01
  0.27795E-02 -0.67594E-03 -0.19868E-01
  0.12849E-02  0.18414E-02 -0.19866E-01
  0.65115E-03  0.14586E-02 -0.19868E-01
  0.12731E-03  0.30048E-03 -0.19870E-01
 -0.12841E-03  0.11690E-02 -0.19871E-01
  0.94467E-03  0.22749E-02 -0.19865E-01
  0.11323E-02  0.28282E-02 -0.19863E-01
  0.17487E-02  0.24239E-02 -0.19864E-01
  0.40583E-03  0.21685E-02 -0.19868E-01
  0.39777E-03  0.29364E-02 -0.19867E-01
 -0.76338E-03 -0.10035E-02 -0.19871E-01
 -0.86615E-03  0.79778E-04 -0.19872E-01
  0.46074E-03 -0.70245E-03 -0.19871E-01
 -0.18303E-02 -0.71182E-03 -0.19868E-01
 -0.18439E-02  0.82873E-04 -0.19871E-01
 -0.27238E-02 -0.77848E-03 -0.19867E-01
 -0.28025E-02  0.40986E-04 -0.19870E-01
 -0.25366E-02 -0.15194E-02 -0.19864E-01
 -0.19292E-02 -0.13228E-02 -0.19866E-01
 -0.99349E-03  0.98983E-03 -0.19872E-01
 -0.14384E-02 -0.17324E-02 -0.19867E-01
 -0.31554E-03  0.20223E-02 -0.19871E-01
 -0.11064E-02  0.18614E-02 -0.19872E-01
 -0.18845E-02  0.17175E-02 -0.19869E-01
 -0.18712E-02  0.90964E-03 -0.19871E-01
 -0.15899E-03 -0.19800E-02 -0.19870E-01
 -0.94149E-03 -0.23489E-02 -0.19867E-01
  0.78790E-03 -0.17074E-02 -0.19870E-01
  0.17210E-02 -0.14896E-02 -0.19869E-01
  0.32053E-02  0.76137E-03 -0.19860E-01
  0.28046E-02  0.12481E-02 -0.19863E-01
  0.23058E-02  0.18665E-02 -0.19864E-01
 -0.40600E-03  0.29027E-02 -0.19869E-01
 -0.12092E-02  0.27202E-02 -0.19869E-01
 -0.19447E-02  0.24640E-02 -0.19865E-01
 -0.25028E-02  0.22359E-02 -0.19861E-01
 -0.26370E-02  0.16503E-02 -0.19866E-01
 -0.27668E-02  0.87519E-03 -0.19870E-01
 -0.21125E-02 -0.21373E-02 -0.19864E-01
 -0.16088E-02 -0.26932E-02 -0.19863E-01
 -0.11940E-02 -0.31291E-02 -0.19860E-01
 -0.58676E-03 -0.30382E-02 -0.19864E-01
  0.20871E-03 -0.28748E-02 -0.19867E-01
  0.10583E-02 -0.26426E-02 -0.19867E-01
  0.18413E-02 -0.23709E-02 -0.19864E-01
  0.24545E-02 -0.21450E-02 -0.19861E-01
  0.26022E-02 -0.15104E-02 -0.19865E-01
  0.37964E-02  0.93572E-03 -0.19853E-01
  0.39100E-02  0.00000E+00 -0.19855E-01
  0.34621E-02  0.18171E-02 -0.19854E-01
  0.29267E-02  0.25928E-02 -0.19853E-01
  0.22211E-02  0.32179E-02 -0.19854E-01
  0.13865E-02  0.36559E-02 -0.19854E-01
  0.47130E-03  0.38815E-02 -0.19855E-01
 -0.47130E-03  0.38815E-02 -0.19855E-01
 -0.13865E-02  0.36559E-02 -0.19854E-01
 -0.22211E-02  0.32179E-02 -0.19854E-01
 -0.29267E-02  0.25928E-02 -0.19852E-01
 -0.34621E-02  0.18171E-02 -0.19854E-01
 -0.37964E-02  0.93572E-03 -0.19855E-01
 -0.39100E-02 -0.47884E-18 -0.19855E-01
 -0.37964E-02 -0.93572E-03 -0.19855E-01
 -0.34621E-02 -0.18171E-02 -0.19854E-01
 -0.29267E-02 -0.25928E-02 -0.19853E-01
 -0.22211E-02 -0.32179E-02 -0.19854E-01
 -0.13865E-02 -0.36559E-02 -0.19853E-01
 -0.47130E-03 -0.38815E-02 -0.19855E-01
  0.47130E-03 -0.38815E-02 -0.19855E-01
  0.13865E-02 -0.36559E-02 -0.19854E-01
  0.22211E-02 -0.32179E-02 -0.19855E-01
  0.29267E-02 -0.25928E-02 -0.19853E-01
  0.34621E-02 -0.18171E-02 -0.19855E-01
  0.37964E-02 -0.93572E-03 -0.19855E-01
  0.10375E-02  0.67403E-03 -0.19130E-01
  0.17448E-02  0.12321E-02 -0.19130E-01
  0.23174E-02  0.59255E-03 -0.19130E-01
  0.16694E-02 -0.33624E-03 -0.19130E-01
  0.30377E-02  0.14955E-03 -0.19130E-01
  0.27798E-02 -0.67544E-03 -0.19130E-01
  0.12848E-02  0.18415E-02 -0.19130E-01
  0.65090E-03  0.14596E-02 -0.19130E-01
  0.12705E-03  0.30163E-03 -0.19130E-01
 -0.12859E-03  0.11707E-02 -0.19130E-01
  0.94434E-03  0.22750E-02 -0.19130E-01
  0.11320E-02  0.28277E-02 -0.19130E-01
  0.17483E-02  0.24241E-02 -0.19130E-01
  0.40577E-03  0.21685E-02 -0.19130E-01
  0.39776E-03  0.29361E-02 -0.19130E-01
 -0.76374E-03 -0.10036E-02 -0.19130E-01
 -0.86626E-03  0.80588E-04 -0.19130E-01
  0.46029E-03 -0.70173E-03 -0.19130E-01
 -0.18306E-02 -0.71168E-03 -0.19130E-01
 -0.18438E-02  0.82996E-04 -0.19130E-01
 -0.27238E-02 -0.77831E-03 -0.19130E-01
 -0.28022E-02  0.41259E-04 -0.19130E-01
 -0.25368E-02 -0.15194E-02 -0.19130E-01
 -0.19296E-02 -0.13227E-02 -0.19130E-01
 -0.99334E-03  0.99119E-03 -0.19130E-01
 -0.14387E-02 -0.17324E-02 -0.19130E-01
 -0.31534E-03  0.20226E-02 -0.19130E-01
 -0.11061E-02  0.18613E-02 -0.19130E-01
 -0.18844E-02  0.17175E-02 -0.19130E-01
 -0.18710E-02  0.90988E-03 -0.19130E-01
 -0.15926E-03 -0.19801E-02 -0.19130E-01
 -0.94209E-03 -0.23490E-02 -0.19130E-01
  0.78724E-03 -0.17074E-02 -0.19130E-01
  0.17210E-02 -0.14899E-02 -0.19130E-01
  0.32056E-02  0.76237E-03 -0.19130E-01
  0.28046E-02  0.12485E-02 -0.19130E-01
  0.23057E-02  0.18666E-02 -0.19130E-01
 -0.40586E-03  0.29017E-02 -0.19130E-01
 -0.12092E-02  0.27198E-02 -0.19130E-01
 -0.19447E-02  0.24638E-02 -0.19130E-01
 -0.25028E-02  0.22359E-02 -0.19130E-01
 -0.26369E-02  0.16503E-02 -0.19130E-01
 -0.27665E-02  0.87545E-03 -0.19130E-01
 -0.21126E-02 -0.21374E-02 -0.19130E-01
 -0.16088E-02 -0.26932E-02 -0.19130E-01
 -0.11941E-02 -0.31291E-02 -0.19130E-01
 -0.58711E-03 -0.30382E-02 -0.19130E-01
  0.20830E-03 -0.28748E-02 -0.19130E-01
  0.10580E-02 -0.26428E-02 -0.19130E-01
  0.18414E-02 -0.23711E-02 -0.19130E-01
  0.24546E-02 -0.21456E-02 -0.19130E-01
  0.26023E-02 -0.15103E-02 -0.19130E-01
  0.37964E-02  0.93572E-03 -0.19130E-01
  0.39100E-02  0.00000E+00 -0.19130E-01
  0.34621E-02  0.18171E-02 -0.19130E-01
  0.29267E-02  0.25928E-02 -0.19130E-01
  0.22211E-02  0.32179E-02 -0.19130E-01
  0.13865E-02  0.36559E-02 -0.19130E-01
  0.47130E-03  0.38815E-02 -0.19130E-01
 -0.47130E-03  0.38815E-02 -0.19130E-01
 -0.13865E-02  0.36559E-02 -0.19130E-01
 -0.22211E-02  0.32179E-02 -0.19130E-01
 -0.29267E-02  0.25928E-02 -0.19130E-01
 -0.34621E-02  0.18171E-02 -0.19130E-01
 -0.37964E-02  0.93572E-03 -0.19130E-01
 -0.39100E-02  0.39516E-17 -0.19130E-01
 -0.37964E-02 -0.93572E-03 -0.19130E-01
 -0.34621E-02 -0.18171E-02 -0.19130E-01
 -0.29267E-02 -0.25928E-02 -0.19130E-01
 -0.22211E-02 -0.32179E-02 -0.19130E-01
 -0.13865E-02 -0.36559E-02 -0.19130E-01
 -0.47130E-03 -0.38815E-02 -0.19130E-01
  0.47130E-03 -0.38815E-02 -0.19130E-01
  0.13865E-02 -0.36559E-02 -0.19130E-01
  0.22211E-02 -0.32179E-02 -0.19130E-01
  0.29267E-02 -0.25928E-02 -0.19130E-01
  0.34621E-02 -0.18171E-02 -0.19130E-01
  0.37964E-02 -0.93572E-03 -0.19130E-01
  0.10374E-02  0.67459E-03 -0.18151E-01
  0.17446E-02  0.12328E-02 -0.18151E-01
  0.23173E-02  0.59308E-03 -0.18151E-01
  0.16692E-02 -0.33549E-03 -0.18151E-01
  0.30376E-02  0.14991E-03 -0.18151E-01
  0.27801E-02 -0.67495E-03 -0.18151E-01
  0.12847E-02  0.18417E-02 -0.18151E-01
  0.65065E-03  0.14606E-02 -0.18151E-01
  0.12678E-03  0.30278E-03 -0.18151E-01
 -0.12878E-03  0.11725E-02 -0.18151E-01
  0.94401E-03  0.22752E-02 -0.18151E-01
  0.11316E-02  0.28273E-02 -0.18151E-01
  0.17479E-02  0.24242E-02 -0.18151E-01
  0.40572E-03  0.21686E-02 -0.18151E-01
  0.39774E-03  0.29359E-02 -0.18151E-01
 -0.76409E-03 -0.10038E-02 -0.18151E-01
 -0.86637E-03  0.81397E-04 -0.18151E-01
  0.45985E-03 -0.70100E-03 -0.18151E-01
 -0.18309E-02 -0.71154E-03 -0.18151E-01
 -0.18437E-02  0.83120E-04 -0.18151E-01
 -0.27237E-02 -0.77814E-03 -0.18151E-01
 -0.28020E-02  0.41533E-04 -0.18151E-01
 -0.25369E-02 -0.15193E-02 -0.18151E-01
 -0.19300E-02 -0.13227E-02 -0.18151E-01
 -0.99320E-03  0.99254E-03 -0.18151E-01
 -0.14391E-02 -0.17324E-02 -0.18151E-01
 -0.31514E-03  0.20228E-02 -0.18151E-01
 -0.11057E-02  0.18611E-02 -0.18151E-01
 -0.18844E-02  0.17175E-02 -0.18151E-01
 -0.18709E-02  0.91012E-03 -0.18151E-01
 -0.15954E-03 -0.19801E-02 -0.18151E-01
 -0.94269E-03 -0.23490E-02 -0.18151E-01
  0.78658E-03 -0.17074E-02 -0.18151E-01
  0.17209E-02 -0.14901E-02 -0.18151E-01
  0.32060E-02  0.76338E-03 -0.18151E-01
  0.28046E-02  0.12490E-02 -0.18151E-01
  0.23056E-02  0.18666E-02 -0.18151E-01
 -0.40572E-03  0.29006E-02 -0.18151E-01
 -0.12092E-02  0.27193E-02 -0.18151E-01
 -0.19446E-02  0.24636E-02 -0.18151E-01
 -0.25028E-02  0.22359E-02 -0.18151E-01
 -0.26368E-02  0.16503E-02 -0.18151E-01
 -0.27662E-02  0.87571E-03 -0.18151E-01
 -0.21128E-02 -0.21374E-02 -0.18151E-01
 -0.16088E-02 -0.26932E-02 -0.18151E-01
 -0.11942E-02 -0.31291E-02 -0.18151E-01
 -0.58746E-03 -0.30382E-02 -0.18151E-01
  0.20790E-03 -0.28748E-02 -0.18151E-01
  0.10577E-02 -0.26431E-02 -0.18151E-01
  0.18414E-02 -0.23713E-02 -0.18151E-01
  0.24548E-02 -0.21461E-02 -0.18151E-01
  0.26024E-02 -0.15102E-02 -0.18151E-01
  0.37964E-02  0.93572E-03 -0.18151E-01
  0.39100E-02  0.00000E+00 -0.18151E-01
  0.34621E-02  0.18171E-02 -0.18151E-01
  0.29267E-02  0.25928E-02 -0.18151E-01
  0.22211E-02  0.32179E-02 -0.18151E-01
  0.13865E-02  0.36559E-02 -0.18151E-01
  0.47130E-03  0.38815E-02 -0.18151E-01
 -0.47130E-03  0.38815E-02 -0.18151E-01
 -0.13865E-02  0.36559E-02 -0.18151E-01
 -0.22211E-02  0.32179E-02 -0.18151E-01
 -0.29267E-02  0.25928E-02 -0.18151E-01
 -0.34621E-02  0.18171E-02 -0.18151E-01
 -0.37964E-02  0.93572E-03 -0.18151E-01
 -0.39100E-02 -0.47884E-18 -0.18151E-01
 -0.37964E-02 -0.93572E-03 -0.18151E-01
 -0.34621E-02 -0.18171E-02 -0.18151E-01
 -0.29267E-02 -0.25928E-02 -0.18151E-01
 -0.22211E-02 -0.32179E-02 -0.18151E-01
 -0.13865E-02 -0.36559E-02 -0.18151E-01
 -0.47130E-03 -0.38815E-02 -0.18151E-01
  0.47130E-03 -0.38815E-02 -0.18151E-01
  0.13865E-02 -0.36559E-02 -0.18151E-01
  0.22211E-02 -0.32179E-02 -0.18151E-01
  0.29267E-02 -0.25928E-02 -0.18151E-01
  0.34621E-02 -0.18171E-02 -0.18151E-01
  0.37964E-02 -0.93572E-03 -0.18151E-01
  0.10373E-02  0.67514E-03 -0.17172E-01
  0.17445E-02  0.12334E-02 -0.17172E-01
  0.23172E-02  0.59360E-03 -0.17172E-01
  0.16689E-02 -0.33474E-03 -0.17172E-01
  0.30376E-02  0.15027E-03 -0.17172E-01
  0.27805E-02 -0.67446E-03 -0.17172E-01
  0.12846E-02  0.18419E-02 -0.17172E-01
  0.65041E-03  0.14616E-02 -0.17172E-01
  0.12652E-03  0.30393E-03 -0.17172E-01
 -0.12896E-03  0.11742E-02 -0.17172E-01
  0.94367E-03  0.22753E-02 -0.17172E-01
  0.11313E-02  0.28269E-02 -0.17172E-01
  0.17475E-02  0.24244E-02 -0.17172E-01
  0.40566E-03  0.21686E-02 -0.17172E-01
  0.39772E-03  0.29356E-02 -0.17172E-01
 -0.76444E-03 -0.10039E-02 -0.17172E-01
 -0.86648E-03  0.82206E-04 -0.17172E-01
  0.45940E-03 -0.70028E-03 -0.17172E-01
 -0.18312E-02 -0.71140E-03 -0.17172E-01
 -0.18436E-02  0.83243E-04 -0.17172E-01
 -0.27237E-02 -0.77797E-03 -0.17172E-01
 -0.28017E-02  0.41806E-04 -0.17172E-01
 -0.25371E-02 -0.15193E-02 -0.17172E-01
 -0.19305E-02 -0.13226E-02 -0.17172E-01
 -0.99305E-03  0.99390E-03 -0.17172E-01
 -0.14394E-02 -0.17323E-02 -0.17172E-01
 -0.31494E-03  0.20231E-02 -0.17172E-01
 -0.11054E-02  0.18610E-02 -0.17172E-01
 -0.18843E-02  0.17175E-02 -0.17172E-01
 -0.18708E-02  0.91036E-03 -0.17172E-01
 -0.15981E-03 -0.19801E-02 -0.17172E-01
 -0.94328E-03 -0.23490E-02 -0.17172E-01
  0.78592E-03 -0.17074E-02 -0.17172E-01
  0.17209E-02 -0.14904E-02 -0.17172E-01
  0.32063E-02  0.76439E-03 -0.17172E-01
  0.28045E-02  0.12494E-02 -0.17172E-01
  0.23055E-02  0.18666E-02 -0.17172E-01
 -0.40558E-03  0.28995E-02 -0.17172E-01
 -0.12092E-02  0.27188E-02 -0.17172E-01
 -0.19446E-02  0.24633E-02 -0.17172E-01
 -0.25027E-02  0.22359E-02 -0.17172E-01
 -0.26367E-02  0.16503E-02 -0.17172E-01
 -0.27658E-02  0.87597E-03 -0.17172E-01
 -0.21129E-02 -0.21374E-02 -0.17172E-01
 -0.16089E-02 -0.26932E-02 -0.17172E-01
 -0.11943E-02 -0.31291E-02 -0.17172E-01
 -0.58781E-03 -0.30382E-02 -0.17172E-01
  0.20749E-03 -0.28748E-02 -0.17172E-01
  0.10574E-02 -0.26434E-02 -0.17172E-01
  0.18415E-02 -0.23715E-02 -0.17172E-01
  0.24549E-02 -0.21467E-02 -0.17172E-01
  0.26025E-02 -0.15101E-02 -0.17172E-01
  0.37964E-02  0.93572E-03 -0.17172E-01
  0.39100E-02  0.00000E+00 -0.17172E-01
  0.34621E-02  0.18171E-02 -0.17172E-01
  0.29267E-02  0.25928E-02 -0.17172E-01
  0.22211E-02  0.32179E-02 -0.17172E-01
  0.13865E-02  0.36559E-02 -0.17172E-01
  0.47130E-03  0.38815E-02 -0.17172E-01
 -0.47130E-03  0.38815E-02 -0.17172E-01
 -0.13865E-02  0.36559E-02 -0.17172E-01
 -0.22211E-02  0.32179E-02 -0.17172E-01
 -0.29267E-02  0.25928E-02 -0.17172E-01
 -0.34621E-02  0.18171E-02 -0.17172E-01
 -0.37964E-02  0.93572E-03 -0.17172E-01
 -0.39100E-02 -0.47884E-18 -0.17172E-01
 -0.37964E-02 -0.93572E-03 -0.17172E-01
 -0.34621E-02 -0.18171E-02 -0.17172E-01
 -0.29267E-02 -0.25928E-02 -0.17172E-01
 -0.22211E-02 -0.32179E-02 -0.17172E-01
 -0.13865E-02 -0.36559E-02 -0.17172E-01
 -0.47130E-03 -0.38815E-02 -0.17172E-01
  0.47130E-03 -0.38815E-02 -0.17172E-01
  0.13865E-02 -0.36559E-02 -0.17172E-01
  0.22211E-02 -0.32179E-02 -0.17172E-01
  0.29267E-02 -0.25928E-02 -0.17172E-01
  0.34621E-02 -0.18171E-02 -0.17172E-01
  0.37964E-02 -0.93572E-03 -0.17172E-01
  0.10372E-02  0.67570E-03 -0.16193E-01
  0.17443E-02  0.12341E-02 -0.16193E-01
  0.23171E-02  0.59412E-03 -0.16193E-01
  0.16687E-02 -0.33398E-03 -0.16193E-01
  0.30376E-02  0.15064E-03 -0.16193E-01
  0.27808E-02 -0.67396E-03 -0.16193E-01
  0.12845E-02  0.18421E-02 -0.16193E-01
  0.65016E-03  0.14626E-02 -0.16193E-01
  0.12626E-03  0.30507E-03 -0.16193E-01
 -0.12915E-03  0.11760E-02 -0.16193E-01
  0.94334E-03  0.22754E-02 -0.16193E-01
  0.11310E-02  0.28264E-02 -0.16193E-01
  0.17471E-02  0.24245E-02 -0.16193E-01
  0.40561E-03  0.21686E-02 -0.16193E-01
  0.39770E-03  0.29353E-02 -0.16193E-01
 -0.76480E-03 -0.10040E-02 -0.16193E-01
 -0.86659E-03  0.83015E-04 -0.16193E-01
  0.45895E-03 -0.69955E-03 -0.16193E-01
 -0.18315E-02 -0.71126E-03 -0.16193E-01
 -0.18435E-02  0.83367E-04 -0.16193E-01
 -0.27237E-02 -0.77780E-03 -0.16193E-01
 -0.28014E-02  0.42080E-04 -0.16193E-01
 -0.25372E-02 -0.15192E-02 -0.16193E-01
 -0.19309E-02 -0.13224E-02 -0.16193E-01
 -0.99291E-03  0.99526E-03 -0.16193E-01
 -0.14398E-02 -0.17323E-02 -0.16193E-01
 -0.31474E-03  0.20234E-02 -0.16193E-01
 -0.11051E-02  0.18609E-02 -0.16193E-01
 -0.18843E-02  0.17175E-02 -0.16193E-01
 -0.18706E-02  0.91060E-03 -0.16193E-01
 -0.16009E-03 -0.19801E-02 -0.16193E-01
 -0.94388E-03 -0.23490E-02 -0.16193E-01
  0.78526E-03 -0.17074E-02 -0.16193E-01
  0.17208E-02 -0.14906E-02 -0.16193E-01
  0.32066E-02  0.76539E-03 -0.16193E-01
  0.28045E-02  0.12498E-02 -0.16193E-01
  0.23053E-02  0.18667E-02 -0.16193E-01
 -0.40545E-03  0.28984E-02 -0.16193E-01
 -0.12092E-02  0.27184E-02 -0.16193E-01
 -0.19446E-02  0.24631E-02 -0.16193E-01
 -0.25027E-02  0.22359E-02 -0.16193E-01
 -0.26366E-02  0.16503E-02 -0.16193E-01
 -0.27655E-02  0.87623E-03 -0.16193E-01
 -0.21130E-02 -0.21374E-02 -0.16193E-01
 -0.16089E-02 -0.26932E-02 -0.16193E-01
 -0.11944E-02 -0.31291E-02 -0.16193E-01
 -0.58816E-03 -0.30382E-02 -0.16193E-01
  0.20709E-03 -0.28748E-02 -0.16193E-01
  0.10571E-02 -0.26436E-02 -0.16193E-01
  0.18415E-02 -0.23717E-02 -0.16193E-01
  0.24550E-02 -0.21472E-02 -0.16193E-01
  0.26025E-02 -0.15100E-02 -0.16193E-01
  0.37964E-02  0.93572E-03 -0.16193E-01
  0.39100E-02  0.00000E+00 -0.16193E-01
  0.34621E-02  0.18171E-02 -0.16193E-01
  0.29267E-02  0.25928E-02 -0.16193E-01
  0.22211E-02  0.32179E-02 -0.16193E-01
  0.13865E-02  0.36559E-02 -0.16193E-01
  0.47130E-03  0.38815E-02 -0.16193E-01
 -0.47130E-03  0.38815E-02 -0.16193E-01
 -0.13865E-02  0.36559E-02 -0.16193E-01
 -0.22211E-02  0.32179E-02 -0.16193E-01
 -0.29267E-02  0.25928E-02 -0.16193E-01
 -0.34621E-02  0.18171E-02 -0.16193E-01
 -0.37964E-02  0.93572E-03 -0.16193E-01
 -0.39100E-02 -0.47884E-18 -0.16193E-01
 -0.37964E-02 -0.93572E-03 -0.16193E-01
 -0.34621E-02 -0.18171E-02 -0.16193E-01
 -0.29267E-02 -0.25928E-02 -0.16193E-01
 -0.22211E-02 -0.32179E-02 -0.16193E-01
 -0.13865E-02 -0.36559E-02 -0.16193E-01
 -0.47130E-03 -0.38815E-02 -0.16193E-01
  0.47130E-03 -0.38815E-02 -0.16193E-01
  0.13865E-02 -0.36559E-02 -0.16193E-01
  0.22211E-02 -0.32179E-02 -0.16193E-01
  0.29267E-02 -0.25928E-02 -0.16193E-01
  0.34621E-02 -0.18171E-02 -0.16193E-01
  0.37964E-02 -0.93572E-03 -0.16193E-01
  0.10371E-02  0.67625E-03 -0.15214E-01
  0.17441E-02  0.12348E-02 -0.15214E-01
  0.23169E-02  0.59465E-03 -0.15214E-01
  0.16685E-02 -0.33323E-03 -0.15214E-01
  0.30376E-02  0.15100E-03 -0.15214E-01
  0.27812E-02 -0.67347E-03 -0.15214E-01
  0.12844E-02  0.18423E-02 -0.15214E-01
  0.64992E-03  0.14636E-02 -0.15214E-01
  0.12600E-03  0.30622E-03 -0.15214E-01
 -0.12933E-03  0.11777E-02 -0.15214E-01
  0.94301E-03  0.22755E-02 -0.15214E-01
  0.11306E-02  0.28260E-02 -0.15214E-01
  0.17467E-02  0.24247E-02 -0.15214E-01
  0.40556E-03  0.21687E-02 -0.15214E-01
  0.39769E-03  0.29351E-02 -0.15214E-01
 -0.76515E-03 -0.10042E-02 -0.15214E-01
 -0.86670E-03  0.83825E-04 -0.15214E-01
  0.45850E-03 -0.69882E-03 -0.15214E-01
 -0.18318E-02 -0.71112E-03 -0.15214E-01
 -0.18434E-02  0.83490E-04 -0.15214E-01
 -0.27236E-02 -0.77763E-03 -0.15214E-01
 -0.28011E-02  0.42353E-04 -0.15214E-01
 -0.25374E-02 -0.15192E-02 -0.15214E-01
 -0.19313E-02 -0.13223E-02 -0.15214E-01
 -0.99277E-03  0.99661E-03 -0.15214E-01
 -0.14401E-02 -0.17322E-02 -0.15214E-01
 -0.31454E-03  0.20237E-02 -0.15214E-01
 -0.11047E-02  0.18607E-02 -0.15214E-01
 -0.18842E-02  0.17175E-02 -0.15214E-01
 -0.18705E-02  0.91084E-03 -0.15214E-01
 -0.16036E-03 -0.19801E-02 -0.15214E-01
 -0.94448E-03 -0.23491E-02 -0.15214E-01
  0.78460E-03 -0.17074E-02 -0.15214E-01
  0.17208E-02 -0.14909E-02 -0.15214E-01
  0.32070E-02  0.76640E-03 -0.15214E-01
  0.28045E-02  0.12503E-02 -0.15214E-01
  0.23052E-02  0.18667E-02 -0.15214E-01
 -0.40531E-03  0.28974E-02 -0.15214E-01
 -0.12092E-02  0.27179E-02 -0.15214E-01
 -0.19445E-02  0.24629E-02 -0.15214E-01
 -0.25027E-02  0.22359E-02 -0.15214E-01
 -0.26366E-02  0.16503E-02 -0.15214E-01
 -0.27652E-02  0.87650E-03 -0.15214E-01
 -0.21132E-02 -0.21374E-02 -0.15214E-01
 -0.16090E-02 -0.26933E-02 -0.15214E-01
 -0.11946E-02 -0.31291E-02 -0.15214E-01
 -0.58851E-03 -0.30382E-02 -0.15214E-01
  0.20668E-03 -0.28749E-02 -0.15214E-01
  0.10567E-02 -0.26439E-02 -0.15214E-01
  0.18416E-02 -0.23719E-02 -0.15214E-01
  0.24551E-02 -0.21478E-02 -0.15214E-01
  0.26026E-02 -0.15099E-02 -0.15214E-01
  0.37964E-02  0.93572E-03 -0.15214E-01
  0.39100E-02  0.00000E+00 -0.15214E-01
  0.34621E-02  0.18171E-02 -0.15214E-01
  0.29267E-02  0.25928E-02 -0.15214E-01
  0.22211E-02  0.32179E-02 -0.15214E-01
  0.13865E-02  0.36559E-02 -0.15214E-01
  0.47130E-03  0.38815E-02 -0.15214E-01
 -0.47130E-03  0.38815E-02 -0.15214E-01
 -0.13865E-02  0.36559E-02 -0.15214E-01
 -0.22211E-02  0.32179E-02 -0.15214E-01
 -0.29267E-02  0.25928E-02 -0.15214E-01
 -0.34621E-02  0.18171E-02 -0.15214E-01
 -0.37964E-02  0.93572E-03 -0.15214E-01
 -0.39100E-02 -0.47884E-18 -0.15214E-01
 -0.37964E-02 -0.93572E-03 -0.15214E-01
 -0.34621E-02 -0.18171E-02 -0.15214E-01
 -0.29267E-02 -0.25928E-02 -0.15214E-01
 -0.22211E-02 -0.32179E-02 -0.15214E-01
 -0.13865E-02 -0.36559E-02 -0.15214E-01
 -0.47130E-03 -0.38815E-02 -0.15214E-01
  0.47130E-03 -0.38815E-02 -0.15214E-01
  0.13865E-02 -0.36559E-02 -0.15214E-01
  0.22211E-02 -0.32179E-02 -0.15214E-01
  0.29267E-02 -0.25928E-02 -0.15214E-01
  0.34621E-02 -0.18171E-02 -0.15214E-01
  0.37964E-02 -0.93572E-03 -0.15214E-01
  0.10370E-02  0.67680E-03 -0.14235E-01
  0.17439E-02  0.12354E-02 -0.14235E-01
  0.23168E-02  0.59517E-03 -0.14235E-01
  0.16683E-02 -0.33247E-03 -0.14235E-01
  0.30375E-02  0.15136E-03 -0.14235E-01
  0.27815E-02 -0.67298E-03 -0.14235E-01
  0.12843E-02  0.18425E-02 -0.14235E-01
  0.64967E-03  0.14646E-02 -0.14235E-01
  0.12573E-03  0.30737E-03 -0.14235E-01
 -0.12952E-03  0.11795E-02 -0.14235E-01
  0.94268E-03  0.22757E-02 -0.14235E-01
  0.11303E-02  0.28255E-02 -0.14235E-01
  0.17463E-02  0.24248E-02 -0.14235E-01
  0.40550E-03  0.21687E-02 -0.14235E-01
  0.39767E-03  0.29348E-02 -0.14235E-01
 -0.76551E-03 -0.10043E-02 -0.14235E-01
 -0.86680E-03  0.84634E-04 -0.14235E-01
  0.45806E-03 -0.69810E-03 -0.14235E-01
 -0.18321E-02 -0.71098E-03 -0.14235E-01
 -0.18433E-02  0.83614E-04 -0.14235E-01
 -0.27236E-02 -0.77746E-03 -0.14235E-01
 -0.28009E-02  0.42626E-04 -0.14235E-01
 -0.25375E-02 -0.15191E-02 -0.14235E-01
 -0.19317E-02 -0.13223E-02 -0.14235E-01
 -0.99262E-03  0.99797E-03 -0.14235E-01
 -0.14405E-02 -0.17322E-02 -0.14235E-01
 -0.31434E-03  0.20240E-02 -0.14235E-01
 -0.11044E-02  0.18606E-02 -0.14235E-01
 -0.18842E-02  0.17175E-02 -0.14235E-01
 -0.18704E-02  0.91108E-03 -0.14235E-01
 -0.16064E-03 -0.19802E-02 -0.14235E-01
 -0.94508E-03 -0.23491E-02 -0.14235E-01
  0.78394E-03 -0.17074E-02 -0.14235E-01
  0.17208E-02 -0.14911E-02 -0.14235E-01
  0.32073E-02  0.76740E-03 -0.14235E-01
  0.28045E-02  0.12507E-02 -0.14235E-01
  0.23051E-02  0.18668E-02 -0.14235E-01
 -0.40517E-03  0.28963E-02 -0.14235E-01
 -0.12092E-02  0.27174E-02 -0.14235E-01
 -0.19445E-02  0.24627E-02 -0.14235E-01
 -0.25026E-02  0.22358E-02 -0.14235E-01
 -0.26365E-02  0.16503E-02 -0.14235E-01
 -0.27649E-02  0.87676E-03 -0.14235E-01
 -0.21133E-02 -0.21374E-02 -0.14235E-01
 -0.16090E-02 -0.26933E-02 -0.14235E-01
 -0.11947E-02 -0.31291E-02 -0.14235E-01
 -0.58886E-03 -0.30382E-02 -0.14235E-01
  0.20627E-03 -0.28749E-02 -0.14235E-01
  0.10564E-02 -0.26442E-02 -0.14235E-01
  0.18416E-02 -0.23721E-02 -0.14235E-01
  0.24553E-02 -0.21483E-02 -0.14235E-01
  0.26027E-02 -0.15097E-02 -0.14235E-01
  0.37964E-02  0.93572E-03 -0.14235E-01
  0.39100E-02  0.00000E+00 -0.14235E-01
  0.34621E-02  0.18171E-02 -0.14235E-01
  0.29267E-02  0.25928E-02 -0.14235E-01
  0.22211E-02  0.32179E-02 -0.14235E-01
  0.13865E-02  0.36559E-02 -0.14235E-01
  0.47130E-03  0.38815E-02 -0.14235E-01
 -0.47130E-03  0.38815E-02 -0.14235E-01
 -0.13865E-02  0.36559E-02 -0.14235E-01
 -0.22211E-02  0.32179E-02 -0.14235E-01
 -0.29267E-02  0.25928E-02 -0.14235E-01
 -0.34621E-02  0.18171E-02 -0.14235E-01
 -0.37964E-02  0.93572E-03 -0.14235E-01
 -0.39100E-02 -0.47884E-18 -0.14235E-01
 -0.37964E-02 -0.93572E-03 -0.14235E-01
 -0.34621E-02 -0.18171E-02 -0.14235E-01
 -0.29267E-02 -0.25928E-02 -0.14235E-01
 -0.22211E-02 -0.32179E-02 -0.14235E-01
 -0.13865E-02 -0.36559E-02 -0.14235E-01
 -0.47130E-03 -0.38815E-02 -0.14235E-01
  0.47130E-03 -0.38815E-02 -0.14235E-01
  0.13865E-02 -0.36559E-02 -0.14235E-01
  0.22211E-02 -0.32179E-02 -0.14235E-01
  0.29267E-02 -0.25928E-02 -0.14235E-01
  0.34621E-02 -0.18171E-02 -0.14235E-01
  0.37964E-02 -0.93572E-03 -0.14235E-01
  0.10368E-02  0.67736E-03 -0.13255E-01
  0.17438E-02  0.12361E-02 -0.13255E-01
  0.23167E-02  0.59570E-03 -0.13255E-01
  0.16681E-02 -0.33172E-03 -0.13255E-01
  0.30375E-02  0.15173E-03 -0.13255E-01
  0.27819E-02 -0.67248E-03 -0.13255E-01
  0.12842E-02  0.18427E-02 -0.13255E-01
  0.64943E-03  0.14656E-02 -0.13255E-01
  0.12547E-03  0.30852E-03 -0.13255E-01
 -0.12970E-03  0.11812E-02 -0.13255E-01
  0.94235E-03  0.22758E-02 -0.13255E-01
  0.11300E-02  0.28251E-02 -0.13255E-01
  0.17459E-02  0.24249E-02 -0.13255E-01
  0.40545E-03  0.21688E-02 -0.13255E-01
  0.39766E-03  0.29345E-02 -0.13255E-01
 -0.76586E-03 -0.10044E-02 -0.13255E-01
 -0.86691E-03  0.85443E-04 -0.13255E-01
  0.45761E-03 -0.69737E-03 -0.13255E-01
 -0.18324E-02 -0.71084E-03 -0.13255E-01
 -0.18432E-02  0.83737E-04 -0.13255E-01
 -0.27236E-02 -0.77729E-03 -0.13255E-01
 -0.28006E-02  0.42899E-04 -0.13255E-01
 -0.25377E-02 -0.15191E-02 -0.13255E-01
 -0.19322E-02 -0.13222E-02 -0.13255E-01
 -0.99248E-03  0.99932E-03 -0.13255E-01
 -0.14408E-02 -0.17322E-02 -0.13255E-01
 -0.31414E-03  0.20243E-02 -0.13255E-01
 -0.11040E-02  0.18605E-02 -0.13255E-01
 -0.18841E-02  0.17175E-02 -0.13255E-01
 -0.18703E-02  0.91132E-03 -0.13255E-01
 -0.16091E-03 -0.19802E-02 -0.13255E-01
 -0.94568E-03 -0.23491E-02 -0.13255E-01
  0.78328E-03 -0.17074E-02 -0.13255E-01
  0.17207E-02 -0.14914E-02 -0.13255E-01
  0.32076E-02  0.76841E-03 -0.13255E-01
  0.28044E-02  0.12511E-02 -0.13255E-01
  0.23050E-02  0.18668E-02 -0.13255E-01
 -0.40503E-03  0.28952E-02 -0.13255E-01
 -0.12092E-02  0.27170E-02 -0.13255E-01
 -0.19445E-02  0.24624E-02 -0.13255E-01
 -0.25026E-02  0.22358E-02 -0.13255E-01
 -0.26364E-02  0.16503E-02 -0.13255E-01
 -0.27646E-02  0.87702E-03 -0.13255E-01
 -0.21134E-02 -0.21374E-02 -0.13255E-01
 -0.16091E-02 -0.26933E-02 -0.13255E-01
 -0.11948E-02 -0.31291E-02 -0.13255E-01
 -0.58921E-03 -0.30382E-02 -0.13255E-01
  0.20587E-03 -0.28749E-02 -0.13255E-01
  0.10561E-02 -0.26444E-02 -0.13255E-01
  0.18416E-02 -0.23723E-02 -0.13255E-01
  0.24554E-02 -0.21489E-02 -0.13255E-01
  0.26027E-02 -0.15096E-02 -0.13255E-01
  0.37964E-02  0.93572E-03 -0.13255E-01
  0.39100E-02  0.00000E+00 -0.13255E-01
  0.34621E-02  0.18171E-02 -0.13255E-01
  0.29267E-02  0.25928E-02 -0.13255E-01
  0.22211E-02  0.32179E-02 -0.13255E-01
  0.13865E-02  0.36559E-02 -0.13255E-01
  0.47130E-03  0.38815E-02 -0.13255E-01
 -0.47130E-03  0.38815E-02 -0.13255E-01
 -0.13865E-02  0.36559E-02 -0.13255E-01
 -0.22211E-02  0.32179E-02 -0.13255E-01
 -0.29267E-02  0.25928E-02 -0.13255E-01
 -0.34621E-02  0.18171E-02 -0.13255E-01
 -0.37964E-02  0.93572E-03 -0.13255E-01
 -0.39100E-02 -0.47884E-18 -0.13255E-01
 -0.37964E-02 -0.93572E-03 -0.13255E-01
 -0.34621E-02 -0.18171E-02 -0.13255E-01
 -0.29267E-02 -0.25928E-02 -0.13255E-01
 -0.22211E-02 -0.32179E-02 -0.13255E-01
 -0.13865E-02 -0.36559E-02 -0.13255E-01
 -0.47130E-03 -0.38815E-02 -0.13255E-01
  0.47130E-03 -0.38815E-02 -0.13255E-01
  0.13865E-02 -0.36559E-02 -0.13255E-01
  0.22211E-02 -0.32179E-02 -0.13255E-01
  0.29267E-02 -0.25928E-02 -0.13255E-01
  0.34621E-02 -0.18171E-02 -0.13255E-01
  0.37964E-02 -0.93572E-03 -0.13255E-01
  0.10367E-02  0.67791E-03 -0.12276E-01
  0.17436E-02  0.12368E-02 -0.12276E-01
  0.23166E-02  0.59622E-03 -0.12276E-01
  0.16679E-02 -0.33096E-03 -0.12276E-01
  0.30375E-02  0.15209E-03 -0.12276E-01
  0.27822E-02 -0.67199E-03 -0.12276E-01
  0.12841E-02  0.18429E-02 -0.12276E-01
  0.64918E-03  0.14666E-02 -0.12276E-01
  0.12521E-03  0.30967E-03 -0.12276E-01
 -0.12989E-03  0.11830E-02 -0.12276E-01
  0.94202E-03  0.22759E-02 -0.12276E-01
  0.11296E-02  0.28247E-02 -0.12276E-01
  0.17455E-02  0.24251E-02 -0.12276E-01
  0.40539E-03  0.21688E-02 -0.12276E-01
  0.39764E-03  0.29343E-02 -0.12276E-01
 -0.76621E-03 -0.10046E-02 -0.12276E-01
 -0.86702E-03  0.86253E-04 -0.12276E-01
  0.45716E-03 -0.69665E-03 -0.12276E-01
 -0.18326E-02 -0.71070E-03 -0.12276E-01
 -0.18431E-02  0.83861E-04 -0.12276E-01
 -0.27235E-02 -0.77712E-03 -0.12276E-01
 -0.28003E-02  0.43173E-04 -0.12276E-01
 -0.25379E-02 -0.15190E-02 -0.12276E-01
 -0.19326E-02 -0.13220E-02 -0.12276E-01
 -0.99233E-03  0.10007E-02 -0.12276E-01
 -0.14412E-02 -0.17321E-02 -0.12276E-01
 -0.31394E-03  0.20245E-02 -0.12276E-01
 -0.11037E-02  0.18603E-02 -0.12276E-01
 -0.18841E-02  0.17175E-02 -0.12276E-01
 -0.18701E-02  0.91156E-03 -0.12276E-01
 -0.16119E-03 -0.19802E-02 -0.12276E-01
 -0.94628E-03 -0.23491E-02 -0.12276E-01
  0.78262E-03 -0.17074E-02 -0.12276E-01
  0.17207E-02 -0.14916E-02 -0.12276E-01
  0.32079E-02  0.76941E-03 -0.12276E-01
  0.28044E-02  0.12515E-02 -0.12276E-01
  0.23049E-02  0.18668E-02 -0.12276E-01
 -0.40490E-03  0.28942E-02 -0.12276E-01
 -0.12093E-02  0.27165E-02 -0.12276E-01
 -0.19444E-02  0.24622E-02 -0.12276E-01
 -0.25026E-02  0.22358E-02 -0.12276E-01
 -0.26363E-02  0.16503E-02 -0.12276E-01
 -0.27643E-02  0.87728E-03 -0.12276E-01
 -0.21136E-02 -0.21374E-02 -0.12276E-01
 -0.16091E-02 -0.26933E-02 -0.12276E-01
 -0.11949E-02 -0.31291E-02 -0.12276E-01
 -0.58956E-03 -0.30382E-02 -0.12276E-01
  0.20546E-03 -0.28749E-02 -0.12276E-01
  0.10558E-02 -0.26447E-02 -0.12276E-01
  0.18417E-02 -0.23725E-02 -0.12276E-01
  0.24555E-02 -0.21494E-02 -0.12276E-01
  0.26028E-02 -0.15095E-02 -0.12276E-01
  0.37964E-02  0.93572E-03 -0.12276E-01
  0.39100E-02  0.00000E+00 -0.12276E-01
  0.34621E-02  0.18171E-02 -0.12276E-01
  0.29267E-02  0.25928E-02 -0.12276E-01
  0.22211E-02  0.32179E-02 -0.12276E-01
  0.13865E-02  0.36559E-02 -0.12276E-01
  0.47130E-03  0.38815E-02 -0.12276E-01
 -0.47130E-03  0.38815E-02 -0.12276E-01
 -0.13865E-02  0.36559E-02 -0.12276E-01
 -0.22211E-02  0.32179E-02 -0.12276E-01
 -0.29267E-02  0.25928E-02 -0.12276E-01
 -0.34621E-02  0.18171E-02 -0.12276E-01
 -0.37964E-02  0.93572E-03 -0.12276E-01
 -0.39100E-02 -0.47884E-18 -0.12276E-01
 -0.37964E-02 -0.93572E-03 -0.12276E-01
 -0.34621E-02 -0.18171E-02 -0.12276E-01
 -0.29267E-02 -0.25928E-02 -0.12276E-01
 -0.22211E-02 -0.32179E-02 -0.12276E-01
 -0.13865E-02 -0.36559E-02 -0.12276E-01
 -0.47130E-03 -0.38815E-02 -0.12276E-01
  0.47130E-03 -0.38815E-02 -0.12276E-01
  0.13865E-02 -0.36559E-02 -0.12276E-01
  0.22211E-02 -0.32179E-02 -0.12276E-01
  0.29267E-02 -0.25928E-02 -0.12276E-01
  0.34621E-02 -0.18171E-02 -0.12276E-01
  0.37964E-02 -0.93572E-03 -0.12276E-01
  0.10366E-02  0.67847E-03 -0.11297E-01
  0.17434E-02  0.12374E-02 -0.11297E-01
  0.23164E-02  0.59674E-03 -0.11297E-01
  0.16677E-02 -0.33021E-03 -0.11297E-01
  0.30375E-02  0.15245E-03 -0.11297E-01
  0.27825E-02 -0.67150E-03 -0.11297E-01
  0.12840E-02  0.18430E-02 -0.11297E-01
  0.64894E-03  0.14676E-02 -0.11297E-01
  0.12495E-03  0.31081E-03 -0.11297E-01
 -0.13007E-03  0.11847E-02 -0.11297E-01
  0.94169E-03  0.22761E-02 -0.11297E-01
  0.11293E-02  0.28242E-02 -0.11297E-01
  0.17451E-02  0.24252E-02 -0.11297E-01
  0.40534E-03  0.21688E-02 -0.11297E-01
  0.39762E-03  0.29340E-02 -0.11297E-01
 -0.76657E-03 -0.10047E-02 -0.11297E-01
 -0.86713E-03  0.87062E-04 -0.11297E-01
  0.45671E-03 -0.69592E-03 -0.11297E-01
 -0.18329E-02 -0.71056E-03 -0.11297E-01
 -0.18430E-02  0.83985E-04 -0.11297E-01
 -0.27235E-02 -0.77695E-03 -0.11297E-01
 -0.28001E-02  0.43446E-04 -0.11297E-01
 -0.25380E-02 -0.15190E-02 -0.11297E-01
 -0.19330E-02 -0.13219E-02 -0.11297E-01
 -0.99219E-03  0.10020E-02 -0.11297E-01
 -0.14415E-02 -0.17321E-02 -0.11297E-01
 -0.31374E-03  0.20248E-02 -0.11297E-01
 -0.11033E-02  0.18602E-02 -0.11297E-01
 -0.18840E-02  0.17175E-02 -0.11297E-01
 -0.18700E-02  0.91180E-03 -0.11297E-01
 -0.16146E-03 -0.19803E-02 -0.11297E-01
 -0.94687E-03 -0.23491E-02 -0.11297E-01
  0.78195E-03 -0.17073E-02 -0.11297E-01
  0.17207E-02 -0.14919E-02 -0.11297E-01
  0.32083E-02  0.77042E-03 -0.11297E-01
  0.28044E-02  0.12520E-02 -0.11297E-01
  0.23048E-02  0.18669E-02 -0.11297E-01
 -0.40476E-03  0.28931E-02 -0.11297E-01
 -0.12093E-02  0.27160E-02 -0.11297E-01
 -0.19444E-02  0.24620E-02 -0.11297E-01
 -0.25026E-02  0.22358E-02 -0.11297E-01
 -0.26362E-02  0.16503E-02 -0.11297E-01
 -0.27640E-02  0.87754E-03 -0.11297E-01
 -0.21137E-02 -0.21374E-02 -0.11297E-01
 -0.16091E-02 -0.26933E-02 -0.11297E-01
 -0.11950E-02 -0.31291E-02 -0.11297E-01
 -0.58991E-03 -0.30382E-02 -0.11297E-01
  0.20505E-03 -0.28749E-02 -0.11297E-01
  0.10555E-02 -0.26450E-02 -0.11297E-01
  0.18417E-02 -0.23727E-02 -0.11297E-01
  0.24556E-02 -0.21500E-02 -0.11297E-01
  0.26029E-02 -0.15094E-02 -0.11297E-01
  0.37964E-02  0.93572E-03 -0.11297E-01
  0.39100E-02  0.00000E+00 -0.11297E-01
  0.34621E-02  0.18171E-02 -0.11297E-01
  0.29267E-02  0.25928E-02 -0.11297E-01
  0.22211E-02  0.32179E-02 -0.11297E-01
  0.13865E-02  0.36559E-02 -0.11297E-01
  0.47130E-03  0.38815E-02 -0.11297E-01
 -0.47130E-03  0.38815E-02 -0.11297E-01
 -0.13865E-02  0.36559E-02 -0.11297E-01
 -0.22211E-02  0.32179E-02 -0.11297E-01
 -0.29267E-02  0.25928E-02 -0.11297E-01
 -0.34621E-02  0.18171E-02 -0.11297E-01
 -0.37964E-02  0.93572E-03 -0.11297E-01
 -0.39100E-02  0.39516E-17 -0.11297E-01
 -0.37964E-02 -0.93572E-03 -0.11297E-01
 -0.34621E-02 -0.18171E-02 -0.11297E-01
 -0.29267E-02 -0.25928E-02 -0.11297E-01
 -0.22211E-02 -0.32179E-02 -0.11297E-01
 -0.13865E-02 -0.36559E-02 -0.11297E-01
 -0.47130E-03 -0.38815E-02 -0.11297E-01
  0.47130E-03 -0.38815E-02 -0.11297E-01
  0.13865E-02 -0.36559E-02 -0.11297E-01
  0.22211E-02 -0.32179E-02 -0.11297E-01
  0.29267E-02 -0.25928E-02 -0.11297E-01
  0.34621E-02 -0.18171E-02 -0.11297E-01
  0.37964E-02 -0.93572E-03 -0.11297E-01
  0.10365E-02  0.67902E-03 -0.10318E-01
  0.17432E-02  0.12381E-02 -0.10318E-01
  0.23163E-02  0.59727E-03 -0.10318E-01
  0.16675E-02 -0.32945E-03 -0.10318E-01
  0.30374E-02  0.15282E-03 -0.10318E-01
  0.27829E-02 -0.67100E-03 -0.10318E-01
  0.12839E-02  0.18432E-02 -0.10318E-01
  0.64869E-03  0.14686E-02 -0.10318E-01
  0.12468E-03  0.31196E-03 -0.10318E-01
 -0.13026E-03  0.11865E-02 -0.10318E-01
  0.94135E-03  0.22762E-02 -0.10318E-01
  0.11289E-02  0.28238E-02 -0.10318E-01
  0.17447E-02  0.24254E-02 -0.10318E-01
  0.40528E-03  0.21688E-02 -0.10318E-01
  0.39760E-03  0.29337E-02 -0.10318E-01
 -0.76692E-03 -0.10049E-02 -0.10318E-01
 -0.86724E-03  0.87871E-04 -0.10318E-01
  0.45626E-03 -0.69519E-03 -0.10318E-01
 -0.18332E-02 -0.71042E-03 -0.10318E-01
 -0.18430E-02  0.84108E-04 -0.10318E-01
 -0.27235E-02 -0.77678E-03 -0.10318E-01
 -0.27998E-02  0.43720E-04 -0.10318E-01
 -0.25382E-02 -0.15189E-02 -0.10318E-01
 -0.19334E-02 -0.13219E-02 -0.10318E-01
 -0.99205E-03  0.10034E-02 -0.10318E-01
 -0.14419E-02 -0.17320E-02 -0.10318E-01
 -0.31354E-03  0.20251E-02 -0.10318E-01
 -0.11030E-02  0.18601E-02 -0.10318E-01
 -0.18840E-02  0.17175E-02 -0.10318E-01
 -0.18699E-02  0.91204E-03 -0.10318E-01
 -0.16174E-03 -0.19803E-02 -0.10318E-01
 -0.94747E-03 -0.23492E-02 -0.10318E-01
  0.78129E-03 -0.17073E-02 -0.10318E-01
  0.17206E-02 -0.14921E-02 -0.10318E-01
  0.32086E-02  0.77142E-03 -0.10318E-01
  0.28044E-02  0.12524E-02 -0.10318E-01
  0.23047E-02  0.18669E-02 -0.10318E-01
 -0.40462E-03  0.28920E-02 -0.10318E-01
 -0.12093E-02  0.27155E-02 -0.10318E-01
 -0.19444E-02  0.24618E-02 -0.10318E-01
 -0.25025E-02  0.22358E-02 -0.10318E-01
 -0.26361E-02  0.16503E-02 -0.10318E-01
 -0.27637E-02  0.87781E-03 -0.10318E-01
 -0.21139E-02 -0.21374E-02 -0.10318E-01
 -0.16092E-02 -0.26934E-02 -0.10318E-01
 -0.11951E-02 -0.31291E-02 -0.10318E-01
 -0.59025E-03 -0.30382E-02 -0.10318E-01
  0.20465E-03 -0.28749E-02 -0.10318E-01
  0.10552E-02 -0.26452E-02 -0.10318E-01
  0.18418E-02 -0.23729E-02 -0.10318E-01
  0.24558E-02 -0.21505E-02 -0.10318E-01
  0.26030E-02 -0.15093E-02 -0.10318E-01
  0.37964E-02  0.93572E-03 -0.10318E-01
  0.39100E-02  0.00000E+00 -0.10318E-01
  0.34621E-02  0.18171E-02 -0.10318E-01
  0.29267E-02  0.25928E-02 -0.10318E-01
  0.22211E-02  0.32179E-02 -0.10318E-01
  0.13865E-02  0.36559E-02 -0.10318E-01
  0.47130E-03  0.38815E-02 -0.10318E-01
 -0.47130E-03  0.38815E-02 -0.10318E-01
 -0.13865E-02  0.36559E-02 -0.10318E-01
 -0.22211E-02  0.32179E-02 -0.10318E-01
 -0.29267E-02  0.25928E-02 -0.10318E-01
 -0.34621E-02  0.18171E-02 -0.10318E-01
 -0.37964E-02  0.93572E-03 -0.10318E-01
 -0.39100E-02 -0.47884E-18 -0.10318E-01
 -0.37964E-02 -0.93572E-03 -0.10318E-01
 -0.34621E-02 -0.18171E-02 -0.10318E-01
 -0.29267E-02 -0.25928E-02 -0.10318E-01
 -0.22211E-02 -0.32179E-02 -0.10318E-01
 -0.13865E-02 -0.36559E-02 -0.10318E-01
 -0.47130E-03 -0.38815E-02 -0.10318E-01
  0.47130E-03 -0.38815E-02 -0.10318E-01
  0.13865E-02 -0.36559E-02 -0.10318E-01
  0.22211E-02 -0.32179E-02 -0.10318E-01
  0.29267E-02 -0.25928E-02 -0.10318E-01
  0.34621E-02 -0.18171E-02 -0.10318E-01
  0.37964E-02 -0.93572E-03 -0.10318E-01
  0.10364E-02  0.67958E-03 -0.93388E-02
  0.17430E-02  0.12387E-02 -0.93388E-02
  0.23162E-02  0.59779E-03 -0.93388E-02
  0.16672E-02 -0.32870E-03 -0.93388E-02
  0.30374E-02  0.15318E-03 -0.93388E-02
  0.27832E-02 -0.67051E-03 -0.93388E-02
  0.12838E-02  0.18434E-02 -0.93388E-02
  0.64845E-03  0.14696E-02 -0.93388E-02
  0.12442E-03  0.31311E-03 -0.93388E-02
 -0.13044E-03  0.11882E-02 -0.93388E-02
  0.94102E-03  0.22763E-02 -0.93388E-02
  0.11286E-02  0.28233E-02 -0.93388E-02
  0.17443E-02  0.24255E-02 -0.93388E-02
  0.40523E-03  0.21689E-02 -0.93388E-02
  0.39759E-03  0.29335E-02 -0.93388E-02
 -0.76727E-03 -0.10050E-02 -0.93388E-02
 -0.86735E-03  0.88681E-04 -0.93388E-02
  0.45582E-03 -0.69447E-03 -0.93388E-02
 -0.18335E-02 -0.71028E-03 -0.93388E-02
 -0.18429E-02  0.84232E-04 -0.93388E-02
 -0.27235E-02 -0.77661E-03 -0.93388E-02
 -0.27995E-02  0.43993E-04 -0.93388E-02
 -0.25383E-02 -0.15189E-02 -0.93388E-02
 -0.19339E-02 -0.13218E-02 -0.93388E-02
 -0.99190E-03  0.10048E-02 -0.93388E-02
 -0.14422E-02 -0.17320E-02 -0.93388E-02
 -0.31334E-03  0.20254E-02 -0.93388E-02
 -0.11026E-02  0.18599E-02 -0.93388E-02
 -0.18839E-02  0.17175E-02 -0.93388E-02
 -0.18697E-02  0.91228E-03 -0.93388E-02
 -0.16201E-03 -0.19803E-02 -0.93388E-02
 -0.94807E-03 -0.23492E-02 -0.93388E-02
  0.78063E-03 -0.17073E-02 -0.93388E-02
  0.17206E-02 -0.14923E-02 -0.93388E-02
  0.32089E-02  0.77243E-03 -0.93388E-02
  0.28043E-02  0.12528E-02 -0.93388E-02
  0.23046E-02  0.18670E-02 -0.93388E-02
 -0.40448E-03  0.28910E-02 -0.93388E-02
 -0.12093E-02  0.27151E-02 -0.93388E-02
 -0.19443E-02  0.24615E-02 -0.93388E-02
 -0.25025E-02  0.22358E-02 -0.93388E-02
 -0.26360E-02  0.16503E-02 -0.93388E-02
 -0.27633E-02  0.87807E-03 -0.93388E-02
 -0.21140E-02 -0.21374E-02 -0.93388E-02
 -0.16092E-02 -0.26934E-02 -0.93388E-02
 -0.11953E-02 -0.31291E-02 -0.93388E-02
 -0.59060E-03 -0.30382E-02 -0.93388E-02
  0.20424E-03 -0.28749E-02 -0.93388E-02
  0.10549E-02 -0.26455E-02 -0.93388E-02
  0.18418E-02 -0.23732E-02 -0.93388E-02
  0.24559E-02 -0.21511E-02 -0.93388E-02
  0.26030E-02 -0.15092E-02 -0.93388E-02
  0.37964E-02  0.93572E-03 -0.93388E-02
  0.39100E-02  0.00000E+00 -0.93388E-02
  0.34621E-02  0.18171E-02 -0.93388E-02
  0.29267E-02  0.25928E-02 -0.93388E-02
  0.22211E-02  0.32179E-02 -0.93388E-02
  0.13865E-02  0.36559E-02 -0.93388E-02
  0.47130E-03  0.38815E-02 -0.93388E-02
 -0.47130E-03  0.38815E-02 -0.93388E-02
 -0.13865E-02  0.36559E-02 -0.93388E-02
 -0.22211E-02  0.32179E-02 -0.93388E-02
 -0.29267E-02  0.25928E-02 -0.93388E-02
 -0.34621E-02  0.18171E-02 -0.93388E-02
 -0.37964E-02  0.93572E-03 -0.93388E-02
 -0.39100E-02  0.22152E-17 -0.93388E-02
 -0.37964E-02 -0.93572E-03 -0.93388E-02
 -0.34621E-02 -0.18171E-02 -0.93388E-02
 -0.29267E-02 -0.25928E-02 -0.93388E-02
 -0.22211E-02 -0.32179E-02 -0.93388E-02
 -0.13865E-02 -0.36559E-02 -0.93388E-02
 -0.47130E-03 -0.38815E-02 -0.93388E-02
  0.47130E-03 -0.38815E-02 -0.93388E-02
  0.13865E-02 -0.36559E-02 -0.93388E-02
  0.22211E-02 -0.32179E-02 -0.93388E-02
  0.29267E-02 -0.25928E-02 -0.93388E-02
  0.34621E-02 -0.18171E-02 -0.93388E-02
  0.37964E-02 -0.93572E-03 -0.93388E-02
  0.10363E-02  0.68013E-03 -0.83596E-02
  0.17429E-02  0.12394E-02 -0.83596E-02
  0.23161E-02  0.59831E-03 -0.83596E-02
  0.16670E-02 -0.32794E-03 -0.83596E-02
  0.30374E-02  0.15354E-03 -0.83596E-02
  0.27836E-02 -0.67002E-03 -0.83596E-02
  0.12837E-02  0.18436E-02 -0.83596E-02
  0.64820E-03  0.14706E-02 -0.83596E-02
  0.12416E-03  0.31426E-03 -0.83596E-02
 -0.13063E-03  0.11900E-02 -0.83596E-02
  0.94069E-03  0.22765E-02 -0.83596E-02
  0.11282E-02  0.28229E-02 -0.83596E-02
  0.17439E-02  0.24257E-02 -0.83596E-02
  0.40518E-03  0.21689E-02 -0.83596E-02
  0.39757E-03  0.29332E-02 -0.83596E-02
 -0.76763E-03 -0.10051E-02 -0.83596E-02
 -0.86746E-03  0.89490E-04 -0.83596E-02
  0.45537E-03 -0.69374E-03 -0.83596E-02
 -0.18338E-02 -0.71013E-03 -0.83596E-02
 -0.18428E-02  0.84355E-04 -0.83596E-02
 -0.27234E-02 -0.77644E-03 -0.83596E-02
 -0.27992E-02  0.44266E-04 -0.83596E-02
 -0.25385E-02 -0.15188E-02 -0.83596E-02
 -0.19343E-02 -0.13216E-02 -0.83596E-02
 -0.99176E-03  0.10061E-02 -0.83596E-02
 -0.14425E-02 -0.17320E-02 -0.83596E-02
 -0.31314E-03  0.20257E-02 -0.83596E-02
 -0.11023E-02  0.18598E-02 -0.83596E-02
 -0.18839E-02  0.17175E-02 -0.83596E-02
 -0.18696E-02  0.91252E-03 -0.83596E-02
 -0.16229E-03 -0.19803E-02 -0.83596E-02
 -0.94867E-03 -0.23492E-02 -0.83596E-02
  0.77997E-03 -0.17073E-02 -0.83596E-02
  0.17205E-02 -0.14926E-02 -0.83596E-02
  0.32092E-02  0.77343E-03 -0.83596E-02
  0.28043E-02  0.12533E-02 -0.83596E-02
  0.23044E-02  0.18670E-02 -0.83596E-02
 -0.40434E-03  0.28899E-02 -0.83596E-02
 -0.12093E-02  0.27146E-02 -0.83596E-02
 -0.19443E-02  0.24613E-02 -0.83596E-02
 -0.25025E-02  0.22358E-02 -0.83596E-02
 -0.26359E-02  0.16503E-02 -0.83596E-02
 -0.27630E-02  0.87833E-03 -0.83596E-02
 -0.21141E-02 -0.21374E-02 -0.83596E-02
 -0.16093E-02 -0.26934E-02 -0.83596E-02
 -0.11954E-02 -0.31291E-02 -0.83596E-02
 -0.59095E-03 -0.30382E-02 -0.83596E-02
  0.20384E-03 -0.28750E-02 -0.83596E-02
  0.10546E-02 -0.26458E-02 -0.83596E-02
  0.18419E-02 -0.23734E-02 -0.83596E-02
  0.24560E-02 -0.21516E-02 -0.83596E-02
  0.26031E-02 -0.15091E-02 -0.83596E-02
  0.37964E-02  0.93572E-03 -0.83596E-02
  0.39100E-02  0.00000E+00 -0.83596E-02
  0.34621E-02  0.18171E-02 -0.83596E-02
  0.29267E-02  0.25928E-02 -0.83596E-02
  0.22211E-02  0.32179E-02 -0.83596E-02
  0.13865E-02  0.36559E-02 -0.83596E-02
  0.47130E-03  0.38815E-02 -0.83596E-02
 -0.47130E-03  0.38815E-02 -0.83596E-02
 -0.13865E-02  0.36559E-02 -0.83596E-02
 -0.22211E-02  0.32179E-02 -0.83596E-02
 -0.29267E-02  0.25928E-02 -0.83596E-02
 -0.34621E-02  0.18171E-02 -0.83596E-02
 -0.37964E-02  0.93572E-03 -0.83596E-02
 -0.39100E-02 -0.47884E-18 -0.83596E-02
 -0.37964E-02 -0.93572E-03 -0.83596E-02
 -0.34621E-02 -0.18171E-02 -0.83596E-02
 -0.29267E-02 -0.25928E-02 -0.83596E-02
 -0.22211E-02 -0.32179E-02 -0.83596E-02
 -0.13865E-02 -0.36559E-02 -0.83596E-02
 -0.47130E-03 -0.38815E-02 -0.83596E-02
  0.47130E-03 -0.38815E-02 -0.83596E-02
  0.13865E-02 -0.36559E-02 -0.83596E-02
  0.22211E-02 -0.32179E-02 -0.83596E-02
  0.29267E-02 -0.25928E-02 -0.83596E-02
  0.34621E-02 -0.18171E-02 -0.83596E-02
  0.37964E-02 -0.93572E-03 -0.83596E-02
  0.10362E-02  0.68068E-03 -0.73805E-02
  0.17427E-02  0.12401E-02 -0.73805E-02
  0.23160E-02  0.59884E-03 -0.73805E-02
  0.16668E-02 -0.32719E-03 -0.73805E-02
  0.30373E-02  0.15391E-03 -0.73805E-02
  0.27839E-02 -0.66953E-03 -0.73805E-02
  0.12836E-02  0.18438E-02 -0.73805E-02
  0.64796E-03  0.14716E-02 -0.73805E-02
  0.12390E-03  0.31541E-03 -0.73805E-02
 -0.13082E-03  0.11917E-02 -0.73805E-02
  0.94036E-03  0.22766E-02 -0.73805E-02
  0.11279E-02  0.28225E-02 -0.73805E-02
  0.17435E-02  0.24258E-02 -0.73805E-02
  0.40512E-03  0.21690E-02 -0.73805E-02
  0.39755E-03  0.29330E-02 -0.73805E-02
 -0.76798E-03 -0.10053E-02 -0.73805E-02
 -0.86756E-03  0.90299E-04 -0.73805E-02
  0.45492E-03 -0.69302E-03 -0.73805E-02
 -0.18341E-02 -0.70999E-03 -0.73805E-02
 -0.18427E-02  0.84479E-04 -0.73805E-02
 -0.27234E-02 -0.77627E-03 -0.73805E-02
 -0.27990E-02  0.44540E-04 -0.73805E-02
 -0.25386E-02 -0.15188E-02 -0.73805E-02
 -0.19347E-02 -0.13215E-02 -0.73805E-02
 -0.99161E-03  0.10075E-02 -0.73805E-02
 -0.14429E-02 -0.17319E-02 -0.73805E-02
 -0.31294E-03  0.20260E-02 -0.73805E-02
 -0.11019E-02  0.18597E-02 -0.73805E-02
 -0.18838E-02  0.17175E-02 -0.73805E-02
 -0.18695E-02  0.91276E-03 -0.73805E-02
 -0.16256E-03 -0.19804E-02 -0.73805E-02
 -0.94927E-03 -0.23493E-02 -0.73805E-02
  0.77931E-03 -0.17073E-02 -0.73805E-02
  0.17205E-02 -0.14928E-02 -0.73805E-02
  0.32096E-02  0.77444E-03 -0.73805E-02
  0.28043E-02  0.12537E-02 -0.73805E-02
  0.23043E-02  0.18670E-02 -0.73805E-02
 -0.40420E-03  0.28888E-02 -0.73805E-02
 -0.12093E-02  0.27141E-02 -0.73805E-02
 -0.19443E-02  0.24611E-02 -0.73805E-02
 -0.25024E-02  0.22358E-02 -0.73805E-02
 -0.26358E-02  0.16503E-02 -0.73805E-02
 -0.27627E-02  0.87859E-03 -0.73805E-02
 -0.21143E-02 -0.21374E-02 -0.73805E-02
 -0.16093E-02 -0.26934E-02 -0.73805E-02
 -0.11955E-02 -0.31291E-02 -0.73805E-02
 -0.59130E-03 -0.30382E-02 -0.73805E-02
  0.20343E-03 -0.28750E-02 -0.73805E-02
  0.10543E-02 -0.26460E-02 -0.73805E-02
  0.18419E-02 -0.23736E-02 -0.73805E-02
  0.24561E-02 -0.21521E-02 -0.73805E-02
  0.26032E-02 -0.15090E-02 -0.73805E-02
  0.37964E-02  0.93572E-03 -0.73805E-02
  0.39100E-02  0.00000E+00 -0.73805E-02
  0.34621E-02  0.18171E-02 -0.73805E-02
  0.29267E-02  0.25928E-02 -0.73805E-02
  0.22211E-02  0.32179E-02 -0.73805E-02
  0.13865E-02  0.36559E-02 -0.73805E-02
  0.47130E-03  0.38815E-02 -0.73805E-02
 -0.47130E-03  0.38815E-02 -0.73805E-02
 -0.13865E-02  0.36559E-02 -0.73805E-02
 -0.22211E-02  0.32179E-02 -0.73805E-02
 -0.29267E-02  0.25928E-02 -0.73805E-02
 -0.34621E-02  0.18171E-02 -0.73805E-02
 -0.37964E-02  0.93572E-03 -0.73805E-02
 -0.39100E-02  0.22152E-17 -0.73805E-02
 -0.37964E-02 -0.93572E-03 -0.73805E-02
 -0.34621E-02 -0.18171E-02 -0.73805E-02
 -0.29267E-02 -0.25928E-02 -0.73805E-02
 -0.22211E-02 -0.32179E-02 -0.73805E-02
 -0.13865E-02 -0.36559E-02 -0.73805E-02
 -0.47130E-03 -0.38815E-02 -0.73805E-02
  0.47130E-03 -0.38815E-02 -0.73805E-02
  0.13865E-02 -0.36559E-02 -0.73805E-02
  0.22211E-02 -0.32179E-02 -0.73805E-02
  0.29267E-02 -0.25928E-02 -0.73805E-02
  0.34621E-02 -0.18171E-02 -0.73805E-02
  0.37964E-02 -0.93572E-03 -0.73805E-02
  0.10360E-02  0.68124E-03 -0.64013E-02
  0.17425E-02  0.12407E-02 -0.64013E-02
  0.23158E-02  0.59936E-03 -0.64013E-02
  0.16666E-02 -0.32643E-03 -0.64013E-02
  0.30373E-02  0.15427E-03 -0.64013E-02
  0.27842E-02 -0.66903E-03 -0.64013E-02
  0.12835E-02  0.18440E-02 -0.64013E-02
  0.64771E-03  0.14727E-02 -0.64013E-02
  0.12363E-03  0.31656E-03 -0.64013E-02
 -0.13100E-03  0.11935E-02 -0.64013E-02
  0.94003E-03  0.22767E-02 -0.64013E-02
  0.11276E-02  0.28220E-02 -0.64013E-02
  0.17432E-02  0.24260E-02 -0.64013E-02
  0.40507E-03  0.21690E-02 -0.64013E-02
  0.39754E-03  0.29327E-02 -0.64013E-02
 -0.76834E-03 -0.10054E-02 -0.64013E-02
 -0.86767E-03  0.91108E-04 -0.64013E-02
  0.45447E-03 -0.69229E-03 -0.64013E-02
 -0.18344E-02 -0.70985E-03 -0.64013E-02
 -0.18426E-02  0.84602E-04 -0.64013E-02
 -0.27234E-02 -0.77610E-03 -0.64013E-02
 -0.27987E-02  0.44813E-04 -0.64013E-02
 -0.25388E-02 -0.15187E-02 -0.64013E-02
 -0.19352E-02 -0.13215E-02 -0.64013E-02
 -0.99147E-03  0.10088E-02 -0.64013E-02
 -0.14433E-02 -0.17319E-02 -0.64013E-02
 -0.31274E-03  0.20262E-02 -0.64013E-02
 -0.11016E-02  0.18595E-02 -0.64013E-02
 -0.18838E-02  0.17175E-02 -0.64013E-02
 -0.18694E-02  0.91300E-03 -0.64013E-02
 -0.16284E-03 -0.19804E-02 -0.64013E-02
 -0.94986E-03 -0.23493E-02 -0.64013E-02
  0.77865E-03 -0.17073E-02 -0.64013E-02
  0.17205E-02 -0.14931E-02 -0.64013E-02
  0.32099E-02  0.77544E-03 -0.64013E-02
  0.28042E-02  0.12541E-02 -0.64013E-02
  0.23042E-02  0.18671E-02 -0.64013E-02
 -0.40407E-03  0.28877E-02 -0.64013E-02
 -0.12093E-02  0.27137E-02 -0.64013E-02
 -0.19442E-02  0.24609E-02 -0.64013E-02
 -0.25024E-02  0.22358E-02 -0.64013E-02
 -0.26358E-02  0.16503E-02 -0.64013E-02
 -0.27624E-02  0.87885E-03 -0.64013E-02
 -0.21144E-02 -0.21374E-02 -0.64013E-02
 -0.16094E-02 -0.26934E-02 -0.64013E-02
 -0.11956E-02 -0.31291E-02 -0.64013E-02
 -0.59165E-03 -0.30382E-02 -0.64013E-02
  0.20302E-03 -0.28750E-02 -0.64013E-02
  0.10540E-02 -0.26463E-02 -0.64013E-02
  0.18419E-02 -0.23738E-02 -0.64013E-02
  0.24563E-02 -0.21527E-02 -0.64013E-02
  0.26033E-02 -0.15088E-02 -0.64013E-02
  0.37964E-02  0.93572E-03 -0.64013E-02
  0.39100E-02  0.00000E+00 -0.64013E-02
  0.34621E-02  0.18171E-02 -0.64013E-02
  0.29267E-02  0.25928E-02 -0.64013E-02
  0.22211E-02  0.32179E-02 -0.64013E-02
  0.13865E-02  0.36559E-02 -0.64013E-02
  0.47130E-03  0.38815E-02 -0.64013E-02
 -0.47130E-03  0.38815E-02 -0.64013E-02
 -0.13865E-02  0.36559E-02 -0.64013E-02
 -0.22211E-02  0.32179E-02 -0.64013E-02
 -0.29267E-02  0.25928E-02 -0.64013E-02
 -0.34621E-02  0.18171E-02 -0.64013E-02
 -0.37964E-02  0.93572E-03 -0.64013E-02
 -0.39100E-02 -0.47884E-18 -0.64013E-02
 -0.37964E-02 -0.93572E-03 -0.64013E-02
 -0.34621E-02 -0.18171E-02 -0.64013E-02
 -0.29267E-02 -0.25928E-02 -0.64013E-02
 -0.22211E-02 -0.32179E-02 -0.64013E-02
 -0.13865E-02 -0.36559E-02 -0.64013E-02
 -0.47130E-03 -0.38815E-02 -0.64013E-02
  0.47130E-03 -0.38815E-02 -0.64013E-02
  0.13865E-02 -0.36559E-02 -0.64013E-02
  0.22211E-02 -0.32179E-02 -0.64013E-02
  0.29267E-02 -0.25928E-02 -0.64013E-02
  0.34621E-02 -0.18171E-02 -0.64013E-02
  0.37964E-02 -0.93572E-03 -0.64013E-02
  0.10359E-02  0.68179E-03 -0.54221E-02
  0.17423E-02  0.12414E-02 -0.54221E-02
  0.23157E-02  0.59988E-03 -0.54221E-02
  0.16664E-02 -0.32568E-03 -0.54221E-02
  0.30373E-02  0.15463E-03 -0.54221E-02
  0.27846E-02 -0.66854E-03 -0.54221E-02
  0.12834E-02  0.18442E-02 -0.54221E-02
  0.64747E-03  0.14736E-02 -0.54221E-02
  0.12337E-03  0.31770E-03 -0.54221E-02
 -0.13118E-03  0.11952E-02 -0.54221E-02
  0.93970E-03  0.22768E-02 -0.54221E-02
  0.11272E-02  0.28216E-02 -0.54221E-02
  0.17428E-02  0.24261E-02 -0.54221E-02
  0.40501E-03  0.21690E-02 -0.54221E-02
  0.39752E-03  0.29324E-02 -0.54221E-02
 -0.76869E-03 -0.10056E-02 -0.54221E-02
 -0.86778E-03  0.91918E-04 -0.54221E-02
  0.45402E-03 -0.69156E-03 -0.54221E-02
 -0.18347E-02 -0.70971E-03 -0.54221E-02
 -0.18425E-02  0.84726E-04 -0.54221E-02
 -0.27234E-02 -0.77593E-03 -0.54221E-02
 -0.27984E-02  0.45086E-04 -0.54221E-02
 -0.25389E-02 -0.15187E-02 -0.54221E-02
 -0.19356E-02 -0.13213E-02 -0.54221E-02
 -0.99133E-03  0.10102E-02 -0.54221E-02
 -0.14436E-02 -0.17318E-02 -0.54221E-02
 -0.31254E-03  0.20265E-02 -0.54221E-02
 -0.11013E-02  0.18594E-02 -0.54221E-02
 -0.18837E-02  0.17175E-02 -0.54221E-02
 -0.18692E-02  0.91324E-03 -0.54221E-02
 -0.16311E-03 -0.19804E-02 -0.54221E-02
 -0.95046E-03 -0.23493E-02 -0.54221E-02
  0.77799E-03 -0.17073E-02 -0.54221E-02
  0.17204E-02 -0.14933E-02 -0.54221E-02
  0.32102E-02  0.77645E-03 -0.54221E-02
  0.28042E-02  0.12545E-02 -0.54221E-02
  0.23041E-02  0.18671E-02 -0.54221E-02
 -0.40393E-03  0.28867E-02 -0.54221E-02
 -0.12093E-02  0.27132E-02 -0.54221E-02
 -0.19442E-02  0.24606E-02 -0.54221E-02
 -0.25024E-02  0.22358E-02 -0.54221E-02
 -0.26357E-02  0.16503E-02 -0.54221E-02
 -0.27621E-02  0.87912E-03 -0.54221E-02
 -0.21146E-02 -0.21374E-02 -0.54221E-02
 -0.16094E-02 -0.26935E-02 -0.54221E-02
 -0.11957E-02 -0.31291E-02 -0.54221E-02
 -0.59200E-03 -0.30381E-02 -0.54221E-02
  0.20262E-03 -0.28750E-02 -0.54221E-02
  0.10536E-02 -0.26466E-02 -0.54221E-02
  0.18420E-02 -0.23740E-02 -0.54221E-02
  0.24564E-02 -0.21533E-02 -0.54221E-02
  0.26033E-02 -0.15087E-02 -0.54221E-02
  0.37964E-02  0.93572E-03 -0.54221E-02
  0.39100E-02  0.00000E+00 -0.54221E-02
  0.34621E-02  0.18171E-02 -0.54221E-02
  0.29267E-02  0.25928E-02 -0.54221E-02
  0.22211E-02  0.32179E-02 -0.54221E-02
  0.13865E-02  0.36559E-02 -0.54221E-02
  0.47130E-03  0.38815E-02 -0.54221E-02
 -0.47130E-03  0.38815E-02 -0.54221E-02
 -0.13865E-02  0.36559E-02 -0.54221E-02
 -0.22211E-02  0.32179E-02 -0.54221E-02
 -0.29267E-02  0.25928E-02 -0.54221E-02
 -0.34621E-02  0.18171E-02 -0.54221E-02
 -0.37964E-02  0.93572E-03 -0.54221E-02
 -0.39100E-02 -0.47884E-18 -0.54221E-02
 -0.37964E-02 -0.93572E-03 -0.54221E-02
 -0.34621E-02 -0.18171E-02 -0.54221E-02
 -0.29267E-02 -0.25928E-02 -0.54221E-02
 -0.22211E-02 -0.32179E-02 -0.54221E-02
 -0.13865E-02 -0.36559E-02 -0.54221E-02
 -0.47130E-03 -0.38815E-02 -0.54221E-02
  0.47130E-03 -0.38815E-02 -0.54221E-02
  0.13865E-02 -0.36559E-02 -0.54221E-02
  0.22211E-02 -0.32179E-02 -0.54221E-02
  0.29267E-02 -0.25928E-02 -0.54221E-02
  0.34621E-02 -0.18171E-02 -0.54221E-02
  0.37964E-02 -0.93572E-03 -0.54221E-02
  0.10358E-02  0.68235E-03 -0.44430E-02
  0.17422E-02  0.12421E-02 -0.44430E-02
  0.23156E-02  0.60041E-03 -0.44430E-02
  0.16662E-02 -0.32493E-03 -0.44430E-02
  0.30373E-02  0.15500E-03 -0.44430E-02
  0.27849E-02 -0.66805E-03 -0.44430E-02
  0.12833E-02  0.18444E-02 -0.44430E-02
  0.64722E-03  0.14747E-02 -0.44430E-02
  0.12311E-03  0.31885E-03 -0.44430E-02
 -0.13137E-03  0.11970E-02 -0.44430E-02
  0.93937E-03  0.22770E-02 -0.44430E-02
  0.11269E-02  0.28211E-02 -0.44430E-02
  0.17424E-02  0.24262E-02 -0.44430E-02
  0.40496E-03  0.21691E-02 -0.44430E-02
  0.39750E-03  0.29322E-02 -0.44430E-02
 -0.76904E-03 -0.10057E-02 -0.44430E-02
 -0.86789E-03  0.92727E-04 -0.44430E-02
  0.45358E-03 -0.69084E-03 -0.44430E-02
 -0.18350E-02 -0.70957E-03 -0.44430E-02
 -0.18424E-02  0.84849E-04 -0.44430E-02
 -0.27233E-02 -0.77576E-03 -0.44430E-02
 -0.27981E-02  0.45359E-04 -0.44430E-02
 -0.25391E-02 -0.15186E-02 -0.44430E-02
 -0.19360E-02 -0.13212E-02 -0.44430E-02
 -0.99118E-03  0.10115E-02 -0.44430E-02
 -0.14440E-02 -0.17318E-02 -0.44430E-02
 -0.31234E-03  0.20268E-02 -0.44430E-02
 -0.11009E-02  0.18593E-02 -0.44430E-02
 -0.18836E-02  0.17175E-02 -0.44430E-02
 -0.18691E-02  0.91347E-03 -0.44430E-02
 -0.16339E-03 -0.19804E-02 -0.44430E-02
 -0.95106E-03 -0.23493E-02 -0.44430E-02
  0.77733E-03 -0.17073E-02 -0.44430E-02
  0.17204E-02 -0.14936E-02 -0.44430E-02
  0.32105E-02  0.77745E-03 -0.44430E-02
  0.28042E-02  0.12550E-02 -0.44430E-02
  0.23040E-02  0.18671E-02 -0.44430E-02
 -0.40379E-03  0.28856E-02 -0.44430E-02
 -0.12093E-02  0.27127E-02 -0.44430E-02
 -0.19441E-02  0.24604E-02 -0.44430E-02
 -0.25023E-02  0.22358E-02 -0.44430E-02
 -0.26356E-02  0.16503E-02 -0.44430E-02
 -0.27618E-02  0.87938E-03 -0.44430E-02
 -0.21147E-02 -0.21374E-02 -0.44430E-02
 -0.16094E-02 -0.26935E-02 -0.44430E-02
 -0.11958E-02 -0.31291E-02 -0.44430E-02
 -0.59235E-03 -0.30381E-02 -0.44430E-02
  0.20221E-03 -0.28750E-02 -0.44430E-02
  0.10533E-02 -0.26468E-02 -0.44430E-02
  0.18420E-02 -0.23742E-02 -0.44430E-02
  0.24565E-02 -0.21538E-02 -0.44430E-02
  0.26034E-02 -0.15086E-02 -0.44430E-02
  0.37964E-02  0.93572E-03 -0.44430E-02
  0.39100E-02  0.00000E+00 -0.44430E-02
  0.34621E-02  0.18171E-02 -0.44430E-02
  0.29267E-02  0.25928E-02 -0.44430E-02
  0.22211E-02  0.32179E-02 -0.44430E-02
  0.13865E-02  0.36559E-02 -0.44430E-02
  0.47130E-03  0.38815E-02 -0.44430E-02
 -0.47130E-03  0.38815E-02 -0.44430E-02
 -0.13865E-02  0.36559E-02 -0.44430E-02
 -0.22211E-02  0.32179E-02 -0.44430E-02
 -0.29267E-02  0.25928E-02 -0.44430E-02
 -0.34621E-02  0.18171E-02 -0.44430E-02
 -0.37964E-02  0.93572E-03 -0.44430E-02
 -0.39100E-02 -0.47884E-18 -0.44430E-02
 -0.37964E-02 -0.93572E-03 -0.44430E-02
 -0.34621E-02 -0.18171E-02 -0.44430E-02
 -0.29267E-02 -0.25928E-02 -0.44430E-02
 -0.22211E-02 -0.32179E-02 -0.44430E-02
 -0.13865E-02 -0.36559E-02 -0.44430E-02
 -0.47130E-03 -0.38815E-02 -0.44430E-02
  0.47130E-03 -0.38815E-02 -0.44430E-02
  0.13865E-02 -0.36559E-02 -0.44430E-02
  0.22211E-02 -0.32179E-02 -0.44430E-02
  0.29267E-02 -0.25928E-02 -0.44430E-02
  0.34621E-02 -0.18171E-02 -0.44430E-02
  0.37964E-02 -0.93572E-03 -0.44430E-02
  0.10357E-02  0.68290E-03 -0.34638E-02
  0.17420E-02  0.12427E-02 -0.34638E-02
  0.23155E-02  0.60093E-03 -0.34638E-02
  0.16660E-02 -0.32417E-03 -0.34638E-02
  0.30372E-02  0.15536E-03 -0.34638E-02
  0.27853E-02 -0.66755E-03 -0.34638E-02
  0.12832E-02  0.18445E-02 -0.34638E-02
  0.64698E-03  0.14757E-02 -0.34638E-02
  0.12285E-03  0.32000E-03 -0.34638E-02
 -0.13155E-03  0.11987E-02 -0.34638E-02
  0.93903E-03  0.22771E-02 -0.34638E-02
  0.11266E-02  0.28207E-02 -0.34638E-02
  0.17420E-02  0.24264E-02 -0.34638E-02
  0.40490E-03  0.21691E-02 -0.34638E-02
  0.39749E-03  0.29319E-02 -0.34638E-02
 -0.76940E-03 -0.10058E-02 -0.34638E-02
 -0.86800E-03  0.93536E-04 -0.34638E-02
  0.45313E-03 -0.69011E-03 -0.34638E-02
 -0.18353E-02 -0.70943E-03 -0.34638E-02
 -0.18423E-02  0.84973E-04 -0.34638E-02
 -0.27233E-02 -0.77559E-03 -0.34638E-02
 -0.27979E-02  0.45633E-04 -0.34638E-02
 -0.25393E-02 -0.15186E-02 -0.34638E-02
 -0.19365E-02 -0.13212E-02 -0.34638E-02
 -0.99104E-03  0.10129E-02 -0.34638E-02
 -0.14443E-02 -0.17318E-02 -0.34638E-02
 -0.31214E-03  0.20271E-02 -0.34638E-02
 -0.11006E-02  0.18592E-02 -0.34638E-02
 -0.18836E-02  0.17175E-02 -0.34638E-02
 -0.18690E-02  0.91371E-03 -0.34638E-02
 -0.16366E-03 -0.19805E-02 -0.34638E-02
 -0.95166E-03 -0.23493E-02 -0.34638E-02
  0.77667E-03 -0.17073E-02 -0.34638E-02
  0.17203E-02 -0.14938E-02 -0.34638E-02
  0.32109E-02  0.77846E-03 -0.34638E-02
  0.28042E-02  0.12554E-02 -0.34638E-02
  0.23039E-02  0.18672E-02 -0.34638E-02
 -0.40365E-03  0.28845E-02 -0.34638E-02
 -0.12093E-02  0.27122E-02 -0.34638E-02
 -0.19441E-02  0.24602E-02 -0.34638E-02
 -0.25023E-02  0.22358E-02 -0.34638E-02
 -0.26355E-02  0.16502E-02 -0.34638E-02
 -0.27615E-02  0.87964E-03 -0.34638E-02
 -0.21148E-02 -0.21374E-02 -0.34638E-02
 -0.16095E-02 -0.26935E-02 -0.34638E-02
 -0.11960E-02 -0.31291E-02 -0.34638E-02
 -0.59270E-03 -0.30381E-02 -0.34638E-02
  0.20180E-03 -0.28750E-02 -0.34638E-02
  0.10530E-02 -0.26471E-02 -0.34638E-02
  0.18421E-02 -0.23744E-02 -0.34638E-02
  0.24566E-02 -0.21543E-02 -0.34638E-02
  0.26035E-02 -0.15085E-02 -0.34638E-02
  0.37964E-02  0.93572E-03 -0.34638E-02
  0.39100E-02  0.00000E+00 -0.34638E-02
  0.34621E-02  0.18171E-02 -0.34638E-02
  0.29267E-02  0.25928E-02 -0.34638E-02
  0.22211E-02  0.32179E-02 -0.34638E-02
  0.13865E-02  0.36559E-02 -0.34638E-02
  0.47130E-03  0.38815E-02 -0.34638E-02
 -0.47130E-03  0.38815E-02 -0.34638E-02
 -0.13865E-02  0.36559E-02 -0.34638E-02
 -0.22211E-02  0.32179E-02 -0.34638E-02
 -0.29267E-02  0.25928E-02 -0.34638E-02
 -0.34621E-02  0.18171E-02 -0.34638E-02
 -0.37964E-02  0.93572E-03 -0.34638E-02
 -0.39100E-02 -0.47884E-18 -0.34638E-02
 -0.37964E-02 -0.93572E-03 -0.34638E-02
 -0.34621E-02 -0.18171E-02 -0.34638E-02
 -0.29267E-02 -0.25928E-02 -0.34638E-02
 -0.22211E-02 -0.32179E-02 -0.34638E-02
 -0.13865E-02 -0.36559E-02 -0.34638E-02
 -0.47130E-03 -0.38815E-02 -0.34638E-02
  0.47130E-03 -0.38815E-02 -0.34638E-02
  0.13865E-02 -0.36559E-02 -0.34638E-02
  0.22211E-02 -0.32179E-02 -0.34638E-02
  0.29267E-02 -0.25928E-02 -0.34638E-02
  0.34621E-02 -0.18171E-02 -0.34638E-02
  0.37964E-02 -0.93572E-03 -0.34638E-02
  0.10356E-02  0.68346E-03 -0.24846E-02
  0.17418E-02  0.12434E-02 -0.24846E-02
  0.23153E-02  0.60145E-03 -0.24846E-02
  0.16657E-02 -0.32342E-03 -0.24846E-02
  0.30372E-02  0.15572E-03 -0.24846E-02
  0.27856E-02 -0.66706E-03 -0.24846E-02
  0.12830E-02  0.18447E-02 -0.24846E-02
  0.64673E-03  0.14767E-02 -0.24846E-02
  0.12259E-03  0.32115E-03 -0.24846E-02
 -0.13174E-03  0.12005E-02 -0.24846E-02
  0.93870E-03  0.22772E-02 -0.24846E-02
  0.11262E-02  0.28203E-02 -0.24846E-02
  0.17416E-02  0.24265E-02 -0.24846E-02
  0.40485E-03  0.21691E-02 -0.24846E-02
  0.39747E-03  0.29316E-02 -0.24846E-02
 -0.76975E-03 -0.10060E-02 -0.24846E-02
 -0.86811E-03  0.94345E-04 -0.24846E-02
  0.45268E-03 -0.68939E-03 -0.24846E-02
 -0.18356E-02 -0.70929E-03 -0.24846E-02
 -0.18422E-02  0.85096E-04 -0.24846E-02
 -0.27233E-02 -0.77542E-03 -0.24846E-02
 -0.27976E-02  0.45906E-04 -0.24846E-02
 -0.25394E-02 -0.15185E-02 -0.24846E-02
 -0.19369E-02 -0.13211E-02 -0.24846E-02
 -0.99090E-03  0.10142E-02 -0.24846E-02
 -0.14446E-02 -0.17317E-02 -0.24846E-02
 -0.31194E-03  0.20274E-02 -0.24846E-02
 -0.11002E-02  0.18590E-02 -0.24846E-02
 -0.18835E-02  0.17175E-02 -0.24846E-02
 -0.18689E-02  0.91395E-03 -0.24846E-02
 -0.16394E-03 -0.19805E-02 -0.24846E-02
 -0.95226E-03 -0.23494E-02 -0.24846E-02
  0.77601E-03 -0.17073E-02 -0.24846E-02
  0.17203E-02 -0.14941E-02 -0.24846E-02
  0.32112E-02  0.77946E-03 -0.24846E-02
  0.28042E-02  0.12558E-02 -0.24846E-02
  0.23038E-02  0.18672E-02 -0.24846E-02
 -0.40352E-03  0.28835E-02 -0.24846E-02
 -0.12093E-02  0.27118E-02 -0.24846E-02
 -0.19441E-02  0.24600E-02 -0.24846E-02
 -0.25023E-02  0.22358E-02 -0.24846E-02
 -0.26354E-02  0.16502E-02 -0.24846E-02
 -0.27612E-02  0.87990E-03 -0.24846E-02
 -0.21150E-02 -0.21374E-02 -0.24846E-02
 -0.16095E-02 -0.26935E-02 -0.24846E-02
 -0.11961E-02 -0.31291E-02 -0.24846E-02
 -0.59305E-03 -0.30381E-02 -0.24846E-02
  0.20140E-03 -0.28750E-02 -0.24846E-02
  0.10527E-02 -0.26474E-02 -0.24846E-02
  0.18421E-02 -0.23746E-02 -0.24846E-02
  0.24568E-02 -0.21549E-02 -0.24846E-02
  0.26036E-02 -0.15084E-02 -0.24846E-02
  0.37964E-02  0.93572E-03 -0.24846E-02
  0.39100E-02  0.00000E+00 -0.24846E-02
  0.34621E-02  0.18171E-02 -0.24846E-02
  0.29267E-02  0.25928E-02 -0.24846E-02
  0.22211E-02  0.32179E-02 -0.24846E-02
  0.13865E-02  0.36559E-02 -0.24846E-02
  0.47130E-03  0.38815E-02 -0.24846E-02
 -0.47130E-03  0.38815E-02 -0.24846E-02
 -0.13865E-02  0.36559E-02 -0.24846E-02
 -0.22211E-02  0.32179E-02 -0.24846E-02
 -0.29267E-02  0.25928E-02 -0.24846E-02
 -0.34621E-02  0.18171E-02 -0.24846E-02
 -0.37964E-02  0.93572E-03 -0.24846E-02
 -0.39100E-02  0.22152E-17 -0.24846E-02
 -0.37964E-02 -0.93572E-03 -0.24846E-02
 -0.34621E-02 -0.18171E-02 -0.24846E-02
 -0.29267E-02 -0.25928E-02 -0.24846E-02
 -0.22211E-02 -0.32179E-02 -0.24846E-02
 -0.13865E-02 -0.36559E-02 -0.24846E-02
 -0.47130E-03 -0.38815E-02 -0.24846E-02
  0.47130E-03 -0.38815E-02 -0.24846E-02
  0.13865E-02 -0.36559E-02 -0.24846E-02
  0.22211E-02 -0.32179E-02 -0.24846E-02
  0.29267E-02 -0.25928E-02 -0.24846E-02
  0.34621E-02 -0.18171E-02 -0.24846E-02
  0.37964E-02 -0.93572E-03 -0.24846E-02
  0.10355E-02  0.68401E-03 -0.15055E-02
  0.17416E-02  0.12440E-02 -0.15055E-02
  0.23152E-02  0.60198E-03 -0.15055E-02
  0.16655E-02 -0.32266E-03 -0.15055E-02
  0.30372E-02  0.15609E-03 -0.15055E-02
  0.27860E-02 -0.66657E-03 -0.15055E-02
  0.12829E-02  0.18449E-02 -0.15055E-02
  0.64649E-03  0.14777E-02 -0.15055E-02
  0.12232E-03  0.32230E-03 -0.15055E-02
 -0.13193E-03  0.12022E-02 -0.15055E-02
  0.93837E-03  0.22774E-02 -0.15055E-02
  0.11259E-02  0.28198E-02 -0.15055E-02
  0.17412E-02  0.24267E-02 -0.15055E-02
  0.40480E-03  0.21692E-02 -0.15055E-02
  0.39745E-03  0.29314E-02 -0.15055E-02
 -0.77011E-03 -0.10061E-02 -0.15055E-02
 -0.86822E-03  0.95155E-04 -0.15055E-02
  0.45223E-03 -0.68866E-03 -0.15055E-02
 -0.18359E-02 -0.70915E-03 -0.15055E-02
 -0.18421E-02  0.85220E-04 -0.15055E-02
 -0.27232E-02 -0.77525E-03 -0.15055E-02
 -0.27973E-02  0.46180E-04 -0.15055E-02
 -0.25396E-02 -0.15185E-02 -0.15055E-02
 -0.19373E-02 -0.13210E-02 -0.15055E-02
 -0.99075E-03  0.10156E-02 -0.15055E-02
 -0.14450E-02 -0.17317E-02 -0.15055E-02
 -0.31173E-03  0.20277E-02 -0.15055E-02
 -0.10999E-02  0.18589E-02 -0.15055E-02
 -0.18835E-02  0.17175E-02 -0.15055E-02
 -0.18687E-02  0.91419E-03 -0.15055E-02
 -0.16421E-03 -0.19805E-02 -0.15055E-02
 -0.95285E-03 -0.23494E-02 -0.15055E-02
  0.77535E-03 -0.17073E-02 -0.15055E-02
  0.17202E-02 -0.14943E-02 -0.15055E-02
  0.32115E-02  0.78047E-03 -0.15055E-02
  0.28041E-02  0.12563E-02 -0.15055E-02
  0.23037E-02  0.18672E-02 -0.15055E-02
 -0.40338E-03  0.28824E-02 -0.15055E-02
 -0.12093E-02  0.27113E-02 -0.15055E-02
 -0.19440E-02  0.24597E-02 -0.15055E-02
 -0.25023E-02  0.22358E-02 -0.15055E-02
 -0.26353E-02  0.16502E-02 -0.15055E-02
 -0.27609E-02  0.88016E-03 -0.15055E-02
 -0.21151E-02 -0.21374E-02 -0.15055E-02
 -0.16096E-02 -0.26935E-02 -0.15055E-02
 -0.11962E-02 -0.31291E-02 -0.15055E-02
 -0.59340E-03 -0.30381E-02 -0.15055E-02
  0.20099E-03 -0.28751E-02 -0.15055E-02
  0.10524E-02 -0.26476E-02 -0.15055E-02
  0.18422E-02 -0.23748E-02 -0.15055E-02
  0.24569E-02 -0.21554E-02 -0.15055E-02
  0.26036E-02 -0.15083E-02 -0.15055E-02
  0.37964E-02  0.93572E-03 -0.15055E-02
  0.39100E-02  0.00000E+00 -0.15055E-02
  0.34621E-02  0.18171E-02 -0.15055E-02
  0.29267E-02  0.25928E-02 -0.15055E-02
  0.22211E-02  0.32179E-02 -0.15055E-02
  0.13865E-02  0.36559E-02 -0.15055E-02
  0.47130E-03  0.38815E-02 -0.15055E-02
 -0.47130E-03  0.38815E-02 -0.15055E-02
 -0.13865E-02  0.36559E-02 -0.15055E-02
 -0.22211E-02  0.32179E-02 -0.15055E-02
 -0.29267E-02  0.25928E-02 -0.15055E-02
 -0.34621E-02  0.18171E-02 -0.15055E-02
 -0.37964E-02  0.93572E-03 -0.15055E-02
 -0.39100E-02 -0.47884E-18 -0.15055E-02
 -0.37964E-02 -0.93572E-03 -0.15055E-02
 -0.34621E-02 -0.18171E-02 -0.15055E-02
 -0.29267E-02 -0.25928E-02 -0.15055E-02
 -0.22211E-02 -0.32179E-02 -0.15055E-02
 -0.13865E-02 -0.36559E-02 -0.15055E-02
 -0.47130E-03 -0.38815E-02 -0.15055E-02
  0.47130E-03 -0.38815E-02 -0.15055E-02
  0.13865E-02 -0.36559E-02 -0.15055E-02
  0.22211E-02 -0.32179E-02 -0.15055E-02
  0.29267E-02 -0.25928E-02 -0.15055E-02
  0.34621E-02 -0.18171E-02 -0.15055E-02
  0.37964E-02 -0.93572E-03 -0.15055E-02
  0.10354E-02  0.68457E-03 -0.52631E-03
  0.17414E-02  0.12447E-02 -0.52631E-03
  0.23151E-02  0.60250E-03 -0.52631E-03
  0.16653E-02 -0.32191E-03 -0.52631E-03
  0.30372E-02  0.15645E-03 -0.52631E-03
  0.27863E-02 -0.66607E-03 -0.52631E-03
  0.12829E-02  0.18451E-02 -0.52631E-03
  0.64624E-03  0.14787E-02 -0.52631E-03
  0.12206E-03  0.32345E-03 -0.52631E-03
 -0.13211E-03  0.12040E-02 -0.52631E-03
  0.93804E-03  0.22775E-02 -0.52631E-03
  0.11255E-02  0.28194E-02 -0.52631E-03
  0.17408E-02  0.24268E-02 -0.52631E-03
  0.40474E-03  0.21692E-02 -0.52631E-03
  0.39744E-03  0.29311E-02 -0.52631E-03
 -0.77046E-03 -0.10062E-02 -0.52631E-03
 -0.86832E-03  0.95964E-04 -0.52631E-03
  0.45179E-03 -0.68793E-03 -0.52631E-03
 -0.18362E-02 -0.70901E-03 -0.52631E-03
 -0.18420E-02  0.85343E-04 -0.52631E-03
 -0.27232E-02 -0.77507E-03 -0.52631E-03
 -0.27970E-02  0.46453E-04 -0.52631E-03
 -0.25397E-02 -0.15184E-02 -0.52631E-03
 -0.19377E-02 -0.13209E-02 -0.52631E-03
 -0.99061E-03  0.10169E-02 -0.52631E-03
 -0.14453E-02 -0.17316E-02 -0.52631E-03
 -0.31153E-03  0.20280E-02 -0.52631E-03
 -0.10995E-02  0.18588E-02 -0.52631E-03
 -0.18834E-02  0.17175E-02 -0.52631E-03
 -0.18686E-02  0.91443E-03 -0.52631E-03
 -0.16449E-03 -0.19806E-02 -0.52631E-03
 -0.95345E-03 -0.23494E-02 -0.52631E-03
  0.77469E-03 -0.17073E-02 -0.52631E-03
  0.17202E-02 -0.14945E-02 -0.52631E-03
  0.32119E-02  0.78148E-03 -0.52631E-03
  0.28041E-02  0.12567E-02 -0.52631E-03
  0.23036E-02  0.18673E-02 -0.52631E-03
 -0.40324E-03  0.28813E-02 -0.52631E-03
 -0.12093E-02  0.27108E-02 -0.52631E-03
 -0.19440E-02  0.24595E-02 -0.52631E-03
 -0.25022E-02  0.22358E-02 -0.52631E-03
 -0.26352E-02  0.16502E-02 -0.52631E-03
 -0.27606E-02  0.88043E-03 -0.52631E-03
 -0.21152E-02 -0.21374E-02 -0.52631E-03
 -0.16096E-02 -0.26936E-02 -0.52631E-03
 -0.11963E-02 -0.31291E-02 -0.52631E-03
 -0.59375E-03 -0.30381E-02 -0.52631E-03
  0.20059E-03 -0.28751E-02 -0.52631E-03
  0.10521E-02 -0.26479E-02 -0.52631E-03
  0.18422E-02 -0.23750E-02 -0.52631E-03
  0.24570E-02 -0.21560E-02 -0.52631E-03
  0.26037E-02 -0.15082E-02 -0.52631E-03
  0.37964E-02  0.93572E-03 -0.52631E-03
  0.39100E-02  0.00000E+00 -0.52631E-03
  0.34621E-02  0.18171E-02 -0.52631E-03
  0.29267E-02  0.25928E-02 -0.52631E-03
  0.22211E-02  0.32179E-02 -0.52631E-03
  0.13865E-02  0.36559E-02 -0.52631E-03
  0.47130E-03  0.38815E-02 -0.52631E-03
 -0.47130E-03  0.38815E-02 -0.52631E-03
 -0.13865E-02  0.36559E-02 -0.52631E-03
 -0.22211E-02  0.32179E-02 -0.52631E-03
 -0.29267E-02  0.25928E-02 -0.52631E-03
 -0.34621E-02  0.18171E-02 -0.52631E-03
 -0.37964E-02  0.93572E-03 -0.52631E-03
 -0.39100E-02 -0.47884E-18 -0.52631E-03
 -0.37964E-02 -0.93572E-03 -0.52631E-03
 -0.34621E-02 -0.18171E-02 -0.52631E-03
 -0.29267E-02 -0.25928E-02 -0.52631E-03
 -0.22211E-02 -0.32179E-02 -0.52631E-03
 -0.13865E-02 -0.36559E-02 -0.52631E-03
 -0.47130E-03 -0.38815E-02 -0.52631E-03
  0.47130E-03 -0.38815E-02 -0.52631E-03
  0.13865E-02 -0.36559E-02 -0.52631E-03
  0.22211E-02 -0.32179E-02 -0.52631E-03
  0.29267E-02 -0.25928E-02 -0.52631E-03
  0.34621E-02 -0.18171E-02 -0.52631E-03
  0.37964E-02 -0.93572E-03 -0.52631E-03
  0.10352E-02  0.68512E-03  0.45282E-03
  0.17413E-02  0.12454E-02  0.45282E-03
  0.23150E-02  0.60302E-03  0.45282E-03
  0.16651E-02 -0.32115E-03  0.45282E-03
  0.30371E-02  0.15681E-03  0.45282E-03
  0.27866E-02 -0.66558E-03  0.45282E-03
  0.12827E-02  0.18453E-02  0.45282E-03
  0.64600E-03  0.14797E-02  0.45282E-03
  0.12180E-03  0.32459E-03  0.45282E-03
 -0.13230E-03  0.12058E-02  0.45282E-03
  0.93771E-03  0.22776E-02  0.45282E-03
  0.11252E-02  0.28189E-02  0.45282E-03
  0.17404E-02  0.24270E-02  0.45282E-03
  0.40469E-03  0.21693E-02  0.45282E-03
  0.39742E-03  0.29308E-02  0.45282E-03
 -0.77081E-03 -0.10064E-02  0.45282E-03
 -0.86843E-03  0.96773E-04  0.45282E-03
  0.45134E-03 -0.68721E-03  0.45282E-03
 -0.18365E-02 -0.70887E-03  0.45282E-03
 -0.18419E-02  0.85467E-04  0.45282E-03
 -0.27232E-02 -0.77490E-03  0.45282E-03
 -0.27968E-02  0.46726E-04  0.45282E-03
 -0.25399E-02 -0.15184E-02  0.45282E-03
 -0.19382E-02 -0.13208E-02  0.45282E-03
 -0.99046E-03  0.10183E-02  0.45282E-03
 -0.14457E-02 -0.17316E-02  0.45282E-03
 -0.31133E-03  0.20283E-02  0.45282E-03
 -0.10992E-02  0.18586E-02  0.45282E-03
 -0.18834E-02  0.17175E-02  0.45282E-03
 -0.18685E-02  0.91467E-03  0.45282E-03
 -0.16476E-03 -0.19806E-02  0.45282E-03
 -0.95405E-03 -0.23494E-02  0.45282E-03
  0.77402E-03 -0.17073E-02  0.45282E-03
  0.17202E-02 -0.14948E-02  0.45282E-03
  0.32122E-02  0.78248E-03  0.45282E-03
  0.28041E-02  0.12571E-02  0.45282E-03
  0.23034E-02  0.18673E-02  0.45282E-03
 -0.40310E-03  0.28802E-02  0.45282E-03
 -0.12093E-02  0.27103E-02  0.45282E-03
 -0.19440E-02  0.24593E-02  0.45282E-03
 -0.25022E-02  0.22358E-02  0.45282E-03
 -0.26351E-02  0.16502E-02  0.45282E-03
 -0.27602E-02  0.88069E-03  0.45282E-03
 -0.21154E-02 -0.21374E-02  0.45282E-03
 -0.16097E-02 -0.26936E-02  0.45282E-03
 -0.11964E-02 -0.31291E-02  0.45282E-03
 -0.59409E-03 -0.30381E-02  0.45282E-03
  0.20018E-03 -0.28751E-02  0.45282E-03
  0.10518E-02 -0.26482E-02  0.45282E-03
  0.18422E-02 -0.23752E-02  0.45282E-03
  0.24571E-02 -0.21565E-02  0.45282E-03
  0.26038E-02 -0.15081E-02  0.45282E-03
  0.37964E-02  0.93572E-03  0.45282E-03
  0.39100E-02  0.00000E+00  0.45282E-03
  0.34621E-02  0.18171E-02  0.45282E-03
  0.29267E-02  0.25928E-02  0.45282E-03
  0.22211E-02  0.32179E-02  0.45282E-03
  0.13865E-02  0.36559E-02  0.45282E-03
  0.47130E-03  0.38815E-02  0.45282E-03
 -0.47130E-03  0.38815E-02  0.45282E-03
 -0.13865E-02  0.36559E-02  0.45282E-03
 -0.22211E-02  0.32179E-02  0.45282E-03
 -0.29267E-02  0.25928E-02  0.45282E-03
 -0.34621E-02  0.18171E-02  0.45282E-03
 -0.37964E-02  0.93572E-03  0.45282E-03
 -0.39100E-02 -0.47884E-18  0.45282E-03
 -0.37964E-02 -0.93572E-03  0.45282E-03
 -0.34621E-02 -0.18171E-02  0.45282E-03
 -0.29267E-02 -0.25928E-02  0.45282E-03
 -0.22211E-02 -0.32179E-02  0.45282E-03
 -0.13865E-02 -0.36559E-02  0.45282E-03
 -0.47130E-03 -0.38815E-02  0.45282E-03
  0.47130E-03 -0.38815E-02  0.45282E-03
  0.13865E-02 -0.36559E-02  0.45282E-03
  0.22211E-02 -0.32179E-02  0.45282E-03
  0.29267E-02 -0.25928E-02  0.45282E-03
  0.34621E-02 -0.18171E-02  0.45282E-03
  0.37964E-02 -0.93572E-03  0.45282E-03
  0.10351E-02  0.68567E-03  0.14320E-02
  0.17411E-02  0.12460E-02  0.14320E-02
  0.23149E-02  0.60355E-03  0.14320E-02
  0.16649E-02 -0.32040E-03  0.14320E-02
  0.30371E-02  0.15718E-03  0.14320E-02
  0.27870E-02 -0.66509E-03  0.14320E-02
  0.12826E-02  0.18455E-02  0.14320E-02
  0.64575E-03  0.14807E-02  0.14320E-02
  0.12154E-03  0.32574E-03  0.14320E-02
 -0.13248E-03  0.12075E-02  0.14320E-02
  0.93738E-03  0.22777E-02  0.14320E-02
  0.11249E-02  0.28185E-02  0.14320E-02
  0.17400E-02  0.24271E-02  0.14320E-02
  0.40463E-03  0.21693E-02  0.14320E-02
  0.39740E-03  0.29306E-02  0.14320E-02
 -0.77117E-03 -0.10065E-02  0.14320E-02
 -0.86854E-03  0.97583E-04  0.14320E-02
  0.45089E-03 -0.68648E-03  0.14320E-02
 -0.18368E-02 -0.70873E-03  0.14320E-02
 -0.18418E-02  0.85591E-04  0.14320E-02
 -0.27232E-02 -0.77474E-03  0.14320E-02
 -0.27965E-02  0.47000E-04  0.14320E-02
 -0.25400E-02 -0.15183E-02  0.14320E-02
 -0.19386E-02 -0.13207E-02  0.14320E-02
 -0.99032E-03  0.10197E-02  0.14320E-02
 -0.14460E-02 -0.17316E-02  0.14320E-02
 -0.31113E-03  0.20285E-02  0.14320E-02
 -0.10988E-02  0.18585E-02  0.14320E-02
 -0.18833E-02  0.17175E-02  0.14320E-02
 -0.18683E-02  0.91491E-03  0.14320E-02
 -0.16504E-03 -0.19806E-02  0.14320E-02
 -0.95465E-03 -0.23495E-02  0.14320E-02
  0.77336E-03 -0.17073E-02  0.14320E-02
  0.17201E-02 -0.14950E-02  0.14320E-02
  0.32125E-02  0.78348E-03  0.14320E-02
  0.28041E-02  0.12576E-02  0.14320E-02
  0.23033E-02  0.18674E-02  0.14320E-02
 -0.40296E-03  0.28792E-02  0.14320E-02
 -0.12093E-02  0.27099E-02  0.14320E-02
 -0.19439E-02  0.24591E-02  0.14320E-02
 -0.25022E-02  0.22358E-02  0.14320E-02
 -0.26350E-02  0.16502E-02  0.14320E-02
 -0.27599E-02  0.88095E-03  0.14320E-02
 -0.21155E-02 -0.21374E-02  0.14320E-02
 -0.16097E-02 -0.26936E-02  0.14320E-02
 -0.11965E-02 -0.31290E-02  0.14320E-02
 -0.59444E-03 -0.30381E-02  0.14320E-02
  0.19977E-03 -0.28751E-02  0.14320E-02
  0.10515E-02 -0.26484E-02  0.14320E-02
  0.18423E-02 -0.23754E-02  0.14320E-02
  0.24573E-02 -0.21571E-02  0.14320E-02
  0.26039E-02 -0.15080E-02  0.14320E-02
  0.37964E-02  0.93572E-03  0.14320E-02
  0.39100E-02  0.00000E+00  0.14320E-02
  0.34621E-02  0.18171E-02  0.14320E-02
  0.29267E-02  0.25928E-02  0.14320E-02
  0.22211E-02  0.32179E-02  0.14320E-02
  0.13865E-02  0.36559E-02  0.14320E-02
  0.47130E-03  0.38815E-02  0.14320E-02
 -0.47130E-03  0.38815E-02  0.14320E-02
 -0.13865E-02  0.36559E-02  0.14320E-02
 -0.22211E-02  0.32179E-02  0.14320E-02
 -0.29267E-02  0.25928E-02  0.14320E-02
 -0.34621E-02  0.18171E-02  0.14320E-02
 -0.37964E-02  0.93572E-03  0.14320E-02
 -0.39100E-02  0.47884E-18  0.14320E-02
 -0.37964E-02 -0.93572E-03  0.14320E-02
 -0.34621E-02 -0.18171E-02  0.14320E-02
 -0.29267E-02 -0.25928E-02  0.14320E-02
 -0.22211E-02 -0.32179E-02  0.14320E-02
 -0.13865E-02 -0.36559E-02  0.14320E-02
 -0.47130E-03 -0.38815E-02  0.14320E-02
  0.47130E-03 -0.38815E-02  0.14320E-02
  0.13865E-02 -0.36559E-02  0.14320E-02
  0.22211E-02 -0.32179E-02  0.14320E-02
  0.29267E-02 -0.25928E-02  0.14320E-02
  0.34621E-02 -0.18171E-02  0.14320E-02
  0.37964E-02 -0.93572E-03  0.14320E-02
  
CELLS       3486               17724
       1       0
       1       1
       1       2
       1       3
       1       4
       1       5
       1       6
       1       7
       1       8
       1       9
       1      10
       1      11
       1      12
       1      13
       1      14
       1      15
       1      16
       1      17
       1      18
       1      19
       1      20
       1      21
       1      22
       1      23
       1      24
       1      25
       1      26
       1      27
       1      28
       1      29
       1      30
       1      31
       1      32
       1      33
       1      34
       1      35
       1      36
       1      37
       1      38
       1      39
       1      40
       1      41
       1      42
       1      43
       1      44
       1      45
       1      46
       1      47
       1      48
       1      49
       1      50
       1      51
       1      52
       1      53
       1      54
       1      55
       1      56
       1      57
       1      58
       1      59
       1      60
       1      61
       1      62
       1      63
       1      64
       1      65
       1      66
       1      67
       1      68
       1      69
       1      70
       1      71
       1      72
       1      73
       1      74
       1      75
       1      76
       1      77
       1      78
       1      79
       1      80
       1      81
       1      82
       1      83
       1      84
       1      85
       1      86
       1      87
       1      88
       1      89
       1      90
       1      91
       1      92
       1      93
       1      94
       1      95
       1      96
       1      97
       1      98
       1      99
       1     100
       1     101
       1     102
       1     103
       1     104
       1     105
       1     106
       1     107
       1     108
       1     109
       1     110
       1     111
       1     112
       1     113
       1     114
       1     115
       1     116
       1     117
       1     118
       1     119
       1     120
       1     121
       1     122
       1     123
       1     124
       1     125
       1     126
       1     127
       1     128
       1     129
       1     130
       1     131
       1     132
       1     133
       1     134
       1     135
       1     136
       1     137
       1     138
       1     139
       1     140
       1     141
       1     142
       1     143
       1     144
       1     145
       1     146
       1     147
       1     148
       1     149
       1     150
       1     151
       1     152
       1     153
       1     154
       1     155
       1     156
       1     157
       1     158
       1     159
       1     160
       1     161
       1     162
       1     163
       1     164
       1     165
       1     166
       1     167
       1     168
       1     169
       1     170
       1     171
       1     172
       1     173
       1     174
       1     175
       1     176
       1     177
       1     178
       1     179
       1     180
       1     181
       1     182
       1     183
       1     184
       1     185
       1     186
       1     187
       1     188
       1     189
       1     190
       1     191
       1     192
       1     193
       1     194
       1     195
       1     196
       1     197
       1     198
       1     199
       1     200
       1     201
       1     202
       1     203
       1     204
       1     205
       1     206
       1     207
       1     208
       1     209
       1     210
       1     211
       1     212
       1     213
       1     214
       1     215
       1     216
       1     217
       1     218
       1     219
       1     220
       1     221
       1     222
       1     223
       1     224
       1     225
       1     226
       1     227
       1     228
       1     229
       1     230
       1     231
       1     232
       1     233
       1     234
       1     235
       1     236
       1     237
       1     238
       1     239
       1     240
       1     241
       1     242
       1     243
       1     244
       1     245
       1     246
       1     247
       1     248
       1     249
       1     250
       1     251
       1     252
       1     253
       1     254
       1     255
       1     256
       1     257
       1     258
       1     259
       1     260
       1     261
       1     262
       1     263
       1     264
       1     265
       1     266
       1     267
       1     268
       1     269
       1     270
       1     271
       1     272
       1     273
       1     274
       1     275
       1     276
       1     277
       1     278
       1     279
       1     280
       1     281
       1     282
       1     283
       1     284
       1     285
       1     286
       1     287
       1     288
       1     289
       1     290
       1     291
       1     292
       1     293
       1     294
       1     295
       1     296
       1     297
       1     298
       1     299
       1     300
       1     301
       1     302
       1     303
       1     304
       1     305
       1     306
       1     307
       1     308
       1     309
       1     310
       1     311
       1     312
       1     313
       1     314
       1     315
       1     316
       1     317
       1     318
       1     319
       1     320
       1     321
       1     322
       1     323
       1     324
       1     325
       1     326
       1     327
       1     328
       1     329
       1     330
       1     331
       1     332
       1     333
       1     334
       1     335
       1     336
       1     337
       1     338
       1     339
       1     340
       1     341
       1     342
       1     343
       1     344
       1     345
       1     346
       1     347
       1     348
       1     349
       1     350
       1     351
       1     352
       1     353
       1     354
       1     355
       1     356
       1     357
       1     358
       1     359
       1     360
       1     361
       1     362
       1     363
       1     364
       1     365
       1     366
       1     367
       1     368
       1     369
       1     370
       1     371
       1     372
       1     373
       1     374
       1     375
       1     376
       1     377
       1     378
       1     379
       1     380
       1     381
       1     382
       1     383
       1     384
       1     385
       1     386
       1     387
       1     388
       1     389
       1     390
       1     391
       1     392
       1     393
       1     394
       1     395
       1     396
       1     397
       1     398
       1     399
       1     400
       1     401
       1     402
       1     403
       1     404
       1     405
       1     406
       1     407
       1     408
       1     409
       1     410
       1     411
       1     412
       1     413
       1     414
       1     415
       1     416
       1     417
       1     418
       1     419
       1     420
       1     421
       1     422
       1     423
       1     424
       1     425
       1     426
       1     427
       1     428
       1     429
       1     430
       1     431
       1     432
       1     433
       1     434
       1     435
       1     436
       1     437
       1     438
       1     439
       1     440
       1     441
       1     442
       1     443
       1     444
       1     445
       1     446
       1     447
       1     448
       1     449
       1     450
       1     451
       1     452
       1     453
       1     454
       1     455
       1     456
       1     457
       1     458
       1     459
       1     460
       1     461
       1     462
       1     463
       1     464
       1     465
       1     466
       1     467
       1     468
       1     469
       1     470
       1     471
       1     472
       1     473
       1     474
       1     475
       1     476
       1     477
       1     478
       1     479
       1     480
       1     481
       1     482
       1     483
       1     484
       1     485
       1     486
       1     487
       1     488
       1     489
       1     490
       1     491
       1     492
       1     493
       1     494
       1     495
       1     496
       1     497
       1     498
       1     499
       1     500
       1     501
       1     502
       1     503
       1     504
       1     505
       1     506
       1     507
       1     508
       1     509
       1     510
       1     511
       1     512
       1     513
       1     514
       1     515
       1     516
       1     517
       1     518
       1     519
       1     520
       1     521
       1     522
       1     523
       1     524
       1     525
       1     526
       1     527
       1     528
       1     529
       1     530
       1     531
       1     532
       1     533
       1     534
       1     535
       1     536
       1     537
       1     538
       1     539
       1     540
       1     541
       1     542
       1     543
       1     544
       1     545
       1     546
       1     547
       1     548
       1     549
       1     550
       1     551
       1     552
       1     553
       1     554
       1     555
       1     556
       1     557
       1     558
       1     559
       1     560
       1     561
       1     562
       1     563
       1     564
       1     565
       1     566
       1     567
       1     568
       1     569
       1     570
       1     571
       1     572
       1     573
       1     574
       1     575
       1     576
       1     577
       1     578
       1     579
       1     580
       1     581
       1     582
       1     583
       1     584
       1     585
       1     586
       1     587
       1     588
       1     589
       1     590
       1     591
       1     592
       1     593
       1     594
       1     595
       1     596
       1     597
       1     598
       1     599
       1     600
       1     601
       1     602
       1     603
       1     604
       1     605
       1     606
       1     607
       1     608
       1     609
       1     610
       1     611
       1     612
       1     613
       1     614
       1     615
       1     616
       1     617
       1     618
       1     619
       1     620
       1     621
       1     622
       1     623
       1     624
       1     625
       1     626
       1     627
       1     628
       1     629
       1     630
       1     631
       1     632
       1     633
       1     634
       1     635
       1     636
       1     637
       1     638
       1     639
       1     640
       1     641
       1     642
       1     643
       1     644
       1     645
       1     646
       1     647
       1     648
       1     649
       1     650
       1     651
       1     652
       1     653
       1     654
       1     655
       1     656
       1     657
       1     658
       1     659
       1     660
       1     661
       1     662
       1     663
       1     664
       1     665
       1     666
       1     667
       1     668
       1     669
       1     670
       1     671
       1     672
       1     673
       1     674
       1     675
       1     676
       1     677
       1     678
       1     679
       1     680
       1     681
       1     682
       1     683
       1     684
       1     685
       1     686
       1     687
       1     688
       1     689
       1     690
       1     691
       1     692
       1     693
       1     694
       1     695
       1     696
       1     697
       1     698
       1     699
       1     700
       1     701
       1     702
       1     703
       1     704
       1     705
       1     706
       1     707
       1     708
       1     709
       1     710
       1     711
       1     712
       1     713
       1     714
       1     715
       1     716
       1     717
       1     718
       1     719
       1     720
       1     721
       1     722
       1     723
       1     724
       1     725
       1     726
       1     727
       1     728
       1     729
       1     730
       1     731
       1     732
       1     733
       1     734
       1     735
       1     736
       1     737
       1     738
       1     739
       1     740
       1     741
       1     742
       1     743
       1     744
       1     745
       1     746
       1     747
       1     748
       1     749
       1     750
       1     751
       1     752
       1     753
       1     754
       1     755
       1     756
       1     757
       1     758
       1     759
       1     760
       1     761
       1     762
       1     763
       1     764
       1     765
       1     766
       1     767
       1     768
       1     769
       1     770
       1     771
       1     772
       1     773
       1     774
       1     775
       1     776
       1     777
       1     778
       1     779
       1     780
       1     781
       1     782
       1     783
       1     784
       1     785
       1     786
       1     787
       1     788
       1     789
       1     790
       1     791
       1     792
       1     793
       1     794
       1     795
       1     796
       1     797
       1     798
       1     799
       1     800
       1     801
       1     802
       1     803
       1     804
       1     805
       1     806
       1     807
       1     808
       1     809
       1     810
       1     811
       1     812
       1     813
       1     814
       1     815
       1     816
       1     817
       1     818
       1     819
       1     820
       1     821
       1     822
       1     823
       1     824
       1     825
       1     826
       1     827
       1     828
       1     829
       1     830
       1     831
       1     832
       1     833
       1     834
       1     835
       1     836
       1     837
       1     838
       1     839
       1     840
       1     841
       1     842
       1     843
       1     844
       1     845
       1     846
       1     847
       1     848
       1     849
       1     850
       1     851
       1     852
       1     853
       1     854
       1     855
       1     856
       1     857
       1     858
       1     859
       1     860
       1     861
       1     862
       1     863
       1     864
       1     865
       1     866
       1     867
       1     868
       1     869
       1     870
       1     871
       1     872
       1     873
       1     874
       1     875
       1     876
       1     877
       1     878
       1     879
       1     880
       1     881
       1     882
       1     883
       1     884
       1     885
       1     886
       1     887
       1     888
       1     889
       1     890
       1     891
       1     892
       1     893
       1     894
       1     895
       1     896
       1     897
       1     898
       1     899
       1     900
       1     901
       1     902
       1     903
       1     904
       1     905
       1     906
       1     907
       1     908
       1     909
       1     910
       1     911
       1     912
       1     913
       1     914
       1     915
       1     916
       1     917
       1     918
       1     919
       1     920
       1     921
       1     922
       1     923
       1     924
       1     925
       1     926
       1     927
       1     928
       1     929
       1     930
       1     931
       1     932
       1     933
       1     934
       1     935
       1     936
       1     937
       1     938
       1     939
       1     940
       1     941
       1     942
       1     943
       1     944
       1     945
       1     946
       1     947
       1     948
       1     949
       1     950
       1     951
       1     952
       1     953
       1     954
       1     955
       1     956
       1     957
       1     958
       1     959
       1     960
       1     961
       1     962
       1     963
       1     964
       1     965
       1     966
       1     967
       1     968
       1     969
       1     970
       1     971
       1     972
       1     973
       1     974
       1     975
       1     976
       1     977
       1     978
       1     979
       1     980
       1     981
       1     982
       1     983
       1     984
       1     985
       1     986
       1     987
       1     988
       1     989
       1     990
       1     991
       1     992
       1     993
       1     994
       1     995
       1     996
       1     997
       1     998
       1     999
       1    1000
       1    1001
       1    1002
       1    1003
       1    1004
       1    1005
       1    1006
       1    1007
       1    1008
       1    1009
       1    1010
       1    1011
       1    1012
       1    1013
       1    1014
       1    1015
       1    1016
       1    1017
       1    1018
       1    1019
       1    1020
       1    1021
       1    1022
       1    1023
       1    1024
       1    1025
       1    1026
       1    1027
       1    1028
       1    1029
       1    1030
       1    1031
       1    1032
       1    1033
       1    1034
       1    1035
       1    1036
       1    1037
       1    1038
       1    1039
       1    1040
       1    1041
       1    1042
       1    1043
       1    1044
       1    1045
       1    1046
       1    1047
       1    1048
       1    1049
       1    1050
       1    1051
       1    1052
       1    1053
       1    1054
       1    1055
       1    1056
       1    1057
       1    1058
       1    1059
       1    1060
       1    1061
       1    1062
       1    1063
       1    1064
       1    1065
       1    1066
       1    1067
       1    1068
       1    1069
       1    1070
       1    1071
       1    1072
       1    1073
       1    1074
       1    1075
       1    1076
       1    1077
       1    1078
       1    1079
       1    1080
       1    1081
       1    1082
       1    1083
       1    1084
       1    1085
       1    1086
       1    1087
       1    1088
       1    1089
       1    1090
       1    1091
       1    1092
       1    1093
       1    1094
       1    1095
       1    1096
       1    1097
       1    1098
       1    1099
       1    1100
       1    1101
       1    1102
       1    1103
       1    1104
       1    1105
       1    1106
       1    1107
       1    1108
       1    1109
       1    1110
       1    1111
       1    1112
       1    1113
       1    1114
       1    1115
       1    1116
       1    1117
       1    1118
       1    1119
       1    1120
       1    1121
       1    1122
       1    1123
       1    1124
       1    1125
       1    1126
       1    1127
       1    1128
       1    1129
       1    1130
       1    1131
       1    1132
       1    1133
       1    1134
       1    1135
       1    1136
       1    1137
       1    1138
       1    1139
       1    1140
       1    1141
       1    1142
       1    1143
       1    1144
       1    1145
       1    1146
       1    1147
       1    1148
       1    1149
       1    1150
       1    1151
       1    1152
       1    1153
       1    1154
       1    1155
       1    1156
       1    1157
       1    1158
       1    1159
       1    1160
       1    1161
       1    1162
       1    1163
       1    1164
       1    1165
       1    1166
       1    1167
       1    1168
       1    1169
       1    1170
       1    1171
       1    1172
       1    1173
       1    1174
       1    1175
       1    1176
       1    1177
       1    1178
       1    1179
       1    1180
       1    1181
       1    1182
       1    1183
       1    1184
       1    1185
       1    1186
       1    1187
       1    1188
       1    1189
       1    1190
       1    1191
       1    1192
       1    1193
       1    1194
       1    1195
       1    1196
       1    1197
       1    1198
       1    1199
       1    1200
       1    1201
       1    1202
       1    1203
       1    1204
       1    1205
       1    1206
       1    1207
       1    1208
       1    1209
       1    1210
       1    1211
       1    1212
       1    1213
       1    1214
       1    1215
       1    1216
       1    1217
       1    1218
       1    1219
       1    1220
       1    1221
       1    1222
       1    1223
       1    1224
       1    1225
       1    1226
       1    1227
       1    1228
       1    1229
       1    1230
       1    1231
       1    1232
       1    1233
       1    1234
       1    1235
       1    1236
       1    1237
       1    1238
       1    1239
       1    1240
       1    1241
       1    1242
       1    1243
       1    1244
       1    1245
       1    1246
       1    1247
       1    1248
       1    1249
       1    1250
       1    1251
       1    1252
       1    1253
       1    1254
       1    1255
       1    1256
       1    1257
       1    1258
       1    1259
       1    1260
       1    1261
       1    1262
       1    1263
       1    1264
       1    1265
       1    1266
       1    1267
       1    1268
       1    1269
       1    1270
       1    1271
       1    1272
       1    1273
       1    1274
       1    1275
       1    1276
       1    1277
       1    1278
       1    1279
       1    1280
       1    1281
       1    1282
       1    1283
       1    1284
       1    1285
       1    1286
       1    1287
       1    1288
       1    1289
       1    1290
       1    1291
       1    1292
       1    1293
       1    1294
       1    1295
       1    1296
       1    1297
       1    1298
       1    1299
       1    1300
       1    1301
       1    1302
       1    1303
       1    1304
       1    1305
       1    1306
       1    1307
       1    1308
       1    1309
       1    1310
       1    1311
       1    1312
       1    1313
       1    1314
       1    1315
       1    1316
       1    1317
       1    1318
       1    1319
       1    1320
       1    1321
       1    1322
       1    1323
       1    1324
       1    1325
       1    1326
       1    1327
       1    1328
       1    1329
       1    1330
       1    1331
       1    1332
       1    1333
       1    1334
       1    1335
       1    1336
       1    1337
       1    1338
       1    1339
       1    1340
       1    1341
       1    1342
       1    1343
       1    1344
       1    1345
       1    1346
       1    1347
       1    1348
       1    1349
       1    1350
       1    1351
       1    1352
       1    1353
       1    1354
       1    1355
       1    1356
       1    1357
       1    1358
       1    1359
       1    1360
       1    1361
       1    1362
       1    1363
       1    1364
       1    1365
       1    1366
       1    1367
       1    1368
       1    1369
       1    1370
       1    1371
       1    1372
       1    1373
       1    1374
       1    1375
       1    1376
       1    1377
       1    1378
       1    1379
       1    1380
       1    1381
       1    1382
       1    1383
       1    1384
       1    1385
       1    1386
       1    1387
       1    1388
       1    1389
       1    1390
       1    1391
       1    1392
       1    1393
       1    1394
       1    1395
       1    1396
       1    1397
       1    1398
       1    1399
       1    1400
       1    1401
       1    1402
       1    1403
       1    1404
       1    1405
       1    1406
       1    1407
       1    1408
       1    1409
       1    1410
       1    1411
       1    1412
       1    1413
       1    1414
       1    1415
       1    1416
       1    1417
       1    1418
       1    1419
       1    1420
       1    1421
       1    1422
       1    1423
       1    1424
       1    1425
       1    1426
       1    1427
       1    1428
       1    1429
       1    1430
       1    1431
       1    1432
       1    1433
       1    1434
       1    1435
       1    1436
       1    1437
       1    1438
       1    1439
       1    1440
       1    1441
       1    1442
       1    1443
       1    1444
       1    1445
       1    1446
       1    1447
       1    1448
       1    1449
       1    1450
       1    1451
       1    1452
       1    1453
       1    1454
       1    1455
       1    1456
       1    1457
       1    1458
       1    1459
       1    1460
       1    1461
       1    1462
       1    1463
       1    1464
       1    1465
       1    1466
       1    1467
       1    1468
       1    1469
       1    1470
       1    1471
       1    1472
       1    1473
       1    1474
       1    1475
       1    1476
       1    1477
       1    1478
       1    1479
       1    1480
       1    1481
       1    1482
       1    1483
       1    1484
       1    1485
       1    1486
       1    1487
       1    1488
       1    1489
       1    1490
       1    1491
       1    1492
       1    1493
       1    1494
       1    1495
       1    1496
       1    1497
       1    1498
       1    1499
       1    1500
       1    1501
       1    1502
       1    1503
       1    1504
       1    1505
       1    1506
       1    1507
       1    1508
       1    1509
       1    1510
       1    1511
       1    1512
       1    1513
       1    1514
       1    1515
       1    1516
       1    1517
       1    1518
       1    1519
       1    1520
       1    1521
       1    1522
       1    1523
       1    1524
       1    1525
       1    1526
       1    1527
       1    1528
       1    1529
       1    1530
       1    1531
       1    1532
       1    1533
       1    1534
       1    1535
       1    1536
       1    1537
       1    1538
       1    1539
       1    1540
       1    1541
       1    1542
       1    1543
       1    1544
       1    1545
       1    1546
       1    1547
       1    1548
       1    1549
       1    1550
       1    1551
       1    1552
       1    1553
       1    1554
       1    1555
       1    1556
       1    1557
       1    1558
       1    1559
       1    1560
       1    1561
       1    1562
       1    1563
       1    1564
       1    1565
       1    1566
       1    1567
       1    1568
       1    1569
       1    1570
       1    1571
       1    1572
       1    1573
       1    1574
       1    1575
       1    1576
       1    1577
       1    1578
       1    1579
       1    1580
       1    1581
       1    1582
       1    1583
       1    1584
       1    1585
       1    1586
       1    1587
       1    1588
       1    1589
       1    1590
       1    1591
       1    1592
       1    1593
       1    1594
       1    1595
       1    1596
       1    1597
       1    1598
       1    1599
       1    1600
       1    1601
       1    1602
       1    1603
       1    1604
       1    1605
       1    1606
       1    1607
       1    1608
       1    1609
       1    1610
       1    1611
       1    1612
       1    1613
       1    1614
       1    1615
       1    1616
       1    1617
       1    1618
       1    1619
       1    1620
       1    1621
       1    1622
       1    1623
       1    1624
       1    1625
       1    1626
       1    1627
       1    1628
       1    1629
       1    1630
       1    1631
       1    1632
       1    1633
       1    1634
       1    1635
       1    1636
       1    1637
       1    1638
       1    1639
       1    1640
       1    1641
       1    1642
       1    1643
       1    1644
       1    1645
       1    1646
       1    1647
       1    1648
       1    1649
       1    1650
       1    1651
       1    1652
       1    1653
       1    1654
       1    1655
       1    1656
       1    1657
       1    1658
       1    1659
       1    1660
       1    1661
       1    1662
       1    1663
       1    1664
       1    1665
       1    1666
       1    1667
       1    1668
       1    1669
       1    1670
       1    1671
       1    1672
       1    1673
       1    1674
       1    1675
       1    1676
       1    1677
       1    1678
       1    1679
       1    1680
       1    1681
       1    1682
       1    1683
       1    1684
       1    1685
       1    1686
       1    1687
       1    1688
       1    1689
       1    1690
       1    1691
       1    1692
       1    1693
       1    1694
       1    1695
       1    1696
       1    1697
       1    1698
       1    1699
       1    1700
       1    1701
       1    1702
       1    1703
       1    1704
       1    1705
       1    1706
       1    1707
       1    1708
       1    1709
       1    1710
       1    1711
       1    1712
       1    1713
       1    1714
       1    1715
       1    1716
       1    1717
       1    1718
       1    1719
       1    1720
       1    1721
       1    1722
       1    1723
       1    1724
       1    1725
       1    1726
       1    1727
       1    1728
       1    1729
       1    1730
       1    1731
       1    1732
       1    1733
       1    1734
       1    1735
       1    1736
       1    1737
       1    1738
       1    1739
       1    1740
       1    1741
       1    1742
       1    1743
       1    1744
       1    1745
       1    1746
       1    1747
       1    1748
       1    1749
       1    1750
       1    1751
       1    1752
       1    1753
       1    1754
       1    1755
       1    1756
       1    1757
       1    1758
       1    1759
       1    1760
       1    1761
       1    1762
       1    1763
       1    1764
       1    1765
       1    1766
       1    1767
       1    1768
       1    1769
       1    1770
       1    1771
       1    1772
       1    1773
       1    1774
       1    1775
       1    1776
       1    1777
       1    1778
       1    1779
       1    1780
       1    1781
       1    1782
       1    1783
       1    1784
       1    1785
       1    1786
       1    1787
       1    1788
       1    1789
       1    1790
       1    1791
       1    1792
       1    1793
       1    1794
       1    1795
       1    1796
       1    1797
       1    1798
       1    1799
       1    1800
       1    1801
       1    1802
       1    1803
       1    1804
       1    1805
       1    1806
       1    1807
       1    1808
       1    1809
       1    1810
       1    1811
       1    1812
       1    1813
       1    1814
       1    1815
       1    1816
       1    1817
       1    1818
       1    1819
       1    1820
       1    1821
       1    1822
       1    1823
       1    1824
       1    1825
       1    1826
       1    1827
       1    1828
       1    1829
       1    1830
       1    1831
       1    1832
       1    1833
       1    1834
       1    1835
       1    1836
       1    1837
       1    1838
       1    1839
       1    1840
       1    1841
       1    1842
       1    1843
       1    1844
       1    1845
       1    1846
       1    1847
       1    1848
       1    1849
       1    1850
       1    1851
       1    1852
       1    1853
       1    1854
       1    1855
       1    1856
       1    1857
       1    1858
       1    1859
       1    1860
       1    1861
       1    1862
       1    1863
       1    1864
       1    1865
       1    1866
       1    1867
       1    1868
       1    1869
       1    1870
       1    1871
       1    1872
       1    1873
       1    1874
       1    1875
       1    1876
       1    1877
       1    1878
       1    1879
       1    1880
       1    1881
       1    1882
       1    1883
       1    1884
       1    1885
       1    1886
       1    1887
       1    1888
       1    1889
       1    1890
       1    1891
       1    1892
       1    1893
       1    1894
       1    1895
       1    1896
       1    1897
       1    1898
       1    1899
       1    1900
       1    1901
       1    1902
       1    1903
       1    1904
       1    1905
       1    1906
       1    1907
       1    1908
       1    1909
       1    1910
       1    1911
       1    1912
       1    1913
       1    1914
       1    1915
       1    1916
       1    1917
       1    1918
       1    1919
       1    1920
       1    1921
       1    1922
       1    1923
       1    1924
       1    1925
       1    1926
       1    1927
       1    1928
       1    1929
       1    1930
       1    1931
       1    1932
       1    1933
       1    1934
       1    1935
       1    1936
       1    1937
       1    1938
       1    1939
       1    1940
       1    1941
       1    1942
       1    1943
       1    1944
       1    1945
       1    1946
       1    1947
       1    1948
       1    1949
       8       0       1       2       3       4       5       6       7
       8       2       8       9       3       6      10      11       7
       8      12       1       0      13      14       5       4      15
       8       0      16      17      13       4      18      19      15
       8      20      21      22      12      23      24      25      14
       8      26      27      21      20      28      29      24      23
       8      13      26      20      12      15      28      23      14
       8      30      31      16      32      33      34      18      35
       8      36      37      31      30      38      39      34      33
       8      40      41      37      36      42      43      39      38
       8      44      40      36      45      46      42      38      47
       8      48      17      16      31      49      19      18      34
       8      30      50      45      36      33      51      47      38
       8       0       3      32      16       4       7      35      18
       8      52      26      13      17      53      28      15      19
       8      54      52      17      48      55      53      19      49
       8      56      54      48      57      58      55      49      59
       8      37      57      48      31      39      59      49      34
       8      60      61      50      30      62      63      51      33
       8      64      60      30      32      65      62      33      35
       8      66      64      32       3      67      65      35       7
       8      68       8       2      69      70      10       6      71
       8      72      69       2       1      73      71       6       5
       8      22      72       1      12      25      73       5      14
       8      74      27      26      52      75      29      28      53
       8      76      74      52      54      77      75      53      55
       8      78      76      54      56      79      77      55      58
       8      80      78      56      81      82      79      58      83
       8      84      81      56      57      85      83      58      59
       8      41      84      57      37      43      85      59      39
       8      86      44      45      50      87      46      47      51
       8      88      86      50      61      89      87      51      63
       8      90      88      61      91      92      89      63      93
       8      94      91      61      60      95      93      63      62
       8      96      94      60      64      97      95      62      65
       8      98      96      64      66      99      97      65      67
       8     100      98      66     101     102      99      67     103
       8       9     101      66       3      11     103      67       7
       8     104     105       8      68     106     107      10      70
       8     108     104      68      69     109     106      70      71
       8     110     108      69      72     111     109      71      73
       8     112     110      72      22     113     111      73      25
       8     114     112      22      21     115     113      25      24
       8     116     114      21      27     117     115      24      29
       8     118     116      27      74     119     117      29      75
       8     120     118      74      76     121     119      75      77
       8     122     120      76      78     123     121      77      79
       8     124     122      78      80     125     123      79      82
       8     126     124      80      81     127     125      82      83
       8     128     126      81      84     129     127      83      85
       8     130     128      84      41     131     129      85      43
       8     132     130      41      40     133     131      43      42
       8     134     132      40      44     135     133      42      46
       8     136     134      44      86     137     135      46      87
       8     138     136      86      88     139     137      87      89
       8     140     138      88      90     141     139      89      92
       8     142     140      90      91     143     141      92      93
       8     144     142      91      94     145     143      93      95
       8     146     144      94      96     147     145      95      97
       8     148     146      96      98     149     147      97      99
       8     150     148      98     100     151     149      99     102
       8     152     150     100     101     153     151     102     103
       8     154     152     101       9     155     153     103      11
       8     105     154       9       8     107     155      11      10
       8     156     157     158     159       0       1       2       3
       8     158     160     161     159       2       8       9       3
       8     162     157     156     163      12       1       0      13
       8     156     164     165     163       0      16      17      13
       8     166     167     168     162      20      21      22      12
       8     169     170     167     166      26      27      21      20
       8     163     169     166     162      13      26      20      12
       8     171     172     164     173      30      31      16      32
       8     174     175     172     171      36      37      31      30
       8     176     177     175     174      40      41      37      36
       8     178     176     174     179      44      40      36      45
       8     180     165     164     172      48      17      16      31
       8     171     181     179     174      30      50      45      36
       8     156     159     173     164       0       3      32      16
       8     182     169     163     165      52      26      13      17
       8     183     182     165     180      54      52      17      48
       8     184     183     180     185      56      54      48      57
       8     175     185     180     172      37      57      48      31
       8     186     187     181     171      60      61      50      30
       8     188     186     171     173      64      60      30      32
       8     189     188     173     159      66      64      32       3
       8     190     160     158     191      68       8       2      69
       8     192     191     158     157      72      69       2       1
       8     168     192     157     162      22      72       1      12
       8     193     170     169     182      74      27      26      52
       8     194     193     182     183      76      74      52      54
       8     195     194     183     184      78      76      54      56
       8     196     195     184     197      80      78      56      81
       8     198     197     184     185      84      81      56      57
       8     177     198     185     175      41      84      57      37
       8     199     178     179     181      86      44      45      50
       8     200     199     181     187      88      86      50      61
       8     201     200     187     202      90      88      61      91
       8     203     202     187     186      94      91      61      60
       8     204     203     186     188      96      94      60      64
       8     205     204     188     189      98      96      64      66
       8     206     205     189     207     100      98      66     101
       8     161     207     189     159       9     101      66       3
       8     208     209     160     190     104     105       8      68
       8     210     208     190     191     108     104      68      69
       8     211     210     191     192     110     108      69      72
       8     212     211     192     168     112     110      72      22
       8     213     212     168     167     114     112      22      21
       8     214     213     167     170     116     114      21      27
       8     215     214     170     193     118     116      27      74
       8     216     215     193     194     120     118      74      76
       8     217     216     194     195     122     120      76      78
       8     218     217     195     196     124     122      78      80
       8     219     218     196     197     126     124      80      81
       8     220     219     197     198     128     126      81      84
       8     221     220     198     177     130     128      84      41
       8     222     221     177     176     132     130      41      40
       8     223     222     176     178     134     132      40      44
       8     224     223     178     199     136     134      44      86
       8     225     224     199     200     138     136      86      88
       8     226     225     200     201     140     138      88      90
       8     227     226     201     202     142     140      90      91
       8     228     227     202     203     144     142      91      94
       8     229     228     203     204     146     144      94      96
       8     230     229     204     205     148     146      96      98
       8     231     230     205     206     150     148      98     100
       8     232     231     206     207     152     150     100     101
       8     233     232     207     161     154     152     101       9
       8     209     233     161     160     105     154       9       8
       8     234     235     236     237     156     157     158     159
       8     236     238     239     237     158     160     161     159
       8     240     235     234     241     162     157     156     163
       8     234     242     243     241     156     164     165     163
       8     244     245     246     240     166     167     168     162
       8     247     248     245     244     169     170     167     166
       8     241     247     244     240     163     169     166     162
       8     249     250     242     251     171     172     164     173
       8     252     253     250     249     174     175     172     171
       8     254     255     253     252     176     177     175     174
       8     256     254     252     257     178     176     174     179
       8     258     243     242     250     180     165     164     172
       8     249     259     257     252     171     181     179     174
       8     234     237     251     242     156     159     173     164
       8     260     247     241     243     182     169     163     165
       8     261     260     243     258     183     182     165     180
       8     262     261     258     263     184     183     180     185
       8     253     263     258     250     175     185     180     172
       8     264     265     259     249     186     187     181     171
       8     266     264     249     251     188     186     171     173
       8     267     266     251     237     189     188     173     159
       8     268     238     236     269     190     160     158     191
       8     270     269     236     235     192     191     158     157
       8     246     270     235     240     168     192     157     162
       8     271     248     247     260     193     170     169     182
       8     272     271     260     261     194     193     182     183
       8     273     272     261     262     195     194     183     184
       8     274     273     262     275     196     195     184     197
       8     276     275     262     263     198     197     184     185
       8     255     276     263     253     177     198     185     175
       8     277     256     257     259     199     178     179     181
       8     278     277     259     265     200     199     181     187
       8     279     278     265     280     201     200     187     202
       8     281     280     265     264     203     202     187     186
       8     282     281     264     266     204     203     186     188
       8     283     282     266     267     205     204     188     189
       8     284     283     267     285     206     205     189     207
       8     239     285     267     237     161     207     189     159
       8     286     287     238     268     208     209     160     190
       8     288     286     268     269     210     208     190     191
       8     289     288     269     270     211     210     191     192
       8     290     289     270     246     212     211     192     168
       8     291     290     246     245     213     212     168     167
       8     292     291     245     248     214     213     167     170
       8     293     292     248     271     215     214     170     193
       8     294     293     271     272     216     215     193     194
       8     295     294     272     273     217     216     194     195
       8     296     295     273     274     218     217     195     196
       8     297     296     274     275     219     218     196     197
       8     298     297     275     276     220     219     197     198
       8     299     298     276     255     221     220     198     177
       8     300     299     255     254     222     221     177     176
       8     301     300     254     256     223     222     176     178
       8     302     301     256     277     224     223     178     199
       8     303     302     277     278     225     224     199     200
       8     304     303     278     279     226     225     200     201
       8     305     304     279     280     227     226     201     202
       8     306     305     280     281     228     227     202     203
       8     307     306     281     282     229     228     203     204
       8     308     307     282     283     230     229     204     205
       8     309     308     283     284     231     230     205     206
       8     310     309     284     285     232     231     206     207
       8     311     310     285     239     233     232     207     161
       8     287     311     239     238     209     233     161     160
       8     312     313     314     315     234     235     236     237
       8     314     316     317     315     236     238     239     237
       8     318     313     312     319     240     235     234     241
       8     312     320     321     319     234     242     243     241
       8     322     323     324     318     244     245     246     240
       8     325     326     323     322     247     248     245     244
       8     319     325     322     318     241     247     244     240
       8     327     328     320     329     249     250     242     251
       8     330     331     328     327     252     253     250     249
       8     332     333     331     330     254     255     253     252
       8     334     332     330     335     256     254     252     257
       8     336     321     320     328     258     243     242     250
       8     327     337     335     330     249     259     257     252
       8     312     315     329     320     234     237     251     242
       8     338     325     319     321     260     247     241     243
       8     339     338     321     336     261     260     243     258
       8     340     339     336     341     262     261     258     263
       8     331     341     336     328     253     263     258     250
       8     342     343     337     327     264     265     259     249
       8     344     342     327     329     266     264     249     251
       8     345     344     329     315     267     266     251     237
       8     346     316     314     347     268     238     236     269
       8     348     347     314     313     270     269     236     235
       8     324     348     313     318     246     270     235     240
       8     349     326     325     338     271     248     247     260
       8     350     349     338     339     272     271     260     261
       8     351     350     339     340     273     272     261     262
       8     352     351     340     353     274     273     262     275
       8     354     353     340     341     276     275     262     263
       8     333     354     341     331     255     276     263     253
       8     355     334     335     337     277     256     257     259
       8     356     355     337     343     278     277     259     265
       8     357     356     343     358     279     278     265     280
       8     359     358     343     342     281     280     265     264
       8     360     359     342     344     282     281     264     266
       8     361     360     344     345     283     282     266     267
       8     362     361     345     363     284     283     267     285
       8     317     363     345     315     239     285     267     237
       8     364     365     316     346     286     287     238     268
       8     366     364     346     347     288     286     268     269
       8     367     366     347     348     289     288     269     270
       8     368     367     348     324     290     289     270     246
       8     369     368     324     323     291     290     246     245
       8     370     369     323     326     292     291     245     248
       8     371     370     326     349     293     292     248     271
       8     372     371     349     350     294     293     271     272
       8     373     372     350     351     295     294     272     273
       8     374     373     351     352     296     295     273     274
       8     375     374     352     353     297     296     274     275
       8     376     375     353     354     298     297     275     276
       8     377     376     354     333     299     298     276     255
       8     378     377     333     332     300     299     255     254
       8     379     378     332     334     301     300     254     256
       8     380     379     334     355     302     301     256     277
       8     381     380     355     356     303     302     277     278
       8     382     381     356     357     304     303     278     279
       8     383     382     357     358     305     304     279     280
       8     384     383     358     359     306     305     280     281
       8     385     384     359     360     307     306     281     282
       8     386     385     360     361     308     307     282     283
       8     387     386     361     362     309     308     283     284
       8     388     387     362     363     310     309     284     285
       8     389     388     363     317     311     310     285     239
       8     365     389     317     316     287     311     239     238
       8     390     391     392     393     312     313     314     315
       8     392     394     395     393     314     316     317     315
       8     396     391     390     397     318     313     312     319
       8     390     398     399     397     312     320     321     319
       8     400     401     402     396     322     323     324     318
       8     403     404     401     400     325     326     323     322
       8     397     403     400     396     319     325     322     318
       8     405     406     398     407     327     328     320     329
       8     408     409     406     405     330     331     328     327
       8     410     411     409     408     332     333     331     330
       8     412     410     408     413     334     332     330     335
       8     414     399     398     406     336     321     320     328
       8     405     415     413     408     327     337     335     330
       8     390     393     407     398     312     315     329     320
       8     416     403     397     399     338     325     319     321
       8     417     416     399     414     339     338     321     336
       8     418     417     414     419     340     339     336     341
       8     409     419     414     406     331     341     336     328
       8     420     421     415     405     342     343     337     327
       8     422     420     405     407     344     342     327     329
       8     423     422     407     393     345     344     329     315
       8     424     394     392     425     346     316     314     347
       8     426     425     392     391     348     347     314     313
       8     402     426     391     396     324     348     313     318
       8     427     404     403     416     349     326     325     338
       8     428     427     416     417     350     349     338     339
       8     429     428     417     418     351     350     339     340
       8     430     429     418     431     352     351     340     353
       8     432     431     418     419     354     353     340     341
       8     411     432     419     409     333     354     341     331
       8     433     412     413     415     355     334     335     337
       8     434     433     415     421     356     355     337     343
       8     435     434     421     436     357     356     343     358
       8     437     436     421     420     359     358     343     342
       8     438     437     420     422     360     359     342     344
       8     439     438     422     423     361     360     344     345
       8     440     439     423     441     362     361     345     363
       8     395     441     423     393     317     363     345     315
       8     442     443     394     424     364     365     316     346
       8     444     442     424     425     366     364     346     347
       8     445     444     425     426     367     366     347     348
       8     446     445     426     402     368     367     348     324
       8     447     446     402     401     369     368     324     323
       8     448     447     401     404     370     369     323     326
       8     449     448     404     427     371     370     326     349
       8     450     449     427     428     372     371     349     350
       8     451     450     428     429     373     372     350     351
       8     452     451     429     430     374     373     351     352
       8     453     452     430     431     375     374     352     353
       8     454     453     431     432     376     375     353     354
       8     455     454     432     411     377     376     354     333
       8     456     455     411     410     378     377     333     332
       8     457     456     410     412     379     378     332     334
       8     458     457     412     433     380     379     334     355
       8     459     458     433     434     381     380     355     356
       8     460     459     434     435     382     381     356     357
       8     461     460     435     436     383     382     357     358
       8     462     461     436     437     384     383     358     359
       8     463     462     437     438     385     384     359     360
       8     464     463     438     439     386     385     360     361
       8     465     464     439     440     387     386     361     362
       8     466     465     440     441     388     387     362     363
       8     467     466     441     395     389     388     363     317
       8     443     467     395     394     365     389     317     316
       8     468     469     470     471     390     391     392     393
       8     470     472     473     471     392     394     395     393
       8     474     469     468     475     396     391     390     397
       8     468     476     477     475     390     398     399     397
       8     478     479     480     474     400     401     402     396
       8     481     482     479     478     403     404     401     400
       8     475     481     478     474     397     403     400     396
       8     483     484     476     485     405     406     398     407
       8     486     487     484     483     408     409     406     405
       8     488     489     487     486     410     411     409     408
       8     490     488     486     491     412     410     408     413
       8     492     477     476     484     414     399     398     406
       8     483     493     491     486     405     415     413     408
       8     468     471     485     476     390     393     407     398
       8     494     481     475     477     416     403     397     399
       8     495     494     477     492     417     416     399     414
       8     496     495     492     497     418     417     414     419
       8     487     497     492     484     409     419     414     406
       8     498     499     493     483     420     421     415     405
       8     500     498     483     485     422     420     405     407
       8     501     500     485     471     423     422     407     393
       8     502     472     470     503     424     394     392     425
       8     504     503     470     469     426     425     392     391
       8     480     504     469     474     402     426     391     396
       8     505     482     481     494     427     404     403     416
       8     506     505     494     495     428     427     416     417
       8     507     506     495     496     429     428     417     418
       8     508     507     496     509     430     429     418     431
       8     510     509     496     497     432     431     418     419
       8     489     510     497     487     411     432     419     409
       8     511     490     491     493     433     412     413     415
       8     512     511     493     499     434     433     415     421
       8     513     512     499     514     435     434     421     436
       8     515     514     499     498     437     436     421     420
       8     516     515     498     500     438     437     420     422
       8     517     516     500     501     439     438     422     423
       8     518     517     501     519     440     439     423     441
       8     473     519     501     471     395     441     423     393
       8     520     521     472     502     442     443     394     424
       8     522     520     502     503     444     442     424     425
       8     523     522     503     504     445     444     425     426
       8     524     523     504     480     446     445     426     402
       8     525     524     480     479     447     446     402     401
       8     526     525     479     482     448     447     401     404
       8     527     526     482     505     449     448     404     427
       8     528     527     505     506     450     449     427     428
       8     529     528     506     507     451     450     428     429
       8     530     529     507     508     452     451     429     430
       8     531     530     508     509     453     452     430     431
       8     532     531     509     510     454     453     431     432
       8     533     532     510     489     455     454     432     411
       8     534     533     489     488     456     455     411     410
       8     535     534     488     490     457     456     410     412
       8     536     535     490     511     458     457     412     433
       8     537     536     511     512     459     458     433     434
       8     538     537     512     513     460     459     434     435
       8     539     538     513     514     461     460     435     436
       8     540     539     514     515     462     461     436     437
       8     541     540     515     516     463     462     437     438
       8     542     541     516     517     464     463     438     439
       8     543     542     517     518     465     464     439     440
       8     544     543     518     519     466     465     440     441
       8     545     544     519     473     467     466     441     395
       8     521     545     473     472     443     467     395     394
       8     546     547     548     549     468     469     470     471
       8     548     550     551     549     470     472     473     471
       8     552     547     546     553     474     469     468     475
       8     546     554     555     553     468     476     477     475
       8     556     557     558     552     478     479     480     474
       8     559     560     557     556     481     482     479     478
       8     553     559     556     552     475     481     478     474
       8     561     562     554     563     483     484     476     485
       8     564     565     562     561     486     487     484     483
       8     566     567     565     564     488     489     487     486
       8     568     566     564     569     490     488     486     491
       8     570     555     554     562     492     477     476     484
       8     561     571     569     564     483     493     491     486
       8     546     549     563     554     468     471     485     476
       8     572     559     553     555     494     481     475     477
       8     573     572     555     570     495     494     477     492
       8     574     573     570     575     496     495     492     497
       8     565     575     570     562     487     497     492     484
       8     576     577     571     561     498     499     493     483
       8     578     576     561     563     500     498     483     485
       8     579     578     563     549     501     500     485     471
       8     580     550     548     581     502     472     470     503
       8     582     581     548     547     504     503     470     469
       8     558     582     547     552     480     504     469     474
       8     583     560     559     572     505     482     481     494
       8     584     583     572     573     506     505     494     495
       8     585     584     573     574     507     506     495     496
       8     586     585     574     587     508     507     496     509
       8     588     587     574     575     510     509     496     497
       8     567     588     575     565     489     510     497     487
       8     589     568     569     571     511     490     491     493
       8     590     589     571     577     512     511     493     499
       8     591     590     577     592     513     512     499     514
       8     593     592     577     576     515     514     499     498
       8     594     593     576     578     516     515     498     500
       8     595     594     578     579     517     516     500     501
       8     596     595     579     597     518     517     501     519
       8     551     597     579     549     473     519     501     471
       8     598     599     550     580     520     521     472     502
       8     600     598     580     581     522     520     502     503
       8     601     600     581     582     523     522     503     504
       8     602     601     582     558     524     523     504     480
       8     603     602     558     557     525     524     480     479
       8     604     603     557     560     526     525     479     482
       8     605     604     560     583     527     526     482     505
       8     606     605     583     584     528     527     505     506
       8     607     606     584     585     529     528     506     507
       8     608     607     585     586     530     529     507     508
       8     609     608     586     587     531     530     508     509
       8     610     609     587     588     532     531     509     510
       8     611     610     588     567     533     532     510     489
       8     612     611     567     566     534     533     489     488
       8     613     612     566     568     535     534     488     490
       8     614     613     568     589     536     535     490     511
       8     615     614     589     590     537     536     511     512
       8     616     615     590     591     538     537     512     513
       8     617     616     591     592     539     538     513     514
       8     618     617     592     593     540     539     514     515
       8     619     618     593     594     541     540     515     516
       8     620     619     594     595     542     541     516     517
       8     621     620     595     596     543     542     517     518
       8     622     621     596     597     544     543     518     519
       8     623     622     597     551     545     544     519     473
       8     599     623     551     550     521     545     473     472
       8     624     625     626     627     546     547     548     549
       8     626     628     629     627     548     550     551     549
       8     630     625     624     631     552     547     546     553
       8     624     632     633     631     546     554     555     553
       8     634     635     636     630     556     557     558     552
       8     637     638     635     634     559     560     557     556
       8     631     637     634     630     553     559     556     552
       8     639     640     632     641     561     562     554     563
       8     642     643     640     639     564     565     562     561
       8     644     645     643     642     566     567     565     564
       8     646     644     642     647     568     566     564     569
       8     648     633     632     640     570     555     554     562
       8     639     649     647     642     561     571     569     564
       8     624     627     641     632     546     549     563     554
       8     650     637     631     633     572     559     553     555
       8     651     650     633     648     573     572     555     570
       8     652     651     648     653     574     573     570     575
       8     643     653     648     640     565     575     570     562
       8     654     655     649     639     576     577     571     561
       8     656     654     639     641     578     576     561     563
       8     657     656     641     627     579     578     563     549
       8     658     628     626     659     580     550     548     581
       8     660     659     626     625     582     581     548     547
       8     636     660     625     630     558     582     547     552
       8     661     638     637     650     583     560     559     572
       8     662     661     650     651     584     583     572     573
       8     663     662     651     652     585     584     573     574
       8     664     663     652     665     586     585     574     587
       8     666     665     652     653     588     587     574     575
       8     645     666     653     643     567     588     575     565
       8     667     646     647     649     589     568     569     571
       8     668     667     649     655     590     589     571     577
       8     669     668     655     670     591     590     577     592
       8     671     670     655     654     593     592     577     576
       8     672     671     654     656     594     593     576     578
       8     673     672     656     657     595     594     578     579
       8     674     673     657     675     596     595     579     597
       8     629     675     657     627     551     597     579     549
       8     676     677     628     658     598     599     550     580
       8     678     676     658     659     600     598     580     581
       8     679     678     659     660     601     600     581     582
       8     680     679     660     636     602     601     582     558
       8     681     680     636     635     603     602     558     557
       8     682     681     635     638     604     603     557     560
       8     683     682     638     661     605     604     560     583
       8     684     683     661     662     606     605     583     584
       8     685     684     662     663     607     606     584     585
       8     686     685     663     664     608     607     585     586
       8     687     686     664     665     609     608     586     587
       8     688     687     665     666     610     609     587     588
       8     689     688     666     645     611     610     588     567
       8     690     689     645     644     612     611     567     566
       8     691     690     644     646     613     612     566     568
       8     692     691     646     667     614     613     568     589
       8     693     692     667     668     615     614     589     590
       8     694     693     668     669     616     615     590     591
       8     695     694     669     670     617     616     591     592
       8     696     695     670     671     618     617     592     593
       8     697     696     671     672     619     618     593     594
       8     698     697     672     673     620     619     594     595
       8     699     698     673     674     621     620     595     596
       8     700     699     674     675     622     621     596     597
       8     701     700     675     629     623     622     597     551
       8     677     701     629     628     599     623     551     550
       8     702     703     704     705     624     625     626     627
       8     704     706     707     705     626     628     629     627
       8     708     703     702     709     630     625     624     631
       8     702     710     711     709     624     632     633     631
       8     712     713     714     708     634     635     636     630
       8     715     716     713     712     637     638     635     634
       8     709     715     712     708     631     637     634     630
       8     717     718     710     719     639     640     632     641
       8     720     721     718     717     642     643     640     639
       8     722     723     721     720     644     645     643     642
       8     724     722     720     725     646     644     642     647
       8     726     711     710     718     648     633     632     640
       8     717     727     725     720     639     649     647     642
       8     702     705     719     710     624     627     641     632
       8     728     715     709     711     650     637     631     633
       8     729     728     711     726     651     650     633     648
       8     730     729     726     731     652     651     648     653
       8     721     731     726     718     643     653     648     640
       8     732     733     727     717     654     655     649     639
       8     734     732     717     719     656     654     639     641
       8     735     734     719     705     657     656     641     627
       8     736     706     704     737     658     628     626     659
       8     738     737     704     703     660     659     626     625
       8     714     738     703     708     636     660     625     630
       8     739     716     715     728     661     638     637     650
       8     740     739     728     729     662     661     650     651
       8     741     740     729     730     663     662     651     652
       8     742     741     730     743     664     663     652     665
       8     744     743     730     731     666     665     652     653
       8     723     744     731     721     645     666     653     643
       8     745     724     725     727     667     646     647     649
       8     746     745     727     733     668     667     649     655
       8     747     746     733     748     669     668     655     670
       8     749     748     733     732     671     670     655     654
       8     750     749     732     734     672     671     654     656
       8     751     750     734     735     673     672     656     657
       8     752     751     735     753     674     673     657     675
       8     707     753     735     705     629     675     657     627
       8     754     755     706     736     676     677     628     658
       8     756     754     736     737     678     676     658     659
       8     757     756     737     738     679     678     659     660
       8     758     757     738     714     680     679     660     636
       8     759     758     714     713     681     680     636     635
       8     760     759     713     716     682     681     635     638
       8     761     760     716     739     683     682     638     661
       8     762     761     739     740     684     683     661     662
       8     763     762     740     741     685     684     662     663
       8     764     763     741     742     686     685     663     664
       8     765     764     742     743     687     686     664     665
       8     766     765     743     744     688     687     665     666
       8     767     766     744     723     689     688     666     645
       8     768     767     723     722     690     689     645     644
       8     769     768     722     724     691     690     644     646
       8     770     769     724     745     692     691     646     667
       8     771     770     745     746     693     692     667     668
       8     772     771     746     747     694     693     668     669
       8     773     772     747     748     695     694     669     670
       8     774     773     748     749     696     695     670     671
       8     775     774     749     750     697     696     671     672
       8     776     775     750     751     698     697     672     673
       8     777     776     751     752     699     698     673     674
       8     778     777     752     753     700     699     674     675
       8     779     778     753     707     701     700     675     629
       8     755     779     707     706     677     701     629     628
       8     780     781     782     783     702     703     704     705
       8     782     784     785     783     704     706     707     705
       8     786     781     780     787     708     703     702     709
       8     780     788     789     787     702     710     711     709
       8     790     791     792     786     712     713     714     708
       8     793     794     791     790     715     716     713     712
       8     787     793     790     786     709     715     712     708
       8     795     796     788     797     717     718     710     719
       8     798     799     796     795     720     721     718     717
       8     800     801     799     798     722     723     721     720
       8     802     800     798     803     724     722     720     725
       8     804     789     788     796     726     711     710     718
       8     795     805     803     798     717     727     725     720
       8     780     783     797     788     702     705     719     710
       8     806     793     787     789     728     715     709     711
       8     807     806     789     804     729     728     711     726
       8     808     807     804     809     730     729     726     731
       8     799     809     804     796     721     731     726     718
       8     810     811     805     795     732     733     727     717
       8     812     810     795     797     734     732     717     719
       8     813     812     797     783     735     734     719     705
       8     814     784     782     815     736     706     704     737
       8     816     815     782     781     738     737     704     703
       8     792     816     781     786     714     738     703     708
       8     817     794     793     806     739     716     715     728
       8     818     817     806     807     740     739     728     729
       8     819     818     807     808     741     740     729     730
       8     820     819     808     821     742     741     730     743
       8     822     821     808     809     744     743     730     731
       8     801     822     809     799     723     744     731     721
       8     823     802     803     805     745     724     725     727
       8     824     823     805     811     746     745     727     733
       8     825     824     811     826     747     746     733     748
       8     827     826     811     810     749     748     733     732
       8     828     827     810     812     750     749     732     734
       8     829     828     812     813     751     750     734     735
       8     830     829     813     831     752     751     735     753
       8     785     831     813     783     707     753     735     705
       8     832     833     784     814     754     755     706     736
       8     834     832     814     815     756     754     736     737
       8     835     834     815     816     757     756     737     738
       8     836     835     816     792     758     757     738     714
       8     837     836     792     791     759     758     714     713
       8     838     837     791     794     760     759     713     716
       8     839     838     794     817     761     760     716     739
       8     840     839     817     818     762     761     739     740
       8     841     840     818     819     763     762     740     741
       8     842     841     819     820     764     763     741     742
       8     843     842     820     821     765     764     742     743
       8     844     843     821     822     766     765     743     744
       8     845     844     822     801     767     766     744     723
       8     846     845     801     800     768     767     723     722
       8     847     846     800     802     769     768     722     724
       8     848     847     802     823     770     769     724     745
       8     849     848     823     824     771     770     745     746
       8     850     849     824     825     772     771     746     747
       8     851     850     825     826     773     772     747     748
       8     852     851     826     827     774     773     748     749
       8     853     852     827     828     775     774     749     750
       8     854     853     828     829     776     775     750     751
       8     855     854     829     830     777     776     751     752
       8     856     855     830     831     778     777     752     753
       8     857     856     831     785     779     778     753     707
       8     833     857     785     784     755     779     707     706
       8     858     859     860     861     780     781     782     783
       8     860     862     863     861     782     784     785     783
       8     864     859     858     865     786     781     780     787
       8     858     866     867     865     780     788     789     787
       8     868     869     870     864     790     791     792     786
       8     871     872     869     868     793     794     791     790
       8     865     871     868     864     787     793     790     786
       8     873     874     866     875     795     796     788     797
       8     876     877     874     873     798     799     796     795
       8     878     879     877     876     800     801     799     798
       8     880     878     876     881     802     800     798     803
       8     882     867     866     874     804     789     788     796
       8     873     883     881     876     795     805     803     798
       8     858     861     875     866     780     783     797     788
       8     884     871     865     867     806     793     787     789
       8     885     884     867     882     807     806     789     804
       8     886     885     882     887     808     807     804     809
       8     877     887     882     874     799     809     804     796
       8     888     889     883     873     810     811     805     795
       8     890     888     873     875     812     810     795     797
       8     891     890     875     861     813     812     797     783
       8     892     862     860     893     814     784     782     815
       8     894     893     860     859     816     815     782     781
       8     870     894     859     864     792     816     781     786
       8     895     872     871     884     817     794     793     806
       8     896     895     884     885     818     817     806     807
       8     897     896     885     886     819     818     807     808
       8     898     897     886     899     820     819     808     821
       8     900     899     886     887     822     821     808     809
       8     879     900     887     877     801     822     809     799
       8     901     880     881     883     823     802     803     805
       8     902     901     883     889     824     823     805     811
       8     903     902     889     904     825     824     811     826
       8     905     904     889     888     827     826     811     810
       8     906     905     888     890     828     827     810     812
       8     907     906     890     891     829     828     812     813
       8     908     907     891     909     830     829     813     831
       8     863     909     891     861     785     831     813     783
       8     910     911     862     892     832     833     784     814
       8     912     910     892     893     834     832     814     815
       8     913     912     893     894     835     834     815     816
       8     914     913     894     870     836     835     816     792
       8     915     914     870     869     837     836     792     791
       8     916     915     869     872     838     837     791     794
       8     917     916     872     895     839     838     794     817
       8     918     917     895     896     840     839     817     818
       8     919     918     896     897     841     840     818     819
       8     920     919     897     898     842     841     819     820
       8     921     920     898     899     843     842     820     821
       8     922     921     899     900     844     843     821     822
       8     923     922     900     879     845     844     822     801
       8     924     923     879     878     846     845     801     800
       8     925     924     878     880     847     846     800     802
       8     926     925     880     901     848     847     802     823
       8     927     926     901     902     849     848     823     824
       8     928     927     902     903     850     849     824     825
       8     929     928     903     904     851     850     825     826
       8     930     929     904     905     852     851     826     827
       8     931     930     905     906     853     852     827     828
       8     932     931     906     907     854     853     828     829
       8     933     932     907     908     855     854     829     830
       8     934     933     908     909     856     855     830     831
       8     935     934     909     863     857     856     831     785
       8     911     935     863     862     833     857     785     784
       8     936     937     938     939     858     859     860     861
       8     938     940     941     939     860     862     863     861
       8     942     937     936     943     864     859     858     865
       8     936     944     945     943     858     866     867     865
       8     946     947     948     942     868     869     870     864
       8     949     950     947     946     871     872     869     868
       8     943     949     946     942     865     871     868     864
       8     951     952     944     953     873     874     866     875
       8     954     955     952     951     876     877     874     873
       8     956     957     955     954     878     879     877     876
       8     958     956     954     959     880     878     876     881
       8     960     945     944     952     882     867     866     874
       8     951     961     959     954     873     883     881     876
       8     936     939     953     944     858     861     875     866
       8     962     949     943     945     884     871     865     867
       8     963     962     945     960     885     884     867     882
       8     964     963     960     965     886     885     882     887
       8     955     965     960     952     877     887     882     874
       8     966     967     961     951     888     889     883     873
       8     968     966     951     953     890     888     873     875
       8     969     968     953     939     891     890     875     861
       8     970     940     938     971     892     862     860     893
       8     972     971     938     937     894     893     860     859
       8     948     972     937     942     870     894     859     864
       8     973     950     949     962     895     872     871     884
       8     974     973     962     963     896     895     884     885
       8     975     974     963     964     897     896     885     886
       8     976     975     964     977     898     897     886     899
       8     978     977     964     965     900     899     886     887
       8     957     978     965     955     879     900     887     877
       8     979     958     959     961     901     880     881     883
       8     980     979     961     967     902     901     883     889
       8     981     980     967     982     903     902     889     904
       8     983     982     967     966     905     904     889     888
       8     984     983     966     968     906     905     888     890
       8     985     984     968     969     907     906     890     891
       8     986     985     969     987     908     907     891     909
       8     941     987     969     939     863     909     891     861
       8     988     989     940     970     910     911     862     892
       8     990     988     970     971     912     910     892     893
       8     991     990     971     972     913     912     893     894
       8     992     991     972     948     914     913     894     870
       8     993     992     948     947     915     914     870     869
       8     994     993     947     950     916     915     869     872
       8     995     994     950     973     917     916     872     895
       8     996     995     973     974     918     917     895     896
       8     997     996     974     975     919     918     896     897
       8     998     997     975     976     920     919     897     898
       8     999     998     976     977     921     920     898     899
       8    1000     999     977     978     922     921     899     900
       8    1001    1000     978     957     923     922     900     879
       8    1002    1001     957     956     924     923     879     878
       8    1003    1002     956     958     925     924     878     880
       8    1004    1003     958     979     926     925     880     901
       8    1005    1004     979     980     927     926     901     902
       8    1006    1005     980     981     928     927     902     903
       8    1007    1006     981     982     929     928     903     904
       8    1008    1007     982     983     930     929     904     905
       8    1009    1008     983     984     931     930     905     906
       8    1010    1009     984     985     932     931     906     907
       8    1011    1010     985     986     933     932     907     908
       8    1012    1011     986     987     934     933     908     909
       8    1013    1012     987     941     935     934     909     863
       8     989    1013     941     940     911     935     863     862
       8    1014    1015    1016    1017     936     937     938     939
       8    1016    1018    1019    1017     938     940     941     939
       8    1020    1015    1014    1021     942     937     936     943
       8    1014    1022    1023    1021     936     944     945     943
       8    1024    1025    1026    1020     946     947     948     942
       8    1027    1028    1025    1024     949     950     947     946
       8    1021    1027    1024    1020     943     949     946     942
       8    1029    1030    1022    1031     951     952     944     953
       8    1032    1033    1030    1029     954     955     952     951
       8    1034    1035    1033    1032     956     957     955     954
       8    1036    1034    1032    1037     958     956     954     959
       8    1038    1023    1022    1030     960     945     944     952
       8    1029    1039    1037    1032     951     961     959     954
       8    1014    1017    1031    1022     936     939     953     944
       8    1040    1027    1021    1023     962     949     943     945
       8    1041    1040    1023    1038     963     962     945     960
       8    1042    1041    1038    1043     964     963     960     965
       8    1033    1043    1038    1030     955     965     960     952
       8    1044    1045    1039    1029     966     967     961     951
       8    1046    1044    1029    1031     968     966     951     953
       8    1047    1046    1031    1017     969     968     953     939
       8    1048    1018    1016    1049     970     940     938     971
       8    1050    1049    1016    1015     972     971     938     937
       8    1026    1050    1015    1020     948     972     937     942
       8    1051    1028    1027    1040     973     950     949     962
       8    1052    1051    1040    1041     974     973     962     963
       8    1053    1052    1041    1042     975     974     963     964
       8    1054    1053    1042    1055     976     975     964     977
       8    1056    1055    1042    1043     978     977     964     965
       8    1035    1056    1043    1033     957     978     965     955
       8    1057    1036    1037    1039     979     958     959     961
       8    1058    1057    1039    1045     980     979     961     967
       8    1059    1058    1045    1060     981     980     967     982
       8    1061    1060    1045    1044     983     982     967     966
       8    1062    1061    1044    1046     984     983     966     968
       8    1063    1062    1046    1047     985     984     968     969
       8    1064    1063    1047    1065     986     985     969     987
       8    1019    1065    1047    1017     941     987     969     939
       8    1066    1067    1018    1048     988     989     940     970
       8    1068    1066    1048    1049     990     988     970     971
       8    1069    1068    1049    1050     991     990     971     972
       8    1070    1069    1050    1026     992     991     972     948
       8    1071    1070    1026    1025     993     992     948     947
       8    1072    1071    1025    1028     994     993     947     950
       8    1073    1072    1028    1051     995     994     950     973
       8    1074    1073    1051    1052     996     995     973     974
       8    1075    1074    1052    1053     997     996     974     975
       8    1076    1075    1053    1054     998     997     975     976
       8    1077    1076    1054    1055     999     998     976     977
       8    1078    1077    1055    1056    1000     999     977     978
       8    1079    1078    1056    1035    1001    1000     978     957
       8    1080    1079    1035    1034    1002    1001     957     956
       8    1081    1080    1034    1036    1003    1002     956     958
       8    1082    1081    1036    1057    1004    1003     958     979
       8    1083    1082    1057    1058    1005    1004     979     980
       8    1084    1083    1058    1059    1006    1005     980     981
       8    1085    1084    1059    1060    1007    1006     981     982
       8    1086    1085    1060    1061    1008    1007     982     983
       8    1087    1086    1061    1062    1009    1008     983     984
       8    1088    1087    1062    1063    1010    1009     984     985
       8    1089    1088    1063    1064    1011    1010     985     986
       8    1090    1089    1064    1065    1012    1011     986     987
       8    1091    1090    1065    1019    1013    1012     987     941
       8    1067    1091    1019    1018     989    1013     941     940
       8    1092    1093    1094    1095    1014    1015    1016    1017
       8    1094    1096    1097    1095    1016    1018    1019    1017
       8    1098    1093    1092    1099    1020    1015    1014    1021
       8    1092    1100    1101    1099    1014    1022    1023    1021
       8    1102    1103    1104    1098    1024    1025    1026    1020
       8    1105    1106    1103    1102    1027    1028    1025    1024
       8    1099    1105    1102    1098    1021    1027    1024    1020
       8    1107    1108    1100    1109    1029    1030    1022    1031
       8    1110    1111    1108    1107    1032    1033    1030    1029
       8    1112    1113    1111    1110    1034    1035    1033    1032
       8    1114    1112    1110    1115    1036    1034    1032    1037
       8    1116    1101    1100    1108    1038    1023    1022    1030
       8    1107    1117    1115    1110    1029    1039    1037    1032
       8    1092    1095    1109    1100    1014    1017    1031    1022
       8    1118    1105    1099    1101    1040    1027    1021    1023
       8    1119    1118    1101    1116    1041    1040    1023    1038
       8    1120    1119    1116    1121    1042    1041    1038    1043
       8    1111    1121    1116    1108    1033    1043    1038    1030
       8    1122    1123    1117    1107    1044    1045    1039    1029
       8    1124    1122    1107    1109    1046    1044    1029    1031
       8    1125    1124    1109    1095    1047    1046    1031    1017
       8    1126    1096    1094    1127    1048    1018    1016    1049
       8    1128    1127    1094    1093    1050    1049    1016    1015
       8    1104    1128    1093    1098    1026    1050    1015    1020
       8    1129    1106    1105    1118    1051    1028    1027    1040
       8    1130    1129    1118    1119    1052    1051    1040    1041
       8    1131    1130    1119    1120    1053    1052    1041    1042
       8    1132    1131    1120    1133    1054    1053    1042    1055
       8    1134    1133    1120    1121    1056    1055    1042    1043
       8    1113    1134    1121    1111    1035    1056    1043    1033
       8    1135    1114    1115    1117    1057    1036    1037    1039
       8    1136    1135    1117    1123    1058    1057    1039    1045
       8    1137    1136    1123    1138    1059    1058    1045    1060
       8    1139    1138    1123    1122    1061    1060    1045    1044
       8    1140    1139    1122    1124    1062    1061    1044    1046
       8    1141    1140    1124    1125    1063    1062    1046    1047
       8    1142    1141    1125    1143    1064    1063    1047    1065
       8    1097    1143    1125    1095    1019    1065    1047    1017
       8    1144    1145    1096    1126    1066    1067    1018    1048
       8    1146    1144    1126    1127    1068    1066    1048    1049
       8    1147    1146    1127    1128    1069    1068    1049    1050
       8    1148    1147    1128    1104    1070    1069    1050    1026
       8    1149    1148    1104    1103    1071    1070    1026    1025
       8    1150    1149    1103    1106    1072    1071    1025    1028
       8    1151    1150    1106    1129    1073    1072    1028    1051
       8    1152    1151    1129    1130    1074    1073    1051    1052
       8    1153    1152    1130    1131    1075    1074    1052    1053
       8    1154    1153    1131    1132    1076    1075    1053    1054
       8    1155    1154    1132    1133    1077    1076    1054    1055
       8    1156    1155    1133    1134    1078    1077    1055    1056
       8    1157    1156    1134    1113    1079    1078    1056    1035
       8    1158    1157    1113    1112    1080    1079    1035    1034
       8    1159    1158    1112    1114    1081    1080    1034    1036
       8    1160    1159    1114    1135    1082    1081    1036    1057
       8    1161    1160    1135    1136    1083    1082    1057    1058
       8    1162    1161    1136    1137    1084    1083    1058    1059
       8    1163    1162    1137    1138    1085    1084    1059    1060
       8    1164    1163    1138    1139    1086    1085    1060    1061
       8    1165    1164    1139    1140    1087    1086    1061    1062
       8    1166    1165    1140    1141    1088    1087    1062    1063
       8    1167    1166    1141    1142    1089    1088    1063    1064
       8    1168    1167    1142    1143    1090    1089    1064    1065
       8    1169    1168    1143    1097    1091    1090    1065    1019
       8    1145    1169    1097    1096    1067    1091    1019    1018
       8    1170    1171    1172    1173    1092    1093    1094    1095
       8    1172    1174    1175    1173    1094    1096    1097    1095
       8    1176    1171    1170    1177    1098    1093    1092    1099
       8    1170    1178    1179    1177    1092    1100    1101    1099
       8    1180    1181    1182    1176    1102    1103    1104    1098
       8    1183    1184    1181    1180    1105    1106    1103    1102
       8    1177    1183    1180    1176    1099    1105    1102    1098
       8    1185    1186    1178    1187    1107    1108    1100    1109
       8    1188    1189    1186    1185    1110    1111    1108    1107
       8    1190    1191    1189    1188    1112    1113    1111    1110
       8    1192    1190    1188    1193    1114    1112    1110    1115
       8    1194    1179    1178    1186    1116    1101    1100    1108
       8    1185    1195    1193    1188    1107    1117    1115    1110
       8    1170    1173    1187    1178    1092    1095    1109    1100
       8    1196    1183    1177    1179    1118    1105    1099    1101
       8    1197    1196    1179    1194    1119    1118    1101    1116
       8    1198    1197    1194    1199    1120    1119    1116    1121
       8    1189    1199    1194    1186    1111    1121    1116    1108
       8    1200    1201    1195    1185    1122    1123    1117    1107
       8    1202    1200    1185    1187    1124    1122    1107    1109
       8    1203    1202    1187    1173    1125    1124    1109    1095
       8    1204    1174    1172    1205    1126    1096    1094    1127
       8    1206    1205    1172    1171    1128    1127    1094    1093
       8    1182    1206    1171    1176    1104    1128    1093    1098
       8    1207    1184    1183    1196    1129    1106    1105    1118
       8    1208    1207    1196    1197    1130    1129    1118    1119
       8    1209    1208    1197    1198    1131    1130    1119    1120
       8    1210    1209    1198    1211    1132    1131    1120    1133
       8    1212    1211    1198    1199    1134    1133    1120    1121
       8    1191    1212    1199    1189    1113    1134    1121    1111
       8    1213    1192    1193    1195    1135    1114    1115    1117
       8    1214    1213    1195    1201    1136    1135    1117    1123
       8    1215    1214    1201    1216    1137    1136    1123    1138
       8    1217    1216    1201    1200    1139    1138    1123    1122
       8    1218    1217    1200    1202    1140    1139    1122    1124
       8    1219    1218    1202    1203    1141    1140    1124    1125
       8    1220    1219    1203    1221    1142    1141    1125    1143
       8    1175    1221    1203    1173    1097    1143    1125    1095
       8    1222    1223    1174    1204    1144    1145    1096    1126
       8    1224    1222    1204    1205    1146    1144    1126    1127
       8    1225    1224    1205    1206    1147    1146    1127    1128
       8    1226    1225    1206    1182    1148    1147    1128    1104
       8    1227    1226    1182    1181    1149    1148    1104    1103
       8    1228    1227    1181    1184    1150    1149    1103    1106
       8    1229    1228    1184    1207    1151    1150    1106    1129
       8    1230    1229    1207    1208    1152    1151    1129    1130
       8    1231    1230    1208    1209    1153    1152    1130    1131
       8    1232    1231    1209    1210    1154    1153    1131    1132
       8    1233    1232    1210    1211    1155    1154    1132    1133
       8    1234    1233    1211    1212    1156    1155    1133    1134
       8    1235    1234    1212    1191    1157    1156    1134    1113
       8    1236    1235    1191    1190    1158    1157    1113    1112
       8    1237    1236    1190    1192    1159    1158    1112    1114
       8    1238    1237    1192    1213    1160    1159    1114    1135
       8    1239    1238    1213    1214    1161    1160    1135    1136
       8    1240    1239    1214    1215    1162    1161    1136    1137
       8    1241    1240    1215    1216    1163    1162    1137    1138
       8    1242    1241    1216    1217    1164    1163    1138    1139
       8    1243    1242    1217    1218    1165    1164    1139    1140
       8    1244    1243    1218    1219    1166    1165    1140    1141
       8    1245    1244    1219    1220    1167    1166    1141    1142
       8    1246    1245    1220    1221    1168    1167    1142    1143
       8    1247    1246    1221    1175    1169    1168    1143    1097
       8    1223    1247    1175    1174    1145    1169    1097    1096
       8    1248    1249    1250    1251    1170    1171    1172    1173
       8    1250    1252    1253    1251    1172    1174    1175    1173
       8    1254    1249    1248    1255    1176    1171    1170    1177
       8    1248    1256    1257    1255    1170    1178    1179    1177
       8    1258    1259    1260    1254    1180    1181    1182    1176
       8    1261    1262    1259    1258    1183    1184    1181    1180
       8    1255    1261    1258    1254    1177    1183    1180    1176
       8    1263    1264    1256    1265    1185    1186    1178    1187
       8    1266    1267    1264    1263    1188    1189    1186    1185
       8    1268    1269    1267    1266    1190    1191    1189    1188
       8    1270    1268    1266    1271    1192    1190    1188    1193
       8    1272    1257    1256    1264    1194    1179    1178    1186
       8    1263    1273    1271    1266    1185    1195    1193    1188
       8    1248    1251    1265    1256    1170    1173    1187    1178
       8    1274    1261    1255    1257    1196    1183    1177    1179
       8    1275    1274    1257    1272    1197    1196    1179    1194
       8    1276    1275    1272    1277    1198    1197    1194    1199
       8    1267    1277    1272    1264    1189    1199    1194    1186
       8    1278    1279    1273    1263    1200    1201    1195    1185
       8    1280    1278    1263    1265    1202    1200    1185    1187
       8    1281    1280    1265    1251    1203    1202    1187    1173
       8    1282    1252    1250    1283    1204    1174    1172    1205
       8    1284    1283    1250    1249    1206    1205    1172    1171
       8    1260    1284    1249    1254    1182    1206    1171    1176
       8    1285    1262    1261    1274    1207    1184    1183    1196
       8    1286    1285    1274    1275    1208    1207    1196    1197
       8    1287    1286    1275    1276    1209    1208    1197    1198
       8    1288    1287    1276    1289    1210    1209    1198    1211
       8    1290    1289    1276    1277    1212    1211    1198    1199
       8    1269    1290    1277    1267    1191    1212    1199    1189
       8    1291    1270    1271    1273    1213    1192    1193    1195
       8    1292    1291    1273    1279    1214    1213    1195    1201
       8    1293    1292    1279    1294    1215    1214    1201    1216
       8    1295    1294    1279    1278    1217    1216    1201    1200
       8    1296    1295    1278    1280    1218    1217    1200    1202
       8    1297    1296    1280    1281    1219    1218    1202    1203
       8    1298    1297    1281    1299    1220    1219    1203    1221
       8    1253    1299    1281    1251    1175    1221    1203    1173
       8    1300    1301    1252    1282    1222    1223    1174    1204
       8    1302    1300    1282    1283    1224    1222    1204    1205
       8    1303    1302    1283    1284    1225    1224    1205    1206
       8    1304    1303    1284    1260    1226    1225    1206    1182
       8    1305    1304    1260    1259    1227    1226    1182    1181
       8    1306    1305    1259    1262    1228    1227    1181    1184
       8    1307    1306    1262    1285    1229    1228    1184    1207
       8    1308    1307    1285    1286    1230    1229    1207    1208
       8    1309    1308    1286    1287    1231    1230    1208    1209
       8    1310    1309    1287    1288    1232    1231    1209    1210
       8    1311    1310    1288    1289    1233    1232    1210    1211
       8    1312    1311    1289    1290    1234    1233    1211    1212
       8    1313    1312    1290    1269    1235    1234    1212    1191
       8    1314    1313    1269    1268    1236    1235    1191    1190
       8    1315    1314    1268    1270    1237    1236    1190    1192
       8    1316    1315    1270    1291    1238    1237    1192    1213
       8    1317    1316    1291    1292    1239    1238    1213    1214
       8    1318    1317    1292    1293    1240    1239    1214    1215
       8    1319    1318    1293    1294    1241    1240    1215    1216
       8    1320    1319    1294    1295    1242    1241    1216    1217
       8    1321    1320    1295    1296    1243    1242    1217    1218
       8    1322    1321    1296    1297    1244    1243    1218    1219
       8    1323    1322    1297    1298    1245    1244    1219    1220
       8    1324    1323    1298    1299    1246    1245    1220    1221
       8    1325    1324    1299    1253    1247    1246    1221    1175
       8    1301    1325    1253    1252    1223    1247    1175    1174
       8    1326    1327    1328    1329    1248    1249    1250    1251
       8    1328    1330    1331    1329    1250    1252    1253    1251
       8    1332    1327    1326    1333    1254    1249    1248    1255
       8    1326    1334    1335    1333    1248    1256    1257    1255
       8    1336    1337    1338    1332    1258    1259    1260    1254
       8    1339    1340    1337    1336    1261    1262    1259    1258
       8    1333    1339    1336    1332    1255    1261    1258    1254
       8    1341    1342    1334    1343    1263    1264    1256    1265
       8    1344    1345    1342    1341    1266    1267    1264    1263
       8    1346    1347    1345    1344    1268    1269    1267    1266
       8    1348    1346    1344    1349    1270    1268    1266    1271
       8    1350    1335    1334    1342    1272    1257    1256    1264
       8    1341    1351    1349    1344    1263    1273    1271    1266
       8    1326    1329    1343    1334    1248    1251    1265    1256
       8    1352    1339    1333    1335    1274    1261    1255    1257
       8    1353    1352    1335    1350    1275    1274    1257    1272
       8    1354    1353    1350    1355    1276    1275    1272    1277
       8    1345    1355    1350    1342    1267    1277    1272    1264
       8    1356    1357    1351    1341    1278    1279    1273    1263
       8    1358    1356    1341    1343    1280    1278    1263    1265
       8    1359    1358    1343    1329    1281    1280    1265    1251
       8    1360    1330    1328    1361    1282    1252    1250    1283
       8    1362    1361    1328    1327    1284    1283    1250    1249
       8    1338    1362    1327    1332    1260    1284    1249    1254
       8    1363    1340    1339    1352    1285    1262    1261    1274
       8    1364    1363    1352    1353    1286    1285    1274    1275
       8    1365    1364    1353    1354    1287    1286    1275    1276
       8    1366    1365    1354    1367    1288    1287    1276    1289
       8    1368    1367    1354    1355    1290    1289    1276    1277
       8    1347    1368    1355    1345    1269    1290    1277    1267
       8    1369    1348    1349    1351    1291    1270    1271    1273
       8    1370    1369    1351    1357    1292    1291    1273    1279
       8    1371    1370    1357    1372    1293    1292    1279    1294
       8    1373    1372    1357    1356    1295    1294    1279    1278
       8    1374    1373    1356    1358    1296    1295    1278    1280
       8    1375    1374    1358    1359    1297    1296    1280    1281
       8    1376    1375    1359    1377    1298    1297    1281    1299
       8    1331    1377    1359    1329    1253    1299    1281    1251
       8    1378    1379    1330    1360    1300    1301    1252    1282
       8    1380    1378    1360    1361    1302    1300    1282    1283
       8    1381    1380    1361    1362    1303    1302    1283    1284
       8    1382    1381    1362    1338    1304    1303    1284    1260
       8    1383    1382    1338    1337    1305    1304    1260    1259
       8    1384    1383    1337    1340    1306    1305    1259    1262
       8    1385    1384    1340    1363    1307    1306    1262    1285
       8    1386    1385    1363    1364    1308    1307    1285    1286
       8    1387    1386    1364    1365    1309    1308    1286    1287
       8    1388    1387    1365    1366    1310    1309    1287    1288
       8    1389    1388    1366    1367    1311    1310    1288    1289
       8    1390    1389    1367    1368    1312    1311    1289    1290
       8    1391    1390    1368    1347    1313    1312    1290    1269
       8    1392    1391    1347    1346    1314    1313    1269    1268
       8    1393    1392    1346    1348    1315    1314    1268    1270
       8    1394    1393    1348    1369    1316    1315    1270    1291
       8    1395    1394    1369    1370    1317    1316    1291    1292
       8    1396    1395    1370    1371    1318    1317    1292    1293
       8    1397    1396    1371    1372    1319    1318    1293    1294
       8    1398    1397    1372    1373    1320    1319    1294    1295
       8    1399    1398    1373    1374    1321    1320    1295    1296
       8    1400    1399    1374    1375    1322    1321    1296    1297
       8    1401    1400    1375    1376    1323    1322    1297    1298
       8    1402    1401    1376    1377    1324    1323    1298    1299
       8    1403    1402    1377    1331    1325    1324    1299    1253
       8    1379    1403    1331    1330    1301    1325    1253    1252
       8    1404    1405    1406    1407    1326    1327    1328    1329
       8    1406    1408    1409    1407    1328    1330    1331    1329
       8    1410    1405    1404    1411    1332    1327    1326    1333
       8    1404    1412    1413    1411    1326    1334    1335    1333
       8    1414    1415    1416    1410    1336    1337    1338    1332
       8    1417    1418    1415    1414    1339    1340    1337    1336
       8    1411    1417    1414    1410    1333    1339    1336    1332
       8    1419    1420    1412    1421    1341    1342    1334    1343
       8    1422    1423    1420    1419    1344    1345    1342    1341
       8    1424    1425    1423    1422    1346    1347    1345    1344
       8    1426    1424    1422    1427    1348    1346    1344    1349
       8    1428    1413    1412    1420    1350    1335    1334    1342
       8    1419    1429    1427    1422    1341    1351    1349    1344
       8    1404    1407    1421    1412    1326    1329    1343    1334
       8    1430    1417    1411    1413    1352    1339    1333    1335
       8    1431    1430    1413    1428    1353    1352    1335    1350
       8    1432    1431    1428    1433    1354    1353    1350    1355
       8    1423    1433    1428    1420    1345    1355    1350    1342
       8    1434    1435    1429    1419    1356    1357    1351    1341
       8    1436    1434    1419    1421    1358    1356    1341    1343
       8    1437    1436    1421    1407    1359    1358    1343    1329
       8    1438    1408    1406    1439    1360    1330    1328    1361
       8    1440    1439    1406    1405    1362    1361    1328    1327
       8    1416    1440    1405    1410    1338    1362    1327    1332
       8    1441    1418    1417    1430    1363    1340    1339    1352
       8    1442    1441    1430    1431    1364    1363    1352    1353
       8    1443    1442    1431    1432    1365    1364    1353    1354
       8    1444    1443    1432    1445    1366    1365    1354    1367
       8    1446    1445    1432    1433    1368    1367    1354    1355
       8    1425    1446    1433    1423    1347    1368    1355    1345
       8    1447    1426    1427    1429    1369    1348    1349    1351
       8    1448    1447    1429    1435    1370    1369    1351    1357
       8    1449    1448    1435    1450    1371    1370    1357    1372
       8    1451    1450    1435    1434    1373    1372    1357    1356
       8    1452    1451    1434    1436    1374    1373    1356    1358
       8    1453    1452    1436    1437    1375    1374    1358    1359
       8    1454    1453    1437    1455    1376    1375    1359    1377
       8    1409    1455    1437    1407    1331    1377    1359    1329
       8    1456    1457    1408    1438    1378    1379    1330    1360
       8    1458    1456    1438    1439    1380    1378    1360    1361
       8    1459    1458    1439    1440    1381    1380    1361    1362
       8    1460    1459    1440    1416    1382    1381    1362    1338
       8    1461    1460    1416    1415    1383    1382    1338    1337
       8    1462    1461    1415    1418    1384    1383    1337    1340
       8    1463    1462    1418    1441    1385    1384    1340    1363
       8    1464    1463    1441    1442    1386    1385    1363    1364
       8    1465    1464    1442    1443    1387    1386    1364    1365
       8    1466    1465    1443    1444    1388    1387    1365    1366
       8    1467    1466    1444    1445    1389    1388    1366    1367
       8    1468    1467    1445    1446    1390    1389    1367    1368
       8    1469    1468    1446    1425    1391    1390    1368    1347
       8    1470    1469    1425    1424    1392    1391    1347    1346
       8    1471    1470    1424    1426    1393    1392    1346    1348
       8    1472    1471    1426    1447    1394    1393    1348    1369
       8    1473    1472    1447    1448    1395    1394    1369    1370
       8    1474    1473    1448    1449    1396    1395    1370    1371
       8    1475    1474    1449    1450    1397    1396    1371    1372
       8    1476    1475    1450    1451    1398    1397    1372    1373
       8    1477    1476    1451    1452    1399    1398    1373    1374
       8    1478    1477    1452    1453    1400    1399    1374    1375
       8    1479    1478    1453    1454    1401    1400    1375    1376
       8    1480    1479    1454    1455    1402    1401    1376    1377
       8    1481    1480    1455    1409    1403    1402    1377    1331
       8    1457    1481    1409    1408    1379    1403    1331    1330
       8    1482    1483    1484    1485    1404    1405    1406    1407
       8    1484    1486    1487    1485    1406    1408    1409    1407
       8    1488    1483    1482    1489    1410    1405    1404    1411
       8    1482    1490    1491    1489    1404    1412    1413    1411
       8    1492    1493    1494    1488    1414    1415    1416    1410
       8    1495    1496    1493    1492    1417    1418    1415    1414
       8    1489    1495    1492    1488    1411    1417    1414    1410
       8    1497    1498    1490    1499    1419    1420    1412    1421
       8    1500    1501    1498    1497    1422    1423    1420    1419
       8    1502    1503    1501    1500    1424    1425    1423    1422
       8    1504    1502    1500    1505    1426    1424    1422    1427
       8    1506    1491    1490    1498    1428    1413    1412    1420
       8    1497    1507    1505    1500    1419    1429    1427    1422
       8    1482    1485    1499    1490    1404    1407    1421    1412
       8    1508    1495    1489    1491    1430    1417    1411    1413
       8    1509    1508    1491    1506    1431    1430    1413    1428
       8    1510    1509    1506    1511    1432    1431    1428    1433
       8    1501    1511    1506    1498    1423    1433    1428    1420
       8    1512    1513    1507    1497    1434    1435    1429    1419
       8    1514    1512    1497    1499    1436    1434    1419    1421
       8    1515    1514    1499    1485    1437    1436    1421    1407
       8    1516    1486    1484    1517    1438    1408    1406    1439
       8    1518    1517    1484    1483    1440    1439    1406    1405
       8    1494    1518    1483    1488    1416    1440    1405    1410
       8    1519    1496    1495    1508    1441    1418    1417    1430
       8    1520    1519    1508    1509    1442    1441    1430    1431
       8    1521    1520    1509    1510    1443    1442    1431    1432
       8    1522    1521    1510    1523    1444    1443    1432    1445
       8    1524    1523    1510    1511    1446    1445    1432    1433
       8    1503    1524    1511    1501    1425    1446    1433    1423
       8    1525    1504    1505    1507    1447    1426    1427    1429
       8    1526    1525    1507    1513    1448    1447    1429    1435
       8    1527    1526    1513    1528    1449    1448    1435    1450
       8    1529    1528    1513    1512    1451    1450    1435    1434
       8    1530    1529    1512    1514    1452    1451    1434    1436
       8    1531    1530    1514    1515    1453    1452    1436    1437
       8    1532    1531    1515    1533    1454    1453    1437    1455
       8    1487    1533    1515    1485    1409    1455    1437    1407
       8    1534    1535    1486    1516    1456    1457    1408    1438
       8    1536    1534    1516    1517    1458    1456    1438    1439
       8    1537    1536    1517    1518    1459    1458    1439    1440
       8    1538    1537    1518    1494    1460    1459    1440    1416
       8    1539    1538    1494    1493    1461    1460    1416    1415
       8    1540    1539    1493    1496    1462    1461    1415    1418
       8    1541    1540    1496    1519    1463    1462    1418    1441
       8    1542    1541    1519    1520    1464    1463    1441    1442
       8    1543    1542    1520    1521    1465    1464    1442    1443
       8    1544    1543    1521    1522    1466    1465    1443    1444
       8    1545    1544    1522    1523    1467    1466    1444    1445
       8    1546    1545    1523    1524    1468    1467    1445    1446
       8    1547    1546    1524    1503    1469    1468    1446    1425
       8    1548    1547    1503    1502    1470    1469    1425    1424
       8    1549    1548    1502    1504    1471    1470    1424    1426
       8    1550    1549    1504    1525    1472    1471    1426    1447
       8    1551    1550    1525    1526    1473    1472    1447    1448
       8    1552    1551    1526    1527    1474    1473    1448    1449
       8    1553    1552    1527    1528    1475    1474    1449    1450
       8    1554    1553    1528    1529    1476    1475    1450    1451
       8    1555    1554    1529    1530    1477    1476    1451    1452
       8    1556    1555    1530    1531    1478    1477    1452    1453
       8    1557    1556    1531    1532    1479    1478    1453    1454
       8    1558    1557    1532    1533    1480    1479    1454    1455
       8    1559    1558    1533    1487    1481    1480    1455    1409
       8    1535    1559    1487    1486    1457    1481    1409    1408
       8    1560    1561    1562    1563    1482    1483    1484    1485
       8    1562    1564    1565    1563    1484    1486    1487    1485
       8    1566    1561    1560    1567    1488    1483    1482    1489
       8    1560    1568    1569    1567    1482    1490    1491    1489
       8    1570    1571    1572    1566    1492    1493    1494    1488
       8    1573    1574    1571    1570    1495    1496    1493    1492
       8    1567    1573    1570    1566    1489    1495    1492    1488
       8    1575    1576    1568    1577    1497    1498    1490    1499
       8    1578    1579    1576    1575    1500    1501    1498    1497
       8    1580    1581    1579    1578    1502    1503    1501    1500
       8    1582    1580    1578    1583    1504    1502    1500    1505
       8    1584    1569    1568    1576    1506    1491    1490    1498
       8    1575    1585    1583    1578    1497    1507    1505    1500
       8    1560    1563    1577    1568    1482    1485    1499    1490
       8    1586    1573    1567    1569    1508    1495    1489    1491
       8    1587    1586    1569    1584    1509    1508    1491    1506
       8    1588    1587    1584    1589    1510    1509    1506    1511
       8    1579    1589    1584    1576    1501    1511    1506    1498
       8    1590    1591    1585    1575    1512    1513    1507    1497
       8    1592    1590    1575    1577    1514    1512    1497    1499
       8    1593    1592    1577    1563    1515    1514    1499    1485
       8    1594    1564    1562    1595    1516    1486    1484    1517
       8    1596    1595    1562    1561    1518    1517    1484    1483
       8    1572    1596    1561    1566    1494    1518    1483    1488
       8    1597    1574    1573    1586    1519    1496    1495    1508
       8    1598    1597    1586    1587    1520    1519    1508    1509
       8    1599    1598    1587    1588    1521    1520    1509    1510
       8    1600    1599    1588    1601    1522    1521    1510    1523
       8    1602    1601    1588    1589    1524    1523    1510    1511
       8    1581    1602    1589    1579    1503    1524    1511    1501
       8    1603    1582    1583    1585    1525    1504    1505    1507
       8    1604    1603    1585    1591    1526    1525    1507    1513
       8    1605    1604    1591    1606    1527    1526    1513    1528
       8    1607    1606    1591    1590    1529    1528    1513    1512
       8    1608    1607    1590    1592    1530    1529    1512    1514
       8    1609    1608    1592    1593    1531    1530    1514    1515
       8    1610    1609    1593    1611    1532    1531    1515    1533
       8    1565    1611    1593    1563    1487    1533    1515    1485
       8    1612    1613    1564    1594    1534    1535    1486    1516
       8    1614    1612    1594    1595    1536    1534    1516    1517
       8    1615    1614    1595    1596    1537    1536    1517    1518
       8    1616    1615    1596    1572    1538    1537    1518    1494
       8    1617    1616    1572    1571    1539    1538    1494    1493
       8    1618    1617    1571    1574    1540    1539    1493    1496
       8    1619    1618    1574    1597    1541    1540    1496    1519
       8    1620    1619    1597    1598    1542    1541    1519    1520
       8    1621    1620    1598    1599    1543    1542    1520    1521
       8    1622    1621    1599    1600    1544    1543    1521    1522
       8    1623    1622    1600    1601    1545    1544    1522    1523
       8    1624    1623    1601    1602    1546    1545    1523    1524
       8    1625    1624    1602    1581    1547    1546    1524    1503
       8    1626    1625    1581    1580    1548    1547    1503    1502
       8    1627    1626    1580    1582    1549    1548    1502    1504
       8    1628    1627    1582    1603    1550    1549    1504    1525
       8    1629    1628    1603    1604    1551    1550    1525    1526
       8    1630    1629    1604    1605    1552    1551    1526    1527
       8    1631    1630    1605    1606    1553    1552    1527    1528
       8    1632    1631    1606    1607    1554    1553    1528    1529
       8    1633    1632    1607    1608    1555    1554    1529    1530
       8    1634    1633    1608    1609    1556    1555    1530    1531
       8    1635    1634    1609    1610    1557    1556    1531    1532
       8    1636    1635    1610    1611    1558    1557    1532    1533
       8    1637    1636    1611    1565    1559    1558    1533    1487
       8    1613    1637    1565    1564    1535    1559    1487    1486
       8    1638    1639    1640    1641    1560    1561    1562    1563
       8    1640    1642    1643    1641    1562    1564    1565    1563
       8    1644    1639    1638    1645    1566    1561    1560    1567
       8    1638    1646    1647    1645    1560    1568    1569    1567
       8    1648    1649    1650    1644    1570    1571    1572    1566
       8    1651    1652    1649    1648    1573    1574    1571    1570
       8    1645    1651    1648    1644    1567    1573    1570    1566
       8    1653    1654    1646    1655    1575    1576    1568    1577
       8    1656    1657    1654    1653    1578    1579    1576    1575
       8    1658    1659    1657    1656    1580    1581    1579    1578
       8    1660    1658    1656    1661    1582    1580    1578    1583
       8    1662    1647    1646    1654    1584    1569    1568    1576
       8    1653    1663    1661    1656    1575    1585    1583    1578
       8    1638    1641    1655    1646    1560    1563    1577    1568
       8    1664    1651    1645    1647    1586    1573    1567    1569
       8    1665    1664    1647    1662    1587    1586    1569    1584
       8    1666    1665    1662    1667    1588    1587    1584    1589
       8    1657    1667    1662    1654    1579    1589    1584    1576
       8    1668    1669    1663    1653    1590    1591    1585    1575
       8    1670    1668    1653    1655    1592    1590    1575    1577
       8    1671    1670    1655    1641    1593    1592    1577    1563
       8    1672    1642    1640    1673    1594    1564    1562    1595
       8    1674    1673    1640    1639    1596    1595    1562    1561
       8    1650    1674    1639    1644    1572    1596    1561    1566
       8    1675    1652    1651    1664    1597    1574    1573    1586
       8    1676    1675    1664    1665    1598    1597    1586    1587
       8    1677    1676    1665    1666    1599    1598    1587    1588
       8    1678    1677    1666    1679    1600    1599    1588    1601
       8    1680    1679    1666    1667    1602    1601    1588    1589
       8    1659    1680    1667    1657    1581    1602    1589    1579
       8    1681    1660    1661    1663    1603    1582    1583    1585
       8    1682    1681    1663    1669    1604    1603    1585    1591
       8    1683    1682    1669    1684    1605    1604    1591    1606
       8    1685    1684    1669    1668    1607    1606    1591    1590
       8    1686    1685    1668    1670    1608    1607    1590    1592
       8    1687    1686    1670    1671    1609    1608    1592    1593
       8    1688    1687    1671    1689    1610    1609    1593    1611
       8    1643    1689    1671    1641    1565    1611    1593    1563
       8    1690    1691    1642    1672    1612    1613    1564    1594
       8    1692    1690    1672    1673    1614    1612    1594    1595
       8    1693    1692    1673    1674    1615    1614    1595    1596
       8    1694    1693    1674    1650    1616    1615    1596    1572
       8    1695    1694    1650    1649    1617    1616    1572    1571
       8    1696    1695    1649    1652    1618    1617    1571    1574
       8    1697    1696    1652    1675    1619    1618    1574    1597
       8    1698    1697    1675    1676    1620    1619    1597    1598
       8    1699    1698    1676    1677    1621    1620    1598    1599
       8    1700    1699    1677    1678    1622    1621    1599    1600
       8    1701    1700    1678    1679    1623    1622    1600    1601
       8    1702    1701    1679    1680    1624    1623    1601    1602
       8    1703    1702    1680    1659    1625    1624    1602    1581
       8    1704    1703    1659    1658    1626    1625    1581    1580
       8    1705    1704    1658    1660    1627    1626    1580    1582
       8    1706    1705    1660    1681    1628    1627    1582    1603
       8    1707    1706    1681    1682    1629    1628    1603    1604
       8    1708    1707    1682    1683    1630    1629    1604    1605
       8    1709    1708    1683    1684    1631    1630    1605    1606
       8    1710    1709    1684    1685    1632    1631    1606    1607
       8    1711    1710    1685    1686    1633    1632    1607    1608
       8    1712    1711    1686    1687    1634    1633    1608    1609
       8    1713    1712    1687    1688    1635    1634    1609    1610
       8    1714    1713    1688    1689    1636    1635    1610    1611
       8    1715    1714    1689    1643    1637    1636    1611    1565
       8    1691    1715    1643    1642    1613    1637    1565    1564
       8    1716    1717    1718    1719    1638    1639    1640    1641
       8    1718    1720    1721    1719    1640    1642    1643    1641
       8    1722    1717    1716    1723    1644    1639    1638    1645
       8    1716    1724    1725    1723    1638    1646    1647    1645
       8    1726    1727    1728    1722    1648    1649    1650    1644
       8    1729    1730    1727    1726    1651    1652    1649    1648
       8    1723    1729    1726    1722    1645    1651    1648    1644
       8    1731    1732    1724    1733    1653    1654    1646    1655
       8    1734    1735    1732    1731    1656    1657    1654    1653
       8    1736    1737    1735    1734    1658    1659    1657    1656
       8    1738    1736    1734    1739    1660    1658    1656    1661
       8    1740    1725    1724    1732    1662    1647    1646    1654
       8    1731    1741    1739    1734    1653    1663    1661    1656
       8    1716    1719    1733    1724    1638    1641    1655    1646
       8    1742    1729    1723    1725    1664    1651    1645    1647
       8    1743    1742    1725    1740    1665    1664    1647    1662
       8    1744    1743    1740    1745    1666    1665    1662    1667
       8    1735    1745    1740    1732    1657    1667    1662    1654
       8    1746    1747    1741    1731    1668    1669    1663    1653
       8    1748    1746    1731    1733    1670    1668    1653    1655
       8    1749    1748    1733    1719    1671    1670    1655    1641
       8    1750    1720    1718    1751    1672    1642    1640    1673
       8    1752    1751    1718    1717    1674    1673    1640    1639
       8    1728    1752    1717    1722    1650    1674    1639    1644
       8    1753    1730    1729    1742    1675    1652    1651    1664
       8    1754    1753    1742    1743    1676    1675    1664    1665
       8    1755    1754    1743    1744    1677    1676    1665    1666
       8    1756    1755    1744    1757    1678    1677    1666    1679
       8    1758    1757    1744    1745    1680    1679    1666    1667
       8    1737    1758    1745    1735    1659    1680    1667    1657
       8    1759    1738    1739    1741    1681    1660    1661    1663
       8    1760    1759    1741    1747    1682    1681    1663    1669
       8    1761    1760    1747    1762    1683    1682    1669    1684
       8    1763    1762    1747    1746    1685    1684    1669    1668
       8    1764    1763    1746    1748    1686    1685    1668    1670
       8    1765    1764    1748    1749    1687    1686    1670    1671
       8    1766    1765    1749    1767    1688    1687    1671    1689
       8    1721    1767    1749    1719    1643    1689    1671    1641
       8    1768    1769    1720    1750    1690    1691    1642    1672
       8    1770    1768    1750    1751    1692    1690    1672    1673
       8    1771    1770    1751    1752    1693    1692    1673    1674
       8    1772    1771    1752    1728    1694    1693    1674    1650
       8    1773    1772    1728    1727    1695    1694    1650    1649
       8    1774    1773    1727    1730    1696    1695    1649    1652
       8    1775    1774    1730    1753    1697    1696    1652    1675
       8    1776    1775    1753    1754    1698    1697    1675    1676
       8    1777    1776    1754    1755    1699    1698    1676    1677
       8    1778    1777    1755    1756    1700    1699    1677    1678
       8    1779    1778    1756    1757    1701    1700    1678    1679
       8    1780    1779    1757    1758    1702    1701    1679    1680
       8    1781    1780    1758    1737    1703    1702    1680    1659
       8    1782    1781    1737    1736    1704    1703    1659    1658
       8    1783    1782    1736    1738    1705    1704    1658    1660
       8    1784    1783    1738    1759    1706    1705    1660    1681
       8    1785    1784    1759    1760    1707    1706    1681    1682
       8    1786    1785    1760    1761    1708    1707    1682    1683
       8    1787    1786    1761    1762    1709    1708    1683    1684
       8    1788    1787    1762    1763    1710    1709    1684    1685
       8    1789    1788    1763    1764    1711    1710    1685    1686
       8    1790    1789    1764    1765    1712    1711    1686    1687
       8    1791    1790    1765    1766    1713    1712    1687    1688
       8    1792    1791    1766    1767    1714    1713    1688    1689
       8    1793    1792    1767    1721    1715    1714    1689    1643
       8    1769    1793    1721    1720    1691    1715    1643    1642
       8    1794    1795    1796    1797    1716    1717    1718    1719
       8    1796    1798    1799    1797    1718    1720    1721    1719
       8    1800    1795    1794    1801    1722    1717    1716    1723
       8    1794    1802    1803    1801    1716    1724    1725    1723
       8    1804    1805    1806    1800    1726    1727    1728    1722
       8    1807    1808    1805    1804    1729    1730    1727    1726
       8    1801    1807    1804    1800    1723    1729    1726    1722
       8    1809    1810    1802    1811    1731    1732    1724    1733
       8    1812    1813    1810    1809    1734    1735    1732    1731
       8    1814    1815    1813    1812    1736    1737    1735    1734
       8    1816    1814    1812    1817    1738    1736    1734    1739
       8    1818    1803    1802    1810    1740    1725    1724    1732
       8    1809    1819    1817    1812    1731    1741    1739    1734
       8    1794    1797    1811    1802    1716    1719    1733    1724
       8    1820    1807    1801    1803    1742    1729    1723    1725
       8    1821    1820    1803    1818    1743    1742    1725    1740
       8    1822    1821    1818    1823    1744    1743    1740    1745
       8    1813    1823    1818    1810    1735    1745    1740    1732
       8    1824    1825    1819    1809    1746    1747    1741    1731
       8    1826    1824    1809    1811    1748    1746    1731    1733
       8    1827    1826    1811    1797    1749    1748    1733    1719
       8    1828    1798    1796    1829    1750    1720    1718    1751
       8    1830    1829    1796    1795    1752    1751    1718    1717
       8    1806    1830    1795    1800    1728    1752    1717    1722
       8    1831    1808    1807    1820    1753    1730    1729    1742
       8    1832    1831    1820    1821    1754    1753    1742    1743
       8    1833    1832    1821    1822    1755    1754    1743    1744
       8    1834    1833    1822    1835    1756    1755    1744    1757
       8    1836    1835    1822    1823    1758    1757    1744    1745
       8    1815    1836    1823    1813    1737    1758    1745    1735
       8    1837    1816    1817    1819    1759    1738    1739    1741
       8    1838    1837    1819    1825    1760    1759    1741    1747
       8    1839    1838    1825    1840    1761    1760    1747    1762
       8    1841    1840    1825    1824    1763    1762    1747    1746
       8    1842    1841    1824    1826    1764    1763    1746    1748
       8    1843    1842    1826    1827    1765    1764    1748    1749
       8    1844    1843    1827    1845    1766    1765    1749    1767
       8    1799    1845    1827    1797    1721    1767    1749    1719
       8    1846    1847    1798    1828    1768    1769    1720    1750
       8    1848    1846    1828    1829    1770    1768    1750    1751
       8    1849    1848    1829    1830    1771    1770    1751    1752
       8    1850    1849    1830    1806    1772    1771    1752    1728
       8    1851    1850    1806    1805    1773    1772    1728    1727
       8    1852    1851    1805    1808    1774    1773    1727    1730
       8    1853    1852    1808    1831    1775    1774    1730    1753
       8    1854    1853    1831    1832    1776    1775    1753    1754
       8    1855    1854    1832    1833    1777    1776    1754    1755
       8    1856    1855    1833    1834    1778    1777    1755    1756
       8    1857    1856    1834    1835    1779    1778    1756    1757
       8    1858    1857    1835    1836    1780    1779    1757    1758
       8    1859    1858    1836    1815    1781    1780    1758    1737
       8    1860    1859    1815    1814    1782    1781    1737    1736
       8    1861    1860    1814    1816    1783    1782    1736    1738
       8    1862    1861    1816    1837    1784    1783    1738    1759
       8    1863    1862    1837    1838    1785    1784    1759    1760
       8    1864    1863    1838    1839    1786    1785    1760    1761
       8    1865    1864    1839    1840    1787    1786    1761    1762
       8    1866    1865    1840    1841    1788    1787    1762    1763
       8    1867    1866    1841    1842    1789    1788    1763    1764
       8    1868    1867    1842    1843    1790    1789    1764    1765
       8    1869    1868    1843    1844    1791    1790    1765    1766
       8    1870    1869    1844    1845    1792    1791    1766    1767
       8    1871    1870    1845    1799    1793    1792    1767    1721
       8    1847    1871    1799    1798    1769    1793    1721    1720
       8    1872    1873    1874    1875    1794    1795    1796    1797
       8    1874    1876    1877    1875    1796    1798    1799    1797
       8    1878    1873    1872    1879    1800    1795    1794    1801
       8    1872    1880    1881    1879    1794    1802    1803    1801
       8    1882    1883    1884    1878    1804    1805    1806    1800
       8    1885    1886    1883    1882    1807    1808    1805    1804
       8    1879    1885    1882    1878    1801    1807    1804    1800
       8    1887    1888    1880    1889    1809    1810    1802    1811
       8    1890    1891    1888    1887    1812    1813    1810    1809
       8    1892    1893    1891    1890    1814    1815    1813    1812
       8    1894    1892    1890    1895    1816    1814    1812    1817
       8    1896    1881    1880    1888    1818    1803    1802    1810
       8    1887    1897    1895    1890    1809    1819    1817    1812
       8    1872    1875    1889    1880    1794    1797    1811    1802
       8    1898    1885    1879    1881    1820    1807    1801    1803
       8    1899    1898    1881    1896    1821    1820    1803    1818
       8    1900    1899    1896    1901    1822    1821    1818    1823
       8    1891    1901    1896    1888    1813    1823    1818    1810
       8    1902    1903    1897    1887    1824    1825    1819    1809
       8    1904    1902    1887    1889    1826    1824    1809    1811
       8    1905    1904    1889    1875    1827    1826    1811    1797
       8    1906    1876    1874    1907    1828    1798    1796    1829
       8    1908    1907    1874    1873    1830    1829    1796    1795
       8    1884    1908    1873    1878    1806    1830    1795    1800
       8    1909    1886    1885    1898    1831    1808    1807    1820
       8    1910    1909    1898    1899    1832    1831    1820    1821
       8    1911    1910    1899    1900    1833    1832    1821    1822
       8    1912    1911    1900    1913    1834    1833    1822    1835
       8    1914    1913    1900    1901    1836    1835    1822    1823
       8    1893    1914    1901    1891    1815    1836    1823    1813
       8    1915    1894    1895    1897    1837    1816    1817    1819
       8    1916    1915    1897    1903    1838    1837    1819    1825
       8    1917    1916    1903    1918    1839    1838    1825    1840
       8    1919    1918    1903    1902    1841    1840    1825    1824
       8    1920    1919    1902    1904    1842    1841    1824    1826
       8    1921    1920    1904    1905    1843    1842    1826    1827
       8    1922    1921    1905    1923    1844    1843    1827    1845
       8    1877    1923    1905    1875    1799    1845    1827    1797
       8    1924    1925    1876    1906    1846    1847    1798    1828
       8    1926    1924    1906    1907    1848    1846    1828    1829
       8    1927    1926    1907    1908    1849    1848    1829    1830
       8    1928    1927    1908    1884    1850    1849    1830    1806
       8    1929    1928    1884    1883    1851    1850    1806    1805
       8    1930    1929    1883    1886    1852    1851    1805    1808
       8    1931    1930    1886    1909    1853    1852    1808    1831
       8    1932    1931    1909    1910    1854    1853    1831    1832
       8    1933    1932    1910    1911    1855    1854    1832    1833
       8    1934    1933    1911    1912    1856    1855    1833    1834
       8    1935    1934    1912    1913    1857    1856    1834    1835
       8    1936    1935    1913    1914    1858    1857    1835    1836
       8    1937    1936    1914    1893    1859    1858    1836    1815
       8    1938    1937    1893    1892    1860    1859    1815    1814
       8    1939    1938    1892    1894    1861    1860    1814    1816
       8    1940    1939    1894    1915    1862    1861    1816    1837
       8    1941    1940    1915    1916    1863    1862    1837    1838
       8    1942    1941    1916    1917    1864    1863    1838    1839
       8    1943    1942    1917    1918    1865    1864    1839    1840
       8    1944    1943    1918    1919    1866    1865    1840    1841
       8    1945    1944    1919    1920    1867    1866    1841    1842
       8    1946    1945    1920    1921    1868    1867    1842    1843
       8    1947    1946    1921    1922    1869    1868    1843    1844
       8    1948    1947    1922    1923    1870    1869    1844    1845
       8    1949    1948    1923    1877    1871    1870    1845    1799
       8    1925    1949    1877    1876    1847    1871    1799    1798
  
CELL_TYPES    3486
       1
       1
       1
       1
       1
       1
       1
       1
       1
       1
       1
       1
       1
       1
       1
       1
       1
       1
       1
       1
       1
       1
       1
       1
       1
       1
       1
       1
       1
       1
       1
       1
       1
       1
       1
       1
       1
       1
       1
       1
       1
       1
       1
       1
       1
       1
       1
       1
       1
       1
       1
       1
       1
       1
       1
       1
       1
       1
       1
       1
       1
       1
       1
       1
       1
       1
       1
       1
       1
       1
       1
       1
       1
       1
       1
       1
       1
       1
       1
       1
       1
       1
       1
       1
       1
       1
       1
       1
       1
       1
       1
       1
       1
       1
       1
       1
       1
       1
       1
       1
       1
       1
       1
       1
       1
       1
       1
       1
       1
       1
       1
       1
       1
       1
       1
       1
       1
       1
       1
       1
       1
       1
       1
       1
       1
       1
       1
       1
       1
       1
       1
       1
       1
       1
       1
       1
       1
       1
       1
       1
       1
       1
       1
       1
       1
       1
       1
       1
       1
       1
       1
       1
       1
       1
       1
       1
       1
       1
       1
       1
       1
       1
       1
       1
       1
       1
       1
       1
       1
       1
       1
       1
       1
       1
       1
       1
       1
       1
       1
       1
       1
       1
       1
       1
       1
       1
       1
       1
       1
       1
       1
       1
       1
       1
       1
       1
       1
       1
       1
       1
       1
       1
       1
       1
       1
       1
       1
       1
       1
       1
       1
       1
       1
       1
       1
       1
       1
       1
       1
       1
       1
       1
       1
       1
       1
       1
       1
       1
       1
       1
       1
       1
       1
       1
       1
       1
       1
       1
       1
       1
       1
       1
       1
       1
       1
       1
       1
       1
       1
       1
       1
       1
       1
       1
       1
       1
       1
       1
       1
       1
       1
       1
       1
       1
       1
       1
       1
       1
       1
       1
       1
       1
       1
       1
       1
       1
       1
       1
       1
       1
       1
       1
       1
       1
       1
       1
       1
       1
       1
       1
       1
       1
       1
       1
       1
       1
       1
       1
       1
       1
       1
       1
       1
       1
       1
       1
       1
       1
       1
       1
       1
       1
       1
       1
       1
       1
       1
       1
       1
       1
       1
       1
       1
       1
       1
       1
       1
       1
       1
       1
       1
       1
       1
       1
       1
       1
       1
       1
       1
       1
       1
       1
       1
       1
       1
       1
       1
       1
       1
       1
       1
       1
       1
       1
       1
       1
       1
       1
       1
       1
       1
       1
       1
       1
       1
       1
       1
       1
       1
       1
       1
       1
       1
       1
       1
       1
       1
       1
       1
       1
       1
       1
       1
       1
       1
       1
       1
       1
       1
       1
       1
       1
       1
       1
       1
       1
       1
       1
       1
       1
       1
       1
       1
       1
       1
       1
       1
       1
       1
       1
       1
       1
       1
       1
       1
       1
       1
       1
       1
       1
       1
       1
       1
       1
       1
       1
       1
       1
       1
       1
       1
       1
       1
       1
       1
       1
       1
       1
       1
       1
       1
       1
       1
       1
       1
       1
       1
       1
       1
       1
       1
       1
       1
       1
       1
       1
       1
       1
       1
       1
       1
       1
       1
       1
       1
       1
       1
       1
       1
       1
       1
       1
       1
       1
       1
       1
       1
       1
       1
       1
       1
       1
       1
       1
       1
       1
       1
       1
       1
       1
       1
       1
       1
       1
       1
       1
       1
       1
       1
       1
       1
       1
       1
       1
       1
       1
       1
       1
       1
       1
       1
       1
       1
       1
       1
       1
       1
       1
       1
       1
       1
       1
       1
       1
       1
       1
       1
       1
       1
       1
       1
       1
       1
       1
       1
       1
       1
       1
       1
       1
       1
       1
       1
       1
       1
       1
       1
       1
       1
       1
       1
       1
       1
       1
       1
       1
       1
       1
       1
       1
       1
       1
       1
       1
       1
       1
       1
       1
       1
       1
       1
       1
       1
       1
       1
       1
       1
       1
       1
       1
       1
       1
       1
       1
       1
       1
       1
       1
       1
       1
       1
       1
       1
       1
       1
       1
       1
       1
       1
       1
       1
       1
       1
       1
       1
       1
       1
       1
       1
       1
       1
       1
       1
       1
       1
       1
       1
       1
       1
       1
       1
       1
       1
       1
       1
       1
       1
       1
       1
       1
       1
       1
       1
       1
       1
       1
       1
       1
       1
       1
       1
       1
       1
       1
       1
       1
       1
       1
       1
       1
       1
       1
       1
       1
       1
       1
       1
       1
       1
       1
       1
       1
       1
       1
       1
       1
       1
       1
       1
       1
       1
       1
       1
       1
       1
       1
       1
       1
       1
       1
       1
       1
       1
       1
       1
       1
       1
       1
       1
       1
       1
       1
       1
       1
       1
       1
       1
       1
       1
       1
       1
       1
       1
       1
       1
       1
       1
       1
       1
       1
       1
       1
       1
       1
       1
       1
       1
       1
       1
       1
       1
       1
       1
       1
       1
       1
       1
       1
       1
       1
       1
       1
       1
       1
       1
       1
       1
       1
       1
       1
       1
       1
       1
       1
       1
       1
       1
       1
       1
       1
       1
       1
       1
       1
       1
       1
       1
       1
       1
       1
       1
       1
       1
       1
       1
       1
       1
       1
       1
       1
       1
       1
       1
       1
       1
       1
       1
       1
       1
       1
       1
       1
       1
       1
       1
       1
       1
       1
       1
       1
       1
       1
       1
       1
       1
       1
       1
       1
       1
       1
       1
       1
       1
       1
       1
       1
       1
       1
       1
       1
       1
       1
       1
       1
       1
       1
       1
       1
       1
       1
       1
       1
       1
       1
       1
       1
       1
       1
       1
       1
       1
       1
       1
       1
       1
       1
       1
       1
       1
       1
       1
       1
       1
       1
       1
       1
       1
       1
       1
       1
       1
       1
       1
       1
       1
       1
       1
       1
       1
       1
       1
       1
       1
       1
       1
       1
       1
       1
       1
       1
       1
       1
       1
       1
       1
       1
       1
       1
       1
       1
       1
       1
       1
       1
       1
       1
       1
       1
       1
       1
       1
       1
       1
       1
       1
       1
       1
       1
       1
       1
       1
       1
       1
       1
       1
       1
       1
       1
       1
       1
       1
       1
       1
       1
       1
       1
       1
       1
       1
       1
       1
       1
       1
       1
       1
       1
       1
       1
       1
       1
       1
       1
       1
       1
       1
       1
       1
       1
       1
       1
       1
       1
       1
       1
       1
       1
       1
       1
       1
       1
       1
       1
       1
       1
       1
       1
       1
       1
       1
       1
       1
       1
       1
       1
       1
       1
       1
       1
       1
       1
       1
       1
       1
       1
       1
       1
       1
       1
       1
       1
       1
       1
       1
       1
       1
       1
       1
       1
       1
       1
       1
       1
       1
       1
       1
       1
       1
       1
       1
       1
       1
       1
       1
       1
       1
       1
       1
       1
       1
       1
       1
       1
       1
       1
       1
       1
       1
       1
       1
       1
       1
       1
       1
       1
       1
       1
       1
       1
       1
       1
       1
       1
       1
       1
       1
       1
       1
       1
       1
       1
       1
       1
       1
       1
       1
       1
       1
       1
       1
       1
       1
       1
       1
       1
       1
       1
       1
       1
       1
       1
       1
       1
       1
       1
       1
       1
       1
       1
       1
       1
       1
       1
       1
       1
       1
       1
       1
       1
       1
       1
       1
       1
       1
       1
       1
       1
       1
       1
       1
       1
       1
       1
       1
       1
       1
       1
       1
       1
       1
       1
       1
       1
       1
       1
       1
       1
       1
       1
       1
       1
       1
       1
       1
       1
       1
       1
       1
       1
       1
       1
       1
       1
       1
       1
       1
       1
       1
       1
       1
       1
       1
       1
       1
       1
       1
       1
       1
       1
       1
       1
       1
       1
       1
       1
       1
       1
       1
       1
       1
       1
       1
       1
       1
       1
       1
       1
       1
       1
       1
       1
       1
       1
       1
       1
       1
       1
       1
       1
       1
       1
       1
       1
       1
       1
       1
       1
       1
       1
       1
       1
       1
       1
       1
       1
       1
       1
       1
       1
       1
       1
       1
       1
       1
       1
       1
       1
       1
       1
       1
       1
       1
       1
       1
       1
       1
       1
       1
       1
       1
       1
       1
       1
       1
       1
       1
       1
       1
       1
       1
       1
       1
       1
       1
       1
       1
       1
       1
       1
       1
       1
       1
       1
       1
       1
       1
       1
       1
       1
       1
       1
       1
       1
       1
       1
       1
       1
       1
       1
       1
       1
       1
       1
       1
       1
       1
       1
       1
       1
       1
       1
       1
       1
       1
       1
       1
       1
       1
       1
       1
       1
       1
       1
       1
       1
       1
       1
       1
       1
       1
       1
       1
       1
       1
       1
       1
       1
       1
       1
       1
       1
       1
       1
       1
       1
       1
       1
       1
       1
       1
       1
       1
       1
       1
       1
       1
       1
       1
       1
       1
       1
       1
       1
       1
       1
       1
       1
       1
       1
       1
       1
       1
       1
       1
       1
       1
       1
       1
       1
       1
       1
       1
       1
       1
       1
       1
       1
       1
       1
       1
       1
       1
       1
       1
       1
       1
       1
       1
       1
       1
       1
       1
       1
       1
       1
       1
       1
       1
       1
       1
       1
       1
       1
       1
       1
       1
       1
       1
       1
       1
       1
       1
       1
       1
       1
       1
       1
       1
       1
       1
       1
       1
       1
       1
       1
       1
       1
       1
       1
       1
       1
       1
       1
       1
       1
       1
       1
       1
       1
       1
       1
       1
       1
       1
       1
       1
       1
       1
       1
       1
       1
       1
       1
       1
       1
       1
       1
       1
       1
       1
       1
       1
       1
       1
       1
       1
       1
       1
       1
       1
       1
       1
       1
       1
       1
       1
       1
       1
       1
       1
       1
       1
       1
       1
       1
       1
       1
       1
       1
       1
       1
       1
       1
       1
       1
       1
       1
       1
       1
       1
       1
       1
       1
       1
       1
       1
       1
       1
       1
       1
       1
       1
       1
       1
       1
       1
       1
       1
       1
       1
       1
       1
       1
       1
       1
       1
       1
       1
       1
       1
       1
       1
       1
       1
       1
       1
       1
       1
       1
       1
       1
       1
       1
       1
       1
       1
       1
       1
       1
       1
       1
       1
       1
       1
       1
       1
       1
       1
       1
       1
       1
       1
       1
       1
       1
       1
       1
       1
       1
       1
       1
       1
       1
       1
       1
       1
       1
       1
       1
       1
       1
       1
       1
       1
       1
       1
       1
       1
       1
       1
       1
       1
       1
       1
       1
       1
       1
       1
       1
       1
       1
       1
       1
       1
       1
       1
       1
       1
       1
       1
       1
       1
       1
       1
       1
       1
       1
       1
       1
       1
       1
       1
       1
       1
       1
       1
       1
       1
       1
       1
       1
       1
       1
       1
       1
       1
       1
       1
       1
       1
       1
       1
       1
       1
       1
       1
       1
       1
       1
       1
       1
       1
       1
       1
       1
       1
       1
       1
       1
       1
       1
       1
       1
       1
       1
       1
       1
       1
       1
       1
       1
       1
       1
       1
       1
       1
       1
       1
       1
       1
       1
       1
       1
       1
       1
       1
       1
       1
       1
       1
       1
       1
       1
       1
       1
       1
       1
       1
       1
       1
       1
       1
       1
       1
       1
       1
       1
       1
       1
       1
       1
       1
       1
       1
       1
       1
       1
       1
       1
       1
       1
       1
       1
       1
       1
       1
       1
       1
       1
       1
       1
       1
       1
       1
       1
       1
       1
       1
       1
       1
       1
       1
       1
       1
       1
       1
       1
       1
       1
       1
       1
       1
       1
       1
       1
       1
       1
       1
       1
       1
       1
       1
       1
       1
       1
       1
       1
       1
       1
       1
       1
       1
       1
       1
       1
       1
       1
       1
       1
       1
       1
       1
       1
       1
       1
       1
       1
       1
       1
       1
       1
       1
       1
       1
       1
       1
       1
       1
       1
       1
       1
       1
       1
       1
       1
       1
       1
       1
       1
       1
       1
       1
       1
       1
       1
       1
       1
       1
       1
       1
       1
       1
       1
       1
       1
       1
       1
       1
       1
       1
       1
       1
       1
       1
       1
       1
       1
       1
       1
       1
       1
       1
       1
       1
       1
       1
       1
       1
       1
       1
       1
       1
       1
       1
       1
       1
       1
       1
       1
       1
       1
       1
       1
       1
       1
       1
       1
       1
       1
       1
       1
       1
       1
       1
       1
       1
       1
       1
       1
       1
       1
       1
       1
       1
       1
       1
       1
       1
       1
       1
       1
       1
       1
       1
       1
       1
       1
       1
       1
       1
       1
       1
       1
       1
       1
       1
       1
       1
       1
       1
       1
       1
       1
       1
       1
       1
       1
       1
       1
       1
       1
       1
       1
       1
       1
       1
       1
       1
       1
       1
       1
       1
       1
       1
       1
       1
       1
       1
       1
       1
       1
       1
       1
       1
       1
       1
       1
       1
       1
       1
       1
       1
       1
       1
       1
       1
       1
       1
       1
       1
       1
       1
       1
       1
       1
       1
       1
       1
       1
       1
       1
       1
       1
       1
       1
       1
       1
       1
       1
       1
       1
       1
       1
       1
       1
       1
       1
       1
       1
       1
       1
      12
      12
      12
      12
      12
      12
      12
      12
      12
      12
      12
      12
      12
      12
      12
      12
      12
      12
      12
      12
      12
      12
      12
      12
      12
      12
      12
      12
      12
      12
      12
      12
      12
      12
      12
      12
      12
      12
      12
      12
      12
      12
      12
      12
      12
      12
      12
      12
      12
      12
      12
      12
      12
      12
      12
      12
      12
      12
      12
      12
      12
      12
      12
      12
      12
      12
      12
      12
      12
      12
      12
      12
      12
      12
      12
      12
      12
      12
      12
      12
      12
      12
      12
      12
      12
      12
      12
      12
      12
      12
      12
      12
      12
      12
      12
      12
      12
      12
      12
      12
      12
      12
      12
      12
      12
      12
      12
      12
      12
      12
      12
      12
      12
      12
      12
      12
      12
      12
      12
      12
      12
      12
      12
      12
      12
      12
      12
      12
      12
      12
      12
      12
      12
      12
      12
      12
      12
      12
      12
      12
      12
      12
      12
      12
      12
      12
      12
      12
      12
      12
      12
      12
      12
      12
      12
      12
      12
      12
      12
      12
      12
      12
      12
      12
      12
      12
      12
      12
      12
      12
      12
      12
      12
      12
      12
      12
      12
      12
      12
      12
      12
      12
      12
      12
      12
      12
      12
      12
      12
      12
      12
      12
      12
      12
      12
      12
      12
      12
      12
      12
      12
      12
      12
      12
      12
      12
      12
      12
      12
      12
      12
      12
      12
      12
      12
      12
      12
      12
      12
      12
      12
      12
      12
      12
      12
      12
      12
      12
      12
      12
      12
      12
      12
      12
      12
      12
      12
      12
      12
      12
      12
      12
      12
      12
      12
      12
      12
      12
      12
      12
      12
      12
      12
      12
      12
      12
      12
      12
      12
      12
      12
      12
      12
      12
      12
      12
      12
      12
      12
      12
      12
      12
      12
      12
      12
      12
      12
      12
      12
      12
      12
      12
      12
      12
      12
      12
      12
      12
      12
      12
      12
      12
      12
      12
      12
      12
      12
      12
      12
      12
      12
      12
      12
      12
      12
      12
      12
      12
      12
      12
      12
      12
      12
      12
      12
      12
      12
      12
      12
      12
      12
      12
      12
      12
      12
      12
      12
      12
      12
      12
      12
      12
      12
      12
      12
      12
      12
      12
      12
      12
      12
      12
      12
      12
      12
      12
      12
      12
      12
      12
      12
      12
      12
      12
      12
      12
      12
      12
      12
      12
      12
      12
      12
      12
      12
      12
      12
      12
      12
      12
      12
      12
      12
      12
      12
      12
      12
      12
      12
      12
      12
      12
      12
      12
      12
      12
      12
      12
      12
      12
      12
      12
      12
      12
      12
      12
      12
      12
      12
      12
      12
      12
      12
      12
      12
      12
      12
      12
      12
      12
      12
      12
      12
      12
      12
      12
      12
      12
      12
      12
      12
      12
      12
      12
      12
      12
      12
      12
      12
      12
      12
      12
      12
      12
      12
      12
      12
      12
      12
      12
      12
      12
      12
      12
      12
      12
      12
      12
      12
      12
      12
      12
      12
      12
      12
      12
      12
      12
      12
      12
      12
      12
      12
      12
      12
      12
      12
      12
      12
      12
      12
      12
      12
      12
      12
      12
      12
      12
      12
      12
      12
      12
      12
      12
      12
      12
      12
      12
      12
      12
      12
      12
      12
      12
      12
      12
      12
      12
      12
      12
      12
      12
      12
      12
      12
      12
      12
      12
      12
      12
      12
      12
      12
      12
      12
      12
      12
      12
      12
      12
      12
      12
      12
      12
      12
      12
      12
      12
      12
      12
      12
      12
      12
      12
      12
      12
      12
      12
      12
      12
      12
      12
      12
      12
      12
      12
      12
      12
      12
      12
      12
      12
      12
      12
      12
      12
      12
      12
      12
      12
      12
      12
      12
      12
      12
      12
      12
      12
      12
      12
      12
      12
      12
      12
      12
      12
      12
      12
      12
      12
      12
      12
      12
      12
      12
      12
      12
      12
      12
      12
      12
      12
      12
      12
      12
      12
      12
      12
      12
      12
      12
      12
      12
      12
      12
      12
      12
      12
      12
      12
      12
      12
      12
      12
      12
      12
      12
      12
      12
      12
      12
      12
      12
      12
      12
      12
      12
      12
      12
      12
      12
      12
      12
      12
      12
      12
      12
      12
      12
      12
      12
      12
      12
      12
      12
      12
      12
      12
      12
      12
      12
      12
      12
      12
      12
      12
      12
      12
      12
      12
      12
      12
      12
      12
      12
      12
      12
      12
      12
      12
      12
      12
      12
      12
      12
      12
      12
      12
      12
      12
      12
      12
      12
      12
      12
      12
      12
      12
      12
      12
      12
      12
      12
      12
      12
      12
      12
      12
      12
      12
      12
      12
      12
      12
      12
      12
      12
      12
      12
      12
      12
      12
      12
      12
      12
      12
      12
      12
      12
      12
      12
      12
      12
      12
      12
      12
      12
      12
      12
      12
      12
      12
      12
      12
      12
      12
      12
      12
      12
      12
      12
      12
      12
      12
      12
      12
      12
      12
      12
      12
      12
      12
      12
      12
      12
      12
      12
      12
      12
      12
      12
      12
      12
      12
      12
      12
      12
      12
      12
      12
      12
      12
      12
      12
      12
      12
      12
      12
      12
      12
      12
      12
      12
      12
      12
      12
      12
      12
      12
      12
      12
      12
      12
      12
      12
      12
      12
      12
      12
      12
      12
      12
      12
      12
      12
      12
      12
      12
      12
      12
      12
      12
      12
      12
      12
      12
      12
      12
      12
      12
      12
      12
      12
      12
      12
      12
      12
      12
      12
      12
      12
      12
      12
      12
      12
      12
      12
      12
      12
      12
      12
      12
      12
      12
      12
      12
      12
      12
      12
      12
      12
      12
      12
      12
      12
      12
      12
      12
      12
      12
      12
      12
      12
      12
      12
      12
      12
      12
      12
      12
      12
      12
      12
      12
      12
      12
      12
      12
      12
      12
      12
      12
      12
      12
      12
      12
      12
      12
      12
      12
      12
      12
      12
      12
      12
      12
      12
      12
      12
      12
      12
      12
      12
      12
      12
      12
      12
      12
      12
      12
      12
      12
      12
      12
      12
      12
      12
      12
      12
      12
      12
      12
      12
      12
      12
      12
      12
      12
      12
      12
      12
      12
      12
      12
      12
      12
      12
      12
      12
      12
      12
      12
      12
      12
      12
      12
      12
      12
      12
      12
      12
      12
      12
      12
      12
      12
      12
      12
      12
      12
      12
      12
      12
      12
      12
      12
      12
      12
      12
      12
      12
      12
      12
      12
      12
      12
      12
      12
      12
      12
      12
      12
      12
      12
      12
      12
      12
      12
      12
      12
      12
      12
      12
      12
      12
      12
      12
      12
      12
      12
      12
      12
      12
      12
      12
      12
      12
      12
      12
      12
      12
      12
      12
      12
      12
      12
      12
      12
      12
      12
      12
      12
      12
      12
      12
      12
      12
      12
      12
      12
      12
      12
      12
      12
      12
      12
      12
      12
      12
      12
      12
      12
      12
      12
      12
      12
      12
      12
      12
      12
      12
      12
      12
      12
      12
      12
      12
      12
      12
      12
      12
      12
      12
      12
      12
      12
      12
      12
      12
      12
      12
      12
      12
      12
      12
      12
      12
      12
      12
      12
      12
      12
      12
      12
      12
      12
      12
      12
      12
      12
      12
      12
      12
      12
      12
      12
      12
      12
      12
      12
      12
      12
      12
      12
      12
      12
      12
      12
      12
      12
      12
      12
      12
      12
      12
      12
      12
      12
      12
      12
      12
      12
      12
      12
      12
      12
      12
      12
      12
      12
      12
      12
      12
      12
      12
      12
      12
      12
      12
      12
      12
      12
      12
      12
      12
      12
      12
      12
      12
      12
      12
      12
      12
      12
      12
      12
      12
      12
      12
      12
      12
      12
      12
      12
      12
      12
      12
      12
      12
      12
      12
      12
      12
      12
      12
      12
      12
      12
      12
      12
      12
      12
      12
      12
      12
      12
      12
      12
      12
      12
      12
      12
      12
      12
      12
      12
      12
      12
      12
      12
      12
      12
      12
      12
      12
      12
      12
      12
      12
      12
      12
      12
      12
      12
      12
      12
      12
      12
      12
      12
      12
      12
      12
      12
      12
      12
      12
      12
      12
      12
      12
      12
      12
      12
      12
      12
      12
      12
      12
      12
      12
      12
      12
      12
      12
      12
      12
      12
      12
      12
      12
      12
      12
      12
      12
      12
      12
      12
      12
      12
      12
      12
      12
      12
      12
      12
      12
      12
      12
      12
      12
      12
      12
      12
      12
      12
      12
      12
      12
      12
      12
      12
      12
      12
      12
      12
      12
      12
      12
      12
      12
      12
      12
      12
      12
      12
      12
      12
      12
      12
      12
      12
      12
      12
      12
      12
      12
      12
      12
      12
      12
      12
      12
      12
      12
      12
      12
      12
      12
      12
      12
      12
      12
      12
      12
      12
      12
      12
      12
      12
      12
      12
      12
      12
      12
      12
      12
      12
      12
      12
      12
      12
      12
      12
      12
      12
      12
      12
      12
      12
      12
      12
      12
      12
      12
      12
      12
      12
      12
      12
      12
      12
      12
      12
      12
      12
      12
      12
      12
      12
      12
      12
      12
      12
      12
      12
      12
      12
      12
      12
      12
      12
      12
      12
      12
      12
      12
      12
      12
      12
      12
      12
      12
      12
      12
      12
      12
      12
      12
      12
      12
      12
      12
      12
      12
      12
      12
      12
      12
      12
      12
      12
      12
      12
      12
      12
      12
      12
      12
      12
      12
      12
      12
      12
      12
      12
      12
      12
      12
      12
      12
      12
      12
      12
      12
      12
      12
      12
      12
      12
      12
      12
      12
      12
      12
      12
      12
      12
      12
      12
      12
      12
      12
      12
      12
      12
      12
      12
      12
      12
      12
      12
      12
      12
      12
      12
      12
      12
      12
      12
      12
      12
      12
      12
      12
      12
      12
      12
      12
      12
      12
      12
      12
      12
      12
      12
      12
      12
      12
      12
      12
      12
      12
      12
      12
      12
      12
      12
      12
      12
      12
      12
      12
      12
      12
      12
      12
      12
      12
      12
      12
      12
      12
      12
      12
      12
      12
      12
      12
      12
      12
      12
      12
      12
      12
      12
      12
      12
      12
      12
      12
      12
      12
      12
      12
      12
  
  
POINT_DATA       1950
  
SCALARS                  material_type  double 1
LOOKUP_TABLE default
                   2
                   2
                   2
                   2
                   2
                   2
                   2
                   2
                   2
                   2
                   2
                   2
                   2
                   2
                   2
                   2
                   2
                   2
                   2
                   2
                   2
                   2
                   2
                   2
                   2
                   2
                   2
                   2
                   2
                   2
                   2
                   2
                   2
                   2
                   2
                   2
                   2
                   2
                   2
                   2
                   2
                   2
                   2
                   2
                   2
                   2
                   2
                   2
                   2
                   2
                   2
                   2
                   2
                   2
                   2
                   2
                   2
                   2
                   2
                   2
                   2
                   2
                   2
                   2
                   2
                   2
                   2
                   2
                   2
                   2
                   2
                   2
                   2
                   2
                   2
                   2
                   2
                   2
                   2
                   2
                   2
                   2
                   2
                   2
                   2
                   2
                   2
                   2
                   2
                   2
                   2
                   2
                   2
                   2
                   2
                   2
                   2
                   2
                   2
                   2
                   2
                   2
                   2
                   2
                   2
                   2
                   2
                   2
                   2
                   2
                   2
                   2
                   2
                   2
                   2
                   2
                   2
                   2
                   2
                   2
                   2
                   2
                   2
                   2
                   2
                   2
                   2
                   2
                   2
                   2
                   2
                   2
                   2
                   2
                   2
                   2
                   2
                   2
                   2
                   2
                   2
                   2
                   2
                   2
                   2
                   2
                   2
                   2
                   2
                   2
                   2
                   2
                   2
                   2
                   2
                   2
                   2
                   2
                   2
                   2
                   2
                   2
                   2
                   2
                   2
                   2
                   2
                   2
                   2
                   2
                   2
                   2
                   2
                   2
                   2
                   2
                   2
                   2
                   2
                   2
                   2
                   2
                   2
                   2
                   2
                   2
                   2
                   2
                   2
                   2
                   2
                   2
                   2
                   2
                   2
                   2
                   2
                   2
                   2
                   2
                   2
                   2
                   2
                   2
                   2
                   2
                   2
                   2
                   2
                   2
                   2
                   2
                   2
                   2
                   2
                   2
                   2
                   2
                   2
                   2
                   2
                   2
                   2
                   2
                   2
                   2
                   2
                   2
                   2
                   2
                   2
                   2
                   2
                   2
                   2
                   2
                   2
                   2
                   2
                   2
                   2
                   2
                   2
                   2
                   2
                   2
                   2
                   2
                   2
                   2
                   2
                   2
                   2
                   2
                   2
                   2
                   2
                   2
                   2
                   2
                   2
                   2
                   2
                   2
                   2
                   2
                   2
                   2
                   2
                   2
                   2
                   2
                   2
                   2
                   2
                   2
                   2
                   2
                   2
                   2
                   2
                   2
                   2
                   2
                   2
                   2
                   2
                   2
                   2
                   2
                   2
                   2
                   2
                   2
                   2
                   2
                   2
                   2
                   2
                   2
                   2
                   2
                   2
                   2
                   2
                   2
                   2
                   2
                   2
                   2
                   2
                   2
                   2
                   2
                   2
                   2
                   2
                   2
                   2
                   2
                   2
                   2
                   2
                   2
                   2
                   2
                   2
                   2
                   2
                   2
                   2
                   2
                   2
                   2
                   2
                   2
                   2
                   2
                   2
                   2
                   2
                   2
                   2
                   2
                   2
                   2
                   2
                   2
                   2
                   2
                   2
                   2
                   2
                   2
                   2
                   2
                   2
                   2
                   2
                   2
                   2
                   2
                   2
                   2
                   2
                   2
                   2
                   2
                   2
                   2
                   2
                   2
                   2
                   2
                   2
                   2
                   2
                   2
                   2
                   2
                   2
                   2
                   2
                   2
                   2
                   2
                   2
                   2
                   2
                   2
                   2
                   2
                   2
                   2
                   2
                   2
                   2
                   2
                   2
                   2
                   2
                   2
                   2
                   2
                   2
                   2
                   2
                   2
                   2
                   2
                   2
                   2
                   2
                   2
                   2
                   2
                   2
                   2
                   2
                   2
                   2
                   2
                   2
                   2
                   2
                   2
                   2
                   2
                   2
                   2
                   2
                   2
                   2
                   2
                   2
                   2
                   2
                   2
                   2
                   2
                   2
                   2
                   2
                   2
                   2
                   2
                   2
                   2
                   2
                   2
                   2
                   2
                   2
                   2
                   2
                   2
                   2
                   2
                   2
                   2
                   2
                   2
                   2
                   2
                   2
                   2
                   2
                   2
                   2
                   2
                   2
                   2
                   2
                   2
                   2
                   2
                   2
                   2
                   2
                   2
                   2
                   2
                   2
                   2
                   2
                   2
                   2
                   2
                   2
                   2
                   2
                   2
                   2
                   2
                   2
                   2
                   2
                   2
                   2
                   2
                   2
                   2
                   2
                   2
                   2
                   2
                   2
                   2
                   2
                   2
                   2
                   2
                   2
                   2
                   2
                   2
                   2
                   2
                   2
                   2
                   2
                   2
                   2
                   2
                   2
                   2
                   2
                   2
                   2
                   2
                   2
                   2
                   2
                   2
                   2
                   2
                   2
                   2
                   2
                   2
                   2
                   2
                   2
                   2
                   2
                   2
                   2
                   2
                   2
                   2
                   2
                   2
                   2
                   2
                   2
                   2
                   2
                   2
                   2
                   2
                   2
                   2
                   2
                   2
                   2
                   2
                   2
                   2
                   2
                   2
                   2
                   2
                   2
                   2
                   2
                   2
                   2
                   2
                   2
                   2
                   2
                   2
                   2
                   2
                   2
                   2
                   2
                   2
                   2
                   2
                   2
                   2
                   2
                   2
                   2
                   2
                   2
                   2
                   2
                   2
                   2
                   2
                   2
                   2
                   2
                   2
                   2
                   2
                   2
                   2
                   2
                   2
                   2
                   2
                   2
                   2
                   2
                   2
                   2
                   2
                   2
                   2
                   2
                   2
                   2
                   2
                   2
                   2
                   2
                   2
                   2
                   2
                   2
                   2
                   2
                   2
                   2
                   2
                   2
                   2
                   2
                   2
                   2
                   2
                   2
                   2
                   2
                   2
                   2
                   2
                   2
                   2
                   2
                   2
                   2
                   2
                   2
                   2
                   2
                   2
                   2
                   2
                   2
                   2
                   2
                   2
                   2
                   2
                   2
                   2
                   2
                   2
                   2
                   2
                   2
                   2
                   2
                   2
                   2
                   2
                   2
                   2
                   2
                   2
                   2
                   2
                   2
                   2
                   2
                   2
                   2
                   2
                   2
                   2
                   2
                   2
                   2
                   2
                   2
                   2
                   2
                   2
                   2
                   2
                   2
                   2
                   2
                   2
                   2
                   2
                   2
                   2
                   2
                   2
                   2
                   2
                   2
                   2
                   2
                   2
                   2
                   2
                   2
                   2
                   2
                   2
                   2
                   2
                   2
                   2
                   2
                   2
                   2
                   2
                   2
                   2
                   2
                   2
                   2
                   2
                   2
                   2
                   2
                   2
                   2
                   2
                   2
                   2
                   2
                   2
                   2
                   2
                   2
                   2
                   2
                   2
                   2
                   2
                   2
                   2
                   2
                   2
                   2
                   2
                   2
                   2
                   2
                   2
                   2
                   2
                   2
                   2
                   2
                   2
                   2
                   2
                   2
                   2
                   2
                   2
                   2
                   2
                   2
                   2
                   2
                   2
                   2
                   2
                   2
                   2
                   2
                   2
                   2
                   2
                   2
                   2
                   2
                   2
                   2
                   2
                   2
                   2
                   2
                   2
                   2
                   2
                   2
                   2
                   2
                   2
                   2
                   2
                   2
                   2
                   2
                   2
                   2
                   2
                   2
                   2
                   2
                   2
                   2
                   2
                   2
                   2
                   2
                   2
                   2
                   2
                   2
                   2
                   2
                   2
                   2
                   2
                   2
                   2
                   2
                   2
                   2
                   2
                   2
                   2
                   2
                   2
                   2
                   2
                   2
                   2
                   2
                   2
                   2
                   2
                   2
                   2
                   2
                   2
                   2
                   2
                   2
                   2
                   2
                   2
                   2
                   2
                   2
                   2
                   2
                   2
                   2
                   2
                   2
                   2
                   2
                   2
                   2
                   2
                   2
                   2
                   2
                   2
                   2
                   2
                   2
                   2
                   2
                   2
                   2
                   2
                   2
                   2
                   2
                   2
                   2
                   2
                   2
                   2
                   2
                   2
                   2
                   2
                   2
                   2
                   2
                   2
                   2
                   2
                   2
                   2
                   2
                   2
                   2
                   2
                   2
                   2
                   2
                   2
                   2
                   2
                   2
                   2
                   2
                   2
                   2
                   2
                   2
                   2
                   2
                   2
                   2
                   2
                   2
                   2
                   2
                   2
                   2
                   2
                   2
                   2
                   2
                   2
                   2
                   2
                   2
                   2
                   2
                   2
                   2
                   2
                   2
                   2
                   2
                   2
                   2
                   2
                   2
                   2
                   2
                   2
                   2
                   2
                   2
                   2
                   2
                   2
                   2
                   2
                   2
                   2
                   2
                   2
                   2
                   2
                   2
                   2
                   2
                   2
                   2
                   2
                   2
                   2
                   2
                   2
                   2
                   2
                   2
                   2
                   2
                   2
                   2
                   2
                   2
                   2
                   2
                   2
                   2
                   2
                   2
                   2
                   2
                   2
                   2
                   2
                   2
                   2
                   2
                   2
                   2
                   2
                   2
                   2
                   2
                   2
                   2
                   2
                   2
                   2
                   2
                   2
                   2
                   2
                   2
                   2
                   2
                   2
                   2
                   2
                   2
                   2
                   2
                   2
                   2
                   2
                   2
                   2
                   2
                   2
                   2
                   2
                   2
                   2
                   2
                   2
                   2
                   2
                   2
                   2
                   2
                   2
                   2
                   2
                   2
                   2
                   2
                   2
                   2
                   2
                   2
                   2
                   2
                   2
                   2
                   2
                   2
                   2
                   2
                   2
                   2
                   2
                   2
                   2
                   2
                   2
                   2
                   2
                   2
                   2
                   2
                   2
                   2
                   2
                   2
                   2
                   2
                   2
                   2
                   2
                   2
                   2
                   2
                   2
                   2
                   2
                   2
                   2
                   2
                   2
                   2
                   2
                   2
                   2
                   2
                   2
                   2
                   2
                   2
                   2
                   2
                   2
                   2
                   2
                   2
                   2
                   2
                   2
                   2
                   2
                   2
                   2
                   2
                   2
                   2
                   2
                   2
                   2
                   2
                   2
                   2
                   2
                   2
                   2
                   2
                   2
                   2
                   2
                   2
                   2
                   2
                   2
                   2
                   2
                   2
                   2
                   2
                   2
                   2
                   2
                   2
                   2
                   2
                   2
                   2
                   2
                   2
                   2
                   2
                   2
                   2
                   2
                   2
                   2
                   2
                   2
                   2
                   2
                   2
                   2
                   2
                   2
                   2
                   2
                   2
                   2
                   2
                   2
                   2
                   2
                   2
                   2
                   2
                   2
                   2
                   2
                   2
                   2
                   2
                   2
                   2
                   2
                   2
                   2
                   2
                   2
                   2
                   2
                   2
                   2
                   2
                   2
                   2
                   2
                   2
                   2
                   2
                   2
                   2
                   2
                   2
                   2
                   2
                   2
                   2
                   2
                   2
                   2
                   2
                   2
                   2
                   2
                   2
                   2
                   2
                   2
                   2
                   2
                   2
                   2
                   2
                   2
                   2
                   2
                   2
                   2
                   2
                   2
                   2
                   2
                   2
                   2
                   2
                   2
                   2
                   2
                   2
                   2
                   2
                   2
                   2
                   2
                   2
                   2
                   2
                   2
                   2
                   2
                   2
                   2
                   2
                   2
                   2
                   2
                   2
                   2
                   2
                   2
                   2
                   2
                   2
                   2
                   2
                   2
                   2
                   2
                   2
                   2
                   2
                   2
                   2
                   2
                   2
                   2
                   2
                   2
                   2
                   2
                   2
                   2
                   2
                   2
                   2
                   2
                   2
                   2
                   2
                   2
                   2
                   2
                   2
                   2
                   2
                   2
                   2
                   2
                   2
                   2
                   2
                   2
                   2
                   2
                   2
                   2
                   2
                   2
                   2
                   2
                   2
                   2
                   2
                   2
                   2
                   2
                   2
                   2
                   2
                   2
                   2
                   2
                   2
                   2
                   2
                   2
                   2
                   2
                   2
                   2
                   2
                   2
                   2
                   2
                   2
                   2
                   2
                   2
                   2
                   2
                   2
                   2
                   2
                   2
                   2
                   2
                   2
                   2
                   2
                   2
                   2
                   2
                   2
                   2
                   2
                   2
                   2
                   2
                   2
                   2
                   2
                   2
                   2
                   2
                   2
                   2
                   2
                   2
                   2
                   2
                   2
                   2
                   2
                   2
                   2
                   2
                   2
                   2
                   2
                   2
                   2
                   2
                   2
                   2
                   2
                   2
                   2
                   2
                   2
                   2
                   2
                   2
                   2
                   2
                   2
                   2
                   2
                   2
                   2
                   2
                   2
                   2
                   2
                   2
                   2
                   2
                   2
                   2
                   2
                   2
                   2
                   2
                   2
                   2
                   2
                   2
                   2
                   2
                   2
                   2
                   2
                   2
                   2
                   2
                   2
                   2
                   2
                   2
                   2
                   2
                   2
                   2
                   2
                   2
                   2
                   2
                   2
                   2
                   2
                   2
                   2
                   2
                   2
                   2
                   2
                   2
                   2
                   2
                   2
                   2
                   2
                   2
                   2
                   2
                   2
                   2
                   2
                   2
                   2
                   2
                   2
                   2
                   2
                   2
                   2
                   2
                   2
                   2
                   2
                   2
                   2
                   2
                   2
                   2
                   2
                   2
                   2
                   2
                   2
                   2
                   2
                   2
                   2
                   2
                   2
                   2
                   2
                   2
                   2
                   2
                   2
                   2
                   2
                   2
                   2
                   2
                   2
                   2
                   2
                   2
                   2
                   2
                   2
                   2
                   2
                   2
                   2
                   2
                   2
                   2
                   2
                   2
                   2
                   2
                   2
                   2
                   2
                   2
                   2
                   2
                   2
                   2
                   2
                   2
                   2
                   2
                   2
                   2
                   2
                   2
                   2
                   2
                   2
                   2
                   2
                   2
                   2
                   2
                   2
                   2
                   2
                   2
                   2
                   2
                   2
                   2
                   2
                   2
                   2
                   2
                   2
                   2
                   2
                   2
                   2
                   2
                   2
                   2
                   2
                   2
                   2
                   2
                   2
                   2
                   2
                   2
                   2
                   2
                   2
                   2
                   2
                   2
                   2
                   2
                   2
                   2
                   2
                   2
                   2
                   2
                   2
                   2
                   2
                   2
                   2
                   2
                   2
                   2
                   2
                   2
                   2
                   2
                   2
                   2
                   2
                   2
                   2
                   2
                   2
                   2
                   2
                   2
                   2
                   2
                   2
                   2
                   2
                   2
                   2
                   2
                   2
                   2
                   2
                   2
                   2
                   2
                   2
                   2
                   2
                   2
                   2
                   2
                   2
                   2
                   2
                   2
                   2
                   2
                   2
                   2
                   2
                   2
                   2
                   2
                   2
                   2
                   2
                   2
                   2
                   2
                   2
                   2
                   2
                   2
                   2
                   2
                   2
                   2
                   2
                   2
                   2
                   2
                   2
                   2
                   2
                   2
                   2
                   2
                   2
                   2
                   2
                   2
                   2
                   2
                   2
                   2
                   2
                   2
                   2
                   2
                   2
                   2
                   2
                   2
                   2
                   2
                   2
                   2
                   2
                   2
                   2
                   2
                   2
                   2
                   2
                   2
                   2
                   2
                   2
                   2
                   2
                   2
                   2
                   2
                   2
                   2
                   2
                   2
                   2
                   2
                   2
                   2
                   2
                   2
                   2
                   2
                   2
                   2
                   2
                   2
                   2
                   2
                   2
                   2
                   2
                   2
                   2
                   2
                   2
                   2
                   2
                   2
                   2
                   2
                   2
                   2
                   2
                   2
                   2
                   2
                   2
                   2
                   2
                   2
                   2
                   2
                   2
                   2
                   2
                   2
                   2
                   2
                   2
                   2
                   2
                   2
                   2
                   2
                   2
                   2
                   2
                   2
                   2
                   2
                   2
                   2
                   2
                   2
                   2
                   2
                   2
                   2
                   2
                   2
                   2
                   2
                   2
                   2
                   2
                   2
                   2
                   2
                   2
                   2
                   2
                   2
                   2
                   2
                   2
                   2
                   2
                   2
                   2
                   2
                   2
                   2
                   2
                   2
                   2
                   2
                   2
                   2
                   2
                   2
                   2
                   2
                   2
                   2
                   2
                   2
                   2
                   2
                   2
                   2
                   2
                   2
                   2
                   2
                   2
                   2
                   2
                   2
                   2
                   2
                   2
                   2
                   2
                   2
                   2
                   2
                   2
                   2
                   2
                   2
                   2
                   2
                   2
                   2
                   2
                   2
                   2
                   2
                   2
                   2
                   2
                   2
                   2
                   2
                   2
                   2
                   2
                   2
                   2
                   2
                   2
                   2
                   2
                   2
                   2
                   2
                   2
                   2
                   2
                   2
                   2
                   2
                   2
                   2
                   2
                   2
                   2
                   2
                   2
                   2
                   2
                   2
                   2
                   2
                   2
                   2
                   2
                   2
                   2
                   2
                   2
                   2
                   2
                   2
                   2
                   2
                   2
                   2
                   2
                   2
                   2
                   2
                   2
                   2
                   2
                   2
                   2
                   2
                   2
                   2
                   2
                   2
                   2
                   2
                   2
                   2
                   2
                   2
                   2
                   2
                   2
                   2
                   2
                   2
                   2
                   2
                   2
                   2
                   2
                   2
                   2
                   2
                   2
                   2
                   2
                   2
                   2
                   2
                   2
                   2
                   2
                   2
                   2
                   2
                   2
                   2
                   2
                   2
                   2
                   2
                   2
                   2
                   2
                   2
                   2
                   2
                   2
                   2
                   2
                   2
  
SCALARS                        node_id  double 1
LOOKUP_TABLE default
                   1
                   2
                   3
                   4
                   5
                   6
                   7
                   8
                   9
                  10
                  11
                  12
                  13
                  14
                  15
                  16
                  17
                  18
                  19
                  20
                  21
                  22
                  23
                  24
                  25
                  26
                  27
                  28
                  29
                  30
                  31
                  32
                  33
                  34
                  35
                  36
                  37
                  38
                  39
                  40
                  41
                  42
                  43
                  44
                  45
                  46
                  47
                  48
                  49
                  50
                  51
                  52
                  53
                  54
                  55
                  56
                  57
                  58
                  59
                  60
                  61
                  62
                  63
                  64
                  65
                  66
                  67
                  68
                  69
                  70
                  71
                  72
                  73
                  74
                  75
                  76
                  77
                  78
                  79
                  80
                  81
                  82
                  83
                  84
                  85
                  86
                  87
                  88
                  89
                  90
                  91
                  92
                  93
                  94
                  95
                  96
                  97
                  98
                  99
                 100
                 101
                 102
                 103
                 104
                 105
                 106
                 107
                 108
                 109
                 110
                 111
                 112
                 113
                 114
                 115
                 116
                 117
                 118
                 119
                 120
                 121
                 122
                 123
                 124
                 125
                 126
                 127
                 128
                 129
                 130
                 131
                 132
                 133
                 134
                 135
                 136
                 137
                 138
                 139
                 140
                 141
                 142
                 143
                 144
                 145
                 146
                 147
                 148
                 149
                 150
                 151
                 152
                 153
                 154
                 155
                 156
                 157
                 158
                 159
                 160
                 161
                 162
                 163
                 164
                 165
                 166
                 167
                 168
                 169
                 170
                 171
                 172
                 173
                 174
                 175
                 176
                 177
                 178
                 179
                 180
                 181
                 182
                 183
                 184
                 185
                 186
                 187
                 188
                 189
                 190
                 191
                 192
                 193
                 194
                 195
                 196
                 197
                 198
                 199
                 200
                 201
                 202
                 203
                 204
                 205
                 206
                 207
                 208
                 209
                 210
                 211
                 212
                 213
                 214
                 215
                 216
                 217
                 218
                 219
                 220
                 221
                 222
                 223
                 224
                 225
                 226
                 227
                 228
                 229
                 230
                 231
                 232
                 233
                 234
                 235
                 236
                 237
                 238
                 239
                 240
                 241
                 242
                 243
                 244
                 245
                 246
                 247
                 248
                 249
                 250
                 251
                 252
                 253
                 254
                 255
                 256
                 257
                 258
                 259
                 260
                 261
                 262
                 263
                 264
                 265
                 266
                 267
                 268
                 269
                 270
                 271
                 272
                 273
                 274
                 275
                 276
                 277
                 278
                 279
                 280
                 281
                 282
                 283
                 284
                 285
                 286
                 287
                 288
                 289
                 290
                 291
                 292
                 293
                 294
                 295
                 296
                 297
                 298
                 299
                 300
                 301
                 302
                 303
                 304
                 305
                 306
                 307
                 308
                 309
                 310
                 311
                 312
                 313
                 314
                 315
                 316
                 317
                 318
                 319
                 320
                 321
                 322
                 323
                 324
                 325
                 326
                 327
                 328
                 329
                 330
                 331
                 332
                 333
                 334
                 335
                 336
                 337
                 338
                 339
                 340
                 341
                 342
                 343
                 344
                 345
                 346
                 347
                 348
                 349
                 350
                 351
                 352
                 353
                 354
                 355
                 356
                 357
                 358
                 359
                 360
                 361
                 362
                 363
                 364
                 365
                 366
                 367
                 368
                 369
                 370
                 371
                 372
                 373
                 374
                 375
                 376
                 377
                 378
                 379
                 380
                 381
                 382
                 383
                 384
                 385
                 386
                 387
                 388
                 389
                 390
                 391
                 392
                 393
                 394
                 395
                 396
                 397
                 398
                 399
                 400
                 401
                 402
                 403
                 404
                 405
                 406
                 407
                 408
                 409
                 410
                 411
                 412
                 413
                 414
                 415
                 416
                 417
                 418
                 419
                 420
                 421
                 422
                 423
                 424
                 425
                 426
                 427
                 428
                 429
                 430
                 431
                 432
                 433
                 434
                 435
                 436
                 437
                 438
                 439
                 440
                 441
                 442
                 443
                 444
                 445
                 446
                 447
                 448
                 449
                 450
                 451
                 452
                 453
                 454
                 455
                 456
                 457
                 458
                 459
                 460
                 461
                 462
                 463
                 464
                 465
                 466
                 467
                 468
                 469
                 470
                 471
                 472
                 473
                 474
                 475
                 476
                 477
                 478
                 479
                 480
                 481
                 482
                 483
                 484
                 485
                 486
                 487
                 488
                 489
                 490
                 491
                 492
                 493
                 494
                 495
                 496
                 497
                 498
                 499
                 500
                 501
                 502
                 503
                 504
                 505
                 506
                 507
                 508
                 509
                 510
                 511
                 512
                 513
                 514
                 515
                 516
                 517
                 518
                 519
                 520
                 521
                 522
                 523
                 524
                 525
                 526
                 527
                 528
                 529
                 530
                 531
                 532
                 533
                 534
                 535
                 536
                 537
                 538
                 539
                 540
                 541
                 542
                 543
                 544
                 545
                 546
                 547
                 548
                 549
                 550
                 551
                 552
                 553
                 554
                 555
                 556
                 557
                 558
                 559
                 560
                 561
                 562
                 563
                 564
                 565
                 566
                 567
                 568
                 569
                 570
                 571
                 572
                 573
                 574
                 575
                 576
                 577
                 578
                 579
                 580
                 581
                 582
                 583
                 584
                 585
                 586
                 587
                 588
                 589
                 590
                 591
                 592
                 593
                 594
                 595
                 596
                 597
                 598
                 599
                 600
                 601
                 602
                 603
                 604
                 605
                 606
                 607
                 608
                 609
                 610
                 611
                 612
                 613
                 614
                 615
                 616
                 617
                 618
                 619
                 620
                 621
                 622
                 623
                 624
                 625
                 626
                 627
                 628
                 629
                 630
                 631
                 632
                 633
                 634
                 635
                 636
                 637
                 638
                 639
                 640
                 641
                 642
                 643
                 644
                 645
                 646
                 647
                 648
                 649
                 650
                 651
                 652
                 653
                 654
                 655
                 656
                 657
                 658
                 659
                 660
                 661
                 662
                 663
                 664
                 665
                 666
                 667
                 668
                 669
                 670
                 671
                 672
                 673
                 674
                 675
                 676
                 677
                 678
                 679
                 680
                 681
                 682
                 683
                 684
                 685
                 686
                 687
                 688
                 689
                 690
                 691
                 692
                 693
                 694
                 695
                 696
                 697
                 698
                 699
                 700
                 701
                 702
                 703
                 704
                 705
                 706
                 707
                 708
                 709
                 710
                 711
                 712
                 713
                 714
                 715
                 716
                 717
                 718
                 719
                 720
                 721
                 722
                 723
                 724
                 725
                 726
                 727
                 728
                 729
                 730
                 731
                 732
                 733
                 734
                 735
                 736
                 737
                 738
                 739
                 740
                 741
                 742
                 743
                 744
                 745
                 746
                 747
                 748
                 749
                 750
                 751
                 752
                 753
                 754
                 755
                 756
                 757
                 758
                 759
                 760
                 761
                 762
                 763
                 764
                 765
                 766
                 767
                 768
                 769
                 770
                 771
                 772
                 773
                 774
                 775
                 776
                 777
                 778
                 779
                 780
                 781
                 782
                 783
                 784
                 785
                 786
                 787
                 788
                 789
                 790
                 791
                 792
                 793
                 794
                 795
                 796
                 797
                 798
                 799
                 800
                 801
                 802
                 803
                 804
                 805
                 806
                 807
                 808
                 809
                 810
                 811
                 812
                 813
                 814
                 815
                 816
                 817
                 818
                 819
                 820
                 821
                 822
                 823
                 824
                 825
                 826
                 827
                 828
                 829
                 830
                 831
                 832
                 833
                 834
                 835
                 836
                 837
                 838
                 839
                 840
                 841
                 842
                 843
                 844
                 845
                 846
                 847
                 848
                 849
                 850
                 851
                 852
                 853
                 854
                 855
                 856
                 857
                 858
                 859
                 860
                 861
                 862
                 863
                 864
                 865
                 866
                 867
                 868
                 869
                 870
                 871
                 872
                 873
                 874
                 875
                 876
                 877
                 878
                 879
                 880
                 881
                 882
                 883
                 884
                 885
                 886
                 887
                 888
                 889
                 890
                 891
                 892
                 893
                 894
                 895
                 896
                 897
                 898
                 899
                 900
                 901
                 902
                 903
                 904
                 905
                 906
                 907
                 908
                 909
                 910
                 911
                 912
                 913
                 914
                 915
                 916
                 917
                 918
                 919
                 920
                 921
                 922
                 923
                 924
                 925
                 926
                 927
                 928
                 929
                 930
                 931
                 932
                 933
                 934
                 935
                 936
                 937
                 938
                 939
                 940
                 941
                 942
                 943
                 944
                 945
                 946
                 947
                 948
                 949
                 950
                 951
                 952
                 953
                 954
                 955
                 956
                 957
                 958
                 959
                 960
                 961
                 962
                 963
                 964
                 965
                 966
                 967
                 968
                 969
                 970
                 971
                 972
                 973
                 974
                 975
                 976
                 977
                 978
                 979
                 980
                 981
                 982
                 983
                 984
                 985
                 986
                 987
                 988
                 989
                 990
                 991
                 992
                 993
                 994
                 995
                 996
                 997
                 998
                 999
                1000
                1001
                1002
                1003
                1004
                1005
                1006
                1007
                1008
                1009
                1010
                1011
                1012
                1013
                1014
                1015
                1016
                1017
                1018
                1019
                1020
                1021
                1022
                1023
                1024
                1025
                1026
                1027
                1028
                1029
                1030
                1031
                1032
                1033
                1034
                1035
                1036
                1037
                1038
                1039
                1040
                1041
                1042
                1043
                1044
                1045
                1046
                1047
                1048
                1049
                1050
                1051
                1052
                1053
                1054
                1055
                1056
                1057
                1058
                1059
                1060
                1061
                1062
                1063
                1064
                1065
                1066
                1067
                1068
                1069
                1070
                1071
                1072
                1073
                1074
                1075
                1076
                1077
                1078
                1079
                1080
                1081
                1082
                1083
                1084
                1085
                1086
                1087
                1088
                1089
                1090
                1091
                1092
                1093
                1094
                1095
                1096
                1097
                1098
                1099
                1100
                1101
                1102
                1103
                1104
                1105
                1106
                1107
                1108
                1109
                1110
                1111
                1112
                1113
                1114
                1115
                1116
                1117
                1118
                1119
                1120
                1121
                1122
                1123
                1124
                1125
                1126
                1127
                1128
                1129
                1130
                1131
                1132
                1133
                1134
                1135
                1136
                1137
                1138
                1139
                1140
                1141
                1142
                1143
                1144
                1145
                1146
                1147
                1148
                1149
                1150
                1151
                1152
                1153
                1154
                1155
                1156
                1157
                1158
                1159
                1160
                1161
                1162
                1163
                1164
                1165
                1166
                1167
                1168
                1169
                1170
                1171
                1172
                1173
                1174
                1175
                1176
                1177
                1178
                1179
                1180
                1181
                1182
                1183
                1184
                1185
                1186
                1187
                1188
                1189
                1190
                1191
                1192
                1193
                1194
                1195
                1196
                1197
                1198
                1199
                1200
                1201
                1202
                1203
                1204
                1205
                1206
                1207
                1208
                1209
                1210
                1211
                1212
                1213
                1214
                1215
                1216
                1217
                1218
                1219
                1220
                1221
                1222
                1223
                1224
                1225
                1226
                1227
                1228
                1229
                1230
                1231
                1232
                1233
                1234
                1235
                1236
                1237
                1238
                1239
                1240
                1241
                1242
                1243
                1244
                1245
                1246
                1247
                1248
                1249
                1250
                1251
                1252
                1253
                1254
                1255
                1256
                1257
                1258
                1259
                1260
                1261
                1262
                1263
                1264
                1265
                1266
                1267
                1268
                1269
                1270
                1271
                1272
                1273
                1274
                1275
                1276
                1277
                1278
                1279
                1280
                1281
                1282
                1283
                1284
                1285
                1286
                1287
                1288
                1289
                1290
                1291
                1292
                1293
                1294
                1295
                1296
                1297
                1298
                1299
                1300
                1301
                1302
                1303
                1304
                1305
                1306
                1307
                1308
                1309
                1310
                1311
                1312
                1313
                1314
                1315
                1316
                1317
                1318
                1319
                1320
                1321
                1322
                1323
                1324
                1325
                1326
                1327
                1328
                1329
                1330
                1331
                1332
                1333
                1334
                1335
                1336
                1337
                1338
                1339
                1340
                1341
                1342
                1343
                1344
                1345
                1346
                1347
                1348
                1349
                1350
                1351
                1352
                1353
                1354
                1355
                1356
                1357
                1358
                1359
                1360
                1361
                1362
                1363
                1364
                1365
                1366
                1367
                1368
                1369
                1370
                1371
                1372
                1373
                1374
                1375
                1376
                1377
                1378
                1379
                1380
                1381
                1382
                1383
                1384
                1385
                1386
                1387
                1388
                1389
                1390
                1391
                1392
                1393
                1394
                1395
                1396
                1397
                1398
                1399
                1400
                1401
                1402
                1403
                1404
                1405
                1406
                1407
                1408
                1409
                1410
                1411
                1412
                1413
                1414
                1415
                1416
                1417
                1418
                1419
                1420
                1421
                1422
                1423
                1424
                1425
                1426
                1427
                1428
                1429
                1430
                1431
                1432
                1433
                1434
                1435
                1436
                1437
                1438
                1439
                1440
                1441
                1442
                1443
                1444
                1445
                1446
                1447
                1448
                1449
                1450
                1451
                1452
                1453
                1454
                1455
                1456
                1457
                1458
                1459
                1460
                1461
                1462
                1463
                1464
                1465
                1466
                1467
                1468
                1469
                1470
                1471
                1472
                1473
                1474
                1475
                1476
                1477
                1478
                1479
                1480
                1481
                1482
                1483
                1484
                1485
                1486
                1487
                1488
                1489
                1490
                1491
                1492
                1493
                1494
                1495
                1496
                1497
                1498
                1499
                1500
                1501
                1502
                1503
                1504
                1505
                1506
                1507
                1508
                1509
                1510
                1511
                1512
                1513
                1514
                1515
                1516
                1517
                1518
                1519
                1520
                1521
                1522
                1523
                1524
                1525
                1526
                1527
                1528
                1529
                1530
                1531
                1532
                1533
                1534
                1535
                1536
                1537
                1538
                1539
                1540
                1541
                1542
                1543
                1544
                1545
                1546
                1547
                1548
                1549
                1550
                1551
                1552
                1553
                1554
                1555
                1556
                1557
                1558
                1559
                1560
                1561
                1562
                1563
                1564
                1565
                1566
                1567
                1568
                1569
                1570
                1571
                1572
                1573
                1574
                1575
                1576
                1577
                1578
                1579
                1580
                1581
                1582
                1583
                1584
                1585
                1586
                1587
                1588
                1589
                1590
                1591
                1592
                1593
                1594
                1595
                1596
                1597
                1598
                1599
                1600
                1601
                1602
                1603
                1604
                1605
                1606
                1607
                1608
                1609
                1610
                1611
                1612
                1613
                1614
                1615
                1616
                1617
                1618
                1619
                1620
                1621
                1622
                1623
                1624
                1625
                1626
                1627
                1628
                1629
                1630
                1631
                1632
                1633
                1634
                1635
                1636
                1637
                1638
                1639
                1640
                1641
                1642
                1643
                1644
                1645
                1646
                1647
                1648
                1649
                1650
                1651
                1652
                1653
                1654
                1655
                1656
                1657
                1658
                1659
                1660
                1661
                1662
                1663
                1664
                1665
                1666
                1667
                1668
                1669
                1670
                1671
                1672
                1673
                1674
                1675
                1676
                1677
                1678
                1679
                1680
                1681
                1682
                1683
                1684
                1685
                1686
                1687
                1688
                1689
                1690
                1691
                1692
                1693
                1694
                1695
                1696
                1697
                1698
                1699
                1700
                1701
                1702
                1703
                1704
                1705
                1706
                1707
                1708
                1709
                1710
                1711
                1712
                1713
                1714
                1715
                1716
                1717
                1718
                1719
                1720
                1721
                1722
                1723
                1724
                1725
                1726
                1727
                1728
                1729
                1730
                1731
                1732
                1733
                1734
                1735
                1736
                1737
                1738
                1739
                1740
                1741
                1742
                1743
                1744
                1745
                1746
                1747
                1748
                1749
                1750
                1751
                1752
                1753
                1754
                1755
                1756
                1757
                1758
                1759
                1760
                1761
                1762
                1763
                1764
                1765
                1766
                1767
                1768
                1769
                1770
                1771
                1772
                1773
                1774
                1775
                1776
                1777
                1778
                1779
                1780
                1781
                1782
                1783
                1784
                1785
                1786
                1787
                1788
                1789
                1790
                1791
                1792
                1793
                1794
                1795
                1796
                1797
                1798
                1799
                1800
                1801
                1802
                1803
                1804
                1805
                1806
                1807
                1808
                1809
                1810
                1811
                1812
                1813
                1814
                1815
                1816
                1817
                1818
                1819
                1820
                1821
                1822
                1823
                1824
                1825
                1826
                1827
                1828
                1829
                1830
                1831
                1832
                1833
                1834
                1835
                1836
                1837
                1838
                1839
                1840
                1841
                1842
                1843
                1844
                1845
                1846
                1847
                1848
                1849
                1850
                1851
                1852
                1853
                1854
                1855
                1856
                1857
                1858
                1859
                1860
                1861
                1862
                1863
                1864
                1865
                1866
                1867
                1868
                1869
                1870
                1871
                1872
                1873
                1874
                1875
                1876
                1877
                1878
                1879
                1880
                1881
                1882
                1883
                1884
                1885
                1886
                1887
                1888
                1889
                1890
                1891
                1892
                1893
                1894
                1895
                1896
                1897
                1898
                1899
                1900
                1901
                1902
                1903
                1904
                1905
                1906
                1907
                1908
                1909
                1910
                1911
                1912
                1913
                1914
                1915
                1916
                1917
                1918
                1919
                1920
                1921
                1922
                1923
                1924
                1925
                1926
                1927
                1928
                1929
                1930
                1931
                1932
                1933
                1934
                1935
                1936
                1937
                1938
                1939
                1940
                1941
                1942
                1943
                1944
                1945
                1946
                1947
                1948
                1949
                1950
  
SCALARS                         bodyid  double 1
LOOKUP_TABLE default
                   1
                   1
                   1
                   1
                   1
                   1
                   1
                   1
                   1
                   1
                   1
                   1
                   1
                   1
                   1
                   1
                   1
                   1
                   1
                   1
                   1
                   1
                   1
                   1
                   1
                   1
                   1
                   1
                   1
                   1
                   1
                   1
                   1
                   1
                   1
                   1
                   1
                   1
                   1
                   1
                   1
                   1
                   1
                   1
                   1
                   1
                   1
                   1
                   1
                   1
                   1
                   1
                   1
                   1
                   1
                   1
                   1
                   1
                   1
                   1
                   1
                   1
                   1
                   1
                   1
                   1
                   1
                   1
                   1
                   1
                   1
                   1
                   1
                   1
                   1
                   1
                   1
                   1
                   1
                   1
                   1
                   1
                   1
                   1
                   1
                   1
                   1
                   1
                   1
                   1
                   1
                   1
                   1
                   1
                   1
                   1
                   1
                   1
                   1
                   1
                   1
                   1
                   1
                   1
                   1
                   1
                   1
                   1
                   1
                   1
                   1
                   1
                   1
                   1
                   1
                   1
                   1
                   1
                   1
                   1
                   1
                   1
                   1
                   1
                   1
                   1
                   1
                   1
                   1
                   1
                   1
                   1
                   1
                   1
                   1
                   1
                   1
                   1
                   1
                   1
                   1
                   1
                   1
                   1
                   1
                   1
                   1
                   1
                   1
                   1
                   1
                   1
                   1
                   1
                   1
                   1
                   1
                   1
                   1
                   1
                   1
                   1
                   1
                   1
                   1
                   1
                   1
                   1
                   1
                   1
                   1
                   1
                   1
                   1
                   1
                   1
                   1
                   1
                   1
                   1
                   1
                   1
                   1
                   1
                   1
                   1
                   1
                   1
                   1
                   1
                   1
                   1
                   1
                   1
                   1
                   1
                   1
                   1
                   1
                   1
                   1
                   1
                   1
                   1
                   1
                   1
                   1
                   1
                   1
                   1
                   1
                   1
                   1
                   1
                   1
                   1
                   1
                   1
                   1
                   1
                   1
                   1
                   1
                   1
                   1
                   1
                   1
                   1
                   1
                   1
                   1
                   1
                   1
                   1
                   1
                   1
                   1
                   1
                   1
                   1
                   1
                   1
                   1
                   1
                   1
                   1
                   1
                   1
                   1
                   1
                   1
                   1
                   1
                   1
                   1
                   1
                   1
                   1
                   1
                   1
                   1
                   1
                   1
                   1
                   1
                   1
                   1
                   1
                   1
                   1
                   1
                   1
                   1
                   1
                   1
                   1
                   1
                   1
                   1
                   1
                   1
                   1
                   1
                   1
                   1
                   1
                   1
                   1
                   1
                   1
                   1
                   1
                   1
                   1
                   1
                   1
                   1
                   1
                   1
                   1
                   1
                   1
                   1
                   1
                   1
                   1
                   1
                   1
                   1
                   1
                   1
                   1
                   1
                   1
                   1
                   1
                   1
                   1
                   1
                   1
                   1
                   1
                   1
                   1
                   1
                   1
                   1
                   1
                   1
                   1
                   1
                   1
                   1
                   1
                   1
                   1
                   1
                   1
                   1
                   1
                   1
                   1
                   1
                   1
                   1
                   1
                   1
                   1
                   1
                   1
                   1
                   1
                   1
                   1
                   1
                   1
                   1
                   1
                   1
                   1
                   1
                   1
                   1
                   1
                   1
                   1
                   1
                   1
                   1
                   1
                   1
                   1
                   1
                   1
                   1
                   1
                   1
                   1
                   1
                   1
                   1
                   1
                   1
                   1
                   1
                   1
                   1
                   1
                   1
                   1
                   1
                   1
                   1
                   1
                   1
                   1
                   1
                   1
                   1
                   1
                   1
                   1
                   1
                   1
                   1
                   1
                   1
                   1
                   1
                   1
                   1
                   1
                   1
                   1
                   1
                   1
                   1
                   1
                   1
                   1
                   1
                   1
                   1
                   1
                   1
                   1
                   1
                   1
                   1
                   1
                   1
                   1
                   1
                   1
                   1
                   1
                   1
                   1
                   1
                   1
                   1
                   1
                   1
                   1
                   1
                   1
                   1
                   1
                   1
                   1
                   1
                   1
                   1
                   1
                   1
                   1
                   1
                   1
                   1
                   1
                   1
                   1
                   1
                   1
                   1
                   1
                   1
                   1
                   1
                   1
                   1
                   1
                   1
                   1
                   1
                   1
                   1
                   1
                   1
                   1
                   1
                   1
                   1
                   1
                   1
                   1
                   1
                   1
                   1
                   1
                   1
                   1
                   1
                   1
                   1
                   1
                   1
                   1
                   1
                   1
                   1
                   1
                   1
                   1
                   1
                   1
                   1
                   1
                   1
                   1
                   1
                   1
                   1
                   1
                   1
                   1
                   1
                   1
                   1
                   1
                   1
                   1
                   1
                   1
                   1
                   1
                   1
                   1
                   1
                   1
                   1
                   1
                   1
                   1
                   1
                   1
                   1
                   1
                   1
                   1
                   1
                   1
                   1
                   1
                   1
                   1
                   1
                   1
                   1
                   1
                   1
                   1
                   1
                   1
                   1
                   1
                   1
                   1
                   1
                   1
                   1
                   1
                   1
                   1
                   1
                   1
                   1
                   1
                   1
                   1
                   1
                   1
                   1
                   1
                   1
                   1
                   1
                   1
                   1
                   1
                   1
                   1
                   1
                   1
                   1
                   1
                   1
                   1
                   1
                   1
                   1
                   1
                   1
                   1
                   1
                   1
                   1
                   1
                   1
                   1
                   1
                   1
                   1
                   1
                   1
                   1
                   1
                   1
                   1
                   1
                   1
                   1
                   1
                   1
                   1
                   1
                   1
                   1
                   1
                   1
                   1
                   1
                   1
                   1
                   1
                   1
                   1
                   1
                   1
                   1
                   1
                   1
                   1
                   1
                   1
                   1
                   1
                   1
                   1
                   1
                   1
                   1
                   1
                   1
                   1
                   1
                   1
                   1
                   1
                   1
                   1
                   1
                   1
                   1
                   1
                   1
                   1
                   1
                   1
                   1
                   1
                   1
                   1
                   1
                   1
                   1
                   1
                   1
                   1
                   1
                   1
                   1
                   1
                   1
                   1
                   1
                   1
                   1
                   1
                   1
                   1
                   1
                   1
                   1
                   1
                   1
                   1
                   1
                   1
                   1
                   1
                   1
                   1
                   1
                   1
                   1
                   1
                   1
                   1
                   1
                   1
                   1
                   1
                   1
                   1
                   1
                   1
                   1
                   1
                   1
                   1
                   1
                   1
                   1
                   1
                   1
                   1
                   1
                   1
                   1
                   1
                   1
                   1
                   1
                   1
                   1
                   1
                   1
                   1
                   1
                   1
                   1
                   1
                   1
                   1
                   1
                   1
                   1
                   1
                   1
                   1
                   1
                   1
                   1
                   1
                   1
                   1
                   1
                   1
                   1
                   1
                   1
                   1
                   1
                   1
                   1
                   1
                   1
                   1
                   1
                   1
                   1
                   1
                   1
                   1
                   1
                   1
                   1
                   1
                   1
                   1
                   1
                   1
                   1
                   1
                   1
                   1
                   1
                   1
                   1
                   1
                   1
                   1
                   1
                   1
                   1
                   1
                   1
                   1
                   1
                   1
                   1
                   1
                   1
                   1
                   1
                   1
                   1
                   1
                   1
                   1
                   1
                   1
                   1
                   1
                   1
                   1
                   1
                   1
                   1
                   1
                   1
                   1
                   1
                   1
                   1
                   1
                   1
                   1
                   1
                   1
                   1
                   1
                   1
                   1
                   1
                   1
                   1
                   1
                   1
                   1
                   1
                   1
                   1
                   1
                   1
                   1
                   1
                   1
                   1
                   1
                   1
                   1
                   1
                   1
                   1
                   1
                   1
                   1
                   1
                   1
                   1
                   1
                   1
                   1
                   1
                   1
                   1
                   1
                   1
                   1
                   1
                   1
                   1
                   1
                   1
                   1
                   1
                   1
                   1
                   1
                   1
                   1
                   1
                   1
                   1
                   1
                   1
                   1
                   1
                   1
                   1
                   1
                   1
                   1
                   1
                   1
                   1
                   1
                   1
                   1
                   1
                   1
                   1
                   1
                   1
                   1
                   1
                   1
                   1
                   1
                   1
                   1
                   1
                   1
                   1
                   1
                   1
                   1
                   1
                   1
                   1
                   1
                   1
                   1
                   1
                   1
                   1
                   1
                   1
                   1
                   1
                   1
                   1
                   1
                   1
                   1
                   1
                   1
                   1
                   1
                   1
                   1
                   1
                   1
                   1
                   1
                   1
                   1
                   1
                   1
                   1
                   1
                   1
                   1
                   1
                   1
                   1
                   1
                   1
                   1
                   1
                   1
                   1
                   1
                   1
                   1
                   1
                   1
                   1
                   1
                   1
                   1
                   1
                   1
                   1
                   1
                   1
                   1
                   1
                   1
                   1
                   1
                   1
                   1
                   1
                   1
                   1
                   1
                   1
                   1
                   1
                   1
                   1
                   1
                   1
                   1
                   1
                   1
                   1
                   1
                   1
                   1
                   1
                   1
                   1
                   1
                   1
                   1
                   1
                   1
                   1
                   1
                   1
                   1
                   1
                   1
                   1
                   1
                   1
                   1
                   1
                   1
                   1
                   1
                   1
                   1
                   1
                   1
                   1
                   1
                   1
                   1
                   1
                   1
                   1
                   1
                   1
                   1
                   1
                   1
                   1
                   1
                   1
                   1
                   1
                   1
                   1
                   1
                   1
                   1
                   1
                   1
                   1
                   1
                   1
                   1
                   1
                   1
                   1
                   1
                   1
                   1
                   1
                   1
                   1
                   1
                   1
                   1
                   1
                   1
                   1
                   1
                   1
                   1
                   1
                   1
                   1
                   1
                   1
                   1
                   1
                   1
                   1
                   1
                   1
                   1
                   1
                   1
                   1
                   1
                   1
                   1
                   1
                   1
                   1
                   1
                   1
                   1
                   1
                   1
                   1
                   1
                   1
                   1
                   1
                   1
                   1
                   1
                   1
                   1
                   1
                   1
                   1
                   1
                   1
                   1
                   1
                   1
                   1
                   1
                   1
                   1
                   1
                   1
                   1
                   1
                   1
                   1
                   1
                   1
                   1
                   1
                   1
                   1
                   1
                   1
                   1
                   1
                   1
                   1
                   1
                   1
                   1
                   1
                   1
                   1
                   1
                   1
                   1
                   1
                   1
                   1
                   1
                   1
                   1
                   1
                   1
                   1
                   1
                   1
                   1
                   1
                   1
                   1
                   1
                   1
                   1
                   1
                   1
                   1
                   1
                   1
                   1
                   1
                   1
                   1
                   1
                   1
                   1
                   1
                   1
                   1
                   1
                   1
                   1
                   1
                   1
                   1
                   1
                   1
                   1
                   1
                   1
                   1
                   1
                   1
                   1
                   1
                   1
                   1
                   1
                   1
                   1
                   1
                   1
                   1
                   1
                   1
                   1
                   1
                   1
                   1
                   1
                   1
                   1
                   1
                   1
                   1
                   1
                   1
                   1
                   1
                   1
                   1
                   1
                   1
                   1
                   1
                   1
                   1
                   1
                   1
                   1
                   1
                   1
                   1
                   1
                   1
                   1
                   1
                   1
                   1
                   1
                   1
                   1
                   1
                   1
                   1
                   1
                   1
                   1
                   1
                   1
                   1
                   1
                   1
                   1
                   1
                   1
                   1
                   1
                   1
                   1
                   1
                   1
                   1
                   1
                   1
                   1
                   1
                   1
                   1
                   1
                   1
                   1
                   1
                   1
                   1
                   1
                   1
                   1
                   1
                   1
                   1
                   1
                   1
                   1
                   1
                   1
                   1
                   1
                   1
                   1
                   1
                   1
                   1
                   1
                   1
                   1
                   1
                   1
                   1
                   1
                   1
                   1
                   1
                   1
                   1
                   1
                   1
                   1
                   1
                   1
                   1
                   1
                   1
                   1
                   1
                   1
                   1
                   1
                   1
                   1
                   1
                   1
                   1
                   1
                   1
                   1
                   1
                   1
                   1
                   1
                   1
                   1
                   1
                   1
                   1
                   1
                   1
                   1
                   1
                   1
                   1
                   1
                   1
                   1
                   1
                   1
                   1
                   1
                   1
                   1
                   1
                   1
                   1
                   1
                   1
                   1
                   1
                   1
                   1
                   1
                   1
                   1
                   1
                   1
                   1
                   1
                   1
                   1
                   1
                   1
                   1
                   1
                   1
                   1
                   1
                   1
                   1
                   1
                   1
                   1
                   1
                   1
                   1
                   1
                   1
                   1
                   1
                   1
                   1
                   1
                   1
                   1
                   1
                   1
                   1
                   1
                   1
                   1
                   1
                   1
                   1
                   1
                   1
                   1
                   1
                   1
                   1
                   1
                   1
                   1
                   1
                   1
                   1
                   1
                   1
                   1
                   1
                   1
                   1
                   1
                   1
                   1
                   1
                   1
                   1
                   1
                   1
                   1
                   1
                   1
                   1
                   1
                   1
                   1
                   1
                   1
                   1
                   1
                   1
                   1
                   1
                   1
                   1
                   1
                   1
                   1
                   1
                   1
                   1
                   1
                   1
                   1
                   1
                   1
                   1
                   1
                   1
                   1
                   1
                   1
                   1
                   1
                   1
                   1
                   1
                   1
                   1
                   1
                   1
                   1
                   1
                   1
                   1
                   1
                   1
                   1
                   1
                   1
                   1
                   1
                   1
                   1
                   1
                   1
                   1
                   1
                   1
                   1
                   1
                   1
                   1
                   1
                   1
                   1
                   1
                   1
                   1
                   1
                   1
                   1
                   1
                   1
                   1
                   1
                   1
                   1
                   1
                   1
                   1
                   1
                   1
                   1
                   1
                   1
                   1
                   1
                   1
                   1
                   1
                   1
                   1
                   1
                   1
                   1
                   1
                   1
                   1
                   1
                   1
                   1
                   1
                   1
                   1
                   1
                   1
                   1
                   1
                   1
                   1
                   1
                   1
                   1
                   1
                   1
                   1
                   1
                   1
                   1
                   1
                   1
                   1
                   1
                   1
                   1
                   1
                   1
                   1
                   1
                   1
                   1
                   1
                   1
                   1
                   1
                   1
                   1
                   1
                   1
                   1
                   1
                   1
                   1
                   1
                   1
                   1
                   1
                   1
                   1
                   1
                   1
                   1
                   1
                   1
                   1
                   1
                   1
                   1
                   1
                   1
                   1
                   1
                   1
                   1
                   1
                   1
                   1
                   1
                   1
                   1
                   1
                   1
                   1
                   1
                   1
                   1
                   1
                   1
                   1
                   1
                   1
                   1
                   1
                   1
                   1
                   1
                   1
                   1
                   1
                   1
                   1
                   1
                   1
                   1
                   1
                   1
                   1
                   1
                   1
                   1
                   1
                   1
                   1
                   1
                   1
                   1
                   1
                   1
                   1
                   1
                   1
                   1
                   1
                   1
                   1
                   1
                   1
                   1
                   1
                   1
                   1
                   1
                   1
                   1
                   1
                   1
                   1
                   1
                   1
                   1
                   1
                   1
                   1
                   1
                   1
                   1
                   1
                   1
                   1
                   1
                   1
                   1
                   1
                   1
                   1
                   1
                   1
                   1
                   1
                   1
                   1
                   1
                   1
                   1
                   1
                   1
                   1
                   1
                   1
                   1
                   1
                   1
                   1
                   1
                   1
                   1
                   1
                   1
                   1
                   1
                   1
                   1
                   1
                   1
                   1
                   1
                   1
                   1
                   1
                   1
                   1
                   1
                   1
                   1
                   1
                   1
                   1
                   1
                   1
                   1
                   1
                   1
                   1
                   1
                   1
                   1
                   1
                   1
                   1
                   1
                   1
                   1
                   1
                   1
                   1
                   1
                   1
                   1
                   1
                   1
                   1
                   1
                   1
                   1
                   1
                   1
                   1
                   1
                   1
                   1
                   1
                   1
                   1
                   1
                   1
                   1
                   1
                   1
                   1
                   1
                   1
                   1
                   1
                   1
                   1
                   1
                   1
                   1
                   1
                   1
                   1
                   1
                   1
                   1
                   1
                   1
                   1
                   1
                   1
                   1
                   1
                   1
                   1
                   1
                   1
                   1
                   1
                   1
                   1
                   1
                   1
                   1
                   1
                   1
                   1
                   1
                   1
                   1
                   1
                   1
                   1
                   1
                   1
                   1
                   1
                   1
                   1
                   1
                   1
                   1
                   1
                   1
                   1
                   1
                   1
                   1
                   1
                   1
                   1
                   1
                   1
                   1
                   1
                   1
                   1
                   1
                   1
                   1
                   1
                   1
                   1
                   1
                   1
                   1
                   1
                   1
                   1
                   1
                   1
                   1
                   1
                   1
                   1
                   1
                   1
                   1
                   1
                   1
                   1
                   1
                   1
                   1
                   1
                   1
                   1
                   1
                   1
                   1
                   1
                   1
                   1
                   1
                   1
                   1
                   1
                   1
                   1
                   1
                   1
                   1
                   1
                   1
                   1
                   1
                   1
                   1
                   1
                   1
                   1
                   1
                   1
                   1
                   1
                   1
                   1
                   1
                   1
                   1
                   1
                   1
                   1
                   1
                   1
                   1
                   1
                   1
                   1
                   1
                   1
                   1
                   1
                   1
                   1
                   1
                   1
                   1
                   1
                   1
                   1
                   1
                   1
                   1
                   1
                   1
                   1
                   1
                   1
                   1
                   1
                   1
                   1
                   1
                   1
                   1
                   1
                   1
                   1
                   1
                   1
                   1
                   1
                   1
                   1
                   1
                   1
                   1
                   1
                   1
                   1
                   1
                   1
                   1
                   1
                   1
                   1
                   1
                   1
                   1
                   1
                   1
                   1
                   1
                   1
                   1
                   1
                   1
                   1
  
SCALARS                  material_type  double 1
LOOKUP_TABLE default
                   2
                   2
                   2
                   2
                   2
                   2
                   2
                   2
                   2
                   2
                   2
                   2
                   2
                   2
                   2
                   2
                   2
                   2
                   2
                   2
                   2
                   2
                   2
                   2
                   2
                   2
                   2
                   2
                   2
                   2
                   2
                   2
                   2
                   2
                   2
                   2
                   2
                   2
                   2
                   2
                   2
                   2
                   2
                   2
                   2
                   2
                   2
                   2
                   2
                   2
                   2
                   2
                   2
                   2
                   2
                   2
                   2
                   2
                   2
                   2
                   2
                   2
                   2
                   2
                   2
                   2
                   2
                   2
                   2
                   2
                   2
                   2
                   2
                   2
                   2
                   2
                   2
                   2
                   2
                   2
                   2
                   2
                   2
                   2
                   2
                   2
                   2
                   2
                   2
                   2
                   2
                   2
                   2
                   2
                   2
                   2
                   2
                   2
                   2
                   2
                   2
                   2
                   2
                   2
                   2
                   2
                   2
                   2
                   2
                   2
                   2
                   2
                   2
                   2
                   2
                   2
                   2
                   2
                   2
                   2
                   2
                   2
                   2
                   2
                   2
                   2
                   2
                   2
                   2
                   2
                   2
                   2
                   2
                   2
                   2
                   2
                   2
                   2
                   2
                   2
                   2
                   2
                   2
                   2
                   2
                   2
                   2
                   2
                   2
                   2
                   2
                   2
                   2
                   2
                   2
                   2
                   2
                   2
                   2
                   2
                   2
                   2
                   2
                   2
                   2
                   2
                   2
                   2
                   2
                   2
                   2
                   2
                   2
                   2
                   2
                   2
                   2
                   2
                   2
                   2
                   2
                   2
                   2
                   2
                   2
                   2
                   2
                   2
                   2
                   2
                   2
                   2
                   2
                   2
                   2
                   2
                   2
                   2
                   2
                   2
                   2
                   2
                   2
                   2
                   2
                   2
                   2
                   2
                   2
                   2
                   2
                   2
                   2
                   2
                   2
                   2
                   2
                   2
                   2
                   2
                   2
                   2
                   2
                   2
                   2
                   2
                   2
                   2
                   2
                   2
                   2
                   2
                   2
                   2
                   2
                   2
                   2
                   2
                   2
                   2
                   2
                   2
                   2
                   2
                   2
                   2
                   2
                   2
                   2
                   2
                   2
                   2
                   2
                   2
                   2
                   2
                   2
                   2
                   2
                   2
                   2
                   2
                   2
                   2
                   2
                   2
                   2
                   2
                   2
                   2
                   2
                   2
                   2
                   2
                   2
                   2
                   2
                   2
                   2
                   2
                   2
                   2
                   2
                   2
                   2
                   2
                   2
                   2
                   2
                   2
                   2
                   2
                   2
                   2
                   2
                   2
                   2
                   2
                   2
                   2
                   2
                   2
                   2
                   2
                   2
                   2
                   2
                   2
                   2
                   2
                   2
                   2
                   2
                   2
                   2
                   2
                   2
                   2
                   2
                   2
                   2
                   2
                   2
                   2
                   2
                   2
                   2
                   2
                   2
                   2
                   2
                   2
                   2
                   2
                   2
                   2
                   2
                   2
                   2
                   2
                   2
                   2
                   2
                   2
                   2
                   2
                   2
                   2
                   2
                   2
                   2
                   2
                   2
                   2
                   2
                   2
                   2
                   2
                   2
                   2
                   2
                   2
                   2
                   2
                   2
                   2
                   2
                   2
                   2
                   2
                   2
                   2
                   2
                   2
                   2
                   2
                   2
                   2
                   2
                   2
                   2
                   2
                   2
                   2
                   2
                   2
                   2
                   2
                   2
                   2
                   2
                   2
                   2
                   2
                   2
                   2
                   2
                   2
                   2
                   2
                   2
                   2
                   2
                   2
                   2
                   2
                   2
                   2
                   2
                   2
                   2
                   2
                   2
                   2
                   2
                   2
                   2
                   2
                   2
                   2
                   2
                   2
                   2
                   2
                   2
                   2
                   2
                   2
                   2
                   2
                   2
                   2
                   2
                   2
                   2
                   2
                   2
                   2
                   2
                   2
                   2
                   2
                   2
                   2
                   2
                   2
                   2
                   2
                   2
                   2
                   2
                   2
                   2
                   2
                   2
                   2
                   2
                   2
                   2
                   2
                   2
                   2
                   2
                   2
                   2
                   2
                   2
                   2
                   2
                   2
                   2
                   2
                   2
                   2
                   2
                   2
                   2
                   2
                   2
                   2
                   2
                   2
                   2
                   2
                   2
                   2
                   2
                   2
                   2
                   2
                   2
                   2
                   2
                   2
                   2
                   2
                   2
                   2
                   2
                   2
                   2
                   2
                   2
                   2
                   2
                   2
                   2
                   2
                   2
                   2
                   2
                   2
                   2
                   2
                   2
                   2
                   2
                   2
                   2
                   2
                   2
                   2
                   2
                   2
                   2
                   2
                   2
                   2
                   2
                   2
                   2
                   2
                   2
                   2
                   2
                   2
                   2
                   2
                   2
                   2
                   2
                   2
                   2
                   2
                   2
                   2
                   2
                   2
                   2
                   2
                   2
                   2
                   2
                   2
                   2
                   2
                   2
                   2
                   2
                   2
                   2
                   2
                   2
                   2
                   2
                   2
                   2
                   2
                   2
                   2
                   2
                   2
                   2
                   2
                   2
                   2
                   2
                   2
                   2
                   2
                   2
                   2
                   2
                   2
                   2
                   2
                   2
                   2
                   2
                   2
                   2
                   2
                   2
                   2
                   2
                   2
                   2
                   2
                   2
                   2
                   2
                   2
                   2
                   2
                   2
                   2
                   2
                   2
                   2
                   2
                   2
                   2
                   2
                   2
                   2
                   2
                   2
                   2
                   2
                   2
                   2
                   2
                   2
                   2
                   2
                   2
                   2
                   2
                   2
                   2
                   2
                   2
                   2
                   2
                   2
                   2
                   2
                   2
                   2
                   2
                   2
                   2
                   2
                   2
                   2
                   2
                   2
                   2
                   2
                   2
                   2
                   2
                   2
                   2
                   2
                   2
                   2
                   2
                   2
                   2
                   2
                   2
                   2
                   2
                   2
                   2
                   2
                   2
                   2
                   2
                   2
                   2
                   2
                   2
                   2
                   2
                   2
                   2
                   2
                   2
                   2
                   2
                   2
                   2
                   2
                   2
                   2
                   2
                   2
                   2
                   2
                   2
                   2
                   2
                   2
                   2
                   2
                   2
                   2
                   2
                   2
                   2
                   2
                   2
                   2
                   2
                   2
                   2
                   2
                   2
                   2
                   2
                   2
                   2
                   2
                   2
                   2
                   2
                   2
                   2
                   2
                   2
                   2
                   2
                   2
                   2
                   2
                   2
                   2
                   2
                   2
                   2
                   2
                   2
                   2
                   2
                   2
                   2
                   2
                   2
                   2
                   2
                   2
                   2
                   2
                   2
                   2
                   2
                   2
                   2
                   2
                   2
                   2
                   2
                   2
                   2
                   2
                   2
                   2
                   2
                   2
                   2
                   2
                   2
                   2
                   2
                   2
                   2
                   2
                   2
                   2
                   2
                   2
                   2
                   2
                   2
                   2
                   2
                   2
                   2
                   2
                   2
                   2
                   2
                   2
                   2
                   2
                   2
                   2
                   2
                   2
                   2
                   2
                   2
                   2
                   2
                   2
                   2
                   2
                   2
                   2
                   2
                   2
                   2
                   2
                   2
                   2
                   2
                   2
                   2
                   2
                   2
                   2
                   2
                   2
                   2
                   2
                   2
                   2
                   2
                   2
                   2
                   2
                   2
                   2
                   2
                   2
                   2
                   2
                   2
                   2
                   2
                   2
                   2
                   2
                   2
                   2
                   2
                   2
                   2
                   2
                   2
                   2
                   2
                   2
                   2
                   2
                   2
                   2
                   2
                   2
                   2
                   2
                   2
                   2
                   2
                   2
                   2
                   2
                   2
                   2
                   2
                   2
                   2
                   2
                   2
                   2
                   2
                   2
                   2
                   2
                   2
                   2
                   2
                   2
                   2
                   2
                   2
                   2
                   2
                   2
                   2
                   2
                   2
                   2
                   2
                   2
                   2
                   2
                   2
                   2
                   2
                   2
                   2
                   2
                   2
                   2
                   2
                   2
                   2
                   2
                   2
                   2
                   2
                   2
                   2
                   2
                   2
                   2
                   2
                   2
                   2
                   2
                   2
                   2
                   2
                   2
                   2
                   2
                   2
                   2
                   2
                   2
                   2
                   2
                   2
                   2
                   2
                   2
                   2
                   2
                   2
                   2
                   2
                   2
                   2
                   2
                   2
                   2
                   2
                   2
                   2
                   2
                   2
                   2
                   2
                   2
                   2
                   2
                   2
                   2
                   2
                   2
                   2
                   2
                   2
                   2
                   2
                   2
                   2
                   2
                   2
                   2
                   2
                   2
                   2
                   2
                   2
                   2
                   2
                   2
                   2
                   2
                   2
                   2
                   2
                   2
                   2
                   2
                   2
                   2
                   2
                   2
                   2
                   2
                   2
                   2
                   2
                   2
                   2
                   2
                   2
                   2
                   2
                   2
                   2
                   2
                   2
                   2
                   2
                   2
                   2
                   2
                   2
                   2
                   2
                   2
                   2
                   2
                   2
                   2
                   2
                   2
                   2
                   2
                   2
                   2
                   2
                   2
                   2
                   2
                   2
                   2
                   2
                   2
                   2
                   2
                   2
                   2
                   2
                   2
                   2
                   2
                   2
                   2
                   2
                   2
                   2
                   2
                   2
                   2
                   2
                   2
                   2
                   2
                   2
                   2
                   2
                   2
                   2
                   2
                   2
                   2
                   2
                   2
                   2
                   2
                   2
                   2
                   2
                   2
                   2
                   2
                   2
                   2
                   2
                   2
                   2
                   2
                   2
                   2
                   2
                   2
                   2
                   2
                   2
                   2
                   2
                   2
                   2
                   2
                   2
                   2
                   2
                   2
                   2
                   2
                   2
                   2
                   2
                   2
                   2
                   2
                   2
                   2
                   2
                   2
                   2
                   2
                   2
                   2
                   2
                   2
                   2
                   2
                   2
                   2
                   2
                   2
                   2
                   2
                   2
                   2
                   2
                   2
                   2
                   2
                   2
                   2
                   2
                   2
                   2
                   2
                   2
                   2
                   2
                   2
                   2
                   2
                   2
                   2
                   2
                   2
                   2
                   2
                   2
                   2
                   2
                   2
                   2
                   2
                   2
                   2
                   2
                   2
                   2
                   2
                   2
                   2
                   2
                   2
                   2
                   2
                   2
                   2
                   2
                   2
                   2
                   2
                   2
                   2
                   2
                   2
                   2
                   2
                   2
                   2
                   2
                   2
                   2
                   2
                   2
                   2
                   2
                   2
                   2
                   2
                   2
                   2
                   2
                   2
                   2
                   2
                   2
                   2
                   2
                   2
                   2
                   2
                   2
                   2
                   2
                   2
                   2
                   2
                   2
                   2
                   2
                   2
                   2
                   2
                   2
                   2
                   2
                   2
                   2
                   2
                   2
                   2
                   2
                   2
                   2
                   2
                   2
                   2
                   2
                   2
                   2
                   2
                   2
                   2
                   2
                   2
                   2
                   2
                   2
                   2
                   2
                   2
                   2
                   2
                   2
                   2
                   2
                   2
                   2
                   2
                   2
                   2
                   2
                   2
                   2
                   2
                   2
                   2
                   2
                   2
                   2
                   2
                   2
                   2
                   2
                   2
                   2
                   2
                   2
                   2
                   2
                   2
                   2
                   2
                   2
                   2
                   2
                   2
                   2
                   2
                   2
                   2
                   2
                   2
                   2
                   2
                   2
                   2
                   2
                   2
                   2
                   2
                   2
                   2
                   2
                   2
                   2
                   2
                   2
                   2
                   2
                   2
                   2
                   2
                   2
                   2
                   2
                   2
                   2
                   2
                   2
                   2
                   2
                   2
                   2
                   2
                   2
                   2
                   2
                   2
                   2
                   2
                   2
                   2
                   2
                   2
                   2
                   2
                   2
                   2
                   2
                   2
                   2
                   2
                   2
                   2
                   2
                   2
                   2
                   2
                   2
                   2
                   2
                   2
                   2
                   2
                   2
                   2
                   2
                   2
                   2
                   2
                   2
                   2
                   2
                   2
                   2
                   2
                   2
                   2
                   2
                   2
                   2
                   2
                   2
                   2
                   2
                   2
                   2
                   2
                   2
                   2
                   2
                   2
                   2
                   2
                   2
                   2
                   2
                   2
                   2
                   2
                   2
                   2
                   2
                   2
                   2
                   2
                   2
                   2
                   2
                   2
                   2
                   2
                   2
                   2
                   2
                   2
                   2
                   2
                   2
                   2
                   2
                   2
                   2
                   2
                   2
                   2
                   2
                   2
                   2
                   2
                   2
                   2
                   2
                   2
                   2
                   2
                   2
                   2
                   2
                   2
                   2
                   2
                   2
                   2
                   2
                   2
                   2
                   2
                   2
                   2
                   2
                   2
                   2
                   2
                   2
                   2
                   2
                   2
                   2
                   2
                   2
                   2
                   2
                   2
                   2
                   2
                   2
                   2
                   2
                   2
                   2
                   2
                   2
                   2
                   2
                   2
                   2
                   2
                   2
                   2
                   2
                   2
                   2
                   2
                   2
                   2
                   2
                   2
                   2
                   2
                   2
                   2
                   2
                   2
                   2
                   2
                   2
                   2
                   2
                   2
                   2
                   2
                   2
                   2
                   2
                   2
                   2
                   2
                   2
                   2
                   2
                   2
                   2
                   2
                   2
                   2
                   2
                   2
                   2
                   2
                   2
                   2
                   2
                   2
                   2
                   2
                   2
                   2
                   2
                   2
                   2
                   2
                   2
                   2
                   2
                   2
                   2
                   2
                   2
                   2
                   2
                   2
                   2
                   2
                   2
                   2
                   2
                   2
                   2
                   2
                   2
                   2
                   2
                   2
                   2
                   2
                   2
                   2
                   2
                   2
                   2
                   2
                   2
                   2
                   2
                   2
                   2
                   2
                   2
                   2
                   2
                   2
                   2
                   2
                   2
                   2
                   2
                   2
                   2
                   2
                   2
                   2
                   2
                   2
                   2
                   2
                   2
                   2
                   2
                   2
                   2
                   2
                   2
                   2
                   2
                   2
                   2
                   2
                   2
                   2
                   2
                   2
                   2
                   2
                   2
                   2
                   2
                   2
                   2
                   2
                   2
                   2
                   2
                   2
                   2
                   2
                   2
                   2
                   2
                   2
                   2
                   2
                   2
                   2
                   2
                   2
                   2
                   2
                   2
                   2
                   2
                   2
                   2
                   2
                   2
                   2
                   2
                   2
                   2
                   2
                   2
                   2
                   2
                   2
                   2
                   2
                   2
                   2
                   2
                   2
                   2
                   2
                   2
                   2
                   2
                   2
                   2
                   2
                   2
                   2
                   2
                   2
                   2
                   2
                   2
                   2
                   2
                   2
                   2
                   2
                   2
                   2
                   2
                   2
                   2
                   2
                   2
                   2
                   2
                   2
                   2
                   2
                   2
                   2
                   2
                   2
                   2
                   2
                   2
                   2
                   2
                   2
                   2
                   2
                   2
                   2
                   2
                   2
                   2
                   2
                   2
                   2
                   2
                   2
                   2
                   2
                   2
                   2
                   2
                   2
                   2
                   2
                   2
                   2
                   2
                   2
                   2
                   2
                   2
                   2
                   2
                   2
                   2
                   2
                   2
                   2
                   2
                   2
                   2
                   2
                   2
                   2
                   2
                   2
                   2
                   2
                   2
                   2
                   2
                   2
                   2
                   2
                   2
                   2
                   2
                   2
                   2
                   2
                   2
                   2
                   2
                   2
                   2
                   2
                   2
                   2
                   2
                   2
                   2
                   2
                   2
                   2
                   2
                   2
                   2
                   2
                   2
                   2
                   2
                   2
                   2
                   2
                   2
                   2
                   2
                   2
                   2
                   2
                   2
                   2
                   2
                   2
                   2
                   2
                   2
                   2
                   2
                   2
                   2
                   2
                   2
                   2
                   2
                   2
                   2
                   2
                   2
                   2
                   2
                   2
                   2
                   2
                   2
                   2
                   2
                   2
                   2
                   2
                   2
                   2
                   2
                   2
                   2
                   2
                   2
                   2
                   2
                   2
                   2
                   2
                   2
                   2
                   2
                   2
                   2
                   2
                   2
                   2
                   2
                   2
                   2
                   2
                   2
                   2
                   2
                   2
                   2
                   2
                   2
                   2
                   2
                   2
                   2
                   2
                   2
                   2
                   2
                   2
                   2
                   2
                   2
                   2
                   2
                   2
                   2
                   2
                   2
                   2
                   2
                   2
                   2
                   2
                   2
                   2
                   2
                   2
                   2
                   2
                   2
                   2
                   2
                   2
                   2
                   2
                   2
                   2
                   2
                   2
                   2
                   2
                   2
                   2
                   2
                   2
                   2
                   2
                   2
                   2
                   2
                   2
                   2
                   2
                   2
                   2
                   2
                   2
                   2
                   2
                   2
                   2
                   2
                   2
                   2
                   2
                   2
                   2
                   2
                   2
                   2
                   2
                   2
                   2
                   2
                   2
                   2
                   2
                   2
                   2
                   2
                   2
                   2
                   2
                   2
                   2
                   2
                   2
                   2
                   2
                   2
                   2
                   2
                   2
                   2
                   2
                   2
                   2
                   2
                   2
                   2
                   2
                   2
                   2
                   2
                   2
                   2
                   2
                   2
                   2
                   2
                   2
                   2
                   2
                   2
                   2
                   2
                   2
                   2
                   2
                   2
                   2
                   2
                   2
                   2
                   2
                   2
                   2
                   2
                   2
                   2
                   2
                   2
                   2
                   2
                   2
                   2
                   2
                   2
                   2
                   2
                   2
                   2
  
SCALARS                       fixity_x  double 1
LOOKUP_TABLE default
                   0
                   0
                   0
                   0
                   0
                   0
                   0
                   0
                   0
                   0
                   0
                   0
                   0
                   0
                   0
                   0
                   0
                   0
                   0
                   0
                   0
                   0
                   0
                   0
                   0
                   0
                   0
                   0
                   0
                   0
                   0
                   0
                   0
                   0
                   0
                   0
                   0
                   0
                   0
                   0
                   0
                   0
                   0
                   0
                   0
                   0
                   0
                   0
                   0
                   0
                   0
                   0
                   0
                   0
                   0
                   0
                   0
                   0
                   0
                   0
                   0
                   0
                   0
                   0
                   0
                   0
                   0
                   0
                   0
                   0
                   0
                   0
                   0
                   0
                   0
                   0
                   0
                   0
                   0
                   0
                   0
                   0
                   0
                   0
                   0
                   0
                   0
                   0
                   0
                   0
                   0
                   0
                   0
                   0
                   0
                   0
                   0
                   0
                   0
                   0
                   0
                   0
                   0
                   0
                   0
                   0
                   0
                   0
                   0
                   0
                   0
                   0
                   0
                   0
                   0
                   0
                   0
                   0
                   0
                   0
                   0
                   0
                   0
                   0
                   0
                   0
                   0
                   0
                   0
                   0
                   0
                   0
                   0
                   0
                   0
                   0
                   0
                   0
                   0
                   0
                   0
                   0
                   0
                   0
                   0
                   0
                   0
                   0
                   0
                   0
                   0
                   0
                   0
                   0
                   0
                   0
                   0
                   0
                   0
                   0
                   0
                   0
                   0
                   0
                   0
                   0
                   0
                   0
                   0
                   0
                   0
                   0
                   0
                   0
                   0
                   0
                   0
                   0
                   0
                   0
                   0
                   0
                   0
                   0
                   0
                   0
                   0
                   0
                   0
                   0
                   0
                   0
                   0
                   0
                   0
                   0
                   0
                   0
                   0
                   0
                   0
                   0
                   0
                   0
                   0
                   0
                   0
                   0
                   0
                   0
                   0
                   0
                   0
                   0
                   0
                   0
                   0
                   0
                   0
                   0
                   0
                   0
                   0
                   0
                   0
                   0
                   0
                   0
                   0
                   0
                   0
                   0
                   0
                   0
                   0
                   0
                   0
                   0
                   0
                   0
                   0
                   0
                   0
                   0
                   0
                   0
                   0
                   0
                   0
                   0
                   0
                   0
                   0
                   0
                   0
                   0
                   0
                   0
                   0
                   0
                   0
                   0
                   0
                   0
                   0
                   0
                   0
                   0
                   0
                   0
                   0
                   0
                   0
                   0
                   0
                   0
                   0
                   0
                   0
                   0
                   0
                   0
                   0
                   0
                   0
                   0
                   0
                   0
                   0
                   0
                   0
                   0
                   0
                   0
                   0
                   0
                   0
                   0
                   0
                   0
                   0
                   0
                   0
                   0
                   0
                   0
                   0
                   0
                   0
                   0
                   0
                   0
                   0
                   0
                   0
                   0
                   0
                   0
                   0
                   0
                   0
                   0
                   0
                   0
                   0
                   0
                   0
                   0
                   0
                   0
                   0
                   0
                   0
                   0
                   0
                   0
                   0
                   0
                   0
                   0
                   0
                   0
                   0
                   0
                   0
                   0
                   0
                   0
                   0
                   0
                   0
                   0
                   0
                   0
                   0
                   0
                   0
                   0
                   0
                   0
                   0
                   0
                   0
                   0
                   0
                   0
                   0
                   0
                   0
                   0
                   0
                   0
                   0
                   0
                   0
                   0
                   0
                   0
                   0
                   0
                   0
                   0
                   0
                   0
                   0
                   0
                   0
                   0
                   0
                   0
                   0
                   0
                   0
                   0
                   0
                   0
                   0
                   0
                   0
                   0
                   0
                   0
                   0
                   0
                   0
                   0
                   0
                   0
                   0
                   0
                   0
                   0
                   0
                   0
                   0
                   0
                   0
                   0
                   0
                   0
                   0
                   0
                   0
                   0
                   0
                   0
                   0
                   0
                   0
                   0
                   0
                   0
                   0
                   0
                   0
                   0
                   0
                   0
                   0
                   0
                   0
                   0
                   0
                   0
                   0
                   0
                   0
                   0
                   0
                   0
                   0
                   0
                   0
                   0
                   0
                   0
                   0
                   0
                   0
                   0
                   0
                   0
                   0
                   0
                   0
                   0
                   0
                   0
                   0
                   0
                   0
                   0
                   0
                   0
                   0
                   0
                   0
                   0
                   0
                   0
                   0
                   0
                   0
                   0
                   0
                   0
                   0
                   0
                   0
                   0
                   0
                   0
                   0
                   0
                   0
                   0
                   0
                   0
                   0
                   0
                   0
                   0
                   0
                   0
                   0
                   0
                   0
                   0
                   0
                   0
                   0
                   0
                   0
                   0
                   0
                   0
                   0
                   0
                   0
                   0
                   0
                   0
                   0
                   0
                   0
                   0
                   0
                   0
                   0
                   0
                   0
                   0
                   0
                   0
                   0
                   0
                   0
                   0
                   0
                   0
                   0
                   0
                   0
                   0
                   0
                   0
                   0
                   0
                   0
                   0
                   0
                   0
                   0
                   0
                   0
                   0
                   0
                   0
                   0
                   0
                   0
                   0
                   0
                   0
                   0
                   0
                   0
                   0
                   0
                   0
                   0
                   0
                   0
                   0
                   0
                   0
                   0
                   0
                   0
                   0
                   0
                   0
                   0
                   0
                   0
                   0
                   0
                   0
                   0
                   0
                   0
                   0
                   0
                   0
                   0
                   0
                   0
                   0
                   0
                   0
                   0
                   0
                   0
                   0
                   0
                   0
                   0
                   0
                   0
                   0
                   0
                   0
                   0
                   0
                   0
                   0
                   0
                   0
                   0
                   0
                   0
                   0
                   0
                   0
                   0
                   0
                   0
                   0
                   0
                   0
                   0
                   0
                   0
                   0
                   0
                   0
                   0
                   0
                   0
                   0
                   0
                   0
                   0
                   0
                   0
                   0
                   0
                   0
                   0
                   0
                   0
                   0
                   0
                   0
                   0
                   0
                   0
                   0
                   0
                   0
                   0
                   0
                   0
                   0
                   0
                   0
                   0
                   0
                   0
                   0
                   0
                   0
                   0
                   0
                   0
                   0
                   0
                   0
                   0
                   0
                   0
                   0
                   0
                   0
                   0
                   0
                   0
                   0
                   0
                   0
                   0
                   0
                   0
                   0
                   0
                   0
                   0
                   0
                   0
                   0
                   0
                   0
                   0
                   0
                   0
                   0
                   0
                   0
                   0
                   0
                   0
                   0
                   0
                   0
                   0
                   0
                   0
                   0
                   0
                   0
                   0
                   0
                   0
                   0
                   0
                   0
                   0
                   0
                   0
                   0
                   0
                   0
                   0
                   0
                   0
                   0
                   0
                   0
                   0
                   0
                   0
                   0
                   0
                   0
                   0
                   0
                   0
                   0
                   0
                   0
                   0
                   0
                   0
                   0
                   0
                   0
                   0
                   0
                   0
                   0
                   0
                   0
                   0
                   0
                   0
                   0
                   0
                   0
                   0
                   0
                   0
                   0
                   0
                   0
                   0
                   0
                   0
                   0
                   0
                   0
                   0
                   0
                   0
                   0
                   0
                   0
                   0
                   0
                   0
                   0
                   0
                   0
                   0
                   0
                   0
                   0
                   0
                   0
                   0
                   0
                   0
                   0
                   0
                   0
                   0
                   0
                   0
                   0
                   0
                   0
                   0
                   0
                   0
                   0
                   0
                   0
                   0
                   0
                   0
                   0
                   0
                   0
                   0
                   0
                   0
                   0
                   0
                   0
                   0
                   0
                   0
                   0
                   0
                   0
                   0
                   0
                   0
                   0
                   0
                   0
                   0
                   0
                   0
                   0
                   0
                   0
                   0
                   0
                   0
                   0
                   0
                   0
                   0
                   0
                   0
                   0
                   0
                   0
                   0
                   0
                   0
                   0
                   0
                   0
                   0
                   0
                   0
                   0
                   0
                   0
                   0
                   0
                   0
                   0
                   0
                   0
                   0
                   0
                   0
                   0
                   0
                   0
                   0
                   0
                   0
                   0
                   0
                   0
                   0
                   0
                   0
                   0
                   0
                   0
                   0
                   0
                   0
                   0
                   0
                   0
                   0
                   0
                   0
                   0
                   0
                   0
                   0
                   0
                   0
                   0
                   0
                   0
                   0
                   0
                   0
                   0
                   0
                   0
                   0
                   0
                   0
                   0
                   0
                   0
                   0
                   0
                   0
                   0
                   0
                   0
                   0
                   0
                   0
                   0
                   0
                   0
                   0
                   0
                   0
                   0
                   0
                   0
                   0
                   0
                   0
                   0
                   0
                   0
                   0
                   0
                   0
                   0
                   0
                   0
                   0
                   0
                   0
                   0
                   0
                   0
                   0
                   0
                   0
                   0
                   0
                   0
                   0
                   0
                   0
                   0
                   0
                   0
                   0
                   0
                   0
                   0
                   0
                   0
                   0
                   0
                   0
                   0
                   0
                   0
                   0
                   0
                   0
                   0
                   0
                   0
                   0
                   0
                   0
                   0
                   0
                   0
                   0
                   0
                   0
                   0
                   0
                   0
                   0
                   0
                   0
                   0
                   0
                   0
                   0
                   0
                   0
                   0
                   0
                   0
                   0
                   0
                   0
                   0
                   0
                   0
                   0
                   0
                   0
                   0
                   0
                   0
                   0
                   0
                   0
                   0
                   0
                   0
                   0
                   0
                   0
                   0
                   0
                   0
                   0
                   0
                   0
                   0
                   0
                   0
                   0
                   0
                   0
                   0
                   0
                   0
                   0
                   0
                   0
                   0
                   0
                   0
                   0
                   0
                   0
                   0
                   0
                   0
                   0
                   0
                   0
                   0
                   0
                   0
                   0
                   0
                   0
                   0
                   0
                   0
                   0
                   0
                   0
                   0
                   0
                   0
                   0
                   0
                   0
                   0
                   0
                   0
                   0
                   0
                   0
                   0
                   0
                   0
                   0
                   0
                   0
                   0
                   0
                   0
                   0
                   0
                   0
                   0
                   0
                   0
                   0
                   0
                   0
                   0
                   0
                   0
                   0
                   0
                   0
                   0
                   0
                   0
                   0
                   0
                   0
                   0
                   0
                   0
                   0
                   0
                   0
                   0
                   0
                   0
                   0
                   0
                   0
                   0
                   0
                   0
                   0
                   0
                   0
                   0
                   0
                   0
                   0
                   0
                   0
                   0
                   0
                   0
                   0
                   0
                   0
                   0
                   0
                   0
                   0
                   0
                   0
                   0
                   0
                   0
                   0
                   0
                   0
                   0
                   0
                   0
                   0
                   0
                   0
                   0
                   0
                   0
                   0
                   0
                   0
                   0
                   0
                   0
                   0
                   0
                   0
                   0
                   0
                   0
                   0
                   0
                   0
                   0
                   0
                   0
                   0
                   0
                   0
                   0
                   0
                   0
                   0
                   0
                   0
                   0
                   0
                   0
                   0
                   0
                   0
                   0
                   0
                   0
                   0
                   0
                   0
                   0
                   0
                   0
                   0
                   0
                   0
                   0
                   0
                   0
                   0
                   0
                   0
                   0
                   0
                   0
                   0
                   0
                   0
                   0
                   0
                   0
                   0
                   0
                   0
                   0
                   0
                   0
                   0
                   0
                   0
                   0
                   0
                   0
                   0
                   0
                   0
                   0
                   0
                   0
                   0
                   0
                   0
                   0
                   0
                   0
                   0
                   0
                   0
                   0
                   0
                   0
                   0
                   0
                   0
                   0
                   0
                   0
                   0
                   0
                   0
                   0
                   0
                   0
                   0
                   0
                   0
                   0
                   0
                   0
                   0
                   0
                   0
                   0
                   0
                   0
                   0
                   0
                   0
                   0
                   0
                   0
                   0
                   0
                   0
                   0
                   0
                   0
                   0
                   0
                   0
                   0
                   0
                   0
                   0
                   0
                   0
                   0
                   0
                   0
                   0
                   0
                   0
                   0
                   0
                   0
                   0
                   0
                   0
                   0
                   0
                   0
                   0
                   0
                   0
                   0
                   0
                   0
                   0
                   0
                   0
                   0
                   0
                   0
                   0
                   0
                   0
                   0
                   0
                   0
                   0
                   0
                   0
                   0
                   0
                   0
                   0
                   0
                   0
                   0
                   0
                   0
                   0
                   0
                   0
                   0
                   0
                   0
                   0
                   0
                   0
                   0
                   0
                   0
                   0
                   0
                   0
                   0
                   0
                   0
                   0
                   0
                   0
                   0
                   0
                   0
                   0
                   0
                   0
                   0
                   0
                   0
                   0
                   0
                   0
                   0
                   0
                   0
                   0
                   0
                   0
                   0
                   0
                   0
                   0
                   0
                   0
                   0
                   0
                   0
                   0
                   0
                   0
                   0
                   0
                   0
                   0
                   0
                   0
                   0
                   0
                   0
                   0
                   0
                   0
                   0
                   0
                   0
                   0
                   0
                   0
                   0
                   0
                   0
                   0
                   0
                   0
                   0
                   0
                   0
                   0
                   0
                   0
                   0
                   0
                   0
                   0
                   0
                   0
                   0
                   0
                   0
                   0
                   0
                   0
                   0
                   0
                   0
                   0
                   0
                   0
                   0
                   0
                   0
                   0
                   0
                   0
                   0
                   0
                   0
                   0
                   0
                   0
                   0
                   0
                   0
                   0
                   0
                   0
                   0
                   0
                   0
                   0
                   0
                   0
                   0
                   0
                   0
                   0
                   0
                   0
                   0
                   0
                   0
                   0
                   0
                   0
                   0
                   0
                   0
                   0
                   0
                   0
                   0
                   0
                   0
                   0
                   0
                   0
                   0
                   0
                   0
                   0
                   0
                   0
                   0
                   0
                   0
                   0
                   0
                   0
                   0
                   0
                   0
                   0
                   0
                   0
                   0
                   0
                   0
                   0
                   0
                   0
                   0
                   0
                   0
                   0
                   0
                   0
                   0
                   0
                   0
                   0
                   0
                   0
                   0
                   0
                   0
                   0
                   0
                   0
                   0
                   0
                   0
                   0
                   0
                   0
                   0
                   0
                   0
                   0
                   0
                   0
                   0
                   0
                   0
                   0
                   0
                   0
                   0
                   0
                   0
                   0
                   0
                   0
                   0
                   0
                   0
                   0
                   0
                   0
                   0
                   0
                   0
                   0
                   0
                   0
                   0
                   0
                   0
                   0
                   0
                   0
                   0
                   0
                   0
                   0
                   0
                   0
                   0
                   0
                   0
                   0
                   0
                   0
                   0
                   0
                   0
                   0
                   0
                   0
                   0
                   0
                   0
                   0
                   0
                   0
                   0
                   0
                   0
                   0
                   0
                   0
                   0
                   0
                   0
                   0
                   0
                   0
                   0
                   0
                   0
                   0
                   0
                   0
                   0
                   0
                   0
                   0
                   0
                   0
                   0
                   0
                   0
                   0
                   0
                   0
                   0
                   0
                   0
                   0
                   0
                   0
                   0
                   0
                   0
                   0
                   0
                   0
                   0
                   0
                   0
                   0
                   0
                   0
                   0
                   0
                   0
                   0
                   0
                   0
                   0
                   0
                   0
                   0
                   0
                   0
                   0
                   0
                   0
                   0
                   0
                   0
                   0
                   0
                   0
                   0
                   0
                   0
                   0
                   0
                   0
                   0
                   0
                   0
                   0
                   0
                   0
                   0
                   0
                   0
                   0
                   0
                   0
                   0
                   0
                   0
                   0
                   0
                   0
                   0
                   0
                   0
                   0
                   0
                   0
                   0
                   0
                   0
                   0
                   0
                   0
                   0
                   0
                   0
                   0
                   0
                   0
                   0
                   0
                   0
                   0
                   0
                   0
                   0
                   0
                   0
                   0
                   0
                   0
                   0
                   0
                   0
                   0
                   0
                   0
                   0
                   0
                   0
                   0
                   0
                   0
                   0
                   0
                   0
                   0
                   0
                   0
                   0
                   0
                   0
                   0
                   0
                   0
                   0
                   0
                   0
                   0
                   0
                   0
                   0
                   0
                   0
                   0
                   0
                   0
                   0
                   0
                   0
                   0
                   0
                   0
                   0
                   0
                   0
                   0
                   0
                   0
                   0
                   0
                   0
                   0
                   0
                   0
                   0
                   0
                   0
                   0
                   0
                   0
                   0
                   0
                   0
                   0
                   0
                   0
                   0
                   0
                   0
                   0
                   0
                   0
                   0
                   0
                   0
                   0
                   0
                   0
                   0
                   0
                   0
                   0
                   0
                   0
                   0
                   0
                   0
                   0
                   0
                   0
                   0
                   0
                   0
                   0
                   0
                   0
                   0
                   0
                   0
                   0
                   0
                   0
                   0
                   0
                   0
                   0
                   0
                   0
                   0
                   0
                   0
                   0
                   0
                   0
                   0
                   0
                   0
                   0
                   0
                   0
                   0
                   0
                   0
                   0
                   0
                   0
                   0
                   0
                   0
                   0
                   0
                   0
                   0
                   0
                   0
                   0
                   0
                   0
                   0
                   0
                   0
                   0
                   0
                   0
                   0
                   0
                   0
                   0
                   0
                   0
                   0
                   0
                   0
                   0
                   0
                   0
                   0
                   0
                   0
                   0
                   0
                   0
                   0
                   0
                   0
                   0
                   0
                   0
                   0
                   0
                   0
                   0
                   0
                   0
                   0
                   0
                   0
                   0
                   0
                   0
                   0
                   0
                   0
                   0
                   0
                   0
                   0
                   0
                   0
                   0
                   0
                   0
                   0
                   0
                   0
                   0
                   0
                   0
                   0
                   0
                   0
                   0
                   0
                   0
                   0
                   0
                   0
                   0
                   0
                   0
                   0
                   0
                   0
                   0
                   0
                   0
                   0
                   0
                   0
                   0
                   0
                   0
  
SCALARS                       fixity_y  double 1
LOOKUP_TABLE default
                   0
                   0
                   0
                   0
                   0
                   0
                   0
                   0
                   0
                   0
                   0
                   0
                   0
                   0
                   0
                   0
                   0
                   0
                   0
                   0
                   0
                   0
                   0
                   0
                   0
                   0
                   0
                   0
                   0
                   0
                   0
                   0
                   0
                   0
                   0
                   0
                   0
                   0
                   0
                   0
                   0
                   0
                   0
                   0
                   0
                   0
                   0
                   0
                   0
                   0
                   0
                   0
                   0
                   0
                   0
                   0
                   0
                   0
                   0
                   0
                   0
                   0
                   0
                   0
                   0
                   0
                   0
                   0
                   0
                   0
                   0
                   0
                   0
                   0
                   0
                   0
                   0
                   0
                   0
                   0
                   0
                   0
                   0
                   0
                   0
                   0
                   0
                   0
                   0
                   0
                   0
                   0
                   0
                   0
                   0
                   0
                   0
                   0
                   0
                   0
                   0
                   0
                   0
                   0
                   0
                   0
                   0
                   0
                   0
                   0
                   0
                   0
                   0
                   0
                   0
                   0
                   0
                   0
                   0
                   0
                   0
                   0
                   0
                   0
                   0
                   0
                   0
                   0
                   0
                   0
                   0
                   0
                   0
                   0
                   0
                   0
                   0
                   0
                   0
                   0
                   0
                   0
                   0
                   0
                   0
                   0
                   0
                   0
                   0
                   0
                   0
                   0
                   0
                   0
                   0
                   0
                   0
                   0
                   0
                   0
                   0
                   0
                   0
                   0
                   0
                   0
                   0
                   0
                   0
                   0
                   0
                   0
                   0
                   0
                   0
                   0
                   0
                   0
                   0
                   0
                   0
                   0
                   0
                   0
                   0
                   0
                   0
                   0
                   0
                   0
                   0
                   0
                   0
                   0
                   0
                   0
                   0
                   0
                   0
                   0
                   0
                   0
                   0
                   0
                   0
                   0
                   0
                   0
                   0
                   0
                   0
                   0
                   0
                   0
                   0
                   0
                   0
                   0
                   0
                   0
                   0
                   0
                   0
                   0
                   0
                   0
                   0
                   0
                   0
                   0
                   0
                   0
                   0
                   0
                   0
                   0
                   0
                   0
                   0
                   0
                   0
                   0
                   0
                   0
                   0
                   0
                   0
                   0
                   0
                   0
                   0
                   0
                   0
                   0
                   0
                   0
                   0
                   0
                   0
                   0
                   0
                   0
                   0
                   0
                   0
                   0
                   0
                   0
                   0
                   0
                   0
                   0
                   0
                   0
                   0
                   0
                   0
                   0
                   0
                   0
                   0
                   0
                   0
                   0
                   0
                   0
                   0
                   0
                   0
                   0
                   0
                   0
                   0
                   0
                   0
                   0
                   0
                   0
                   0
                   0
                   0
                   0
                   0
                   0
                   0
                   0
                   0
                   0
                   0
                   0
                   0
                   0
                   0
                   0
                   0
                   0
                   0
                   0
                   0
                   0
                   0
                   0
                   0
                   0
                   0
                   0
                   0
                   0
                   0
                   0
                   0
                   0
                   0
                   0
                   0
                   0
                   0
                   0
                   0
                   0
                   0
                   0
                   0
                   0
                   0
                   0
                   0
                   0
                   0
                   0
                   0
                   0
                   0
                   0
                   0
                   0
                   0
                   0
                   0
                   0
                   0
                   0
                   0
                   0
                   0
                   0
                   0
                   0
                   0
                   0
                   0
                   0
                   0
                   0
                   0
                   0
                   0
                   0
                   0
                   0
                   0
                   0
                   0
                   0
                   0
                   0
                   0
                   0
                   0
                   0
                   0
                   0
                   0
                   0
                   0
                   0
                   0
                   0
                   0
                   0
                   0
                   0
                   0
                   0
                   0
                   0
                   0
                   0
                   0
                   0
                   0
                   0
                   0
                   0
                   0
                   0
                   0
                   0
                   0
                   0
                   0
                   0
                   0
                   0
                   0
                   0
                   0
                   0
                   0
                   0
                   0
                   0
                   0
                   0
                   0
                   0
                   0
                   0
                   0
                   0
                   0
                   0
                   0
                   0
                   0
                   0
                   0
                   0
                   0
                   0
                   0
                   0
                   0
                   0
                   0
                   0
                   0
                   0
                   0
                   0
                   0
                   0
                   0
                   0
                   0
                   0
                   0
                   0
                   0
                   0
                   0
                   0
                   0
                   0
                   0
                   0
                   0
                   0
                   0
                   0
                   0
                   0
                   0
                   0
                   0
                   0
                   0
                   0
                   0
                   0
                   0
                   0
                   0
                   0
                   0
                   0
                   0
                   0
                   0
                   0
                   0
                   0
                   0
                   0
                   0
                   0
                   0
                   0
                   0
                   0
                   0
                   0
                   0
                   0
                   0
                   0
                   0
                   0
                   0
                   0
                   0
                   0
                   0
                   0
                   0
                   0
                   0
                   0
                   0
                   0
                   0
                   0
                   0
                   0
                   0
                   0
                   0
                   0
                   0
                   0
                   0
                   0
                   0
                   0
                   0
                   0
                   0
                   0
                   0
                   0
                   0
                   0
                   0
                   0
                   0
                   0
                   0
                   0
                   0
                   0
                   0
                   0
                   0
                   0
                   0
                   0
                   0
                   0
                   0
                   0
                   0
                   0
                   0
                   0
                   0
                   0
                   0
                   0
                   0
                   0
                   0
                   0
                   0
                   0
                   0
                   0
                   0
                   0
                   0
                   0
                   0
                   0
                   0
                   0
                   0
                   0
                   0
                   0
                   0
                   0
                   0
                   0
                   0
                   0
                   0
                   0
                   0
                   0
                   0
                   0
                   0
                   0
                   0
                   0
                   0
                   0
                   0
                   0
                   0
                   0
                   0
                   0
                   0
                   0
                   0
                   0
                   0
                   0
                   0
                   0
                   0
                   0
                   0
                   0
                   0
                   0
                   0
                   0
                   0
                   0
                   0
                   0
                   0
                   0
                   0
                   0
                   0
                   0
                   0
                   0
                   0
                   0
                   0
                   0
                   0
                   0
                   0
                   0
                   0
                   0
                   0
                   0
                   0
                   0
                   0
                   0
                   0
                   0
                   0
                   0
                   0
                   0
                   0
                   0
                   0
                   0
                   0
                   0
                   0
                   0
                   0
                   0
                   0
                   0
                   0
                   0
                   0
                   0
                   0
                   0
                   0
                   0
                   0
                   0
                   0
                   0
                   0
                   0
                   0
                   0
                   0
                   0
                   0
                   0
                   0
                   0
                   0
                   0
                   0
                   0
                   0
                   0
                   0
                   0
                   0
                   0
                   0
                   0
                   0
                   0
                   0
                   0
                   0
                   0
                   0
                   0
                   0
                   0
                   0
                   0
                   0
                   0
                   0
                   0
                   0
                   0
                   0
                   0
                   0
                   0
                   0
                   0
                   0
                   0
                   0
                   0
                   0
                   0
                   0
                   0
                   0
                   0
                   0
                   0
                   0
                   0
                   0
                   0
                   0
                   0
                   0
                   0
                   0
                   0
                   0
                   0
                   0
                   0
                   0
                   0
                   0
                   0
                   0
                   0
                   0
                   0
                   0
                   0
                   0
                   0
                   0
                   0
                   0
                   0
                   0
                   0
                   0
                   0
                   0
                   0
                   0
                   0
                   0
                   0
                   0
                   0
                   0
                   0
                   0
                   0
                   0
                   0
                   0
                   0
                   0
                   0
                   0
                   0
                   0
                   0
                   0
                   0
                   0
                   0
                   0
                   0
                   0
                   0
                   0
                   0
                   0
                   0
                   0
                   0
                   0
                   0
                   0
                   0
                   0
                   0
                   0
                   0
                   0
                   0
                   0
                   0
                   0
                   0
                   0
                   0
                   0
                   0
                   0
                   0
                   0
                   0
                   0
                   0
                   0
                   0
                   0
                   0
                   0
                   0
                   0
                   0
                   0
                   0
                   0
                   0
                   0
                   0
                   0
                   0
                   0
                   0
                   0
                   0
                   0
                   0
                   0
                   0
                   0
                   0
                   0
                   0
                   0
                   0
                   0
                   0
                   0
                   0
                   0
                   0
                   0
                   0
                   0
                   0
                   0
                   0
                   0
                   0
                   0
                   0
                   0
                   0
                   0
                   0
                   0
                   0
                   0
                   0
                   0
                   0
                   0
                   0
                   0
                   0
                   0
                   0
                   0
                   0
                   0
                   0
                   0
                   0
                   0
                   0
                   0
                   0
                   0
                   0
                   0
                   0
                   0
                   0
                   0
                   0
                   0
                   0
                   0
                   0
                   0
                   0
                   0
                   0
                   0
                   0
                   0
                   0
                   0
                   0
                   0
                   0
                   0
                   0
                   0
                   0
                   0
                   0
                   0
                   0
                   0
                   0
                   0
                   0
                   0
                   0
                   0
                   0
                   0
                   0
                   0
                   0
                   0
                   0
                   0
                   0
                   0
                   0
                   0
                   0
                   0
                   0
                   0
                   0
                   0
                   0
                   0
                   0
                   0
                   0
                   0
                   0
                   0
                   0
                   0
                   0
                   0
                   0
                   0
                   0
                   0
                   0
                   0
                   0
                   0
                   0
                   0
                   0
                   0
                   0
                   0
                   0
                   0
                   0
                   0
                   0
                   0
                   0
                   0
                   0
                   0
                   0
                   0
                   0
                   0
                   0
                   0
                   0
                   0
                   0
                   0
                   0
                   0
                   0
                   0
                   0
                   0
                   0
                   0
                   0
                   0
                   0
                   0
                   0
                   0
                   0
                   0
                   0
                   0
                   0
                   0
                   0
                   0
                   0
                   0
                   0
                   0
                   0
                   0
                   0
                   0
                   0
                   0
                   0
                   0
                   0
                   0
                   0
                   0
                   0
                   0
                   0
                   0
                   0
                   0
                   0
                   0
                   0
                   0
                   0
                   0
                   0
                   0
                   0
                   0
                   0
                   0
                   0
                   0
                   0
                   0
                   0
                   0
                   0
                   0
                   0
                   0
                   0
                   0
                   0
                   0
                   0
                   0
                   0
                   0
                   0
                   0
                   0
                   0
                   0
                   0
                   0
                   0
                   0
                   0
                   0
                   0
                   0
                   0
                   0
                   0
                   0
                   0
                   0
                   0
                   0
                   0
                   0
                   0
                   0
                   0
                   0
                   0
                   0
                   0
                   0
                   0
                   0
                   0
                   0
                   0
                   0
                   0
                   0
                   0
                   0
                   0
                   0
                   0
                   0
                   0
                   0
                   0
                   0
                   0
                   0
                   0
                   0
                   0
                   0
                   0
                   0
                   0
                   0
                   0
                   0
                   0
                   0
                   0
                   0
                   0
                   0
                   0
                   0
                   0
                   0
                   0
                   0
                   0
                   0
                   0
                   0
                   0
                   0
                   0
                   0
                   0
                   0
                   0
                   0
                   0
                   0
                   0
                   0
                   0
                   0
                   0
                   0
                   0
                   0
                   0
                   0
                   0
                   0
                   0
                   0
                   0
                   0
                   0
                   0
                   0
                   0
                   0
                   0
                   0
                   0
                   0
                   0
                   0
                   0
                   0
                   0
                   0
                   0
                   0
                   0
                   0
                   0
                   0
                   0
                   0
                   0
                   0
                   0
                   0
                   0
                   0
                   0
                   0
                   0
                   0
                   0
                   0
                   0
                   0
                   0
                   0
                   0
                   0
                   0
                   0
                   0
                   0
                   0
                   0
                   0
                   0
                   0
                   0
                   0
                   0
                   0
                   0
                   0
                   0
                   0
                   0
                   0
                   0
                   0
                   0
                   0
                   0
                   0
                   0
                   0
                   0
                   0
                   0
                   0
                   0
                   0
                   0
                   0
                   0
                   0
                   0
                   0
                   0
                   0
                   0
                   0
                   0
                   0
                   0
                   0
                   0
                   0
                   0
                   0
                   0
                   0
                   0
                   0
                   0
                   0
                   0
                   0
                   0
                   0
                   0
                   0
                   0
                   0
                   0
                   0
                   0
                   0
                   0
                   0
                   0
                   0
                   0
                   0
                   0
                   0
                   0
                   0
                   0
                   0
                   0
                   0
                   0
                   0
                   0
                   0
                   0
                   0
                   0
                   0
                   0
                   0
                   0
                   0
                   0
                   0
                   0
                   0
                   0
                   0
                   0
                   0
                   0
                   0
                   0
                   0
                   0
                   0
                   0
                   0
                   0
                   0
                   0
                   0
                   0
                   0
                   0
                   0
                   0
                   0
                   0
                   0
                   0
                   0
                   0
                   0
                   0
                   0
                   0
                   0
                   0
                   0
                   0
                   0
                   0
                   0
                   0
                   0
                   0
                   0
                   0
                   0
                   0
                   0
                   0
                   0
                   0
                   0
                   0
                   0
                   0
                   0
                   0
                   0
                   0
                   0
                   0
                   0
                   0
                   0
                   0
                   0
                   0
                   0
                   0
                   0
                   0
                   0
                   0
                   0
                   0
                   0
                   0
                   0
                   0
                   0
                   0
                   0
                   0
                   0
                   0
                   0
                   0
                   0
                   0
                   0
                   0
                   0
                   0
                   0
                   0
                   0
                   0
                   0
                   0
                   0
                   0
                   0
                   0
                   0
                   0
                   0
                   0
                   0
                   0
                   0
                   0
                   0
                   0
                   0
                   0
                   0
                   0
                   0
                   0
                   0
                   0
                   0
                   0
                   0
                   0
                   0
                   0
                   0
                   0
                   0
                   0
                   0
                   0
                   0
                   0
                   0
                   0
                   0
                   0
                   0
                   0
                   0
                   0
                   0
                   0
                   0
                   0
                   0
                   0
                   0
                   0
                   0
                   0
                   0
                   0
                   0
                   0
                   0
                   0
                   0
                   0
                   0
                   0
                   0
                   0
                   0
                   0
                   0
                   0
                   0
                   0
                   0
                   0
                   0
                   0
                   0
                   0
                   0
                   0
                   0
                   0
                   0
                   0
                   0
                   0
                   0
                   0
                   0
                   0
                   0
                   0
                   0
                   0
                   0
                   0
                   0
                   0
                   0
                   0
                   0
                   0
                   0
                   0
                   0
                   0
                   0
                   0
                   0
                   0
                   0
                   0
                   0
                   0
                   0
                   0
                   0
                   0
                   0
                   0
                   0
                   0
                   0
                   0
                   0
                   0
                   0
                   0
                   0
                   0
                   0
                   0
                   0
                   0
                   0
                   0
                   0
                   0
                   0
                   0
                   0
                   0
                   0
                   0
                   0
                   0
                   0
                   0
                   0
                   0
                   0
                   0
                   0
                   0
                   0
                   0
                   0
                   0
                   0
                   0
                   0
                   0
                   0
                   0
                   0
                   0
                   0
                   0
                   0
                   0
                   0
                   0
                   0
                   0
                   0
                   0
                   0
                   0
                   0
                   0
                   0
                   0
                   0
                   0
                   0
                   0
                   0
                   0
                   0
                   0
                   0
                   0
                   0
                   0
                   0
                   0
                   0
                   0
                   0
                   0
                   0
                   0
                   0
                   0
                   0
                   0
                   0
                   0
                   0
                   0
                   0
                   0
                   0
                   0
                   0
                   0
                   0
                   0
                   0
                   0
                   0
                   0
                   0
                   0
                   0
                   0
                   0
                   0
                   0
                   0
                   0
                   0
                   0
                   0
                   0
                   0
                   0
                   0
                   0
                   0
                   0
                   0
                   0
                   0
                   0
                   0
                   0
                   0
                   0
                   0
                   0
                   0
                   0
                   0
                   0
                   0
                   0
                   0
                   0
                   0
                   0
                   0
                   0
                   0
                   0
                   0
                   0
                   0
                   0
                   0
                   0
                   0
                   0
                   0
                   0
                   0
                   0
                   0
                   0
                   0
                   0
                   0
                   0
                   0
                   0
                   0
                   0
                   0
                   0
                   0
                   0
                   0
                   0
                   0
                   0
                   0
                   0
                   0
                   0
                   0
                   0
                   0
                   0
                   0
                   0
                   0
                   0
                   0
                   0
                   0
                   0
                   0
                   0
                   0
                   0
                   0
                   0
                   0
                   0
                   0
                   0
                   0
                   0
                   0
                   0
                   0
                   0
                   0
                   0
                   0
                   0
                   0
                   0
                   0
                   0
                   0
                   0
                   0
                   0
                   0
                   0
                   0
                   0
                   0
                   0
                   0
                   0
                   0
                   0
                   0
                   0
                   0
                   0
                   0
                   0
                   0
                   0
                   0
                   0
                   0
                   0
                   0
                   0
                   0
                   0
                   0
                   0
                   0
                   0
                   0
                   0
                   0
                   0
                   0
                   0
                   0
                   0
                   0
                   0
                   0
                   0
                   0
                   0
                   0
                   0
                   0
                   0
                   0
                   0
                   0
                   0
                   0
                   0
                   0
                   0
                   0
                   0
                   0
                   0
                   0
                   0
                   0
                   0
                   0
                   0
                   0
                   0
                   0
                   0
                   0
                   0
                   0
                   0
                   0
                   0
                   0
                   0
                   0
                   0
                   0
                   0
                   0
                   0
                   0
                   0
                   0
                   0
                   0
                   0
                   0
                   0
                   0
                   0
                   0
                   0
                   0
                   0
                   0
                   0
                   0
                   0
                   0
                   0
                   0
                   0
                   0
                   0
                   0
                   0
                   0
                   0
                   0
                   0
                   0
                   0
                   0
                   0
                   0
                   0
                   0
                   0
                   0
                   0
                   0
                   0
                   0
                   0
                   0
                   0
                   0
                   0
                   0
                   0
                   0
                   0
                   0
                   0
                   0
                   0
                   0
                   0
                   0
                   0
                   0
                   0
                   0
                   0
                   0
                   0
                   0
                   0
                   0
                   0
                   0
                   0
                   0
                   0
                   0
                   0
                   0
                   0
                   0
                   0
                   0
                   0
                   0
                   0
                   0
                   0
                   0
                   0
                   0
                   0
  
SCALARS                       fixity_z  double 1
LOOKUP_TABLE default
                   0
                   0
                   0
                   0
                   1
                   1
                   1
                   1
                   0
                   0
                   1
                   1
                   0
                   0
                   1
                   1
                   0
                   0
                   1
                   1
                   0
                   0
                   0
                   1
                   1
                   1
                   0
                   0
                   1
                   1
                   0
                   0
                   0
                   1
                   1
                   1
                   0
                   0
                   1
                   1
                   0
                   0
                   1
                   1
                   0
                   0
                   1
                   1
                   0
                   1
                   0
                   1
                   0
                   1
                   0
                   1
                   0
                   0
                   1
                   1
                   0
                   0
                   1
                   1
                   0
                   1
                   0
                   1
                   0
                   0
                   1
                   1
                   0
                   1
                   0
                   1
                   0
                   1
                   0
                   1
                   0
                   0
                   1
                   1
                   0
                   1
                   0
                   1
                   0
                   1
                   0
                   0
                   1
                   1
                   0
                   1
                   0
                   1
                   0
                   1
                   0
                   0
                   1
                   1
                   0
                   0
                   1
                   1
                   0
                   1
                   0
                   1
                   0
                   1
                   0
                   1
                   0
                   1
                   0
                   1
                   0
                   1
                   0
                   1
                   0
                   1
                   0
                   1
                   0
                   1
                   0
                   1
                   0
                   1
                   0
                   1
                   0
                   1
                   0
                   1
                   0
                   1
                   0
                   1
                   0
                   1
                   0
                   1
                   0
                   1
                   0
                   1
                   0
                   1
                   0
                   1
                   0
                   0
                   0
                   0
                   0
                   0
                   0
                   0
                   0
                   0
                   0
                   0
                   0
                   0
                   0
                   0
                   0
                   0
                   0
                   0
                   0
                   0
                   0
                   0
                   0
                   0
                   0
                   0
                   0
                   0
                   0
                   0
                   0
                   0
                   0
                   0
                   0
                   0
                   0
                   0
                   0
                   0
                   0
                   0
                   0
                   0
                   0
                   0
                   0
                   0
                   0
                   0
                   0
                   0
                   0
                   0
                   0
                   0
                   0
                   0
                   0
                   0
                   0
                   0
                   0
                   0
                   0
                   0
                   0
                   0
                   0
                   0
                   0
                   0
                   0
                   0
                   0
                   0
                   0
                   0
                   0
                   0
                   0
                   0
                   0
                   0
                   0
                   0
                   0
                   0
                   0
                   0
                   0
                   0
                   0
                   0
                   0
                   0
                   0
                   0
                   0
                   0
                   0
                   0
                   0
                   0
                   0
                   0
                   0
                   0
                   0
                   0
                   0
                   0
                   0
                   0
                   0
                   0
                   0
                   0
                   0
                   0
                   0
                   0
                   0
                   0
                   0
                   0
                   0
                   0
                   0
                   0
                   0
                   0
                   0
                   0
                   0
                   0
                   0
                   0
                   0
                   0
                   0
                   0
                   0
                   0
                   0
                   0
                   0
                   0
                   0
                   0
                   0
                   0
                   0
                   0
                   0
                   0
                   0
                   0
                   0
                   0
                   0
                   0
                   0
                   0
                   0
                   0
                   0
                   0
                   0
                   0
                   0
                   0
                   0
                   0
                   0
                   0
                   0
                   0
                   0
                   0
                   0
                   0
                   0
                   0
                   0
                   0
                   0
                   0
                   0
                   0
                   0
                   0
                   0
                   0
                   0
                   0
                   0
                   0
                   0
                   0
                   0
                   0
                   0
                   0
                   0
                   0
                   0
                   0
                   0
                   0
                   0
                   0
                   0
                   0
                   0
                   0
                   0
                   0
                   0
                   0
                   0
                   0
                   0
                   0
                   0
                   0
                   0
                   0
                   0
                   0
                   0
                   0
                   0
                   0
                   0
                   0
                   0
                   0
                   0
                   0
                   0
                   0
                   0
                   0
                   0
                   0
                   0
                   0
                   0
                   0
                   0
                   0
                   0
                   0
                   0
                   0
                   0
                   0
                   0
                   0
                   0
                   0
                   0
                   0
                   0
                   0
                   0
                   0
                   0
                   0
                   0
                   0
                   0
                   0
                   0
                   0
                   0
                   0
                   0
                   0
                   0
                   0
                   0
                   0
                   0
                   0
                   0
                   0
                   0
                   0
                   0
                   0
                   0
                   0
                   0
                   0
                   0
                   0
                   0
                   0
                   0
                   0
                   0
                   0
                   0
                   0
                   0
                   0
                   0
                   0
                   0
                   0
                   0
                   0
                   0
                   0
                   0
                   0
                   0
                   0
                   0
                   0
                   0
                   0
                   0
                   0
                   0
                   0
                   0
                   0
                   0
                   0
                   0
                   0
                   0
                   0
                   0
                   0
                   0
                   0
                   0
                   0
                   0
                   0
                   0
                   0
                   0
                   0
                   0
                   0
                   0
                   0
                   0
                   0
                   0
                   0
                   0
                   0
                   0
                   0
                   0
                   0
                   0
                   0
                   0
                   0
                   0
                   0
                   0
                   0
                   0
                   0
                   0
                   0
                   0
                   0
                   0
                   0
                   0
                   0
                   0
                   0
                   0
                   0
                   0
                   0
                   0
                   0
                   0
                   0
                   0
                   0
                   0
                   0
                   0
                   0
                   0
                   0
                   0
                   0
                   0
                   0
                   0
                   0
                   0
                   0
                   0
                   0
                   0
                   0
                   0
                   0
                   0
                   0
                   0
                   0
                   0
                   0
                   0
                   0
                   0
                   0
                   0
                   0
                   0
                   0
                   0
                   0
                   0
                   0
                   0
                   0
                   0
                   0
                   0
                   0
                   0
                   0
                   0
                   0
                   0
                   0
                   0
                   0
                   0
                   0
                   0
                   0
                   0
                   0
                   0
                   0
                   0
                   0
                   0
                   0
                   0
                   0
                   0
                   0
                   0
                   0
                   0
                   0
                   0
                   0
                   0
                   0
                   0
                   0
                   0
                   0
                   0
                   0
                   0
                   0
                   0
                   0
                   0
                   0
                   0
                   0
                   0
                   0
                   0
                   0
                   0
                   0
                   0
                   0
                   0
                   0
                   0
                   0
                   0
                   0
                   0
                   0
                   0
                   0
                   0
                   0
                   0
                   0
                   0
                   0
                   0
                   0
                   0
                   0
                   0
                   0
                   0
                   0
                   0
                   0
                   0
                   0
                   0
                   0
                   0
                   0
                   0
                   0
                   0
                   0
                   0
                   0
                   0
                   0
                   0
                   0
                   0
                   0
                   0
                   0
                   0
                   0
                   0
                   0
                   0
                   0
                   0
                   0
                   0
                   0
                   0
                   0
                   0
                   0
                   0
                   0
                   0
                   0
                   0
                   0
                   0
                   0
                   0
                   0
                   0
                   0
                   0
                   0
                   0
                   0
                   0
                   0
                   0
                   0
                   0
                   0
                   0
                   0
                   0
                   0
                   0
                   0
                   0
                   0
                   0
                   0
                   0
                   0
                   0
                   0
                   0
                   0
                   0
                   0
                   0
                   0
                   0
                   0
                   0
                   0
                   0
                   0
                   0
                   0
                   0
                   0
                   0
                   0
                   0
                   0
                   0
                   0
                   0
                   0
                   0
                   0
                   0
                   0
                   0
                   0
                   0
                   0
                   0
                   0
                   0
                   0
                   0
                   0
                   0
                   0
                   0
                   0
                   0
                   0
                   0
                   0
                   0
                   0
                   0
                   0
                   0
                   0
                   0
                   0
                   0
                   0
                   0
                   0
                   0
                   0
                   0
                   0
                   0
                   0
                   0
                   0
                   0
                   0
                   0
                   0
                   0
                   0
                   0
                   0
                   0
                   0
                   0
                   0
                   0
                   0
                   0
                   0
                   0
                   0
                   0
                   0
                   0
                   0
                   0
                   0
                   0
                   0
                   0
                   0
                   0
                   0
                   0
                   0
                   0
                   0
                   0
                   0
                   0
                   0
                   0
                   0
                   0
                   0
                   0
                   0
                   0
                   0
                   0
                   0
                   0
                   0
                   0
                   0
                   0
                   0
                   0
                   0
                   0
                   0
                   0
                   0
                   0
                   0
                   0
                   0
                   0
                   0
                   0
                   0
                   0
                   0
                   0
                   0
                   0
                   0
                   0
                   0
                   0
                   0
                   0
                   0
                   0
                   0
                   0
                   0
                   0
                   0
                   0
                   0
                   0
                   0
                   0
                   0
                   0
                   0
                   0
                   0
                   0
                   0
                   0
                   0
                   0
                   0
                   0
                   0
                   0
                   0
                   0
                   0
                   0
                   0
                   0
                   0
                   0
                   0
                   0
                   0
                   0
                   0
                   0
                   0
                   0
                   0
                   0
                   0
                   0
                   0
                   0
                   0
                   0
                   0
                   0
                   0
                   0
                   0
                   0
                   0
                   0
                   0
                   0
                   0
                   0
                   0
                   0
                   0
                   0
                   0
                   0
                   0
                   0
                   0
                   0
                   0
                   0
                   0
                   0
                   0
                   0
                   0
                   0
                   0
                   0
                   0
                   0
                   0
                   0
                   0
                   0
                   0
                   0
                   0
                   0
                   0
                   0
                   0
                   0
                   0
                   0
                   0
                   0
                   0
                   0
                   0
                   0
                   0
                   0
                   0
                   0
                   0
                   0
                   0
                   0
                   0
                   0
                   0
                   0
                   0
                   0
                   0
                   0
                   0
                   0
                   0
                   0
                   0
                   0
                   0
                   0
                   0
                   0
                   0
                   0
                   0
                   0
                   0
                   0
                   0
                   0
                   0
                   0
                   0
                   0
                   0
                   0
                   0
                   0
                   0
                   0
                   0
                   0
                   0
                   0
                   0
                   0
                   0
                   0
                   0
                   0
                   0
                   0
                   0
                   0
                   0
                   0
                   0
                   0
                   0
                   0
                   0
                   0
                   0
                   0
                   0
                   0
                   0
                   0
                   0
                   0
                   0
                   0
                   0
                   0
                   0
                   0
                   0
                   0
                   0
                   0
                   0
                   0
                   0
                   0
                   0
                   0
                   0
                   0
                   0
                   0
                   0
                   0
                   0
                   0
                   0
                   0
                   0
                   0
                   0
                   0
                   0
                   0
                   0
                   0
                   0
                   0
                   0
                   0
                   0
                   0
                   0
                   0
                   0
                   0
                   0
                   0
                   0
                   0
                   0
                   0
                   0
                   0
                   0
                   0
                   0
                   0
                   0
                   0
                   0
                   0
                   0
                   0
                   0
                   0
                   0
                   0
                   0
                   0
                   0
                   0
                   0
                   0
                   0
                   0
                   0
                   0
                   0
                   0
                   0
                   0
                   0
                   0
                   0
                   0
                   0
                   0
                   0
                   0
                   0
                   0
                   0
                   0
                   0
                   0
                   0
                   0
                   0
                   0
                   0
                   0
                   0
                   0
                   0
                   0
                   0
                   0
                   0
                   0
                   0
                   0
                   0
                   0
                   0
                   0
                   0
                   0
                   0
                   0
                   0
                   0
                   0
                   0
                   0
                   0
                   0
                   0
                   0
                   0
                   0
                   0
                   0
                   0
                   0
                   0
                   0
                   0
                   0
                   0
                   0
                   0
                   0
                   0
                   0
                   0
                   0
                   0
                   0
                   0
                   0
                   0
                   0
                   0
                   0
                   0
                   0
                   0
                   0
                   0
                   0
                   0
                   0
                   0
                   0
                   0
                   0
                   0
                   0
                   0
                   0
                   0
                   0
                   0
                   0
                   0
                   0
                   0
                   0
                   0
                   0
                   0
                   0
                   0
                   0
                   0
                   0
                   0
                   0
                   0
                   0
                   0
                   0
                   0
                   0
                   0
                   0
                   0
                   0
                   0
                   0
                   0
                   0
                   0
                   0
                   0
                   0
                   0
                   0
                   0
                   0
                   0
                   0
                   0
                   0
                   0
                   0
                   0
                   0
                   0
                   0
                   0
                   0
                   0
                   0
                   0
                   0
                   0
                   0
                   0
                   0
                   0
                   0
                   0
                   0
                   0
                   0
                   0
                   0
                   0
                   0
                   0
                   0
                   0
                   0
                   0
                   0
                   0
                   0
                   0
                   0
                   0
                   0
                   0
                   0
                   0
                   0
                   0
                   0
                   0
                   0
                   0
                   0
                   0
                   0
                   0
                   0
                   0
                   0
                   0
                   0
                   0
                   0
                   0
                   0
                   0
                   0
                   0
                   0
                   0
                   0
                   0
                   0
                   0
                   0
                   0
                   0
                   0
                   0
                   0
                   0
                   0
                   0
                   0
                   0
                   0
                   0
                   0
                   0
                   0
                   0
                   0
                   0
                   0
                   0
                   0
                   0
                   0
                   0
                   0
                   0
                   0
                   0
                   0
                   0
                   0
                   0
                   0
                   0
                   0
                   0
                   0
                   0
                   0
                   0
                   0
                   0
                   0
                   0
                   0
                   0
                   0
                   0
                   0
                   0
                   0
                   0
                   0
                   0
                   0
                   0
                   0
                   0
                   0
                   0
                   0
                   0
                   0
                   0
                   0
                   0
                   0
                   0
                   0
                   0
                   0
                   0
                   0
                   0
                   0
                   0
                   0
                   0
                   0
                   0
                   0
                   0
                   0
                   0
                   0
                   0
                   0
                   0
                   0
                   0
                   0
                   0
                   0
                   0
                   0
                   0
                   0
                   0
                   0
                   0
                   0
                   0
                   0
                   0
                   0
                   0
                   0
                   0
                   0
                   0
                   0
                   0
                   0
                   0
                   0
                   0
                   0
                   0
                   0
                   0
                   0
                   0
                   0
                   0
                   0
                   0
                   0
                   0
                   0
                   0
                   0
                   0
                   0
                   0
                   0
                   0
                   0
                   0
                   0
                   0
                   0
                   0
                   0
                   0
                   0
                   0
                   0
                   0
                   0
                   0
                   0
                   0
                   0
                   0
                   0
                   0
                   0
                   0
                   0
                   0
                   0
                   0
                   0
                   0
                   0
                   0
                   0
                   0
                   0
                   0
                   0
                   0
                   0
                   0
                   0
                   0
                   0
                   0
                   0
                   0
                   0
                   0
                   0
                   0
                   0
                   0
                   0
                   0
                   0
                   0
                   0
                   0
                   0
                   0
                   0
                   0
                   0
                   0
                   0
                   0
                   0
                   0
                   0
                   0
                   0
                   0
                   0
                   0
                   0
                   0
                   0
                   0
                   0
                   0
                   0
                   0
                   0
                   0
                   0
                   0
                   0
                   0
                   0
                   0
                   0
                   0
                   0
                   0
                   0
                   0
                   0
                   0
                   0
                   0
                   0
                   0
                   0
                   0
                   0
                   0
                   0
                   0
                   0
                   0
                   0
                   0
                   0
                   0
                   0
                   0
                   0
                   0
                   0
                   0
                   0
                   0
                   0
                   0
                   0
                   0
                   0
                   0
                   0
                   0
                   0
                   0
                   0
                   0
                   0
                   0
                   0
                   0
                   0
                   0
                   0
                   0
                   0
                   0
                   0
                   0
                   0
                   0
                   0
                   0
                   0
                   0
                   0
                   0
                   0
                   0
                   0
                   0
                   0
                   0
                   0
                   0
                   0
                   0
                   0
                   0
                   0
                   0
                   0
                   0
                   0
                   0
                   0
                   0
                   0
                   0
                   0
                   0
                   0
                   0
                   0
                   0
                   0
                   0
                   0
                   0
                   0
                   0
                   0
                   0
                   0
                   0
                   0
                   0
                   0
                   0
                   0
                   0
                   0
                   0
                   0
                   0
                   0
                   0
                   0
                   0
                   0
                   0
                   0
                   0
                   0
                   0
                   0
                   0
                   0
                   0
                   0
                   0
                   0
                   0
                   0
                   0
                   0
                   0
                   0
                   0
                   0
                   0
                   0
                   0
                   0
                   0
                   0
                   0
                   0
                   0
                   0
                   0
                   0
                   0
                   0
                   0
                   0
                   0
                   0
                   0
                   0
                   0
                   0
                   0
                   0
                   0
                   0
                   0
                   0
                   0
                   0
                   0
                   0
                   0
                   0
                   0
                   0
                   0
                   0
                   0
                   0
                   0
                   0
                   0
                   0
                   0
                   0
                   0
                   0
                   0
                   0
                   0
                   0
                   0
                   0
                   0
                   0
                   0
                   0
                   0
                   0
                   0
                   0
                   0
                   0
                   0
                   0
                   0
                   0
                   0
                   0
                   0
                   0
                   0
                   0
                   0
                   0
                   0
                   0
                   0
                   0
                   0
                   0
                   0
                   0
                   0
                   0
                   0
                   0
                   0
                   0
                   0
                   0
                   0
                   0
                   0
                   0
                   0
                   0
                   0
                   0
                   0
                   0
                   0
                   0
                   0
                   0
                   0
                   0
                   0
                   0
                   0
                   0
                   0
                   0
                   0
                   0
                   0
                   0
                   0
                   0
                   0
                   0
                   0
                   0
                   0
                   0
                   0
                   0
                   0
                   0
                   0
                   0
                   0
                   0
                   0
                   0
                   0
                   0
                   0
                   0
                   0
                   0
                   0
                   0
                   0
                   0
                   0
                   0
                   0
                   0
                   0
                   0
                   0
                   0
                   0
                   0
                   0
                   0
                   0
                   0
                   0
                   0
                   0
                   0
                   0
                   0
                   0
                   0
                   0
                   0
                   0
                   0
                   0
                   0
                   0
                   0
                   0
                   0
                   0
                   0
                   0
                   0
                   0
                   0
                   0
                   0
                   0
                   0
                   0
                   0
                   0
                   0
                   0
                   0
                   0
                   0
                   0
                   0
                   0
                   0
                   0
                   0
                   0
                   0
                   0
                   0
                   0
                   0
                   0
                   0
                   0
                   0
                   0
                   0
                   0
                   0
                   0
                   0
                   0
                   0
                   0
                   0
                   0
                   0
                   0
                   0
                   0
                   0
                   0
                   0
                   0
                   0
                   0
                   0
                   0
                   0
                   0
                   0
                   0
  
SCALARS                         Ispace  double 1
LOOKUP_TABLE default
                  12
                  12
                  12
                  12
                  12
                  12
                  12
                  12
                  12
                  12
                  12
                  12
                  12
                  11
                  12
                  11
                  11
                  11
                  11
                  11
                  11
                  12
                  12
                  11
                  12
                  12
                  11
                  11
                  11
                  11
                  11
                  11
                  11
                  11
                  11
                  11
                  11
                  11
                  11
                  11
                  11
                  11
                  11
                  11
                  11
                  11
                  11
                  11
                  11
                  11
                  11
                  11
                  11
                  11
                  11
                  11
                  11
                  11
                  11
                  11
                  11
                  11
                  11
                  11
                  11
                  11
                  12
                  12
                  12
                  12
                  12
                  12
                  12
                  12
                  11
                  11
                  11
                  11
                  11
                  11
                  11
                  11
                  11
                  11
                  11
                  11
                  11
                  11
                  11
                  11
                  11
                  11
                  11
                  11
                  11
                  11
                  12
                  12
                  12
                  12
                  12
                  12
                  12
                  12
                  12
                  12
                  12
                  12
                  12
                  12
                  12
                  12
                  12
                  12
                  12
                  12
                  11
                  11
                  11
                  11
                  11
                  11
                  11
                  11
                  11
                  11
                  11
                  11
                  11
                  11
                  11
                  11
                  11
                  11
                  11
                  11
                  11
                  11
                  11
                  11
                  11
                  11
                  11
                  11
                  11
                  11
                  12
                  12
                  12
                  12
                  12
                  12
                  12
                  12
                  12
                  12
                  12
                  12
                  12
                  12
                  12
                  12
                  12
                  11
                  11
                  11
                  11
                  12
                  12
                  11
                  11
                  11
                  11
                  11
                  11
                  11
                  11
                  11
                  11
                  11
                  11
                  11
                  11
                  11
                  11
                  11
                  11
                  11
                  11
                  12
                  12
                  12
                  12
                  11
                  11
                  11
                  11
                  11
                  11
                  11
                  11
                  11
                  11
                  11
                  12
                  12
                  12
                  12
                  12
                  12
                  12
                  12
                  12
                  12
                  11
                  11
                  11
                  11
                  11
                  11
                  11
                  11
                  11
                  11
                  11
                  11
                  11
                  11
                  11
                  12
                  12
                  12
                  12
                  12
                  12
                  12
                  12
                  12
                  12
                  12
                  12
                  11
                  11
                  11
                  11
                  12
                  12
                  11
                  11
                  11
                  11
                  11
                  11
                  11
                  11
                  11
                  11
                  11
                  11
                  11
                  11
                  11
                  11
                  11
                  11
                  11
                  11
                  12
                  12
                  12
                  12
                  11
                  11
                  11
                  11
                  11
                  11
                  11
                  11
                  11
                  11
                  11
                  12
                  12
                  12
                  12
                  12
                  12
                  12
                  12
                  12
                  12
                  11
                  11
                  11
                  11
                  11
                  11
                  11
                  11
                  11
                  11
                  11
                  11
                  11
                  11
                  11
                  12
                  12
                  12
                  12
                  12
                  12
                  12
                  12
                  12
                  12
                  12
                  12
                  11
                  11
                  11
                  11
                  12
                  12
                  11
                  11
                  11
                  11
                  11
                  11
                  11
                  11
                  11
                  11
                  11
                  11
                  11
                  11
                  11
                  11
                  11
                  11
                  11
                  11
                  12
                  12
                  12
                  12
                  11
                  11
                  11
                  11
                  11
                  11
                  11
                  11
                  11
                  11
                  11
                  12
                  12
                  12
                  12
                  12
                  12
                  12
                  12
                  12
                  12
                  11
                  11
                  11
                  11
                  11
                  11
                  11
                  11
                  11
                  11
                  11
                  11
                  11
                  11
                  11
                  12
                  12
                  12
                  12
                  12
                  12
                  12
                  12
                  12
                  12
                  12
                  12
                  11
                  11
                  11
                  11
                  12
                  12
                  11
                  11
                  11
                  11
                  11
                  11
                  11
                  11
                  11
                  11
                  11
                  11
                  11
                  11
                  11
                  11
                  11
                  11
                  11
                  11
                  12
                  12
                  12
                  12
                  11
                  11
                  11
                  11
                  11
                  11
                  11
                  11
                  11
                  11
                  11
                  12
                  12
                  12
                  12
                  12
                  12
                  12
                  12
                  12
                  12
                  11
                  11
                  11
                  11
                  11
                  11
                  11
                  11
                  11
                  11
                  11
                  11
                  11
                  11
                  11
                  12
                  12
                  12
                  12
                  12
                  12
                  12
                  12
                  12
                  12
                  12
                  12
                  11
                  11
                  11
                  11
                  12
                  12
                  11
                  11
                  11
                  11
                  11
                  11
                  11
                  11
                  11
                  11
                  11
                  11
                  11
                  11
                  11
                  11
                  11
                  11
                  11
                  11
                  12
                  12
                  12
                  12
                  11
                  11
                  11
                  11
                  11
                  11
                  11
                  11
                  11
                  11
                  11
                  12
                  12
                  12
                  12
                  12
                  12
                  12
                  12
                  12
                  12
                  11
                  11
                  11
                  11
                  11
                  11
                  11
                  11
                  11
                  11
                  11
                  11
                  11
                  11
                  11
                  12
                  12
                  12
                  12
                  12
                  12
                  12
                  12
                  12
                  12
                  12
                  12
                  11
                  11
                  11
                  11
                  12
                  12
                  11
                  11
                  11
                  11
                  11
                  11
                  11
                  11
                  11
                  11
                  11
                  11
                  11
                  11
                  11
                  11
                  11
                  11
                  11
                  11
                  12
                  12
                  12
                  12
                  11
                  11
                  11
                  11
                  11
                  11
                  11
                  11
                  11
                  11
                  11
                  12
                  12
                  12
                  12
                  12
                  12
                  12
                  12
                  12
                  12
                  11
                  11
                  11
                  11
                  11
                  11
                  11
                  11
                  11
                  11
                  11
                  11
                  11
                  11
                  11
                  12
                  12
                  12
                  12
                  12
                  12
                  12
                  12
                  12
                  12
                  12
                  12
                  11
                  11
                  11
                  11
                  12
                  12
                  11
                  11
                  11
                  11
                  11
                  11
                  11
                  11
                  11
                  11
                  11
                  11
                  11
                  11
                  11
                  11
                  11
                  11
                  11
                  11
                  12
                  12
                  12
                  12
                  11
                  11
                  11
                  11
                  11
                  11
                  11
                  11
                  11
                  11
                  11
                  12
                  12
                  12
                  12
                  12
                  12
                  12
                  12
                  12
                  12
                  11
                  11
                  11
                  11
                  11
                  11
                  11
                  11
                  11
                  11
                  11
                  11
                  11
                  11
                  11
                  12
                  12
                  12
                  12
                  12
                  12
                  12
                  12
                  12
                  12
                  12
                  12
                  11
                  11
                  11
                  11
                  12
                  12
                  11
                  11
                  11
                  11
                  11
                  11
                  11
                  11
                  11
                  11
                  11
                  11
                  11
                  11
                  11
                  11
                  11
                  11
                  11
                  11
                  12
                  12
                  12
                  12
                  11
                  11
                  11
                  11
                  11
                  11
                  11
                  11
                  11
                  11
                  11
                  12
                  12
                  12
                  12
                  12
                  12
                  12
                  12
                  12
                  12
                  11
                  11
                  11
                  11
                  11
                  11
                  11
                  11
                  11
                  11
                  11
                  11
                  11
                  11
                  11
                  12
                  12
                  12
                  12
                  12
                  12
                  12
                  12
                  12
                  12
                  12
                  12
                  11
                  11
                  11
                  11
                  12
                  12
                  11
                  11
                  11
                  11
                  11
                  11
                  11
                  11
                  11
                  11
                  11
                  11
                  11
                  11
                  11
                  11
                  11
                  11
                  11
                  11
                  12
                  12
                  12
                  12
                  11
                  11
                  11
                  11
                  11
                  11
                  11
                  11
                  11
                  11
                  11
                  12
                  12
                  12
                  12
                  12
                  12
                  12
                  12
                  12
                  12
                  11
                  11
                  11
                  11
                  11
                  11
                  11
                  11
                  11
                  11
                  11
                  11
                  11
                  11
                  11
                  12
                  12
                  12
                  12
                  12
                  12
                  12
                  12
                  12
                  12
                  12
                  12
                  11
                  11
                  11
                  11
                  12
                  12
                  11
                  11
                  11
                  11
                  11
                  11
                  11
                  11
                  11
                  11
                  11
                  11
                  11
                  11
                  11
                  11
                  11
                  11
                  11
                  11
                  12
                  12
                  12
                  12
                  11
                  11
                  11
                  11
                  11
                  11
                  11
                  11
                  11
                  11
                  11
                  12
                  12
                  12
                  12
                  12
                  12
                  12
                  12
                  12
                  12
                  11
                  11
                  11
                  11
                  11
                  11
                  11
                  11
                  11
                  11
                  11
                  11
                  11
                  11
                  11
                  12
                  12
                  12
                  12
                  12
                  12
                  12
                  12
                  12
                  12
                  12
                  12
                  11
                  11
                  11
                  11
                  12
                  12
                  11
                  11
                  11
                  11
                  11
                  11
                  11
                  11
                  11
                  11
                  11
                  11
                  11
                  11
                  11
                  11
                  11
                  11
                  11
                  11
                  12
                  12
                  12
                  12
                  11
                  11
                  11
                  11
                  11
                  11
                  11
                  11
                  11
                  11
                  11
                  12
                  12
                  12
                  12
                  12
                  12
                  12
                  12
                  12
                  12
                  11
                  11
                  11
                  11
                  11
                  11
                  11
                  11
                  11
                  11
                  11
                  11
                  11
                  11
                  11
                  12
                  12
                  12
                  12
                  12
                  12
                  12
                  12
                  12
                  12
                  12
                  12
                  11
                  11
                  11
                  11
                  12
                  12
                  11
                  11
                  11
                  11
                  11
                  11
                  11
                  11
                  11
                  11
                  11
                  11
                  11
                  11
                  11
                  11
                  11
                  11
                  11
                  11
                  12
                  12
                  12
                  12
                  11
                  11
                  11
                  11
                  11
                  11
                  11
                  11
                  11
                  11
                  11
                  12
                  12
                  12
                  12
                  12
                  12
                  12
                  12
                  12
                  12
                  11
                  11
                  11
                  11
                  11
                  11
                  11
                  11
                  11
                  11
                  11
                  11
                  11
                  11
                  11
                  12
                  12
                  12
                  12
                  12
                  12
                  12
                  12
                  12
                  12
                  12
                  12
                  11
                  11
                  11
                  11
                  12
                  12
                  11
                  11
                  11
                  11
                  11
                  11
                  11
                  11
                  11
                  11
                  11
                  11
                  11
                  11
                  11
                  11
                  11
                  11
                  11
                  11
                  12
                  12
                  12
                  12
                  11
                  11
                  11
                  11
                  11
                  11
                  11
                  11
                  11
                  11
                  11
                  12
                  12
                  12
                  12
                  12
                  12
                  12
                  12
                  12
                  12
                  11
                  11
                  11
                  11
                  11
                  11
                  11
                  11
                  11
                  11
                  11
                  11
                  11
                  11
                  11
                  12
                  12
                  12
                  12
                  12
                  12
                  12
                  12
                  12
                  12
                  12
                  12
                  11
                  11
                  11
                  11
                  12
                  12
                  11
                  11
                  11
                  11
                  11
                  11
                  11
                  11
                  11
                  11
                  11
                  11
                  11
                  11
                  11
                  11
                  11
                  11
                  11
                  11
                  12
                  12
                  12
                  12
                  11
                  11
                  11
                  11
                  11
                  11
                  11
                  11
                  11
                  11
                  11
                  12
                  12
                  12
                  12
                  12
                  12
                  12
                  12
                  12
                  12
                  11
                  11
                  11
                  11
                  11
                  11
                  11
                  11
                  11
                  11
                  11
                  11
                  11
                  11
                  11
                  12
                  12
                  12
                  12
                  12
                  12
                  12
                  12
                  12
                  12
                  12
                  12
                  11
                  11
                  11
                  11
                  12
                  12
                  11
                  11
                  11
                  11
                  11
                  11
                  11
                  11
                  11
                  11
                  11
                  11
                  11
                  11
                  11
                  11
                  11
                  11
                  11
                  11
                  12
                  12
                  12
                  12
                  11
                  11
                  11
                  11
                  11
                  11
                  11
                  11
                  11
                  11
                  11
                  12
                  12
                  12
                  12
                  12
                  12
                  12
                  12
                  12
                  12
                  11
                  11
                  11
                  11
                  11
                  11
                  11
                  11
                  11
                  11
                  11
                  11
                  11
                  11
                  11
                  12
                  12
                  12
                  12
                  12
                  12
                  12
                  12
                  12
                  12
                  12
                  12
                  11
                  11
                  11
                  11
                  12
                  12
                  11
                  11
                  11
                  11
                  11
                  11
                  11
                  11
                  11
                  11
                  11
                  11
                  11
                  11
                  11
                  11
                  11
                  11
                  11
                  11
                  12
                  12
                  12
                  12
                  11
                  11
                  11
                  11
                  11
                  11
                  11
                  11
                  11
                  11
                  11
                  12
                  12
                  12
                  12
                  12
                  12
                  12
                  12
                  12
                  12
                  11
                  11
                  11
                  11
                  11
                  11
                  11
                  11
                  11
                  11
                  11
                  11
                  11
                  11
                  11
                  12
                  12
                  12
                  12
                  12
                  12
                  12
                  12
                  12
                  12
                  12
                  12
                  11
                  11
                  11
                  11
                  12
                  12
                  11
                  11
                  11
                  11
                  11
                  11
                  11
                  11
                  11
                  11
                  11
                  11
                  11
                  11
                  11
                  11
                  11
                  11
                  11
                  11
                  12
                  12
                  12
                  12
                  11
                  11
                  11
                  11
                  11
                  11
                  11
                  11
                  11
                  11
                  11
                  12
                  12
                  12
                  12
                  12
                  12
                  12
                  12
                  12
                  12
                  11
                  11
                  11
                  11
                  11
                  11
                  11
                  11
                  11
                  11
                  11
                  11
                  11
                  11
                  11
                  12
                  12
                  12
                  12
                  12
                  12
                  12
                  12
                  12
                  12
                  12
                  12
                  11
                  11
                  11
                  11
                  12
                  12
                  11
                  11
                  11
                  11
                  11
                  11
                  11
                  11
                  11
                  11
                  11
                  11
                  11
                  11
                  11
                  11
                  11
                  11
                  11
                  11
                  12
                  12
                  12
                  12
                  11
                  11
                  11
                  11
                  11
                  11
                  11
                  11
                  11
                  11
                  11
                  12
                  12
                  12
                  12
                  12
                  12
                  12
                  12
                  12
                  12
                  11
                  11
                  11
                  11
                  11
                  11
                  11
                  11
                  11
                  11
                  11
                  11
                  11
                  11
                  11
                  12
                  12
                  12
                  12
                  12
                  12
                  12
                  12
                  12
                  12
                  12
                  12
                  11
                  11
                  11
                  11
                  12
                  12
                  11
                  11
                  11
                  11
                  11
                  11
                  11
                  11
                  11
                  11
                  11
                  11
                  11
                  11
                  11
                  11
                  11
                  11
                  11
                  11
                  12
                  12
                  12
                  12
                  11
                  11
                  11
                  11
                  11
                  11
                  11
                  11
                  11
                  11
                  11
                  12
                  12
                  12
                  12
                  12
                  12
                  12
                  12
                  12
                  12
                  11
                  11
                  11
                  11
                  11
                  11
                  11
                  11
                  11
                  11
                  11
                  11
                  11
                  11
                  11
                  12
                  12
                  12
                  12
                  12
                  12
                  12
                  12
                  12
                  12
                  12
                  12
                  11
                  11
                  11
                  11
                  12
                  12
                  11
                  11
                  11
                  11
                  11
                  11
                  11
                  11
                  11
                  11
                  11
                  11
                  11
                  11
                  11
                  11
                  11
                  11
                  11
                  11
                  12
                  12
                  12
                  12
                  11
                  11
                  11
                  11
                  11
                  11
                  11
                  11
                  11
                  11
                  11
                  12
                  12
                  12
                  12
                  12
                  12
                  12
                  12
                  12
                  12
                  11
                  11
                  11
                  11
                  11
                  11
                  11
                  11
                  11
                  11
                  11
                  11
                  11
                  11
                  11
                  12
                  12
                  12
                  12
                  12
                  12
                  12
                  12
                  12
                  12
                  12
                  12
                  11
                  11
                  11
                  11
                  12
                  12
                  11
                  11
                  11
                  11
                  11
                  11
                  11
                  11
                  11
                  11
                  11
                  11
                  11
                  11
                  11
                  11
                  11
                  11
                  11
                  11
                  12
                  12
                  12
                  12
                  11
                  11
                  11
                  11
                  11
                  11
                  11
                  11
                  11
                  11
                  11
                  12
                  12
                  12
                  12
                  12
                  12
                  12
                  12
                  12
                  12
                  11
                  11
                  11
                  11
                  11
                  11
                  11
                  11
                  11
                  11
                  11
                  11
                  11
                  11
                  11
                  12
                  12
                  12
                  12
                  12
                  12
                  12
                  12
                  12
                  12
                  12
                  12
                  11
                  11
                  11
                  11
                  12
                  12
                  11
                  11
                  11
                  11
                  11
                  11
                  11
                  11
                  11
                  11
                  11
                  11
                  11
                  11
                  11
                  11
                  11
                  11
                  11
                  11
                  12
                  12
                  12
                  12
                  11
                  11
                  11
                  11
                  11
                  11
                  11
                  11
                  11
                  11
                  11
                  12
                  12
                  12
                  12
                  12
                  12
                  12
                  12
                  12
                  12
                  11
                  11
                  11
                  11
                  11
                  11
                  11
                  11
                  11
                  11
                  11
                  11
                  11
                  11
                  11
                  12
                  12
                  12
                  12
                  12
                  12
                  12
                  12
                  12
                  12
                  12
                  12
                  11
                  11
                  11
                  11
                  12
                  12
                  11
                  11
                  11
                  11
                  11
                  11
                  11
                  11
                  11
                  11
                  11
                  11
                  11
                  11
                  11
                  11
                  11
                  11
                  11
                  11
                  12
                  12
                  12
                  12
                  11
                  11
                  11
                  11
                  11
                  11
                  11
                  11
                  11
                  11
                  11
                  12
                  12
                  12
                  12
                  12
                  12
                  12
                  12
                  12
                  12
                  11
                  11
                  11
                  11
                  11
                  11
                  11
                  11
                  11
                  11
                  11
                  11
                  11
                  11
                  11
                  12
                  12
                  12
                  12
                  12
  
SCALARS                         Jspace  double 1
LOOKUP_TABLE default
                  11
                  12
                  11
                  11
                  11
                  12
                  11
                  11
                  11
                  11
                  11
                  11
                  12
                  12
                  12
                  12
                  11
                  12
                  11
                  12
                  12
                  12
                  12
                  12
                  12
                  12
                  12
                  12
                  12
                  12
                  11
                  11
                  11
                  11
                  11
                  11
                  11
                  11
                  11
                  11
                  11
                  11
                  11
                  11
                  11
                  11
                  11
                  11
                  11
                  11
                  11
                  11
                  12
                  12
                  12
                  12
                  12
                  11
                  12
                  11
                  11
                  11
                  11
                  11
                  11
                  11
                  11
                  11
                  11
                  12
                  11
                  12
                  12
                  12
                  12
                  12
                  12
                  12
                  12
                  12
                  12
                  12
                  12
                  12
                  11
                  11
                  11
                  11
                  11
                  11
                  11
                  11
                  11
                  11
                  11
                  11
                  11
                  11
                  11
                  11
                  11
                  11
                  11
                  11
                  11
                  11
                  11
                  11
                  12
                  12
                  12
                  12
                  12
                  12
                  12
                  12
                  12
                  12
                  12
                  12
                  12
                  12
                  12
                  12
                  12
                  12
                  12
                  12
                  11
                  11
                  11
                  11
                  11
                  11
                  11
                  11
                  11
                  11
                  11
                  11
                  11
                  11
                  11
                  11
                  11
                  11
                  11
                  11
                  11
                  11
                  11
                  11
                  11
                  11
                  11
                  11
                  11
                  12
                  11
                  11
                  11
                  11
                  12
                  12
                  11
                  12
                  12
                  12
                  12
                  12
                  12
                  11
                  11
                  11
                  11
                  11
                  11
                  11
                  11
                  11
                  11
                  11
                  12
                  12
                  12
                  11
                  11
                  11
                  11
                  11
                  11
                  12
                  12
                  12
                  12
                  12
                  12
                  12
                  11
                  11
                  11
                  11
                  11
                  11
                  11
                  11
                  11
                  11
                  11
                  11
                  12
                  12
                  12
                  12
                  12
                  12
                  12
                  12
                  12
                  12
                  11
                  11
                  11
                  11
                  11
                  11
                  11
                  11
                  11
                  11
                  11
                  11
                  11
                  11
                  11
                  12
                  11
                  11
                  11
                  11
                  12
                  12
                  11
                  12
                  12
                  12
                  12
                  12
                  12
                  11
                  11
                  11
                  11
                  11
                  11
                  11
                  11
                  11
                  11
                  11
                  12
                  12
                  12
                  11
                  11
                  11
                  11
                  11
                  11
                  12
                  12
                  12
                  12
                  12
                  12
                  12
                  11
                  11
                  11
                  11
                  11
                  11
                  11
                  11
                  11
                  11
                  11
                  11
                  12
                  12
                  12
                  12
                  12
                  12
                  12
                  12
                  12
                  12
                  11
                  11
                  11
                  11
                  11
                  11
                  11
                  11
                  11
                  11
                  11
                  11
                  11
                  11
                  11
                  12
                  11
                  11
                  11
                  11
                  12
                  12
                  11
                  12
                  12
                  12
                  12
                  12
                  12
                  11
                  11
                  11
                  11
                  11
                  11
                  11
                  11
                  11
                  11
                  11
                  12
                  12
                  12
                  11
                  11
                  11
                  11
                  11
                  11
                  12
                  12
                  12
                  12
                  12
                  12
                  12
                  11
                  11
                  11
                  11
                  11
                  11
                  11
                  11
                  11
                  11
                  11
                  11
                  12
                  12
                  12
                  12
                  12
                  12
                  12
                  12
                  12
                  12
                  11
                  11
                  11
                  11
                  11
                  11
                  11
                  11
                  11
                  11
                  11
                  11
                  11
                  11
                  11
                  12
                  11
                  11
                  11
                  11
                  12
                  12
                  11
                  12
                  12
                  12
                  12
                  12
                  12
                  11
                  11
                  11
                  11
                  11
                  11
                  11
                  11
                  11
                  11
                  11
                  12
                  12
                  12
                  11
                  11
                  11
                  11
                  11
                  11
                  12
                  12
                  12
                  12
                  12
                  12
                  12
                  11
                  11
                  11
                  11
                  11
                  11
                  11
                  11
                  11
                  11
                  11
                  11
                  12
                  12
                  12
                  12
                  12
                  12
                  12
                  12
                  12
                  12
                  11
                  11
                  11
                  11
                  11
                  11
                  11
                  11
                  11
                  11
                  11
                  11
                  11
                  11
                  11
                  12
                  11
                  11
                  11
                  11
                  12
                  12
                  11
                  12
                  12
                  12
                  12
                  12
                  12
                  11
                  11
                  11
                  11
                  11
                  11
                  11
                  11
                  11
                  11
                  11
                  12
                  12
                  12
                  11
                  11
                  11
                  11
                  11
                  11
                  12
                  12
                  12
                  12
                  12
                  12
                  12
                  11
                  11
                  11
                  11
                  11
                  11
                  11
                  11
                  11
                  11
                  11
                  11
                  12
                  12
                  12
                  12
                  12
                  12
                  12
                  12
                  12
                  12
                  11
                  11
                  11
                  11
                  11
                  11
                  11
                  11
                  11
                  11
                  11
                  11
                  11
                  11
                  11
                  12
                  11
                  11
                  11
                  11
                  12
                  12
                  11
                  12
                  12
                  12
                  12
                  12
                  12
                  11
                  11
                  11
                  11
                  11
                  11
                  11
                  11
                  11
                  11
                  11
                  12
                  12
                  12
                  11
                  11
                  11
                  11
                  11
                  11
                  12
                  12
                  12
                  12
                  12
                  12
                  12
                  11
                  11
                  11
                  11
                  11
                  11
                  11
                  11
                  11
                  11
                  11
                  11
                  12
                  12
                  12
                  12
                  12
                  12
                  12
                  12
                  12
                  12
                  11
                  11
                  11
                  11
                  11
                  11
                  11
                  11
                  11
                  11
                  11
                  11
                  11
                  11
                  11
                  12
                  11
                  11
                  11
                  11
                  12
                  12
                  11
                  12
                  12
                  12
                  12
                  12
                  12
                  11
                  11
                  11
                  11
                  11
                  11
                  11
                  11
                  11
                  11
                  11
                  12
                  12
                  12
                  11
                  11
                  11
                  11
                  11
                  11
                  12
                  12
                  12
                  12
                  12
                  12
                  12
                  11
                  11
                  11
                  11
                  11
                  11
                  11
                  11
                  11
                  11
                  11
                  11
                  12
                  12
                  12
                  12
                  12
                  12
                  12
                  12
                  12
                  12
                  11
                  11
                  11
                  11
                  11
                  11
                  11
                  11
                  11
                  11
                  11
                  11
                  11
                  11
                  11
                  12
                  11
                  11
                  11
                  11
                  12
                  12
                  11
                  12
                  12
                  12
                  12
                  12
                  12
                  11
                  11
                  11
                  11
                  11
                  11
                  11
                  11
                  11
                  11
                  11
                  12
                  12
                  12
                  11
                  11
                  11
                  11
                  11
                  11
                  12
                  12
                  12
                  12
                  12
                  12
                  12
                  11
                  11
                  11
                  11
                  11
                  11
                  11
                  11
                  11
                  11
                  11
                  11
                  12
                  12
                  12
                  12
                  12
                  12
                  12
                  12
                  12
                  12
                  11
                  11
                  11
                  11
                  11
                  11
                  11
                  11
                  11
                  11
                  11
                  11
                  11
                  11
                  11
                  12
                  11
                  11
                  11
                  11
                  12
                  12
                  11
                  12
                  12
                  12
                  12
                  12
                  12
                  11
                  11
                  11
                  11
                  11
                  11
                  11
                  11
                  11
                  11
                  11
                  12
                  12
                  12
                  11
                  11
                  11
                  11
                  11
                  11
                  12
                  12
                  12
                  12
                  12
                  12
                  12
                  11
                  11
                  11
                  11
                  11
                  11
                  11
                  11
                  11
                  11
                  11
                  11
                  12
                  12
                  12
                  12
                  12
                  12
                  12
                  12
                  12
                  12
                  11
                  11
                  11
                  11
                  11
                  11
                  11
                  11
                  11
                  11
                  11
                  11
                  11
                  11
                  11
                  12
                  11
                  11
                  11
                  11
                  12
                  12
                  11
                  12
                  12
                  12
                  12
                  12
                  12
                  11
                  11
                  11
                  11
                  11
                  11
                  11
                  11
                  11
                  11
                  11
                  12
                  12
                  12
                  11
                  11
                  11
                  11
                  11
                  11
                  12
                  12
                  12
                  12
                  12
                  12
                  12
                  11
                  11
                  11
                  11
                  11
                  11
                  11
                  11
                  11
                  11
                  11
                  11
                  12
                  12
                  12
                  12
                  12
                  12
                  12
                  12
                  12
                  12
                  11
                  11
                  11
                  11
                  11
                  11
                  11
                  11
                  11
                  11
                  11
                  11
                  11
                  11
                  11
                  12
                  11
                  11
                  11
                  11
                  12
                  12
                  11
                  12
                  12
                  12
                  12
                  12
                  12
                  11
                  11
                  11
                  11
                  11
                  11
                  11
                  11
                  11
                  11
                  11
                  12
                  12
                  12
                  11
                  11
                  11
                  11
                  11
                  11
                  12
                  12
                  12
                  12
                  12
                  12
                  12
                  11
                  11
                  11
                  11
                  11
                  11
                  11
                  11
                  11
                  11
                  11
                  11
                  12
                  12
                  12
                  12
                  12
                  12
                  12
                  12
                  12
                  12
                  11
                  11
                  11
                  11
                  11
                  11
                  11
                  11
                  11
                  11
                  11
                  11
                  11
                  11
                  11
                  12
                  11
                  11
                  11
                  11
                  12
                  12
                  11
                  12
                  12
                  12
                  12
                  12
                  12
                  11
                  11
                  11
                  11
                  11
                  11
                  11
                  11
                  11
                  11
                  11
                  12
                  12
                  12
                  11
                  11
                  11
                  11
                  11
                  11
                  12
                  12
                  12
                  12
                  12
                  12
                  12
                  11
                  11
                  11
                  11
                  11
                  11
                  11
                  11
                  11
                  11
                  11
                  11
                  12
                  12
                  12
                  12
                  12
                  12
                  12
                  12
                  12
                  12
                  11
                  11
                  11
                  11
                  11
                  11
                  11
                  11
                  11
                  11
                  11
                  11
                  11
                  11
                  11
                  12
                  11
                  11
                  11
                  11
                  12
                  12
                  11
                  12
                  12
                  12
                  12
                  12
                  12
                  11
                  11
                  11
                  11
                  11
                  11
                  11
                  11
                  11
                  11
                  11
                  12
                  12
                  12
                  11
                  11
                  11
                  11
                  11
                  11
                  12
                  12
                  12
                  12
                  12
                  12
                  12
                  11
                  11
                  11
                  11
                  11
                  11
                  11
                  11
                  11
                  11
                  11
                  11
                  12
                  12
                  12
                  12
                  12
                  12
                  12
                  12
                  12
                  12
                  11
                  11
                  11
                  11
                  11
                  11
                  11
                  11
                  11
                  11
                  11
                  11
                  11
                  11
                  11
                  12
                  11
                  11
                  11
                  11
                  12
                  12
                  11
                  12
                  12
                  12
                  12
                  12
                  12
                  11
                  11
                  11
                  11
                  11
                  11
                  11
                  11
                  11
                  11
                  11
                  12
                  12
                  12
                  11
                  11
                  11
                  11
                  11
                  11
                  12
                  12
                  12
                  12
                  12
                  12
                  12
                  11
                  11
                  11
                  11
                  11
                  11
                  11
                  11
                  11
                  11
                  11
                  11
                  12
                  12
                  12
                  12
                  12
                  12
                  12
                  12
                  12
                  12
                  11
                  11
                  11
                  11
                  11
                  11
                  11
                  11
                  11
                  11
                  11
                  11
                  11
                  11
                  11
                  12
                  11
                  11
                  11
                  11
                  12
                  12
                  11
                  12
                  12
                  12
                  12
                  12
                  12
                  11
                  11
                  11
                  11
                  11
                  11
                  11
                  11
                  11
                  11
                  11
                  12
                  12
                  12
                  11
                  11
                  11
                  11
                  11
                  11
                  12
                  12
                  12
                  12
                  12
                  12
                  12
                  11
                  11
                  11
                  11
                  11
                  11
                  11
                  11
                  11
                  11
                  11
                  11
                  12
                  12
                  12
                  12
                  12
                  12
                  12
                  12
                  12
                  12
                  11
                  11
                  11
                  11
                  11
                  11
                  11
                  11
                  11
                  11
                  11
                  11
                  11
                  11
                  11
                  12
                  11
                  11
                  11
                  11
                  12
                  12
                  11
                  12
                  12
                  12
                  12
                  12
                  12
                  11
                  11
                  11
                  11
                  11
                  11
                  11
                  11
                  11
                  11
                  11
                  12
                  12
                  12
                  11
                  11
                  11
                  11
                  11
                  11
                  12
                  12
                  12
                  12
                  12
                  12
                  12
                  11
                  11
                  11
                  11
                  11
                  11
                  11
                  11
                  11
                  11
                  11
                  11
                  12
                  12
                  12
                  12
                  12
                  12
                  12
                  12
                  12
                  12
                  11
                  11
                  11
                  11
                  11
                  11
                  11
                  11
                  11
                  11
                  11
                  11
                  11
                  11
                  11
                  12
                  11
                  11
                  11
                  11
                  12
                  12
                  11
                  12
                  12
                  12
                  12
                  12
                  12
                  11
                  11
                  11
                  11
                  11
                  11
                  11
                  11
                  11
                  11
                  11
                  12
                  12
                  12
                  11
                  11
                  11
                  11
                  11
                  11
                  12
                  12
                  12
                  12
                  12
                  12
                  12
                  11
                  11
                  11
                  11
                  11
                  11
                  11
                  11
                  11
                  11
                  11
                  11
                  12
                  12
                  12
                  12
                  12
                  12
                  12
                  12
                  12
                  12
                  11
                  11
                  11
                  11
                  11
                  11
                  11
                  11
                  11
                  11
                  11
                  11
                  11
                  11
                  11
                  12
                  11
                  11
                  11
                  11
                  12
                  12
                  11
                  12
                  12
                  12
                  12
                  12
                  12
                  11
                  11
                  11
                  11
                  11
                  11
                  11
                  11
                  11
                  11
                  11
                  12
                  12
                  12
                  11
                  11
                  11
                  11
                  11
                  11
                  12
                  12
                  12
                  12
                  12
                  12
                  12
                  11
                  11
                  11
                  11
                  11
                  11
                  11
                  11
                  11
                  11
                  11
                  11
                  12
                  12
                  12
                  12
                  12
                  12
                  12
                  12
                  12
                  12
                  11
                  11
                  11
                  11
                  11
                  11
                  11
                  11
                  11
                  11
                  11
                  11
                  11
                  11
                  11
                  12
                  11
                  11
                  11
                  11
                  12
                  12
                  11
                  12
                  12
                  12
                  12
                  12
                  12
                  11
                  11
                  11
                  11
                  11
                  11
                  11
                  11
                  11
                  11
                  11
                  12
                  12
                  12
                  11
                  11
                  11
                  11
                  11
                  11
                  12
                  12
                  12
                  12
                  12
                  12
                  12
                  11
                  11
                  11
                  11
                  11
                  11
                  11
                  11
                  11
                  11
                  11
                  11
                  12
                  12
                  12
                  12
                  12
                  12
                  12
                  12
                  12
                  12
                  11
                  11
                  11
                  11
                  11
                  11
                  11
                  11
                  11
                  11
                  11
                  11
                  11
                  11
                  11
                  12
                  11
                  11
                  11
                  11
                  12
                  12
                  11
                  12
                  12
                  12
                  12
                  12
                  12
                  11
                  11
                  11
                  11
                  11
                  11
                  11
                  11
                  11
                  11
                  11
                  12
                  12
                  12
                  11
                  11
                  11
                  11
                  11
                  11
                  12
                  12
                  12
                  12
                  12
                  12
                  12
                  11
                  11
                  11
                  11
                  11
                  11
                  11
                  11
                  11
                  11
                  11
                  11
                  12
                  12
                  12
                  12
                  12
                  12
                  12
                  12
                  12
                  12
                  11
                  11
                  11
                  11
                  11
                  11
                  11
                  11
                  11
                  11
                  11
                  11
                  11
                  11
                  11
                  12
                  11
                  11
                  11
                  11
                  12
                  12
                  11
                  12
                  12
                  12
                  12
                  12
                  12
                  11
                  11
                  11
                  11
                  11
                  11
                  11
                  11
                  11
                  11
                  11
                  12
                  12
                  12
                  11
                  11
                  11
                  11
                  11
                  11
                  12
                  12
                  12
                  12
                  12
                  12
                  12
                  11
                  11
                  11
                  11
                  11
                  11
                  11
                  11
                  11
                  11
                  11
                  11
                  12
                  12
                  12
                  12
                  12
                  12
                  12
                  12
                  12
                  12
                  11
                  11
                  11
                  11
                  11
                  11
                  11
                  11
                  11
                  11
                  11
                  11
                  11
                  11
                  11
                  12
                  11
                  11
                  11
                  11
                  12
                  12
                  11
                  12
                  12
                  12
                  12
                  12
                  12
                  11
                  11
                  11
                  11
                  11
                  11
                  11
                  11
                  11
                  11
                  11
                  12
                  12
                  12
                  11
                  11
                  11
                  11
                  11
                  11
                  12
                  12
                  12
                  12
                  12
                  12
                  12
                  11
                  11
                  11
                  11
                  11
                  11
                  11
                  11
                  11
                  11
                  11
                  11
                  12
                  12
                  12
                  12
                  12
                  12
                  12
                  12
                  12
                  12
                  11
                  11
                  11
                  11
                  11
                  11
                  11
                  11
                  11
                  11
                  11
                  11
                  11
                  11
                  11
                  12
                  11
                  11
                  11
                  11
                  12
                  12
                  11
                  12
                  12
                  12
                  12
                  12
                  12
                  11
                  11
                  11
                  11
                  11
                  11
                  11
                  11
                  11
                  11
                  11
                  12
                  12
                  12
                  11
                  11
                  11
                  11
                  11
                  11
                  12
                  12
                  12
                  12
                  12
                  12
                  12
                  11
                  11
                  11
                  11
                  11
                  11
                  11
                  11
                  11
                  11
                  11
                  11
                  12
                  12
                  12
                  12
                  12
                  12
                  12
                  12
                  12
                  12
                  11
                  11
                  11
                  11
                  11
                  11
                  11
                  11
                  11
                  11
                  11
                  11
                  11
                  11
  
SCALARS                         Kspace  double 1
LOOKUP_TABLE default
                  11
                  11
                  11
                  11
                  11
                  11
                  11
                  11
                  11
                  11
                  11
                  11
                  11
                  11
                  11
                  11
                  11
                  11
                  11
                  11
                  11
                  11
                  11
                  11
                  11
                  11
                  11
                  11
                  11
                  11
                  11
                  11
                  11
                  11
                  11
                  11
                  11
                  11
                  11
                  11
                  11
                  11
                  11
                  11
                  11
                  11
                  11
                  11
                  11
                  11
                  11
                  11
                  11
                  11
                  11
                  11
                  11
                  11
                  11
                  11
                  11
                  11
                  11
                  11
                  11
                  11
                  11
                  11
                  11
                  11
                  11
                  11
                  11
                  11
                  11
                  11
                  11
                  11
                  11
                  11
                  11
                  11
                  11
                  11
                  11
                  11
                  11
                  11
                  11
                  11
                  11
                  11
                  11
                  11
                  11
                  11
                  11
                  11
                  11
                  11
                  11
                  11
                  11
                  11
                  11
                  11
                  11
                  11
                  11
                  11
                  11
                  11
                  11
                  11
                  11
                  11
                  11
                  11
                  11
                  11
                  11
                  11
                  11
                  11
                  11
                  11
                  11
                  11
                  11
                  11
                  11
                  11
                  11
                  11
                  11
                  11
                  11
                  11
                  11
                  11
                  11
                  11
                  11
                  11
                  11
                  11
                  11
                  11
                  11
                  11
                  11
                  11
                  11
                  11
                  11
                  11
                  11
                  11
                  11
                  11
                  11
                  11
                  11
                  11
                  11
                  11
                  11
                  11
                  11
                  11
                  11
                  11
                  11
                  11
                  11
                  11
                  11
                  11
                  11
                  11
                  11
                  11
                  11
                  11
                  11
                  11
                  11
                  11
                  11
                  11
                  11
                  11
                  11
                  11
                  11
                  11
                  11
                  11
                  11
                  11
                  11
                  11
                  11
                  11
                  11
                  11
                  11
                  11
                  11
                  11
                  11
                  11
                  11
                  11
                  11
                  11
                  11
                  11
                  11
                  11
                  11
                  11
                  11
                  11
                  11
                  11
                  11
                  11
                  11
                  11
                  11
                  11
                  11
                  11
                  11
                  11
                  11
                  11
                  11
                  11
                  11
                  11
                  11
                  11
                  11
                  11
                  11
                  11
                  11
                  11
                  11
                  11
                  11
                  11
                  11
                  11
                  11
                  11
                  11
                  11
                  11
                  11
                  11
                  11
                  11
                  11
                  11
                  11
                  11
                  11
                  11
                  11
                  11
                  11
                  11
                  11
                  11
                  11
                  11
                  11
                  11
                  11
                  11
                  11
                  11
                  11
                  11
                  11
                  11
                  11
                  11
                  11
                  11
                  11
                  11
                  11
                  11
                  11
                  11
                  11
                  11
                  11
                  11
                  11
                  11
                  11
                  11
                  11
                  11
                  11
                  11
                  11
                  12
                  12
                  12
                  12
                  12
                  12
                  12
                  12
                  12
                  12
                  12
                  12
                  12
                  12
                  12
                  12
                  12
                  12
                  12
                  12
                  12
                  12
                  12
                  12
                  12
                  12
                  12
                  12
                  12
                  12
                  12
                  12
                  12
                  12
                  12
                  12
                  12
                  12
                  12
                  12
                  12
                  12
                  12
                  12
                  12
                  12
                  12
                  12
                  12
                  12
                  12
                  12
                  12
                  12
                  12
                  12
                  12
                  12
                  12
                  12
                  12
                  12
                  12
                  12
                  12
                  12
                  12
                  12
                  12
                  12
                  12
                  12
                  12
                  12
                  12
                  12
                  12
                  12
                  12
                  12
                  12
                  12
                  12
                  12
                  12
                  12
                  12
                  12
                  12
                  12
                  12
                  12
                  12
                  12
                  12
                  12
                  12
                  12
                  12
                  12
                  12
                  12
                  12
                  12
                  12
                  12
                  12
                  12
                  12
                  12
                  12
                  12
                  12
                  12
                  12
                  12
                  12
                  12
                  12
                  12
                  12
                  12
                  12
                  12
                  12
                  12
                  12
                  12
                  12
                  12
                  12
                  12
                  12
                  12
                  12
                  12
                  12
                  12
                  12
                  12
                  12
                  12
                  12
                  12
                  12
                  12
                  12
                  12
                  12
                  12
                  12
                  12
                  12
                  12
                  12
                  12
                  12
                  12
                  12
                  12
                  12
                  12
                  12
                  12
                  12
                  12
                  12
                  12
                  12
                  12
                  12
                  12
                  12
                  12
                  12
                  12
                  12
                  12
                  12
                  12
                  12
                  12
                  12
                  12
                  12
                  12
                  12
                  12
                  12
                  12
                  12
                  12
                  12
                  12
                  12
                  12
                  12
                  12
                  12
                  12
                  12
                  12
                  12
                  12
                  12
                  12
                  12
                  12
                  12
                  12
                  12
                  12
                  12
                  12
                  12
                  12
                  12
                  12
                  12
                  12
                  12
                  12
                  12
                  12
                  12
                  12
                  12
                  12
                  12
                  12
                  12
                  12
                  12
                  12
                  13
                  13
                  13
                  13
                  13
                  13
                  13
                  13
                  13
                  13
                  13
                  13
                  13
                  13
                  13
                  13
                  13
                  13
                  13
                  13
                  13
                  13
                  13
                  13
                  13
                  13
                  13
                  13
                  13
                  13
                  13
                  13
                  13
                  13
                  13
                  13
                  13
                  13
                  13
                  13
                  13
                  13
                  13
                  13
                  13
                  13
                  13
                  13
                  13
                  13
                  13
                  13
                  13
                  13
                  13
                  13
                  13
                  13
                  13
                  13
                  13
                  13
                  13
                  13
                  13
                  13
                  13
                  13
                  13
                  13
                  13
                  13
                  13
                  13
                  13
                  13
                  13
                  13
                  13
                  13
                  13
                  13
                  13
                  13
                  13
                  13
                  13
                  13
                  13
                  13
                  13
                  13
                  13
                  13
                  13
                  13
                  13
                  13
                  13
                  13
                  13
                  13
                  13
                  13
                  13
                  13
                  13
                  13
                  13
                  13
                  13
                  13
                  13
                  13
                  13
                  13
                  13
                  13
                  13
                  13
                  13
                  13
                  13
                  13
                  13
                  13
                  13
                  13
                  13
                  13
                  13
                  13
                  13
                  13
                  13
                  13
                  13
                  13
                  13
                  13
                  13
                  13
                  13
                  13
                  13
                  13
                  13
                  13
                  13
                  13
                  13
                  13
                  13
                  13
                  13
                  13
                  13
                  13
                  13
                  13
                  13
                  13
                  13
                  13
                  13
                  13
                  13
                  13
                  13
                  13
                  13
                  13
                  13
                  13
                  13
                  13
                  13
                  13
                  13
                  13
                  13
                  13
                  13
                  13
                  13
                  13
                  13
                  13
                  13
                  13
                  13
                  13
                  13
                  13
                  13
                  13
                  13
                  13
                  13
                  13
                  13
                  13
                  13
                  13
                  13
                  13
                  13
                  13
                  13
                  13
                  13
                  13
                  13
                  13
                  13
                  13
                  13
                  13
                  13
                  13
                  13
                  13
                  13
                  13
                  13
                  13
                  13
                  13
                  13
                  13
                  13
                  13
                  13
                  13
                  14
                  14
                  14
                  14
                  14
                  14
                  14
                  14
                  14
                  14
                  14
                  14
                  14
                  14
                  14
                  14
                  14
                  14
                  14
                  14
                  14
                  14
                  14
                  14
                  14
                  14
                  14
                  14
                  14
                  14
                  14
                  14
                  14
                  14
                  14
                  14
                  14
                  14
                  14
                  14
                  14
                  14
                  14
                  14
                  14
                  14
                  14
                  14
                  14
                  14
                  14
                  14
                  14
                  14
                  14
                  14
                  14
                  14
                  14
                  14
                  14
                  14
                  14
                  14
                  14
                  14
                  14
                  14
                  14
                  14
                  14
                  14
                  14
                  14
                  14
                  14
                  14
                  14
                  14
                  14
                  14
                  14
                  14
                  14
                  14
                  14
                  14
                  14
                  14
                  14
                  14
                  14
                  14
                  14
                  14
                  14
                  14
                  14
                  14
                  14
                  14
                  14
                  14
                  14
                  14
                  14
                  14
                  14
                  14
                  14
                  14
                  14
                  14
                  14
                  14
                  14
                  14
                  14
                  14
                  14
                  14
                  14
                  14
                  14
                  14
                  14
                  14
                  14
                  14
                  14
                  14
                  14
                  14
                  14
                  14
                  14
                  14
                  14
                  14
                  14
                  14
                  14
                  14
                  14
                  14
                  14
                  14
                  14
                  14
                  14
                  14
                  14
                  14
                  14
                  14
                  14
                  14
                  14
                  14
                  14
                  14
                  14
                  14
                  14
                  14
                  14
                  14
                  14
                  14
                  14
                  14
                  14
                  14
                  14
                  14
                  14
                  14
                  14
                  14
                  14
                  14
                  14
                  14
                  14
                  14
                  14
                  14
                  14
                  14
                  14
                  14
                  14
                  14
                  14
                  14
                  14
                  14
                  14
                  14
                  14
                  14
                  14
                  14
                  14
                  14
                  14
                  14
                  14
                  14
                  14
                  14
                  14
                  14
                  14
                  14
                  14
                  14
                  14
                  14
                  14
                  14
                  14
                  14
                  14
                  14
                  14
                  14
                  14
                  14
                  14
                  14
                  14
                  14
                  14
                  15
                  15
                  15
                  15
                  15
                  15
                  15
                  15
                  15
                  15
                  15
                  15
                  15
                  15
                  15
                  15
                  15
                  15
                  15
                  15
                  15
                  15
                  15
                  15
                  15
                  15
                  15
                  15
                  15
                  15
                  15
                  15
                  15
                  15
                  15
                  15
                  15
                  15
                  15
                  15
                  15
                  15
                  15
                  15
                  15
                  15
                  15
                  15
                  15
                  15
                  15
                  15
                  15
                  15
                  15
                  15
                  15
                  15
                  15
                  15
                  15
                  15
                  15
                  15
                  15
                  15
                  15
                  15
                  15
                  15
                  15
                  15
                  15
                  15
                  15
                  15
                  15
                  15
                  15
                  15
                  15
                  15
                  15
                  15
                  15
                  15
                  15
                  15
                  15
                  15
                  15
                  15
                  15
                  15
                  15
                  15
                  15
                  15
                  15
                  15
                  15
                  15
                  15
                  15
                  15
                  15
                  15
                  15
                  15
                  15
                  15
                  15
                  15
                  15
                  15
                  15
                  15
                  15
                  15
                  15
                  15
                  15
                  15
                  15
                  15
                  15
                  15
                  15
                  15
                  15
                  15
                  15
                  15
                  15
                  15
                  15
                  15
                  15
                  15
                  15
                  15
                  15
                  15
                  15
                  15
                  15
                  15
                  15
                  15
                  15
                  15
                  15
                  15
                  15
                  15
                  15
                  15
                  15
                  15
                  15
                  15
                  15
                  15
                  15
                  15
                  15
                  15
                  15
                  15
                  15
                  15
                  15
                  15
                  15
                  15
                  15
                  15
                  15
                  15
                  15
                  15
                  15
                  15
                  15
                  15
                  15
                  15
                  15
                  15
                  15
                  15
                  15
                  15
                  15
                  15
                  15
                  15
                  15
                  15
                  15
                  15
                  15
                  15
                  15
                  15
                  15
                  15
                  15
                  15
                  15
                  15
                  15
                  15
                  15
                  15
                  15
                  15
                  15
                  15
                  15
                  15
                  15
                  15
                  15
                  15
                  15
                  15
                  15
                  15
                  15
                  15
                  15
                  15
                  15
                  15
                  15
                  15
                  15
                  15
                  15
                  15
                  15
                  15
                  15
                  15
                  15
                  15
                  15
                  15
                  15
                  15
                  15
                  15
                  15
                  15
                  15
                  15
                  15
                  15
                  15
                  15
                  15
                  15
                  15
                  15
                  15
                  15
                  15
                  15
                  15
                  15
                  15
                  15
                  15
                  15
                  15
                  15
                  15
                  15
                  15
                  15
                  15
                  15
                  15
                  15
                  15
                  15
                  15
                  15
                  15
                  15
                  15
                  15
                  15
                  15
                  15
                  15
                  15
                  15
                  15
                  15
                  15
                  15
                  15
                  15
                  15
                  15
                  15
                  15
                  15
                  15
                  15
                  16
                  16
                  16
                  16
                  16
                  16
                  16
                  16
                  16
                  16
                  16
                  16
                  16
                  16
                  16
                  16
                  16
                  16
                  16
                  16
                  16
                  16
                  16
                  16
                  16
                  16
                  16
                  16
                  16
                  16
                  16
                  16
                  16
                  16
                  16
                  16
                  16
                  16
                  16
                  16
                  16
                  16
                  16
                  16
                  16
                  16
                  16
                  16
                  16
                  16
                  16
                  16
                  16
                  16
                  16
                  16
                  16
                  16
                  16
                  16
                  16
                  16
                  16
                  16
                  16
                  16
                  16
                  16
                  16
                  16
                  16
                  16
                  16
                  16
                  16
                  16
                  16
                  16
                  16
                  16
                  16
                  16
                  16
                  16
                  16
                  16
                  16
                  16
                  16
                  16
                  16
                  16
                  16
                  16
                  16
                  16
                  16
                  16
                  16
                  16
                  16
                  16
                  16
                  16
                  16
                  16
                  16
                  16
                  16
                  16
                  16
                  16
                  16
                  16
                  16
                  16
                  16
                  16
                  16
                  16
                  16
                  16
                  16
                  16
                  16
                  16
                  16
                  16
                  16
                  16
                  16
                  16
                  16
                  16
                  16
                  16
                  16
                  16
                  16
                  16
                  16
                  16
                  16
                  16
                  16
                  16
                  16
                  16
                  16
                  16
                  16
                  16
                  16
                  16
                  16
                  16
                  16
                  16
                  16
                  16
                  16
                  16
                  16
                  16
                  16
                  16
                  16
                  16
                  16
                  16
                  16
                  16
                  16
                  16
                  16
                  16
                  16
                  16
                  16
                  16
                  16
                  16
                  16
                  16
                  16
                  16
                  16
                  16
                  16
                  16
                  16
                  16
                  16
                  16
                  16
                  16
                  16
                  16
                  16
                  16
                  16
                  16
                  16
                  16
                  16
                  16
                  16
                  16
                  16
                  16
                  16
                  16
                  16
                  16
                  16
                  16
                  16
                  16
                  16
                  16
                  16
                  16
                  16
                  16
                  16
                  16
                  16
                  16
                  16
                  16
                  16
                  16
                  16
                  16
                  17
                  17
                  17
                  17
                  17
                  17
                  17
                  17
                  17
                  17
                  17
                  17
                  17
                  17
                  17
                  17
                  17
                  17
                  17
                  17
                  17
                  17
                  17
                  17
                  17
                  17
                  17
                  17
                  17
                  17
                  17
                  17
                  17
                  17
                  17
                  17
                  17
                  17
                  17
                  17
                  17
                  17
                  17
                  17
                  17
                  17
                  17
                  17
                  17
                  17
                  17
                  17
                  17
                  17
                  17
                  17
                  17
                  17
                  17
                  17
                  17
                  17
                  17
                  17
                  17
                  17
                  17
                  17
                  17
                  17
                  17
                  17
                  17
                  17
                  17
                  17
                  17
                  17
                  17
                  17
                  17
                  17
                  17
                  17
                  17
                  17
                  17
                  17
                  17
                  17
                  17
                  17
                  17
                  17
                  17
                  17
                  17
                  17
                  17
                  17
                  17
                  17
                  17
                  17
                  17
                  17
                  17
                  17
                  17
                  17
                  17
                  17
                  17
                  17
                  17
                  17
                  17
                  17
                  17
                  17
                  17
                  17
                  17
                  17
                  17
                  17
                  17
                  17
                  17
                  17
                  17
                  17
                  17
                  17
                  17
                  17
                  17
                  17
                  17
                  17
                  17
                  17
                  17
                  17
                  17
                  17
                  17
                  17
                  17
                  17
                  17
                  17
                  17
                  17
                  17
                  17
                  17
                  17
                  17
                  17
                  17
                  17
                  17
                  17
                  17
                  17
                  17
                  17
                  17
                  17
                  17
                  17
                  17
                  17
                  17
                  17
                  17
                  17
                  17
                  17
                  17
                  17
                  17
                  17
                  17
                  17
                  17
                  17
                  17
                  17
                  17
                  17
                  17
                  17
                  17
                  17
                  17
                  17
                  17
                  17
                  17
                  17
                  17
                  17
                  17
                  17
                  17
                  17
                  17
                  17
                  17
                  17
                  17
                  17
                  17
                  17
                  17
                  17
                  17
                  17
                  17
                  17
                  17
                  17
                  17
                  17
                  17
                  17
                  17
                  17
                  17
                  17
                  17
                  17
                  18
                  18
                  18
                  18
                  18
                  18
                  18
                  18
                  18
                  18
                  18
                  18
                  18
                  18
                  18
                  18
                  18
                  18
                  18
                  18
                  18
                  18
                  18
                  18
                  18
                  18
                  18
                  18
                  18
                  18
                  18
                  18
                  18
                  18
                  18
                  18
                  18
                  18
                  18
                  18
                  18
                  18
                  18
                  18
                  18
                  18
                  18
                  18
                  18
                  18
                  18
                  18
                  18
                  18
                  18
                  18
                  18
                  18
                  18
                  18
                  18
                  18
                  18
                  18
                  18
                  18
                  18
                  18
                  18
                  18
                  18
                  18
                  18
                  18
                  18
                  18
                  18
                  18
                  18
                  18
                  18
                  18
                  18
                  18
                  18
                  18
                  18
                  18
                  18
                  18
                  18
                  18
                  18
                  18
                  18
                  18
                  18
                  18
                  18
                  18
                  18
                  18
                  18
                  18
                  18
                  18
                  18
                  18
                  18
                  18
                  18
                  18
                  18
                  18
                  18
                  18
                  18
                  18
                  18
                  18
                  18
                  18
                  18
                  18
                  18
                  18
                  18
                  18
                  18
                  18
                  18
                  18
                  18
                  18
                  18
                  18
                  18
                  18
                  18
                  18
                  18
                  18
                  18
                  18
                  18
                  18
                  18
                  18
                  18
                  18
                  18
                  18
                  18
                  18
                  18
                  18
  
SCALARS                 displacement_x  double 1
LOOKUP_TABLE default
         0.00000E+00
         0.00000E+00
         0.00000E+00
         0.00000E+00
         0.00000E+00
         0.00000E+00
         0.00000E+00
         0.00000E+00
         0.00000E+00
         0.00000E+00
         0.00000E+00
         0.00000E+00
         0.00000E+00
         0.00000E+00
         0.00000E+00
         0.00000E+00
         0.00000E+00
         0.00000E+00
         0.00000E+00
         0.00000E+00
         0.00000E+00
         0.00000E+00
         0.00000E+00
         0.00000E+00
         0.00000E+00
         0.00000E+00
         0.00000E+00
         0.00000E+00
         0.00000E+00
         0.00000E+00
         0.00000E+00
         0.00000E+00
         0.00000E+00
         0.00000E+00
         0.00000E+00
         0.00000E+00
         0.00000E+00
         0.00000E+00
         0.00000E+00
         0.00000E+00
         0.00000E+00
         0.00000E+00
         0.00000E+00
         0.00000E+00
         0.00000E+00
         0.00000E+00
         0.00000E+00
         0.00000E+00
         0.00000E+00
         0.00000E+00
         0.00000E+00
         0.00000E+00
         0.00000E+00
         0.00000E+00
         0.00000E+00
         0.00000E+00
         0.00000E+00
         0.00000E+00
         0.00000E+00
         0.00000E+00
         0.00000E+00
         0.00000E+00
         0.00000E+00
         0.00000E+00
         0.00000E+00
         0.00000E+00
         0.00000E+00
         0.00000E+00
         0.00000E+00
         0.00000E+00
         0.00000E+00
         0.00000E+00
         0.00000E+00
         0.00000E+00
         0.00000E+00
         0.00000E+00
         0.00000E+00
         0.00000E+00
         0.00000E+00
         0.00000E+00
         0.00000E+00
         0.00000E+00
         0.00000E+00
         0.00000E+00
         0.00000E+00
         0.00000E+00
         0.00000E+00
         0.00000E+00
         0.00000E+00
         0.00000E+00
         0.00000E+00
         0.00000E+00
         0.00000E+00
         0.00000E+00
         0.00000E+00
         0.00000E+00
         0.00000E+00
         0.00000E+00
         0.00000E+00
         0.00000E+00
         0.00000E+00
         0.00000E+00
         0.00000E+00
         0.00000E+00
         0.00000E+00
         0.00000E+00
         0.00000E+00
         0.00000E+00
         0.00000E+00
         0.00000E+00
         0.00000E+00
         0.00000E+00
         0.00000E+00
         0.00000E+00
         0.00000E+00
         0.00000E+00
         0.00000E+00
         0.00000E+00
         0.00000E+00
         0.00000E+00
         0.00000E+00
         0.00000E+00
         0.00000E+00
         0.00000E+00
         0.00000E+00
         0.00000E+00
         0.00000E+00
         0.00000E+00
         0.00000E+00
         0.00000E+00
         0.00000E+00
         0.00000E+00
         0.00000E+00
         0.00000E+00
         0.00000E+00
         0.00000E+00
         0.00000E+00
         0.00000E+00
         0.00000E+00
         0.00000E+00
         0.00000E+00
         0.00000E+00
         0.00000E+00
         0.00000E+00
         0.00000E+00
         0.00000E+00
         0.00000E+00
         0.00000E+00
         0.00000E+00
         0.00000E+00
         0.00000E+00
         0.00000E+00
         0.00000E+00
         0.00000E+00
         0.00000E+00
         0.00000E+00
         0.00000E+00
         0.00000E+00
         0.00000E+00
         0.00000E+00
         0.00000E+00
         0.00000E+00
         0.00000E+00
         0.00000E+00
         0.00000E+00
         0.00000E+00
         0.00000E+00
         0.00000E+00
         0.00000E+00
         0.00000E+00
         0.00000E+00
         0.00000E+00
         0.00000E+00
         0.00000E+00
         0.00000E+00
         0.00000E+00
         0.00000E+00
         0.00000E+00
         0.00000E+00
         0.00000E+00
         0.00000E+00
         0.00000E+00
         0.00000E+00
         0.00000E+00
         0.00000E+00
         0.00000E+00
         0.00000E+00
         0.00000E+00
         0.00000E+00
         0.00000E+00
         0.00000E+00
         0.00000E+00
         0.00000E+00
         0.00000E+00
         0.00000E+00
         0.00000E+00
         0.00000E+00
         0.00000E+00
         0.00000E+00
         0.00000E+00
         0.00000E+00
         0.00000E+00
         0.00000E+00
         0.00000E+00
         0.00000E+00
         0.00000E+00
         0.00000E+00
         0.00000E+00
         0.00000E+00
         0.00000E+00
         0.00000E+00
         0.00000E+00
         0.00000E+00
         0.00000E+00
         0.00000E+00
         0.00000E+00
         0.00000E+00
         0.00000E+00
         0.00000E+00
         0.00000E+00
         0.00000E+00
         0.00000E+00
         0.00000E+00
         0.00000E+00
         0.00000E+00
         0.00000E+00
         0.00000E+00
         0.00000E+00
         0.00000E+00
         0.00000E+00
         0.00000E+00
         0.00000E+00
         0.00000E+00
         0.00000E+00
         0.00000E+00
         0.00000E+00
         0.00000E+00
         0.00000E+00
         0.00000E+00
         0.00000E+00
         0.00000E+00
         0.00000E+00
         0.00000E+00
         0.00000E+00
         0.00000E+00
         0.00000E+00
         0.00000E+00
         0.00000E+00
         0.00000E+00
         0.00000E+00
         0.00000E+00
         0.00000E+00
         0.00000E+00
         0.00000E+00
         0.00000E+00
         0.00000E+00
         0.00000E+00
         0.00000E+00
         0.00000E+00
         0.00000E+00
         0.00000E+00
         0.00000E+00
         0.00000E+00
         0.00000E+00
         0.00000E+00
         0.00000E+00
         0.00000E+00
         0.00000E+00
         0.00000E+00
         0.00000E+00
         0.00000E+00
         0.00000E+00
         0.00000E+00
         0.00000E+00
         0.00000E+00
         0.00000E+00
         0.00000E+00
         0.00000E+00
         0.00000E+00
         0.00000E+00
         0.00000E+00
         0.00000E+00
         0.00000E+00
         0.00000E+00
         0.00000E+00
         0.00000E+00
         0.00000E+00
         0.00000E+00
         0.00000E+00
         0.00000E+00
         0.00000E+00
         0.00000E+00
         0.00000E+00
         0.00000E+00
         0.00000E+00
         0.00000E+00
         0.00000E+00
         0.00000E+00
         0.00000E+00
         0.00000E+00
         0.00000E+00
         0.00000E+00
         0.00000E+00
         0.00000E+00
         0.00000E+00
         0.00000E+00
         0.00000E+00
         0.00000E+00
         0.00000E+00
         0.00000E+00
         0.00000E+00
         0.00000E+00
         0.00000E+00
         0.00000E+00
         0.00000E+00
         0.00000E+00
         0.00000E+00
         0.00000E+00
         0.00000E+00
         0.00000E+00
         0.00000E+00
         0.00000E+00
         0.00000E+00
         0.00000E+00
         0.00000E+00
         0.00000E+00
         0.00000E+00
         0.00000E+00
         0.00000E+00
         0.00000E+00
         0.00000E+00
         0.00000E+00
         0.00000E+00
         0.00000E+00
         0.00000E+00
         0.00000E+00
         0.00000E+00
         0.00000E+00
         0.00000E+00
         0.00000E+00
         0.00000E+00
         0.00000E+00
         0.00000E+00
         0.00000E+00
         0.00000E+00
         0.00000E+00
         0.00000E+00
         0.00000E+00
         0.00000E+00
         0.00000E+00
         0.00000E+00
         0.00000E+00
         0.00000E+00
         0.00000E+00
         0.00000E+00
         0.00000E+00
         0.00000E+00
         0.00000E+00
         0.00000E+00
         0.00000E+00
         0.00000E+00
         0.00000E+00
         0.00000E+00
         0.00000E+00
         0.00000E+00
         0.00000E+00
         0.00000E+00
         0.00000E+00
         0.00000E+00
         0.00000E+00
         0.00000E+00
         0.00000E+00
         0.00000E+00
         0.00000E+00
         0.00000E+00
         0.00000E+00
         0.00000E+00
         0.00000E+00
         0.00000E+00
         0.00000E+00
         0.00000E+00
         0.00000E+00
         0.00000E+00
         0.00000E+00
         0.00000E+00
         0.00000E+00
         0.00000E+00
         0.00000E+00
         0.00000E+00
         0.00000E+00
         0.00000E+00
         0.00000E+00
         0.00000E+00
         0.00000E+00
         0.00000E+00
         0.00000E+00
         0.00000E+00
         0.00000E+00
         0.00000E+00
         0.00000E+00
         0.00000E+00
         0.00000E+00
         0.00000E+00
         0.00000E+00
         0.00000E+00
         0.00000E+00
         0.00000E+00
         0.00000E+00
         0.00000E+00
         0.00000E+00
         0.00000E+00
         0.00000E+00
         0.00000E+00
         0.00000E+00
         0.00000E+00
         0.00000E+00
         0.00000E+00
         0.00000E+00
         0.00000E+00
         0.00000E+00
         0.00000E+00
         0.00000E+00
         0.00000E+00
         0.00000E+00
         0.00000E+00
         0.00000E+00
         0.00000E+00
         0.00000E+00
         0.00000E+00
         0.00000E+00
         0.00000E+00
         0.00000E+00
         0.00000E+00
         0.00000E+00
         0.00000E+00
         0.00000E+00
         0.00000E+00
         0.00000E+00
         0.00000E+00
         0.00000E+00
         0.00000E+00
         0.00000E+00
         0.00000E+00
         0.00000E+00
         0.00000E+00
         0.00000E+00
         0.00000E+00
         0.00000E+00
         0.00000E+00
         0.00000E+00
         0.00000E+00
         0.00000E+00
         0.00000E+00
         0.00000E+00
         0.00000E+00
         0.00000E+00
         0.00000E+00
         0.00000E+00
         0.00000E+00
         0.00000E+00
         0.00000E+00
         0.00000E+00
         0.00000E+00
         0.00000E+00
         0.00000E+00
         0.00000E+00
         0.00000E+00
         0.00000E+00
         0.00000E+00
         0.00000E+00
         0.00000E+00
         0.00000E+00
         0.00000E+00
         0.00000E+00
         0.00000E+00
         0.00000E+00
         0.00000E+00
         0.00000E+00
         0.00000E+00
         0.00000E+00
         0.00000E+00
         0.00000E+00
         0.00000E+00
         0.00000E+00
         0.00000E+00
         0.00000E+00
         0.00000E+00
         0.00000E+00
         0.00000E+00
         0.00000E+00
         0.00000E+00
         0.00000E+00
         0.00000E+00
         0.00000E+00
         0.00000E+00
         0.00000E+00
         0.00000E+00
         0.00000E+00
         0.00000E+00
         0.00000E+00
         0.00000E+00
         0.00000E+00
         0.00000E+00
         0.00000E+00
         0.00000E+00
         0.00000E+00
         0.00000E+00
         0.00000E+00
         0.00000E+00
         0.00000E+00
         0.00000E+00
         0.00000E+00
         0.00000E+00
         0.00000E+00
         0.00000E+00
         0.00000E+00
         0.00000E+00
         0.00000E+00
         0.00000E+00
         0.00000E+00
         0.00000E+00
         0.00000E+00
         0.00000E+00
         0.00000E+00
         0.00000E+00
         0.00000E+00
         0.00000E+00
         0.00000E+00
         0.00000E+00
         0.00000E+00
         0.00000E+00
         0.00000E+00
         0.00000E+00
         0.00000E+00
         0.00000E+00
         0.00000E+00
         0.00000E+00
         0.00000E+00
         0.00000E+00
         0.00000E+00
         0.00000E+00
         0.00000E+00
         0.00000E+00
         0.00000E+00
         0.00000E+00
         0.00000E+00
         0.00000E+00
         0.00000E+00
         0.00000E+00
         0.00000E+00
         0.00000E+00
         0.00000E+00
         0.00000E+00
         0.00000E+00
         0.00000E+00
         0.00000E+00
         0.00000E+00
         0.00000E+00
         0.00000E+00
         0.00000E+00
         0.00000E+00
         0.00000E+00
         0.00000E+00
         0.00000E+00
         0.00000E+00
         0.00000E+00
         0.00000E+00
         0.00000E+00
         0.00000E+00
         0.00000E+00
         0.00000E+00
         0.00000E+00
         0.00000E+00
         0.00000E+00
         0.00000E+00
         0.00000E+00
         0.00000E+00
         0.00000E+00
         0.00000E+00
         0.00000E+00
         0.00000E+00
         0.00000E+00
         0.00000E+00
         0.00000E+00
         0.00000E+00
         0.00000E+00
         0.00000E+00
         0.00000E+00
         0.00000E+00
         0.00000E+00
         0.00000E+00
         0.00000E+00
         0.00000E+00
         0.00000E+00
         0.00000E+00
         0.00000E+00
         0.00000E+00
         0.00000E+00
         0.00000E+00
         0.00000E+00
         0.00000E+00
         0.00000E+00
         0.00000E+00
         0.00000E+00
         0.00000E+00
         0.00000E+00
         0.00000E+00
         0.00000E+00
         0.00000E+00
         0.00000E+00
         0.00000E+00
         0.00000E+00
         0.00000E+00
         0.00000E+00
         0.00000E+00
         0.00000E+00
         0.00000E+00
         0.00000E+00
         0.00000E+00
         0.00000E+00
         0.00000E+00
         0.00000E+00
         0.00000E+00
         0.00000E+00
         0.00000E+00
         0.00000E+00
         0.00000E+00
         0.00000E+00
         0.00000E+00
         0.00000E+00
         0.00000E+00
         0.00000E+00
         0.00000E+00
         0.00000E+00
         0.00000E+00
         0.00000E+00
         0.00000E+00
         0.00000E+00
         0.00000E+00
         0.00000E+00
         0.00000E+00
         0.00000E+00
         0.00000E+00
         0.00000E+00
         0.00000E+00
         0.00000E+00
         0.00000E+00
         0.00000E+00
         0.00000E+00
         0.00000E+00
         0.00000E+00
         0.00000E+00
         0.00000E+00
         0.00000E+00
         0.00000E+00
         0.00000E+00
         0.00000E+00
         0.00000E+00
         0.00000E+00
         0.00000E+00
         0.00000E+00
         0.00000E+00
         0.00000E+00
         0.00000E+00
         0.00000E+00
         0.00000E+00
         0.00000E+00
         0.00000E+00
         0.00000E+00
         0.00000E+00
         0.00000E+00
         0.00000E+00
         0.00000E+00
         0.00000E+00
         0.00000E+00
         0.00000E+00
         0.00000E+00
         0.00000E+00
         0.00000E+00
         0.00000E+00
         0.00000E+00
         0.00000E+00
         0.00000E+00
         0.00000E+00
         0.00000E+00
         0.00000E+00
         0.00000E+00
         0.00000E+00
         0.00000E+00
         0.00000E+00
         0.00000E+00
         0.00000E+00
         0.00000E+00
         0.00000E+00
         0.00000E+00
         0.00000E+00
         0.00000E+00
         0.00000E+00
         0.00000E+00
         0.00000E+00
         0.00000E+00
         0.00000E+00
         0.00000E+00
         0.00000E+00
         0.00000E+00
         0.00000E+00
         0.00000E+00
         0.00000E+00
         0.00000E+00
         0.00000E+00
         0.00000E+00
         0.00000E+00
         0.00000E+00
         0.00000E+00
         0.00000E+00
         0.00000E+00
         0.00000E+00
         0.00000E+00
         0.00000E+00
         0.00000E+00
         0.00000E+00
         0.00000E+00
         0.00000E+00
         0.00000E+00
         0.00000E+00
         0.00000E+00
         0.00000E+00
         0.00000E+00
         0.00000E+00
         0.00000E+00
         0.00000E+00
         0.00000E+00
         0.00000E+00
         0.00000E+00
         0.00000E+00
         0.00000E+00
         0.00000E+00
         0.00000E+00
         0.00000E+00
         0.00000E+00
         0.00000E+00
         0.00000E+00
         0.00000E+00
         0.00000E+00
         0.00000E+00
         0.00000E+00
         0.00000E+00
         0.00000E+00
         0.00000E+00
         0.00000E+00
         0.00000E+00
         0.00000E+00
         0.00000E+00
         0.00000E+00
         0.00000E+00
         0.00000E+00
         0.00000E+00
         0.00000E+00
         0.00000E+00
         0.00000E+00
         0.00000E+00
         0.00000E+00
         0.00000E+00
         0.00000E+00
         0.00000E+00
         0.00000E+00
         0.00000E+00
         0.00000E+00
         0.00000E+00
         0.00000E+00
         0.00000E+00
         0.00000E+00
         0.00000E+00
         0.00000E+00
         0.00000E+00
         0.00000E+00
         0.00000E+00
         0.00000E+00
         0.00000E+00
         0.00000E+00
         0.00000E+00
         0.00000E+00
         0.00000E+00
         0.00000E+00
         0.00000E+00
         0.00000E+00
         0.00000E+00
         0.00000E+00
         0.00000E+00
         0.00000E+00
         0.00000E+00
         0.00000E+00
         0.00000E+00
         0.00000E+00
         0.00000E+00
         0.00000E+00
         0.00000E+00
         0.00000E+00
         0.00000E+00
         0.00000E+00
         0.00000E+00
         0.00000E+00
         0.00000E+00
         0.00000E+00
         0.00000E+00
         0.00000E+00
         0.00000E+00
         0.00000E+00
         0.00000E+00
         0.00000E+00
         0.00000E+00
         0.00000E+00
         0.00000E+00
         0.00000E+00
         0.00000E+00
         0.00000E+00
         0.00000E+00
         0.00000E+00
         0.00000E+00
         0.00000E+00
         0.00000E+00
         0.00000E+00
         0.00000E+00
         0.00000E+00
         0.00000E+00
         0.00000E+00
         0.00000E+00
         0.00000E+00
         0.00000E+00
         0.00000E+00
         0.00000E+00
         0.00000E+00
         0.00000E+00
         0.00000E+00
         0.00000E+00
         0.00000E+00
         0.00000E+00
         0.00000E+00
         0.00000E+00
         0.00000E+00
         0.00000E+00
         0.00000E+00
         0.00000E+00
         0.00000E+00
         0.00000E+00
         0.00000E+00
         0.00000E+00
         0.00000E+00
         0.00000E+00
         0.00000E+00
         0.00000E+00
         0.00000E+00
         0.00000E+00
         0.00000E+00
         0.00000E+00
         0.00000E+00
         0.00000E+00
         0.00000E+00
         0.00000E+00
         0.00000E+00
         0.00000E+00
         0.00000E+00
         0.00000E+00
         0.00000E+00
         0.00000E+00
         0.00000E+00
         0.00000E+00
         0.00000E+00
         0.00000E+00
         0.00000E+00
         0.00000E+00
         0.00000E+00
         0.00000E+00
         0.00000E+00
         0.00000E+00
         0.00000E+00
         0.00000E+00
         0.00000E+00
         0.00000E+00
         0.00000E+00
         0.00000E+00
         0.00000E+00
         0.00000E+00
         0.00000E+00
         0.00000E+00
         0.00000E+00
         0.00000E+00
         0.00000E+00
         0.00000E+00
         0.00000E+00
         0.00000E+00
         0.00000E+00
         0.00000E+00
         0.00000E+00
         0.00000E+00
         0.00000E+00
         0.00000E+00
         0.00000E+00
         0.00000E+00
         0.00000E+00
         0.00000E+00
         0.00000E+00
         0.00000E+00
         0.00000E+00
         0.00000E+00
         0.00000E+00
         0.00000E+00
         0.00000E+00
         0.00000E+00
         0.00000E+00
         0.00000E+00
         0.00000E+00
         0.00000E+00
         0.00000E+00
         0.00000E+00
         0.00000E+00
         0.00000E+00
         0.00000E+00
         0.00000E+00
         0.00000E+00
         0.00000E+00
         0.00000E+00
         0.00000E+00
         0.00000E+00
         0.00000E+00
         0.00000E+00
         0.00000E+00
         0.00000E+00
         0.00000E+00
         0.00000E+00
         0.00000E+00
         0.00000E+00
         0.00000E+00
         0.00000E+00
         0.00000E+00
         0.00000E+00
         0.00000E+00
         0.00000E+00
         0.00000E+00
         0.00000E+00
         0.00000E+00
         0.00000E+00
         0.00000E+00
         0.00000E+00
         0.00000E+00
         0.00000E+00
         0.00000E+00
         0.00000E+00
         0.00000E+00
         0.00000E+00
         0.00000E+00
         0.00000E+00
         0.00000E+00
         0.00000E+00
         0.00000E+00
         0.00000E+00
         0.00000E+00
         0.00000E+00
         0.00000E+00
         0.00000E+00
         0.00000E+00
         0.00000E+00
         0.00000E+00
         0.00000E+00
         0.00000E+00
         0.00000E+00
         0.00000E+00
         0.00000E+00
         0.00000E+00
         0.00000E+00
         0.00000E+00
         0.00000E+00
         0.00000E+00
         0.00000E+00
         0.00000E+00
         0.00000E+00
         0.00000E+00
         0.00000E+00
         0.00000E+00
         0.00000E+00
         0.00000E+00
         0.00000E+00
         0.00000E+00
         0.00000E+00
         0.00000E+00
         0.00000E+00
         0.00000E+00
         0.00000E+00
         0.00000E+00
         0.00000E+00
         0.00000E+00
         0.00000E+00
         0.00000E+00
         0.00000E+00
         0.00000E+00
         0.00000E+00
         0.00000E+00
         0.00000E+00
         0.00000E+00
         0.00000E+00
         0.00000E+00
         0.00000E+00
         0.00000E+00
         0.00000E+00
         0.00000E+00
         0.00000E+00
         0.00000E+00
         0.00000E+00
         0.00000E+00
         0.00000E+00
         0.00000E+00
         0.00000E+00
         0.00000E+00
         0.00000E+00
         0.00000E+00
         0.00000E+00
         0.00000E+00
         0.00000E+00
         0.00000E+00
         0.00000E+00
         0.00000E+00
         0.00000E+00
         0.00000E+00
         0.00000E+00
         0.00000E+00
         0.00000E+00
         0.00000E+00
         0.00000E+00
         0.00000E+00
         0.00000E+00
         0.00000E+00
         0.00000E+00
         0.00000E+00
         0.00000E+00
         0.00000E+00
         0.00000E+00
         0.00000E+00
         0.00000E+00
         0.00000E+00
         0.00000E+00
         0.00000E+00
         0.00000E+00
         0.00000E+00
         0.00000E+00
         0.00000E+00
         0.00000E+00
         0.00000E+00
         0.00000E+00
         0.00000E+00
         0.00000E+00
         0.00000E+00
         0.00000E+00
         0.00000E+00
         0.00000E+00
         0.00000E+00
         0.00000E+00
         0.00000E+00
         0.00000E+00
         0.00000E+00
         0.00000E+00
         0.00000E+00
         0.00000E+00
         0.00000E+00
         0.00000E+00
         0.00000E+00
         0.00000E+00
         0.00000E+00
         0.00000E+00
         0.00000E+00
         0.00000E+00
         0.00000E+00
         0.00000E+00
         0.00000E+00
         0.00000E+00
         0.00000E+00
         0.00000E+00
         0.00000E+00
         0.00000E+00
         0.00000E+00
         0.00000E+00
         0.00000E+00
         0.00000E+00
         0.00000E+00
         0.00000E+00
         0.00000E+00
         0.00000E+00
         0.00000E+00
         0.00000E+00
         0.00000E+00
         0.00000E+00
         0.00000E+00
         0.00000E+00
         0.00000E+00
         0.00000E+00
         0.00000E+00
         0.00000E+00
         0.00000E+00
         0.00000E+00
         0.00000E+00
         0.00000E+00
         0.00000E+00
         0.00000E+00
         0.00000E+00
         0.00000E+00
         0.00000E+00
         0.00000E+00
         0.00000E+00
         0.00000E+00
         0.00000E+00
         0.00000E+00
         0.00000E+00
         0.00000E+00
         0.00000E+00
         0.00000E+00
         0.00000E+00
         0.00000E+00
         0.00000E+00
         0.00000E+00
         0.00000E+00
         0.00000E+00
         0.00000E+00
         0.00000E+00
         0.00000E+00
         0.00000E+00
         0.00000E+00
         0.00000E+00
         0.00000E+00
         0.00000E+00
         0.00000E+00
         0.00000E+00
         0.00000E+00
         0.00000E+00
         0.00000E+00
         0.00000E+00
         0.00000E+00
         0.00000E+00
         0.00000E+00
         0.00000E+00
         0.00000E+00
         0.00000E+00
         0.00000E+00
         0.00000E+00
         0.00000E+00
         0.00000E+00
         0.00000E+00
         0.00000E+00
         0.00000E+00
         0.00000E+00
         0.00000E+00
         0.00000E+00
         0.00000E+00
         0.00000E+00
         0.00000E+00
         0.00000E+00
         0.00000E+00
         0.00000E+00
         0.00000E+00
         0.00000E+00
         0.00000E+00
         0.00000E+00
         0.00000E+00
         0.00000E+00
         0.00000E+00
         0.00000E+00
         0.00000E+00
         0.00000E+00
         0.00000E+00
         0.00000E+00
         0.00000E+00
         0.00000E+00
         0.00000E+00
         0.00000E+00
         0.00000E+00
         0.00000E+00
         0.00000E+00
         0.00000E+00
         0.00000E+00
         0.00000E+00
         0.00000E+00
         0.00000E+00
         0.00000E+00
         0.00000E+00
         0.00000E+00
         0.00000E+00
         0.00000E+00
         0.00000E+00
         0.00000E+00
         0.00000E+00
         0.00000E+00
         0.00000E+00
         0.00000E+00
         0.00000E+00
         0.00000E+00
         0.00000E+00
         0.00000E+00
         0.00000E+00
         0.00000E+00
         0.00000E+00
         0.00000E+00
         0.00000E+00
         0.00000E+00
         0.00000E+00
         0.00000E+00
         0.00000E+00
         0.00000E+00
         0.00000E+00
         0.00000E+00
         0.00000E+00
         0.00000E+00
         0.00000E+00
         0.00000E+00
         0.00000E+00
         0.00000E+00
         0.00000E+00
         0.00000E+00
         0.00000E+00
         0.00000E+00
         0.00000E+00
         0.00000E+00
         0.00000E+00
         0.00000E+00
         0.00000E+00
         0.00000E+00
         0.00000E+00
         0.00000E+00
         0.00000E+00
         0.00000E+00
         0.00000E+00
         0.00000E+00
         0.00000E+00
         0.00000E+00
         0.00000E+00
         0.00000E+00
         0.00000E+00
         0.00000E+00
         0.00000E+00
         0.00000E+00
         0.00000E+00
         0.00000E+00
         0.00000E+00
         0.00000E+00
         0.00000E+00
         0.00000E+00
         0.00000E+00
         0.00000E+00
         0.00000E+00
         0.00000E+00
         0.00000E+00
         0.00000E+00
         0.00000E+00
         0.00000E+00
         0.00000E+00
         0.00000E+00
         0.00000E+00
         0.00000E+00
         0.00000E+00
         0.00000E+00
         0.00000E+00
         0.00000E+00
         0.00000E+00
         0.00000E+00
         0.00000E+00
         0.00000E+00
         0.00000E+00
         0.00000E+00
         0.00000E+00
         0.00000E+00
         0.00000E+00
         0.00000E+00
         0.00000E+00
         0.00000E+00
         0.00000E+00
         0.00000E+00
         0.00000E+00
         0.00000E+00
         0.00000E+00
         0.00000E+00
         0.00000E+00
         0.00000E+00
         0.00000E+00
         0.00000E+00
         0.00000E+00
         0.00000E+00
         0.00000E+00
         0.00000E+00
         0.00000E+00
         0.00000E+00
         0.00000E+00
         0.00000E+00
         0.00000E+00
         0.00000E+00
         0.00000E+00
         0.00000E+00
         0.00000E+00
         0.00000E+00
         0.00000E+00
         0.00000E+00
         0.00000E+00
         0.00000E+00
         0.00000E+00
         0.00000E+00
         0.00000E+00
         0.00000E+00
         0.00000E+00
         0.00000E+00
         0.00000E+00
         0.00000E+00
         0.00000E+00
         0.00000E+00
         0.00000E+00
         0.00000E+00
         0.00000E+00
         0.00000E+00
         0.00000E+00
         0.00000E+00
         0.00000E+00
         0.00000E+00
         0.00000E+00
         0.00000E+00
         0.00000E+00
         0.00000E+00
         0.00000E+00
         0.00000E+00
         0.00000E+00
         0.00000E+00
         0.00000E+00
         0.00000E+00
         0.00000E+00
         0.00000E+00
         0.00000E+00
         0.00000E+00
         0.00000E+00
         0.00000E+00
         0.00000E+00
         0.00000E+00
         0.00000E+00
         0.00000E+00
         0.00000E+00
         0.00000E+00
         0.00000E+00
         0.00000E+00
         0.00000E+00
         0.00000E+00
         0.00000E+00
         0.00000E+00
         0.00000E+00
         0.00000E+00
         0.00000E+00
         0.00000E+00
         0.00000E+00
         0.00000E+00
         0.00000E+00
         0.00000E+00
         0.00000E+00
         0.00000E+00
         0.00000E+00
         0.00000E+00
         0.00000E+00
         0.00000E+00
         0.00000E+00
         0.00000E+00
         0.00000E+00
         0.00000E+00
         0.00000E+00
         0.00000E+00
         0.00000E+00
         0.00000E+00
         0.00000E+00
         0.00000E+00
         0.00000E+00
         0.00000E+00
         0.00000E+00
         0.00000E+00
         0.00000E+00
         0.00000E+00
         0.00000E+00
         0.00000E+00
         0.00000E+00
         0.00000E+00
         0.00000E+00
         0.00000E+00
         0.00000E+00
         0.00000E+00
         0.00000E+00
         0.00000E+00
         0.00000E+00
         0.00000E+00
         0.00000E+00
         0.00000E+00
         0.00000E+00
         0.00000E+00
         0.00000E+00
         0.00000E+00
         0.00000E+00
         0.00000E+00
         0.00000E+00
         0.00000E+00
         0.00000E+00
         0.00000E+00
         0.00000E+00
         0.00000E+00
         0.00000E+00
         0.00000E+00
         0.00000E+00
         0.00000E+00
         0.00000E+00
         0.00000E+00
         0.00000E+00
         0.00000E+00
         0.00000E+00
         0.00000E+00
         0.00000E+00
         0.00000E+00
         0.00000E+00
         0.00000E+00
         0.00000E+00
         0.00000E+00
         0.00000E+00
         0.00000E+00
         0.00000E+00
         0.00000E+00
         0.00000E+00
         0.00000E+00
         0.00000E+00
         0.00000E+00
         0.00000E+00
         0.00000E+00
         0.00000E+00
         0.00000E+00
         0.00000E+00
         0.00000E+00
         0.00000E+00
         0.00000E+00
         0.00000E+00
         0.00000E+00
         0.00000E+00
         0.00000E+00
         0.00000E+00
         0.00000E+00
         0.00000E+00
         0.00000E+00
         0.00000E+00
         0.00000E+00
         0.00000E+00
         0.00000E+00
         0.00000E+00
         0.00000E+00
         0.00000E+00
         0.00000E+00
         0.00000E+00
         0.00000E+00
         0.00000E+00
         0.00000E+00
         0.00000E+00
         0.00000E+00
         0.00000E+00
         0.00000E+00
         0.00000E+00
         0.00000E+00
         0.00000E+00
         0.00000E+00
         0.00000E+00
         0.00000E+00
         0.00000E+00
         0.00000E+00
         0.00000E+00
         0.00000E+00
         0.00000E+00
         0.00000E+00
         0.00000E+00
         0.00000E+00
         0.00000E+00
         0.00000E+00
         0.00000E+00
         0.00000E+00
         0.00000E+00
         0.00000E+00
         0.00000E+00
         0.00000E+00
         0.00000E+00
         0.00000E+00
         0.00000E+00
         0.00000E+00
         0.00000E+00
         0.00000E+00
         0.00000E+00
         0.00000E+00
         0.00000E+00
         0.00000E+00
         0.00000E+00
         0.00000E+00
         0.00000E+00
         0.00000E+00
         0.00000E+00
         0.00000E+00
         0.00000E+00
         0.00000E+00
         0.00000E+00
         0.00000E+00
         0.00000E+00
         0.00000E+00
         0.00000E+00
         0.00000E+00
         0.00000E+00
         0.00000E+00
         0.00000E+00
         0.00000E+00
         0.00000E+00
         0.00000E+00
         0.00000E+00
         0.00000E+00
         0.00000E+00
         0.00000E+00
         0.00000E+00
         0.00000E+00
         0.00000E+00
         0.00000E+00
         0.00000E+00
         0.00000E+00
         0.00000E+00
         0.00000E+00
         0.00000E+00
         0.00000E+00
         0.00000E+00
         0.00000E+00
         0.00000E+00
         0.00000E+00
         0.00000E+00
         0.00000E+00
         0.00000E+00
         0.00000E+00
         0.00000E+00
         0.00000E+00
         0.00000E+00
         0.00000E+00
         0.00000E+00
         0.00000E+00
         0.00000E+00
         0.00000E+00
         0.00000E+00
         0.00000E+00
         0.00000E+00
         0.00000E+00
         0.00000E+00
         0.00000E+00
         0.00000E+00
         0.00000E+00
         0.00000E+00
         0.00000E+00
         0.00000E+00
         0.00000E+00
         0.00000E+00
         0.00000E+00
         0.00000E+00
         0.00000E+00
         0.00000E+00
         0.00000E+00
         0.00000E+00
         0.00000E+00
         0.00000E+00
         0.00000E+00
         0.00000E+00
         0.00000E+00
         0.00000E+00
         0.00000E+00
         0.00000E+00
         0.00000E+00
         0.00000E+00
         0.00000E+00
         0.00000E+00
         0.00000E+00
         0.00000E+00
         0.00000E+00
         0.00000E+00
         0.00000E+00
         0.00000E+00
         0.00000E+00
         0.00000E+00
         0.00000E+00
         0.00000E+00
         0.00000E+00
         0.00000E+00
         0.00000E+00
         0.00000E+00
         0.00000E+00
         0.00000E+00
         0.00000E+00
         0.00000E+00
         0.00000E+00
         0.00000E+00
         0.00000E+00
         0.00000E+00
         0.00000E+00
         0.00000E+00
         0.00000E+00
         0.00000E+00
         0.00000E+00
         0.00000E+00
         0.00000E+00
         0.00000E+00
         0.00000E+00
         0.00000E+00
         0.00000E+00
         0.00000E+00
         0.00000E+00
         0.00000E+00
         0.00000E+00
         0.00000E+00
         0.00000E+00
         0.00000E+00
         0.00000E+00
         0.00000E+00
         0.00000E+00
         0.00000E+00
         0.00000E+00
         0.00000E+00
         0.00000E+00
         0.00000E+00
         0.00000E+00
         0.00000E+00
         0.00000E+00
         0.00000E+00
         0.00000E+00
         0.00000E+00
         0.00000E+00
         0.00000E+00
         0.00000E+00
         0.00000E+00
         0.00000E+00
         0.00000E+00
         0.00000E+00
         0.00000E+00
         0.00000E+00
         0.00000E+00
         0.00000E+00
         0.00000E+00
         0.00000E+00
         0.00000E+00
         0.00000E+00
         0.00000E+00
         0.00000E+00
         0.00000E+00
         0.00000E+00
         0.00000E+00
         0.00000E+00
         0.00000E+00
         0.00000E+00
         0.00000E+00
         0.00000E+00
         0.00000E+00
         0.00000E+00
         0.00000E+00
         0.00000E+00
         0.00000E+00
         0.00000E+00
         0.00000E+00
         0.00000E+00
         0.00000E+00
         0.00000E+00
         0.00000E+00
         0.00000E+00
         0.00000E+00
         0.00000E+00
         0.00000E+00
         0.00000E+00
         0.00000E+00
         0.00000E+00
         0.00000E+00
         0.00000E+00
         0.00000E+00
         0.00000E+00
         0.00000E+00
         0.00000E+00
         0.00000E+00
         0.00000E+00
         0.00000E+00
         0.00000E+00
         0.00000E+00
         0.00000E+00
         0.00000E+00
         0.00000E+00
         0.00000E+00
         0.00000E+00
         0.00000E+00
         0.00000E+00
         0.00000E+00
         0.00000E+00
         0.00000E+00
         0.00000E+00
         0.00000E+00
         0.00000E+00
         0.00000E+00
         0.00000E+00
         0.00000E+00
         0.00000E+00
         0.00000E+00
         0.00000E+00
         0.00000E+00
         0.00000E+00
         0.00000E+00
         0.00000E+00
         0.00000E+00
         0.00000E+00
         0.00000E+00
         0.00000E+00
         0.00000E+00
         0.00000E+00
         0.00000E+00
         0.00000E+00
         0.00000E+00
         0.00000E+00
         0.00000E+00
         0.00000E+00
         0.00000E+00
         0.00000E+00
         0.00000E+00
         0.00000E+00
         0.00000E+00
         0.00000E+00
         0.00000E+00
         0.00000E+00
         0.00000E+00
         0.00000E+00
         0.00000E+00
         0.00000E+00
         0.00000E+00
         0.00000E+00
         0.00000E+00
         0.00000E+00
         0.00000E+00
         0.00000E+00
         0.00000E+00
         0.00000E+00
         0.00000E+00
         0.00000E+00
         0.00000E+00
         0.00000E+00
         0.00000E+00
         0.00000E+00
         0.00000E+00
         0.00000E+00
         0.00000E+00
         0.00000E+00
         0.00000E+00
         0.00000E+00
         0.00000E+00
         0.00000E+00
         0.00000E+00
         0.00000E+00
         0.00000E+00
         0.00000E+00
         0.00000E+00
         0.00000E+00
         0.00000E+00
         0.00000E+00
         0.00000E+00
         0.00000E+00
         0.00000E+00
         0.00000E+00
         0.00000E+00
         0.00000E+00
         0.00000E+00
         0.00000E+00
         0.00000E+00
         0.00000E+00
         0.00000E+00
         0.00000E+00
         0.00000E+00
         0.00000E+00
         0.00000E+00
         0.00000E+00
         0.00000E+00
         0.00000E+00
         0.00000E+00
         0.00000E+00
         0.00000E+00
         0.00000E+00
         0.00000E+00
         0.00000E+00
         0.00000E+00
         0.00000E+00
         0.00000E+00
         0.00000E+00
         0.00000E+00
         0.00000E+00
         0.00000E+00
         0.00000E+00
         0.00000E+00
         0.00000E+00
         0.00000E+00
         0.00000E+00
         0.00000E+00
         0.00000E+00
         0.00000E+00
         0.00000E+00
         0.00000E+00
         0.00000E+00
         0.00000E+00
         0.00000E+00
         0.00000E+00
         0.00000E+00
         0.00000E+00
         0.00000E+00
         0.00000E+00
         0.00000E+00
         0.00000E+00
         0.00000E+00
         0.00000E+00
         0.00000E+00
         0.00000E+00
         0.00000E+00
         0.00000E+00
         0.00000E+00
         0.00000E+00
         0.00000E+00
         0.00000E+00
         0.00000E+00
         0.00000E+00
         0.00000E+00
         0.00000E+00
         0.00000E+00
         0.00000E+00
         0.00000E+00
         0.00000E+00
         0.00000E+00
         0.00000E+00
         0.00000E+00
         0.00000E+00
         0.00000E+00
         0.00000E+00
         0.00000E+00
         0.00000E+00
         0.00000E+00
         0.00000E+00
         0.00000E+00
         0.00000E+00
         0.00000E+00
         0.00000E+00
         0.00000E+00
         0.00000E+00
         0.00000E+00
         0.00000E+00
         0.00000E+00
         0.00000E+00
         0.00000E+00
         0.00000E+00
         0.00000E+00
         0.00000E+00
         0.00000E+00
         0.00000E+00
         0.00000E+00
         0.00000E+00
         0.00000E+00
         0.00000E+00
         0.00000E+00
         0.00000E+00
         0.00000E+00
         0.00000E+00
         0.00000E+00
         0.00000E+00
         0.00000E+00
         0.00000E+00
         0.00000E+00
         0.00000E+00
         0.00000E+00
         0.00000E+00
         0.00000E+00
         0.00000E+00
         0.00000E+00
         0.00000E+00
         0.00000E+00
         0.00000E+00
         0.00000E+00
         0.00000E+00
         0.00000E+00
         0.00000E+00
         0.00000E+00
         0.00000E+00
         0.00000E+00
         0.00000E+00
         0.00000E+00
         0.00000E+00
         0.00000E+00
         0.00000E+00
         0.00000E+00
         0.00000E+00
         0.00000E+00
         0.00000E+00
         0.00000E+00
         0.00000E+00
         0.00000E+00
         0.00000E+00
         0.00000E+00
         0.00000E+00
         0.00000E+00
         0.00000E+00
         0.00000E+00
         0.00000E+00
         0.00000E+00
         0.00000E+00
         0.00000E+00
         0.00000E+00
         0.00000E+00
         0.00000E+00
         0.00000E+00
         0.00000E+00
         0.00000E+00
         0.00000E+00
         0.00000E+00
         0.00000E+00
         0.00000E+00
         0.00000E+00
         0.00000E+00
         0.00000E+00
         0.00000E+00
         0.00000E+00
         0.00000E+00
         0.00000E+00
         0.00000E+00
         0.00000E+00
         0.00000E+00
         0.00000E+00
         0.00000E+00
         0.00000E+00
         0.00000E+00
         0.00000E+00
         0.00000E+00
         0.00000E+00
         0.00000E+00
         0.00000E+00
         0.00000E+00
         0.00000E+00
         0.00000E+00
         0.00000E+00
         0.00000E+00
         0.00000E+00
         0.00000E+00
         0.00000E+00
         0.00000E+00
         0.00000E+00
         0.00000E+00
         0.00000E+00
         0.00000E+00
         0.00000E+00
         0.00000E+00
         0.00000E+00
         0.00000E+00
         0.00000E+00
         0.00000E+00
         0.00000E+00
  
SCALARS                 displacement_y  double 1
LOOKUP_TABLE default
         0.00000E+00
         0.00000E+00
         0.00000E+00
         0.00000E+00
         0.00000E+00
         0.00000E+00
         0.00000E+00
         0.00000E+00
         0.00000E+00
         0.00000E+00
         0.00000E+00
         0.00000E+00
         0.00000E+00
         0.00000E+00
         0.00000E+00
         0.00000E+00
         0.00000E+00
         0.00000E+00
         0.00000E+00
         0.00000E+00
         0.00000E+00
         0.00000E+00
         0.00000E+00
         0.00000E+00
         0.00000E+00
         0.00000E+00
         0.00000E+00
         0.00000E+00
         0.00000E+00
         0.00000E+00
         0.00000E+00
         0.00000E+00
         0.00000E+00
         0.00000E+00
         0.00000E+00
         0.00000E+00
         0.00000E+00
         0.00000E+00
         0.00000E+00
         0.00000E+00
         0.00000E+00
         0.00000E+00
         0.00000E+00
         0.00000E+00
         0.00000E+00
         0.00000E+00
         0.00000E+00
         0.00000E+00
         0.00000E+00
         0.00000E+00
         0.00000E+00
         0.00000E+00
         0.00000E+00
         0.00000E+00
         0.00000E+00
         0.00000E+00
         0.00000E+00
         0.00000E+00
         0.00000E+00
         0.00000E+00
         0.00000E+00
         0.00000E+00
         0.00000E+00
         0.00000E+00
         0.00000E+00
         0.00000E+00
         0.00000E+00
         0.00000E+00
         0.00000E+00
         0.00000E+00
         0.00000E+00
         0.00000E+00
         0.00000E+00
         0.00000E+00
         0.00000E+00
         0.00000E+00
         0.00000E+00
         0.00000E+00
         0.00000E+00
         0.00000E+00
         0.00000E+00
         0.00000E+00
         0.00000E+00
         0.00000E+00
         0.00000E+00
         0.00000E+00
         0.00000E+00
         0.00000E+00
         0.00000E+00
         0.00000E+00
         0.00000E+00
         0.00000E+00
         0.00000E+00
         0.00000E+00
         0.00000E+00
         0.00000E+00
         0.00000E+00
         0.00000E+00
         0.00000E+00
         0.00000E+00
         0.00000E+00
         0.00000E+00
         0.00000E+00
         0.00000E+00
         0.00000E+00
         0.00000E+00
         0.00000E+00
         0.00000E+00
         0.00000E+00
         0.00000E+00
         0.00000E+00
         0.00000E+00
         0.00000E+00
         0.00000E+00
         0.00000E+00
         0.00000E+00
         0.00000E+00
         0.00000E+00
         0.00000E+00
         0.00000E+00
         0.00000E+00
         0.00000E+00
         0.00000E+00
         0.00000E+00
         0.00000E+00
         0.00000E+00
         0.00000E+00
         0.00000E+00
         0.00000E+00
         0.00000E+00
         0.00000E+00
         0.00000E+00
         0.00000E+00
         0.00000E+00
         0.00000E+00
         0.00000E+00
         0.00000E+00
         0.00000E+00
         0.00000E+00
         0.00000E+00
         0.00000E+00
         0.00000E+00
         0.00000E+00
         0.00000E+00
         0.00000E+00
         0.00000E+00
         0.00000E+00
         0.00000E+00
         0.00000E+00
         0.00000E+00
         0.00000E+00
         0.00000E+00
         0.00000E+00
         0.00000E+00
         0.00000E+00
         0.00000E+00
         0.00000E+00
         0.00000E+00
         0.00000E+00
         0.00000E+00
         0.00000E+00
         0.00000E+00
         0.00000E+00
         0.00000E+00
         0.00000E+00
         0.00000E+00
         0.00000E+00
         0.00000E+00
         0.00000E+00
         0.00000E+00
         0.00000E+00
         0.00000E+00
         0.00000E+00
         0.00000E+00
         0.00000E+00
         0.00000E+00
         0.00000E+00
         0.00000E+00
         0.00000E+00
         0.00000E+00
         0.00000E+00
         0.00000E+00
         0.00000E+00
         0.00000E+00
         0.00000E+00
         0.00000E+00
         0.00000E+00
         0.00000E+00
         0.00000E+00
         0.00000E+00
         0.00000E+00
         0.00000E+00
         0.00000E+00
         0.00000E+00
         0.00000E+00
         0.00000E+00
         0.00000E+00
         0.00000E+00
         0.00000E+00
         0.00000E+00
         0.00000E+00
         0.00000E+00
         0.00000E+00
         0.00000E+00
         0.00000E+00
         0.00000E+00
         0.00000E+00
         0.00000E+00
         0.00000E+00
         0.00000E+00
         0.00000E+00
         0.00000E+00
         0.00000E+00
         0.00000E+00
         0.00000E+00
         0.00000E+00
         0.00000E+00
         0.00000E+00
         0.00000E+00
         0.00000E+00
         0.00000E+00
         0.00000E+00
         0.00000E+00
         0.00000E+00
         0.00000E+00
         0.00000E+00
         0.00000E+00
         0.00000E+00
         0.00000E+00
         0.00000E+00
         0.00000E+00
         0.00000E+00
         0.00000E+00
         0.00000E+00
         0.00000E+00
         0.00000E+00
         0.00000E+00
         0.00000E+00
         0.00000E+00
         0.00000E+00
         0.00000E+00
         0.00000E+00
         0.00000E+00
         0.00000E+00
         0.00000E+00
         0.00000E+00
         0.00000E+00
         0.00000E+00
         0.00000E+00
         0.00000E+00
         0.00000E+00
         0.00000E+00
         0.00000E+00
         0.00000E+00
         0.00000E+00
         0.00000E+00
         0.00000E+00
         0.00000E+00
         0.00000E+00
         0.00000E+00
         0.00000E+00
         0.00000E+00
         0.00000E+00
         0.00000E+00
         0.00000E+00
         0.00000E+00
         0.00000E+00
         0.00000E+00
         0.00000E+00
         0.00000E+00
         0.00000E+00
         0.00000E+00
         0.00000E+00
         0.00000E+00
         0.00000E+00
         0.00000E+00
         0.00000E+00
         0.00000E+00
         0.00000E+00
         0.00000E+00
         0.00000E+00
         0.00000E+00
         0.00000E+00
         0.00000E+00
         0.00000E+00
         0.00000E+00
         0.00000E+00
         0.00000E+00
         0.00000E+00
         0.00000E+00
         0.00000E+00
         0.00000E+00
         0.00000E+00
         0.00000E+00
         0.00000E+00
         0.00000E+00
         0.00000E+00
         0.00000E+00
         0.00000E+00
         0.00000E+00
         0.00000E+00
         0.00000E+00
         0.00000E+00
         0.00000E+00
         0.00000E+00
         0.00000E+00
         0.00000E+00
         0.00000E+00
         0.00000E+00
         0.00000E+00
         0.00000E+00
         0.00000E+00
         0.00000E+00
         0.00000E+00
         0.00000E+00
         0.00000E+00
         0.00000E+00
         0.00000E+00
         0.00000E+00
         0.00000E+00
         0.00000E+00
         0.00000E+00
         0.00000E+00
         0.00000E+00
         0.00000E+00
         0.00000E+00
         0.00000E+00
         0.00000E+00
         0.00000E+00
         0.00000E+00
         0.00000E+00
         0.00000E+00
         0.00000E+00
         0.00000E+00
         0.00000E+00
         0.00000E+00
         0.00000E+00
         0.00000E+00
         0.00000E+00
         0.00000E+00
         0.00000E+00
         0.00000E+00
         0.00000E+00
         0.00000E+00
         0.00000E+00
         0.00000E+00
         0.00000E+00
         0.00000E+00
         0.00000E+00
         0.00000E+00
         0.00000E+00
         0.00000E+00
         0.00000E+00
         0.00000E+00
         0.00000E+00
         0.00000E+00
         0.00000E+00
         0.00000E+00
         0.00000E+00
         0.00000E+00
         0.00000E+00
         0.00000E+00
         0.00000E+00
         0.00000E+00
         0.00000E+00
         0.00000E+00
         0.00000E+00
         0.00000E+00
         0.00000E+00
         0.00000E+00
         0.00000E+00
         0.00000E+00
         0.00000E+00
         0.00000E+00
         0.00000E+00
         0.00000E+00
         0.00000E+00
         0.00000E+00
         0.00000E+00
         0.00000E+00
         0.00000E+00
         0.00000E+00
         0.00000E+00
         0.00000E+00
         0.00000E+00
         0.00000E+00
         0.00000E+00
         0.00000E+00
         0.00000E+00
         0.00000E+00
         0.00000E+00
         0.00000E+00
         0.00000E+00
         0.00000E+00
         0.00000E+00
         0.00000E+00
         0.00000E+00
         0.00000E+00
         0.00000E+00
         0.00000E+00
         0.00000E+00
         0.00000E+00
         0.00000E+00
         0.00000E+00
         0.00000E+00
         0.00000E+00
         0.00000E+00
         0.00000E+00
         0.00000E+00
         0.00000E+00
         0.00000E+00
         0.00000E+00
         0.00000E+00
         0.00000E+00
         0.00000E+00
         0.00000E+00
         0.00000E+00
         0.00000E+00
         0.00000E+00
         0.00000E+00
         0.00000E+00
         0.00000E+00
         0.00000E+00
         0.00000E+00
         0.00000E+00
         0.00000E+00
         0.00000E+00
         0.00000E+00
         0.00000E+00
         0.00000E+00
         0.00000E+00
         0.00000E+00
         0.00000E+00
         0.00000E+00
         0.00000E+00
         0.00000E+00
         0.00000E+00
         0.00000E+00
         0.00000E+00
         0.00000E+00
         0.00000E+00
         0.00000E+00
         0.00000E+00
         0.00000E+00
         0.00000E+00
         0.00000E+00
         0.00000E+00
         0.00000E+00
         0.00000E+00
         0.00000E+00
         0.00000E+00
         0.00000E+00
         0.00000E+00
         0.00000E+00
         0.00000E+00
         0.00000E+00
         0.00000E+00
         0.00000E+00
         0.00000E+00
         0.00000E+00
         0.00000E+00
         0.00000E+00
         0.00000E+00
         0.00000E+00
         0.00000E+00
         0.00000E+00
         0.00000E+00
         0.00000E+00
         0.00000E+00
         0.00000E+00
         0.00000E+00
         0.00000E+00
         0.00000E+00
         0.00000E+00
         0.00000E+00
         0.00000E+00
         0.00000E+00
         0.00000E+00
         0.00000E+00
         0.00000E+00
         0.00000E+00
         0.00000E+00
         0.00000E+00
         0.00000E+00
         0.00000E+00
         0.00000E+00
         0.00000E+00
         0.00000E+00
         0.00000E+00
         0.00000E+00
         0.00000E+00
         0.00000E+00
         0.00000E+00
         0.00000E+00
         0.00000E+00
         0.00000E+00
         0.00000E+00
         0.00000E+00
         0.00000E+00
         0.00000E+00
         0.00000E+00
         0.00000E+00
         0.00000E+00
         0.00000E+00
         0.00000E+00
         0.00000E+00
         0.00000E+00
         0.00000E+00
         0.00000E+00
         0.00000E+00
         0.00000E+00
         0.00000E+00
         0.00000E+00
         0.00000E+00
         0.00000E+00
         0.00000E+00
         0.00000E+00
         0.00000E+00
         0.00000E+00
         0.00000E+00
         0.00000E+00
         0.00000E+00
         0.00000E+00
         0.00000E+00
         0.00000E+00
         0.00000E+00
         0.00000E+00
         0.00000E+00
         0.00000E+00
         0.00000E+00
         0.00000E+00
         0.00000E+00
         0.00000E+00
         0.00000E+00
         0.00000E+00
         0.00000E+00
         0.00000E+00
         0.00000E+00
         0.00000E+00
         0.00000E+00
         0.00000E+00
         0.00000E+00
         0.00000E+00
         0.00000E+00
         0.00000E+00
         0.00000E+00
         0.00000E+00
         0.00000E+00
         0.00000E+00
         0.00000E+00
         0.00000E+00
         0.00000E+00
         0.00000E+00
         0.00000E+00
         0.00000E+00
         0.00000E+00
         0.00000E+00
         0.00000E+00
         0.00000E+00
         0.00000E+00
         0.00000E+00
         0.00000E+00
         0.00000E+00
         0.00000E+00
         0.00000E+00
         0.00000E+00
         0.00000E+00
         0.00000E+00
         0.00000E+00
         0.00000E+00
         0.00000E+00
         0.00000E+00
         0.00000E+00
         0.00000E+00
         0.00000E+00
         0.00000E+00
         0.00000E+00
         0.00000E+00
         0.00000E+00
         0.00000E+00
         0.00000E+00
         0.00000E+00
         0.00000E+00
         0.00000E+00
         0.00000E+00
         0.00000E+00
         0.00000E+00
         0.00000E+00
         0.00000E+00
         0.00000E+00
         0.00000E+00
         0.00000E+00
         0.00000E+00
         0.00000E+00
         0.00000E+00
         0.00000E+00
         0.00000E+00
         0.00000E+00
         0.00000E+00
         0.00000E+00
         0.00000E+00
         0.00000E+00
         0.00000E+00
         0.00000E+00
         0.00000E+00
         0.00000E+00
         0.00000E+00
         0.00000E+00
         0.00000E+00
         0.00000E+00
         0.00000E+00
         0.00000E+00
         0.00000E+00
         0.00000E+00
         0.00000E+00
         0.00000E+00
         0.00000E+00
         0.00000E+00
         0.00000E+00
         0.00000E+00
         0.00000E+00
         0.00000E+00
         0.00000E+00
         0.00000E+00
         0.00000E+00
         0.00000E+00
         0.00000E+00
         0.00000E+00
         0.00000E+00
         0.00000E+00
         0.00000E+00
         0.00000E+00
         0.00000E+00
         0.00000E+00
         0.00000E+00
         0.00000E+00
         0.00000E+00
         0.00000E+00
         0.00000E+00
         0.00000E+00
         0.00000E+00
         0.00000E+00
         0.00000E+00
         0.00000E+00
         0.00000E+00
         0.00000E+00
         0.00000E+00
         0.00000E+00
         0.00000E+00
         0.00000E+00
         0.00000E+00
         0.00000E+00
         0.00000E+00
         0.00000E+00
         0.00000E+00
         0.00000E+00
         0.00000E+00
         0.00000E+00
         0.00000E+00
         0.00000E+00
         0.00000E+00
         0.00000E+00
         0.00000E+00
         0.00000E+00
         0.00000E+00
         0.00000E+00
         0.00000E+00
         0.00000E+00
         0.00000E+00
         0.00000E+00
         0.00000E+00
         0.00000E+00
         0.00000E+00
         0.00000E+00
         0.00000E+00
         0.00000E+00
         0.00000E+00
         0.00000E+00
         0.00000E+00
         0.00000E+00
         0.00000E+00
         0.00000E+00
         0.00000E+00
         0.00000E+00
         0.00000E+00
         0.00000E+00
         0.00000E+00
         0.00000E+00
         0.00000E+00
         0.00000E+00
         0.00000E+00
         0.00000E+00
         0.00000E+00
         0.00000E+00
         0.00000E+00
         0.00000E+00
         0.00000E+00
         0.00000E+00
         0.00000E+00
         0.00000E+00
         0.00000E+00
         0.00000E+00
         0.00000E+00
         0.00000E+00
         0.00000E+00
         0.00000E+00
         0.00000E+00
         0.00000E+00
         0.00000E+00
         0.00000E+00
         0.00000E+00
         0.00000E+00
         0.00000E+00
         0.00000E+00
         0.00000E+00
         0.00000E+00
         0.00000E+00
         0.00000E+00
         0.00000E+00
         0.00000E+00
         0.00000E+00
         0.00000E+00
         0.00000E+00
         0.00000E+00
         0.00000E+00
         0.00000E+00
         0.00000E+00
         0.00000E+00
         0.00000E+00
         0.00000E+00
         0.00000E+00
         0.00000E+00
         0.00000E+00
         0.00000E+00
         0.00000E+00
         0.00000E+00
         0.00000E+00
         0.00000E+00
         0.00000E+00
         0.00000E+00
         0.00000E+00
         0.00000E+00
         0.00000E+00
         0.00000E+00
         0.00000E+00
         0.00000E+00
         0.00000E+00
         0.00000E+00
         0.00000E+00
         0.00000E+00
         0.00000E+00
         0.00000E+00
         0.00000E+00
         0.00000E+00
         0.00000E+00
         0.00000E+00
         0.00000E+00
         0.00000E+00
         0.00000E+00
         0.00000E+00
         0.00000E+00
         0.00000E+00
         0.00000E+00
         0.00000E+00
         0.00000E+00
         0.00000E+00
         0.00000E+00
         0.00000E+00
         0.00000E+00
         0.00000E+00
         0.00000E+00
         0.00000E+00
         0.00000E+00
         0.00000E+00
         0.00000E+00
         0.00000E+00
         0.00000E+00
         0.00000E+00
         0.00000E+00
         0.00000E+00
         0.00000E+00
         0.00000E+00
         0.00000E+00
         0.00000E+00
         0.00000E+00
         0.00000E+00
         0.00000E+00
         0.00000E+00
         0.00000E+00
         0.00000E+00
         0.00000E+00
         0.00000E+00
         0.00000E+00
         0.00000E+00
         0.00000E+00
         0.00000E+00
         0.00000E+00
         0.00000E+00
         0.00000E+00
         0.00000E+00
         0.00000E+00
         0.00000E+00
         0.00000E+00
         0.00000E+00
         0.00000E+00
         0.00000E+00
         0.00000E+00
         0.00000E+00
         0.00000E+00
         0.00000E+00
         0.00000E+00
         0.00000E+00
         0.00000E+00
         0.00000E+00
         0.00000E+00
         0.00000E+00
         0.00000E+00
         0.00000E+00
         0.00000E+00
         0.00000E+00
         0.00000E+00
         0.00000E+00
         0.00000E+00
         0.00000E+00
         0.00000E+00
         0.00000E+00
         0.00000E+00
         0.00000E+00
         0.00000E+00
         0.00000E+00
         0.00000E+00
         0.00000E+00
         0.00000E+00
         0.00000E+00
         0.00000E+00
         0.00000E+00
         0.00000E+00
         0.00000E+00
         0.00000E+00
         0.00000E+00
         0.00000E+00
         0.00000E+00
         0.00000E+00
         0.00000E+00
         0.00000E+00
         0.00000E+00
         0.00000E+00
         0.00000E+00
         0.00000E+00
         0.00000E+00
         0.00000E+00
         0.00000E+00
         0.00000E+00
         0.00000E+00
         0.00000E+00
         0.00000E+00
         0.00000E+00
         0.00000E+00
         0.00000E+00
         0.00000E+00
         0.00000E+00
         0.00000E+00
         0.00000E+00
         0.00000E+00
         0.00000E+00
         0.00000E+00
         0.00000E+00
         0.00000E+00
         0.00000E+00
         0.00000E+00
         0.00000E+00
         0.00000E+00
         0.00000E+00
         0.00000E+00
         0.00000E+00
         0.00000E+00
         0.00000E+00
         0.00000E+00
         0.00000E+00
         0.00000E+00
         0.00000E+00
         0.00000E+00
         0.00000E+00
         0.00000E+00
         0.00000E+00
         0.00000E+00
         0.00000E+00
         0.00000E+00
         0.00000E+00
         0.00000E+00
         0.00000E+00
         0.00000E+00
         0.00000E+00
         0.00000E+00
         0.00000E+00
         0.00000E+00
         0.00000E+00
         0.00000E+00
         0.00000E+00
         0.00000E+00
         0.00000E+00
         0.00000E+00
         0.00000E+00
         0.00000E+00
         0.00000E+00
         0.00000E+00
         0.00000E+00
         0.00000E+00
         0.00000E+00
         0.00000E+00
         0.00000E+00
         0.00000E+00
         0.00000E+00
         0.00000E+00
         0.00000E+00
         0.00000E+00
         0.00000E+00
         0.00000E+00
         0.00000E+00
         0.00000E+00
         0.00000E+00
         0.00000E+00
         0.00000E+00
         0.00000E+00
         0.00000E+00
         0.00000E+00
         0.00000E+00
         0.00000E+00
         0.00000E+00
         0.00000E+00
         0.00000E+00
         0.00000E+00
         0.00000E+00
         0.00000E+00
         0.00000E+00
         0.00000E+00
         0.00000E+00
         0.00000E+00
         0.00000E+00
         0.00000E+00
         0.00000E+00
         0.00000E+00
         0.00000E+00
         0.00000E+00
         0.00000E+00
         0.00000E+00
         0.00000E+00
         0.00000E+00
         0.00000E+00
         0.00000E+00
         0.00000E+00
         0.00000E+00
         0.00000E+00
         0.00000E+00
         0.00000E+00
         0.00000E+00
         0.00000E+00
         0.00000E+00
         0.00000E+00
         0.00000E+00
         0.00000E+00
         0.00000E+00
         0.00000E+00
         0.00000E+00
         0.00000E+00
         0.00000E+00
         0.00000E+00
         0.00000E+00
         0.00000E+00
         0.00000E+00
         0.00000E+00
         0.00000E+00
         0.00000E+00
         0.00000E+00
         0.00000E+00
         0.00000E+00
         0.00000E+00
         0.00000E+00
         0.00000E+00
         0.00000E+00
         0.00000E+00
         0.00000E+00
         0.00000E+00
         0.00000E+00
         0.00000E+00
         0.00000E+00
         0.00000E+00
         0.00000E+00
         0.00000E+00
         0.00000E+00
         0.00000E+00
         0.00000E+00
         0.00000E+00
         0.00000E+00
         0.00000E+00
         0.00000E+00
         0.00000E+00
         0.00000E+00
         0.00000E+00
         0.00000E+00
         0.00000E+00
         0.00000E+00
         0.00000E+00
         0.00000E+00
         0.00000E+00
         0.00000E+00
         0.00000E+00
         0.00000E+00
         0.00000E+00
         0.00000E+00
         0.00000E+00
         0.00000E+00
         0.00000E+00
         0.00000E+00
         0.00000E+00
         0.00000E+00
         0.00000E+00
         0.00000E+00
         0.00000E+00
         0.00000E+00
         0.00000E+00
         0.00000E+00
         0.00000E+00
         0.00000E+00
         0.00000E+00
         0.00000E+00
         0.00000E+00
         0.00000E+00
         0.00000E+00
         0.00000E+00
         0.00000E+00
         0.00000E+00
         0.00000E+00
         0.00000E+00
         0.00000E+00
         0.00000E+00
         0.00000E+00
         0.00000E+00
         0.00000E+00
         0.00000E+00
         0.00000E+00
         0.00000E+00
         0.00000E+00
         0.00000E+00
         0.00000E+00
         0.00000E+00
         0.00000E+00
         0.00000E+00
         0.00000E+00
         0.00000E+00
         0.00000E+00
         0.00000E+00
         0.00000E+00
         0.00000E+00
         0.00000E+00
         0.00000E+00
         0.00000E+00
         0.00000E+00
         0.00000E+00
         0.00000E+00
         0.00000E+00
         0.00000E+00
         0.00000E+00
         0.00000E+00
         0.00000E+00
         0.00000E+00
         0.00000E+00
         0.00000E+00
         0.00000E+00
         0.00000E+00
         0.00000E+00
         0.00000E+00
         0.00000E+00
         0.00000E+00
         0.00000E+00
         0.00000E+00
         0.00000E+00
         0.00000E+00
         0.00000E+00
         0.00000E+00
         0.00000E+00
         0.00000E+00
         0.00000E+00
         0.00000E+00
         0.00000E+00
         0.00000E+00
         0.00000E+00
         0.00000E+00
         0.00000E+00
         0.00000E+00
         0.00000E+00
         0.00000E+00
         0.00000E+00
         0.00000E+00
         0.00000E+00
         0.00000E+00
         0.00000E+00
         0.00000E+00
         0.00000E+00
         0.00000E+00
         0.00000E+00
         0.00000E+00
         0.00000E+00
         0.00000E+00
         0.00000E+00
         0.00000E+00
         0.00000E+00
         0.00000E+00
         0.00000E+00
         0.00000E+00
         0.00000E+00
         0.00000E+00
         0.00000E+00
         0.00000E+00
         0.00000E+00
         0.00000E+00
         0.00000E+00
         0.00000E+00
         0.00000E+00
         0.00000E+00
         0.00000E+00
         0.00000E+00
         0.00000E+00
         0.00000E+00
         0.00000E+00
         0.00000E+00
         0.00000E+00
         0.00000E+00
         0.00000E+00
         0.00000E+00
         0.00000E+00
         0.00000E+00
         0.00000E+00
         0.00000E+00
         0.00000E+00
         0.00000E+00
         0.00000E+00
         0.00000E+00
         0.00000E+00
         0.00000E+00
         0.00000E+00
         0.00000E+00
         0.00000E+00
         0.00000E+00
         0.00000E+00
         0.00000E+00
         0.00000E+00
         0.00000E+00
         0.00000E+00
         0.00000E+00
         0.00000E+00
         0.00000E+00
         0.00000E+00
         0.00000E+00
         0.00000E+00
         0.00000E+00
         0.00000E+00
         0.00000E+00
         0.00000E+00
         0.00000E+00
         0.00000E+00
         0.00000E+00
         0.00000E+00
         0.00000E+00
         0.00000E+00
         0.00000E+00
         0.00000E+00
         0.00000E+00
         0.00000E+00
         0.00000E+00
         0.00000E+00
         0.00000E+00
         0.00000E+00
         0.00000E+00
         0.00000E+00
         0.00000E+00
         0.00000E+00
         0.00000E+00
         0.00000E+00
         0.00000E+00
         0.00000E+00
         0.00000E+00
         0.00000E+00
         0.00000E+00
         0.00000E+00
         0.00000E+00
         0.00000E+00
         0.00000E+00
         0.00000E+00
         0.00000E+00
         0.00000E+00
         0.00000E+00
         0.00000E+00
         0.00000E+00
         0.00000E+00
         0.00000E+00
         0.00000E+00
         0.00000E+00
         0.00000E+00
         0.00000E+00
         0.00000E+00
         0.00000E+00
         0.00000E+00
         0.00000E+00
         0.00000E+00
         0.00000E+00
         0.00000E+00
         0.00000E+00
         0.00000E+00
         0.00000E+00
         0.00000E+00
         0.00000E+00
         0.00000E+00
         0.00000E+00
         0.00000E+00
         0.00000E+00
         0.00000E+00
         0.00000E+00
         0.00000E+00
         0.00000E+00
         0.00000E+00
         0.00000E+00
         0.00000E+00
         0.00000E+00
         0.00000E+00
         0.00000E+00
         0.00000E+00
         0.00000E+00
         0.00000E+00
         0.00000E+00
         0.00000E+00
         0.00000E+00
         0.00000E+00
         0.00000E+00
         0.00000E+00
         0.00000E+00
         0.00000E+00
         0.00000E+00
         0.00000E+00
         0.00000E+00
         0.00000E+00
         0.00000E+00
         0.00000E+00
         0.00000E+00
         0.00000E+00
         0.00000E+00
         0.00000E+00
         0.00000E+00
         0.00000E+00
         0.00000E+00
         0.00000E+00
         0.00000E+00
         0.00000E+00
         0.00000E+00
         0.00000E+00
         0.00000E+00
         0.00000E+00
         0.00000E+00
         0.00000E+00
         0.00000E+00
         0.00000E+00
         0.00000E+00
         0.00000E+00
         0.00000E+00
         0.00000E+00
         0.00000E+00
         0.00000E+00
         0.00000E+00
         0.00000E+00
         0.00000E+00
         0.00000E+00
         0.00000E+00
         0.00000E+00
         0.00000E+00
         0.00000E+00
         0.00000E+00
         0.00000E+00
         0.00000E+00
         0.00000E+00
         0.00000E+00
         0.00000E+00
         0.00000E+00
         0.00000E+00
         0.00000E+00
         0.00000E+00
         0.00000E+00
         0.00000E+00
         0.00000E+00
         0.00000E+00
         0.00000E+00
         0.00000E+00
         0.00000E+00
         0.00000E+00
         0.00000E+00
         0.00000E+00
         0.00000E+00
         0.00000E+00
         0.00000E+00
         0.00000E+00
         0.00000E+00
         0.00000E+00
         0.00000E+00
         0.00000E+00
         0.00000E+00
         0.00000E+00
         0.00000E+00
         0.00000E+00
         0.00000E+00
         0.00000E+00
         0.00000E+00
         0.00000E+00
         0.00000E+00
         0.00000E+00
         0.00000E+00
         0.00000E+00
         0.00000E+00
         0.00000E+00
         0.00000E+00
         0.00000E+00
         0.00000E+00
         0.00000E+00
         0.00000E+00
         0.00000E+00
         0.00000E+00
         0.00000E+00
         0.00000E+00
         0.00000E+00
         0.00000E+00
         0.00000E+00
         0.00000E+00
         0.00000E+00
         0.00000E+00
         0.00000E+00
         0.00000E+00
         0.00000E+00
         0.00000E+00
         0.00000E+00
         0.00000E+00
         0.00000E+00
         0.00000E+00
         0.00000E+00
         0.00000E+00
         0.00000E+00
         0.00000E+00
         0.00000E+00
         0.00000E+00
         0.00000E+00
         0.00000E+00
         0.00000E+00
         0.00000E+00
         0.00000E+00
         0.00000E+00
         0.00000E+00
         0.00000E+00
         0.00000E+00
         0.00000E+00
         0.00000E+00
         0.00000E+00
         0.00000E+00
         0.00000E+00
         0.00000E+00
         0.00000E+00
         0.00000E+00
         0.00000E+00
         0.00000E+00
         0.00000E+00
         0.00000E+00
         0.00000E+00
         0.00000E+00
         0.00000E+00
         0.00000E+00
         0.00000E+00
         0.00000E+00
         0.00000E+00
         0.00000E+00
         0.00000E+00
         0.00000E+00
         0.00000E+00
         0.00000E+00
         0.00000E+00
         0.00000E+00
         0.00000E+00
         0.00000E+00
         0.00000E+00
         0.00000E+00
         0.00000E+00
         0.00000E+00
         0.00000E+00
         0.00000E+00
         0.00000E+00
         0.00000E+00
         0.00000E+00
         0.00000E+00
         0.00000E+00
         0.00000E+00
         0.00000E+00
         0.00000E+00
         0.00000E+00
         0.00000E+00
         0.00000E+00
         0.00000E+00
         0.00000E+00
         0.00000E+00
         0.00000E+00
         0.00000E+00
         0.00000E+00
         0.00000E+00
         0.00000E+00
         0.00000E+00
         0.00000E+00
         0.00000E+00
         0.00000E+00
         0.00000E+00
         0.00000E+00
         0.00000E+00
         0.00000E+00
         0.00000E+00
         0.00000E+00
         0.00000E+00
         0.00000E+00
         0.00000E+00
         0.00000E+00
         0.00000E+00
         0.00000E+00
         0.00000E+00
         0.00000E+00
         0.00000E+00
         0.00000E+00
         0.00000E+00
         0.00000E+00
         0.00000E+00
         0.00000E+00
         0.00000E+00
         0.00000E+00
         0.00000E+00
         0.00000E+00
         0.00000E+00
         0.00000E+00
         0.00000E+00
         0.00000E+00
         0.00000E+00
         0.00000E+00
         0.00000E+00
         0.00000E+00
         0.00000E+00
         0.00000E+00
         0.00000E+00
         0.00000E+00
         0.00000E+00
         0.00000E+00
         0.00000E+00
         0.00000E+00
         0.00000E+00
         0.00000E+00
         0.00000E+00
         0.00000E+00
         0.00000E+00
         0.00000E+00
         0.00000E+00
         0.00000E+00
         0.00000E+00
         0.00000E+00
         0.00000E+00
         0.00000E+00
         0.00000E+00
         0.00000E+00
         0.00000E+00
         0.00000E+00
         0.00000E+00
         0.00000E+00
         0.00000E+00
         0.00000E+00
         0.00000E+00
         0.00000E+00
         0.00000E+00
         0.00000E+00
         0.00000E+00
         0.00000E+00
         0.00000E+00
         0.00000E+00
         0.00000E+00
         0.00000E+00
         0.00000E+00
         0.00000E+00
         0.00000E+00
         0.00000E+00
         0.00000E+00
         0.00000E+00
         0.00000E+00
         0.00000E+00
         0.00000E+00
         0.00000E+00
         0.00000E+00
         0.00000E+00
         0.00000E+00
         0.00000E+00
         0.00000E+00
         0.00000E+00
         0.00000E+00
         0.00000E+00
         0.00000E+00
         0.00000E+00
         0.00000E+00
         0.00000E+00
         0.00000E+00
         0.00000E+00
         0.00000E+00
         0.00000E+00
         0.00000E+00
         0.00000E+00
         0.00000E+00
         0.00000E+00
         0.00000E+00
         0.00000E+00
         0.00000E+00
         0.00000E+00
         0.00000E+00
         0.00000E+00
         0.00000E+00
         0.00000E+00
         0.00000E+00
         0.00000E+00
         0.00000E+00
         0.00000E+00
         0.00000E+00
         0.00000E+00
         0.00000E+00
         0.00000E+00
         0.00000E+00
         0.00000E+00
         0.00000E+00
         0.00000E+00
         0.00000E+00
         0.00000E+00
         0.00000E+00
         0.00000E+00
         0.00000E+00
         0.00000E+00
         0.00000E+00
         0.00000E+00
         0.00000E+00
         0.00000E+00
         0.00000E+00
         0.00000E+00
         0.00000E+00
         0.00000E+00
         0.00000E+00
         0.00000E+00
         0.00000E+00
         0.00000E+00
         0.00000E+00
         0.00000E+00
         0.00000E+00
         0.00000E+00
         0.00000E+00
         0.00000E+00
         0.00000E+00
         0.00000E+00
         0.00000E+00
         0.00000E+00
         0.00000E+00
         0.00000E+00
         0.00000E+00
         0.00000E+00
         0.00000E+00
         0.00000E+00
         0.00000E+00
         0.00000E+00
         0.00000E+00
         0.00000E+00
         0.00000E+00
         0.00000E+00
         0.00000E+00
         0.00000E+00
         0.00000E+00
         0.00000E+00
         0.00000E+00
         0.00000E+00
         0.00000E+00
         0.00000E+00
         0.00000E+00
         0.00000E+00
         0.00000E+00
         0.00000E+00
         0.00000E+00
         0.00000E+00
         0.00000E+00
         0.00000E+00
         0.00000E+00
         0.00000E+00
         0.00000E+00
         0.00000E+00
         0.00000E+00
         0.00000E+00
         0.00000E+00
         0.00000E+00
         0.00000E+00
         0.00000E+00
         0.00000E+00
         0.00000E+00
         0.00000E+00
         0.00000E+00
         0.00000E+00
         0.00000E+00
         0.00000E+00
         0.00000E+00
         0.00000E+00
         0.00000E+00
         0.00000E+00
         0.00000E+00
         0.00000E+00
         0.00000E+00
         0.00000E+00
         0.00000E+00
         0.00000E+00
         0.00000E+00
         0.00000E+00
         0.00000E+00
         0.00000E+00
         0.00000E+00
         0.00000E+00
         0.00000E+00
         0.00000E+00
         0.00000E+00
         0.00000E+00
         0.00000E+00
         0.00000E+00
         0.00000E+00
         0.00000E+00
         0.00000E+00
         0.00000E+00
         0.00000E+00
         0.00000E+00
         0.00000E+00
         0.00000E+00
         0.00000E+00
         0.00000E+00
         0.00000E+00
         0.00000E+00
         0.00000E+00
         0.00000E+00
         0.00000E+00
         0.00000E+00
         0.00000E+00
         0.00000E+00
         0.00000E+00
         0.00000E+00
         0.00000E+00
         0.00000E+00
         0.00000E+00
         0.00000E+00
         0.00000E+00
         0.00000E+00
         0.00000E+00
         0.00000E+00
         0.00000E+00
         0.00000E+00
         0.00000E+00
         0.00000E+00
         0.00000E+00
         0.00000E+00
         0.00000E+00
         0.00000E+00
         0.00000E+00
         0.00000E+00
         0.00000E+00
         0.00000E+00
         0.00000E+00
         0.00000E+00
         0.00000E+00
         0.00000E+00
         0.00000E+00
         0.00000E+00
         0.00000E+00
         0.00000E+00
         0.00000E+00
         0.00000E+00
         0.00000E+00
         0.00000E+00
         0.00000E+00
         0.00000E+00
         0.00000E+00
         0.00000E+00
         0.00000E+00
         0.00000E+00
         0.00000E+00
         0.00000E+00
         0.00000E+00
         0.00000E+00
         0.00000E+00
         0.00000E+00
         0.00000E+00
         0.00000E+00
         0.00000E+00
         0.00000E+00
         0.00000E+00
         0.00000E+00
         0.00000E+00
         0.00000E+00
         0.00000E+00
         0.00000E+00
         0.00000E+00
         0.00000E+00
         0.00000E+00
         0.00000E+00
         0.00000E+00
         0.00000E+00
         0.00000E+00
         0.00000E+00
         0.00000E+00
         0.00000E+00
         0.00000E+00
         0.00000E+00
         0.00000E+00
         0.00000E+00
         0.00000E+00
         0.00000E+00
         0.00000E+00
         0.00000E+00
         0.00000E+00
         0.00000E+00
         0.00000E+00
         0.00000E+00
         0.00000E+00
         0.00000E+00
         0.00000E+00
         0.00000E+00
         0.00000E+00
         0.00000E+00
         0.00000E+00
         0.00000E+00
         0.00000E+00
         0.00000E+00
         0.00000E+00
         0.00000E+00
         0.00000E+00
         0.00000E+00
         0.00000E+00
         0.00000E+00
         0.00000E+00
         0.00000E+00
         0.00000E+00
         0.00000E+00
         0.00000E+00
         0.00000E+00
         0.00000E+00
         0.00000E+00
         0.00000E+00
         0.00000E+00
         0.00000E+00
         0.00000E+00
         0.00000E+00
         0.00000E+00
         0.00000E+00
         0.00000E+00
         0.00000E+00
         0.00000E+00
         0.00000E+00
         0.00000E+00
         0.00000E+00
         0.00000E+00
         0.00000E+00
         0.00000E+00
         0.00000E+00
         0.00000E+00
         0.00000E+00
         0.00000E+00
         0.00000E+00
         0.00000E+00
         0.00000E+00
         0.00000E+00
         0.00000E+00
         0.00000E+00
         0.00000E+00
         0.00000E+00
         0.00000E+00
         0.00000E+00
         0.00000E+00
         0.00000E+00
         0.00000E+00
         0.00000E+00
         0.00000E+00
         0.00000E+00
         0.00000E+00
         0.00000E+00
         0.00000E+00
         0.00000E+00
         0.00000E+00
         0.00000E+00
         0.00000E+00
         0.00000E+00
         0.00000E+00
         0.00000E+00
         0.00000E+00
         0.00000E+00
         0.00000E+00
         0.00000E+00
         0.00000E+00
         0.00000E+00
         0.00000E+00
         0.00000E+00
         0.00000E+00
         0.00000E+00
         0.00000E+00
         0.00000E+00
         0.00000E+00
         0.00000E+00
         0.00000E+00
         0.00000E+00
         0.00000E+00
         0.00000E+00
         0.00000E+00
         0.00000E+00
         0.00000E+00
         0.00000E+00
         0.00000E+00
         0.00000E+00
         0.00000E+00
         0.00000E+00
         0.00000E+00
         0.00000E+00
         0.00000E+00
         0.00000E+00
         0.00000E+00
         0.00000E+00
         0.00000E+00
         0.00000E+00
         0.00000E+00
         0.00000E+00
         0.00000E+00
         0.00000E+00
         0.00000E+00
         0.00000E+00
         0.00000E+00
         0.00000E+00
         0.00000E+00
         0.00000E+00
         0.00000E+00
         0.00000E+00
         0.00000E+00
         0.00000E+00
         0.00000E+00
         0.00000E+00
         0.00000E+00
         0.00000E+00
         0.00000E+00
         0.00000E+00
         0.00000E+00
         0.00000E+00
         0.00000E+00
         0.00000E+00
         0.00000E+00
         0.00000E+00
         0.00000E+00
         0.00000E+00
         0.00000E+00
         0.00000E+00
         0.00000E+00
         0.00000E+00
         0.00000E+00
         0.00000E+00
         0.00000E+00
         0.00000E+00
         0.00000E+00
         0.00000E+00
         0.00000E+00
         0.00000E+00
         0.00000E+00
         0.00000E+00
         0.00000E+00
         0.00000E+00
         0.00000E+00
         0.00000E+00
         0.00000E+00
         0.00000E+00
         0.00000E+00
         0.00000E+00
         0.00000E+00
         0.00000E+00
         0.00000E+00
         0.00000E+00
         0.00000E+00
         0.00000E+00
         0.00000E+00
         0.00000E+00
         0.00000E+00
         0.00000E+00
         0.00000E+00
         0.00000E+00
         0.00000E+00
         0.00000E+00
         0.00000E+00
         0.00000E+00
         0.00000E+00
         0.00000E+00
         0.00000E+00
         0.00000E+00
         0.00000E+00
         0.00000E+00
         0.00000E+00
         0.00000E+00
         0.00000E+00
         0.00000E+00
         0.00000E+00
         0.00000E+00
         0.00000E+00
         0.00000E+00
         0.00000E+00
         0.00000E+00
         0.00000E+00
         0.00000E+00
         0.00000E+00
         0.00000E+00
         0.00000E+00
         0.00000E+00
         0.00000E+00
         0.00000E+00
         0.00000E+00
         0.00000E+00
         0.00000E+00
         0.00000E+00
         0.00000E+00
         0.00000E+00
         0.00000E+00
         0.00000E+00
         0.00000E+00
         0.00000E+00
         0.00000E+00
         0.00000E+00
         0.00000E+00
         0.00000E+00
         0.00000E+00
         0.00000E+00
         0.00000E+00
         0.00000E+00
         0.00000E+00
         0.00000E+00
         0.00000E+00
         0.00000E+00
         0.00000E+00
         0.00000E+00
         0.00000E+00
         0.00000E+00
         0.00000E+00
         0.00000E+00
         0.00000E+00
         0.00000E+00
         0.00000E+00
         0.00000E+00
         0.00000E+00
  
SCALARS                 displacement_z  double 1
LOOKUP_TABLE default
        -0.71503E-02
        -0.71389E-02
        -0.71372E-02
        -0.71582E-02
        -0.43940E-16
        -0.49271E-16
        -0.47179E-16
        -0.42861E-16
        -0.71158E-02
        -0.71411E-02
        -0.44307E-16
        -0.42879E-16
        -0.71265E-02
        -0.71426E-02
        -0.52645E-16
        -0.49500E-16
        -0.71512E-02
        -0.71543E-02
        -0.38901E-16
        -0.43145E-16
        -0.71179E-02
        -0.71082E-02
        -0.71129E-02
        -0.52177E-16
        -0.45567E-16
        -0.47054E-16
        -0.71378E-02
        -0.71314E-02
        -0.50055E-16
        -0.42214E-16
        -0.71603E-02
        -0.71658E-02
        -0.71564E-02
        -0.42718E-16
        -0.39713E-16
        -0.38611E-16
        -0.71376E-02
        -0.71606E-02
        -0.45193E-16
        -0.41239E-16
        -0.71308E-02
        -0.71503E-02
        -0.39059E-16
        -0.34579E-16
        -0.71129E-02
        -0.71220E-02
        -0.42803E-16
        -0.47827E-16
        -0.71674E-02
        -0.41815E-16
        -0.71346E-02
        -0.49135E-16
        -0.71589E-02
        -0.44156E-16
        -0.71659E-02
        -0.42355E-16
        -0.71466E-02
        -0.71619E-02
        -0.43156E-16
        -0.42030E-16
        -0.71551E-02
        -0.71345E-02
        -0.43276E-16
        -0.48922E-16
        -0.71538E-02
        -0.41759E-16
        -0.71453E-02
        -0.45575E-16
        -0.70839E-02
        -0.71088E-02
        -0.43869E-16
        -0.45966E-16
        -0.71180E-02
        -0.46352E-16
        -0.71446E-02
        -0.36621E-16
        -0.71422E-02
        -0.35546E-16
        -0.71188E-02
        -0.37480E-16
        -0.70922E-02
        -0.71255E-02
        -0.35710E-16
        -0.37230E-16
        -0.71526E-02
        -0.34675E-16
        -0.71152E-02
        -0.45471E-16
        -0.71055E-02
        -0.46539E-16
        -0.70813E-02
        -0.71142E-02
        -0.44693E-16
        -0.45214E-16
        -0.71366E-02
        -0.41068E-16
        -0.71334E-02
        -0.40482E-16
        -0.71155E-02
        -0.43337E-16
        -0.70899E-02
        -0.71198E-02
        -0.42498E-16
        -0.43746E-16
        -0.70158E-02
        -0.70276E-02
        -0.32995E-16
        -0.31034E-16
        -0.70263E-02
        -0.31506E-16
        -0.70177E-02
        -0.30209E-16
        -0.70185E-02
        -0.29788E-16
        -0.70173E-02
        -0.28150E-16
        -0.70241E-02
        -0.25008E-16
        -0.70271E-02
        -0.22519E-16
        -0.70253E-02
        -0.22362E-16
        -0.70239E-02
        -0.24251E-16
        -0.70136E-02
        -0.25487E-16
        -0.70268E-02
        -0.23272E-16
        -0.70315E-02
        -0.20977E-16
        -0.70303E-02
        -0.20954E-16
        -0.70250E-02
        -0.23421E-16
        -0.70197E-02
        -0.26705E-16
        -0.70170E-02
        -0.28689E-16
        -0.70252E-02
        -0.30984E-16
        -0.70173E-02
        -0.33195E-16
        -0.70293E-02
        -0.30409E-16
        -0.70252E-02
        -0.26677E-16
        -0.70213E-02
        -0.26594E-16
        -0.70281E-02
        -0.29097E-16
        -0.70186E-02
        -0.31020E-16
        -0.70281E-02
        -0.29438E-16
        -0.70283E-02
        -0.28459E-16
        -0.10078E-01
        -0.10076E-01
        -0.10076E-01
        -0.10079E-01
        -0.10073E-01
        -0.10076E-01
        -0.10074E-01
        -0.10077E-01
        -0.10079E-01
        -0.10079E-01
        -0.10073E-01
        -0.10072E-01
        -0.10072E-01
        -0.10076E-01
        -0.10075E-01
        -0.10079E-01
        -0.10081E-01
        -0.10079E-01
        -0.10076E-01
        -0.10080E-01
        -0.10075E-01
        -0.10078E-01
        -0.10072E-01
        -0.10074E-01
        -0.10081E-01
        -0.10075E-01
        -0.10079E-01
        -0.10080E-01
        -0.10077E-01
        -0.10080E-01
        -0.10079E-01
        -0.10075E-01
        -0.10079E-01
        -0.10077E-01
        -0.10068E-01
        -0.10071E-01
        -0.10073E-01
        -0.10077E-01
        -0.10077E-01
        -0.10073E-01
        -0.10069E-01
        -0.10074E-01
        -0.10078E-01
        -0.10072E-01
        -0.10071E-01
        -0.10068E-01
        -0.10072E-01
        -0.10076E-01
        -0.10075E-01
        -0.10072E-01
        -0.10069E-01
        -0.10073E-01
        -0.10061E-01
        -0.10063E-01
        -0.10063E-01
        -0.10062E-01
        -0.10062E-01
        -0.10062E-01
        -0.10063E-01
        -0.10063E-01
        -0.10063E-01
        -0.10062E-01
        -0.10060E-01
        -0.10063E-01
        -0.10064E-01
        -0.10064E-01
        -0.10063E-01
        -0.10062E-01
        -0.10062E-01
        -0.10063E-01
        -0.10061E-01
        -0.10063E-01
        -0.10063E-01
        -0.10062E-01
        -0.10063E-01
        -0.10061E-01
        -0.10063E-01
        -0.10064E-01
        -0.10318E-01
        -0.10318E-01
        -0.10318E-01
        -0.10318E-01
        -0.10318E-01
        -0.10318E-01
        -0.10318E-01
        -0.10318E-01
        -0.10318E-01
        -0.10318E-01
        -0.10318E-01
        -0.10318E-01
        -0.10318E-01
        -0.10318E-01
        -0.10318E-01
        -0.10318E-01
        -0.10318E-01
        -0.10318E-01
        -0.10318E-01
        -0.10318E-01
        -0.10318E-01
        -0.10318E-01
        -0.10318E-01
        -0.10318E-01
        -0.10318E-01
        -0.10318E-01
        -0.10318E-01
        -0.10318E-01
        -0.10318E-01
        -0.10318E-01
        -0.10318E-01
        -0.10318E-01
        -0.10318E-01
        -0.10318E-01
        -0.10318E-01
        -0.10318E-01
        -0.10318E-01
        -0.10318E-01
        -0.10318E-01
        -0.10318E-01
        -0.10318E-01
        -0.10318E-01
        -0.10318E-01
        -0.10318E-01
        -0.10318E-01
        -0.10318E-01
        -0.10318E-01
        -0.10318E-01
        -0.10318E-01
        -0.10318E-01
        -0.10318E-01
        -0.10318E-01
        -0.10318E-01
        -0.10318E-01
        -0.10318E-01
        -0.10318E-01
        -0.10318E-01
        -0.10318E-01
        -0.10318E-01
        -0.10318E-01
        -0.10318E-01
        -0.10318E-01
        -0.10318E-01
        -0.10318E-01
        -0.10318E-01
        -0.10318E-01
        -0.10318E-01
        -0.10318E-01
        -0.10318E-01
        -0.10318E-01
        -0.10318E-01
        -0.10318E-01
        -0.10318E-01
        -0.10318E-01
        -0.10318E-01
        -0.10318E-01
        -0.10318E-01
        -0.10318E-01
        -0.10318E-01
        -0.10318E-01
        -0.10318E-01
        -0.10318E-01
        -0.10318E-01
        -0.10318E-01
        -0.10318E-01
        -0.10318E-01
        -0.10318E-01
        -0.10318E-01
        -0.10318E-01
        -0.10318E-01
        -0.10318E-01
        -0.10318E-01
        -0.10318E-01
        -0.10318E-01
        -0.10318E-01
        -0.10318E-01
        -0.10318E-01
        -0.10318E-01
        -0.10318E-01
        -0.10318E-01
        -0.10318E-01
        -0.10318E-01
        -0.10318E-01
        -0.10318E-01
        -0.10318E-01
        -0.10318E-01
        -0.10318E-01
        -0.10318E-01
        -0.10318E-01
        -0.10318E-01
        -0.10318E-01
        -0.10318E-01
        -0.10318E-01
        -0.10318E-01
        -0.10318E-01
        -0.10318E-01
        -0.10318E-01
        -0.10318E-01
        -0.10318E-01
        -0.10318E-01
        -0.10318E-01
        -0.10318E-01
        -0.10318E-01
        -0.10318E-01
        -0.10318E-01
        -0.10318E-01
        -0.10318E-01
        -0.10318E-01
        -0.10318E-01
        -0.10318E-01
        -0.10318E-01
        -0.10318E-01
        -0.10318E-01
        -0.10318E-01
        -0.10318E-01
        -0.10318E-01
        -0.10318E-01
        -0.10318E-01
        -0.10318E-01
        -0.10318E-01
        -0.10318E-01
        -0.10318E-01
        -0.10318E-01
        -0.10318E-01
        -0.10318E-01
        -0.10318E-01
        -0.10318E-01
        -0.10318E-01
        -0.10318E-01
        -0.10318E-01
        -0.10318E-01
        -0.10318E-01
        -0.10318E-01
        -0.10318E-01
        -0.10318E-01
        -0.10318E-01
        -0.10318E-01
        -0.10318E-01
        -0.10318E-01
        -0.10318E-01
        -0.10318E-01
        -0.10318E-01
        -0.10318E-01
        -0.10318E-01
        -0.10318E-01
        -0.10318E-01
        -0.10318E-01
        -0.10318E-01
        -0.10318E-01
        -0.10318E-01
        -0.10318E-01
        -0.10318E-01
        -0.10318E-01
        -0.10318E-01
        -0.10318E-01
        -0.10318E-01
        -0.10318E-01
        -0.10318E-01
        -0.10318E-01
        -0.10318E-01
        -0.10318E-01
        -0.10318E-01
        -0.10318E-01
        -0.10318E-01
        -0.10318E-01
        -0.10318E-01
        -0.10318E-01
        -0.10318E-01
        -0.10318E-01
        -0.10318E-01
        -0.10318E-01
        -0.10318E-01
        -0.10318E-01
        -0.10318E-01
        -0.10318E-01
        -0.10318E-01
        -0.10318E-01
        -0.10318E-01
        -0.10318E-01
        -0.10318E-01
        -0.10318E-01
        -0.10318E-01
        -0.10318E-01
        -0.10318E-01
        -0.10318E-01
        -0.10318E-01
        -0.10318E-01
        -0.10318E-01
        -0.10318E-01
        -0.10318E-01
        -0.10318E-01
        -0.10318E-01
        -0.10318E-01
        -0.10318E-01
        -0.10318E-01
        -0.10318E-01
        -0.10318E-01
        -0.10318E-01
        -0.10318E-01
        -0.10318E-01
        -0.10318E-01
        -0.10318E-01
        -0.10318E-01
        -0.10318E-01
        -0.10318E-01
        -0.10318E-01
        -0.10318E-01
        -0.10318E-01
        -0.10318E-01
        -0.10318E-01
        -0.10318E-01
        -0.10318E-01
        -0.10318E-01
        -0.10318E-01
        -0.10318E-01
        -0.10318E-01
        -0.10318E-01
        -0.10318E-01
        -0.10318E-01
        -0.10318E-01
        -0.10318E-01
        -0.10318E-01
        -0.10318E-01
        -0.10318E-01
        -0.10318E-01
        -0.10318E-01
        -0.10318E-01
        -0.10318E-01
        -0.10318E-01
        -0.10318E-01
        -0.10318E-01
        -0.10318E-01
        -0.10318E-01
        -0.10318E-01
        -0.10318E-01
        -0.10318E-01
        -0.10318E-01
        -0.10318E-01
        -0.10318E-01
        -0.10318E-01
        -0.10318E-01
        -0.10318E-01
        -0.10318E-01
        -0.10318E-01
        -0.10318E-01
        -0.10318E-01
        -0.10318E-01
        -0.10318E-01
        -0.10318E-01
        -0.10318E-01
        -0.10318E-01
        -0.10318E-01
        -0.10318E-01
        -0.10318E-01
        -0.10318E-01
        -0.10318E-01
        -0.10318E-01
        -0.10318E-01
        -0.10318E-01
        -0.10318E-01
        -0.10318E-01
        -0.10318E-01
        -0.10318E-01
        -0.10318E-01
        -0.10318E-01
        -0.10318E-01
        -0.10318E-01
        -0.10318E-01
        -0.10318E-01
        -0.10318E-01
        -0.10318E-01
        -0.10318E-01
        -0.10318E-01
        -0.10318E-01
        -0.10318E-01
        -0.10318E-01
        -0.10318E-01
        -0.10318E-01
        -0.10318E-01
        -0.10318E-01
        -0.10318E-01
        -0.10318E-01
        -0.10318E-01
        -0.10318E-01
        -0.10318E-01
        -0.10318E-01
        -0.10318E-01
        -0.10318E-01
        -0.10318E-01
        -0.10318E-01
        -0.10318E-01
        -0.10318E-01
        -0.10318E-01
        -0.10318E-01
        -0.10318E-01
        -0.10318E-01
        -0.10318E-01
        -0.10318E-01
        -0.10318E-01
        -0.10318E-01
        -0.10318E-01
        -0.10318E-01
        -0.10318E-01
        -0.10318E-01
        -0.10318E-01
        -0.10318E-01
        -0.10318E-01
        -0.10318E-01
        -0.10318E-01
        -0.10318E-01
        -0.10318E-01
        -0.10318E-01
        -0.10318E-01
        -0.10318E-01
        -0.10318E-01
        -0.10318E-01
        -0.10318E-01
        -0.10318E-01
        -0.10318E-01
        -0.10318E-01
        -0.10318E-01
        -0.10318E-01
        -0.10318E-01
        -0.10318E-01
        -0.10318E-01
        -0.10318E-01
        -0.10318E-01
        -0.10318E-01
        -0.10318E-01
        -0.10318E-01
        -0.10318E-01
        -0.10318E-01
        -0.10318E-01
        -0.10318E-01
        -0.10318E-01
        -0.10318E-01
        -0.10318E-01
        -0.10318E-01
        -0.10318E-01
        -0.10318E-01
        -0.10318E-01
        -0.10318E-01
        -0.10318E-01
        -0.10318E-01
        -0.10318E-01
        -0.10318E-01
        -0.10318E-01
        -0.10318E-01
        -0.10318E-01
        -0.10318E-01
        -0.10318E-01
        -0.10318E-01
        -0.10318E-01
        -0.10318E-01
        -0.10318E-01
        -0.10318E-01
        -0.10318E-01
        -0.10318E-01
        -0.10318E-01
        -0.10318E-01
        -0.10318E-01
        -0.10318E-01
        -0.10318E-01
        -0.10318E-01
        -0.10318E-01
        -0.10318E-01
        -0.10318E-01
        -0.10318E-01
        -0.10318E-01
        -0.10318E-01
        -0.10318E-01
        -0.10318E-01
        -0.10318E-01
        -0.10318E-01
        -0.10318E-01
        -0.10318E-01
        -0.10318E-01
        -0.10318E-01
        -0.10318E-01
        -0.10318E-01
        -0.10318E-01
        -0.10318E-01
        -0.10318E-01
        -0.10318E-01
        -0.10318E-01
        -0.10318E-01
        -0.10318E-01
        -0.10318E-01
        -0.10318E-01
        -0.10318E-01
        -0.10318E-01
        -0.10318E-01
        -0.10318E-01
        -0.10318E-01
        -0.10318E-01
        -0.10318E-01
        -0.10318E-01
        -0.10318E-01
        -0.10318E-01
        -0.10318E-01
        -0.10318E-01
        -0.10318E-01
        -0.10318E-01
        -0.10318E-01
        -0.10318E-01
        -0.10318E-01
        -0.10318E-01
        -0.10318E-01
        -0.10318E-01
        -0.10318E-01
        -0.10318E-01
        -0.10318E-01
        -0.10318E-01
        -0.10318E-01
        -0.10318E-01
        -0.10318E-01
        -0.10318E-01
        -0.10318E-01
        -0.10318E-01
        -0.10318E-01
        -0.10318E-01
        -0.10318E-01
        -0.10318E-01
        -0.10318E-01
        -0.10318E-01
        -0.10318E-01
        -0.10318E-01
        -0.10318E-01
        -0.10318E-01
        -0.10318E-01
        -0.10318E-01
        -0.10318E-01
        -0.10318E-01
        -0.10318E-01
        -0.10318E-01
        -0.10318E-01
        -0.10318E-01
        -0.10318E-01
        -0.10318E-01
        -0.10318E-01
        -0.10318E-01
        -0.10318E-01
        -0.10318E-01
        -0.10318E-01
        -0.10318E-01
        -0.10318E-01
        -0.10318E-01
        -0.10318E-01
        -0.10318E-01
        -0.10318E-01
        -0.10318E-01
        -0.10318E-01
        -0.10318E-01
        -0.10318E-01
        -0.10318E-01
        -0.10318E-01
        -0.10318E-01
        -0.10318E-01
        -0.10318E-01
        -0.10318E-01
        -0.10318E-01
        -0.10318E-01
        -0.10318E-01
        -0.10318E-01
        -0.10318E-01
        -0.10318E-01
        -0.10318E-01
        -0.10318E-01
        -0.10318E-01
        -0.10318E-01
        -0.10318E-01
        -0.10318E-01
        -0.10318E-01
        -0.10318E-01
        -0.10318E-01
        -0.10318E-01
        -0.10318E-01
        -0.10318E-01
        -0.10318E-01
        -0.10318E-01
        -0.10318E-01
        -0.10318E-01
        -0.10318E-01
        -0.10318E-01
        -0.10318E-01
        -0.10318E-01
        -0.10318E-01
        -0.10318E-01
        -0.10318E-01
        -0.10318E-01
        -0.10318E-01
        -0.10318E-01
        -0.10318E-01
        -0.10318E-01
        -0.10318E-01
        -0.10318E-01
        -0.10318E-01
        -0.10318E-01
        -0.10318E-01
        -0.10318E-01
        -0.10318E-01
        -0.10318E-01
        -0.10318E-01
        -0.10318E-01
        -0.10318E-01
        -0.10318E-01
        -0.10318E-01
        -0.10318E-01
        -0.10318E-01
        -0.10318E-01
        -0.10318E-01
        -0.10318E-01
        -0.10318E-01
        -0.10318E-01
        -0.10318E-01
        -0.10318E-01
        -0.10318E-01
        -0.10318E-01
        -0.10318E-01
        -0.10318E-01
        -0.10318E-01
        -0.10318E-01
        -0.10318E-01
        -0.10318E-01
        -0.10318E-01
        -0.10318E-01
        -0.10318E-01
        -0.10318E-01
        -0.10318E-01
        -0.10318E-01
        -0.10318E-01
        -0.10318E-01
        -0.10318E-01
        -0.10318E-01
        -0.10318E-01
        -0.10318E-01
        -0.10318E-01
        -0.10318E-01
        -0.10318E-01
        -0.10318E-01
        -0.10318E-01
        -0.10318E-01
        -0.10318E-01
        -0.10318E-01
        -0.10318E-01
        -0.10318E-01
        -0.10318E-01
        -0.10318E-01
        -0.10318E-01
        -0.10318E-01
        -0.10318E-01
        -0.10318E-01
        -0.10318E-01
        -0.10318E-01
        -0.10318E-01
        -0.10318E-01
        -0.10318E-01
        -0.10318E-01
        -0.10318E-01
        -0.10318E-01
        -0.10318E-01
        -0.10318E-01
        -0.10318E-01
        -0.10318E-01
        -0.10318E-01
        -0.10318E-01
        -0.10318E-01
        -0.10318E-01
        -0.10318E-01
        -0.10318E-01
        -0.10318E-01
        -0.10318E-01
        -0.10318E-01
        -0.10318E-01
        -0.10318E-01
        -0.10318E-01
        -0.10318E-01
        -0.10318E-01
        -0.10318E-01
        -0.10318E-01
        -0.10318E-01
        -0.10318E-01
        -0.10318E-01
        -0.10318E-01
        -0.10318E-01
        -0.10318E-01
        -0.10318E-01
        -0.10318E-01
        -0.10318E-01
        -0.10318E-01
        -0.10318E-01
        -0.10318E-01
        -0.10318E-01
        -0.10318E-01
        -0.10318E-01
        -0.10318E-01
        -0.10318E-01
        -0.10318E-01
        -0.10318E-01
        -0.10318E-01
        -0.10318E-01
        -0.10318E-01
        -0.10318E-01
        -0.10318E-01
        -0.10318E-01
        -0.10318E-01
        -0.10318E-01
        -0.10318E-01
        -0.10318E-01
        -0.10318E-01
        -0.10318E-01
        -0.10318E-01
        -0.10318E-01
        -0.10318E-01
        -0.10318E-01
        -0.10318E-01
        -0.10318E-01
        -0.10318E-01
        -0.10318E-01
        -0.10318E-01
        -0.10318E-01
        -0.10318E-01
        -0.10318E-01
        -0.10318E-01
        -0.10318E-01
        -0.10318E-01
        -0.10318E-01
        -0.10318E-01
        -0.10318E-01
        -0.10318E-01
        -0.10318E-01
        -0.10318E-01
        -0.10318E-01
        -0.10318E-01
        -0.10318E-01
        -0.10318E-01
        -0.10318E-01
        -0.10318E-01
        -0.10318E-01
        -0.10318E-01
        -0.10318E-01
        -0.10318E-01
        -0.10318E-01
        -0.10318E-01
        -0.10318E-01
        -0.10318E-01
        -0.10318E-01
        -0.10318E-01
        -0.10318E-01
        -0.10318E-01
        -0.10318E-01
        -0.10318E-01
        -0.10318E-01
        -0.10318E-01
        -0.10318E-01
        -0.10318E-01
        -0.10318E-01
        -0.10318E-01
        -0.10318E-01
        -0.10318E-01
        -0.10318E-01
        -0.10318E-01
        -0.10318E-01
        -0.10318E-01
        -0.10318E-01
        -0.10318E-01
        -0.10318E-01
        -0.10318E-01
        -0.10318E-01
        -0.10318E-01
        -0.10318E-01
        -0.10318E-01
        -0.10318E-01
        -0.10318E-01
        -0.10318E-01
        -0.10318E-01
        -0.10318E-01
        -0.10318E-01
        -0.10318E-01
        -0.10318E-01
        -0.10318E-01
        -0.10318E-01
        -0.10318E-01
        -0.10318E-01
        -0.10318E-01
        -0.10318E-01
        -0.10318E-01
        -0.10318E-01
        -0.10318E-01
        -0.10318E-01
        -0.10318E-01
        -0.10318E-01
        -0.10318E-01
        -0.10318E-01
        -0.10318E-01
        -0.10318E-01
        -0.10318E-01
        -0.10318E-01
        -0.10318E-01
        -0.10318E-01
        -0.10318E-01
        -0.10318E-01
        -0.10318E-01
        -0.10318E-01
        -0.10318E-01
        -0.10318E-01
        -0.10318E-01
        -0.10318E-01
        -0.10318E-01
        -0.10318E-01
        -0.10318E-01
        -0.10318E-01
        -0.10318E-01
        -0.10318E-01
        -0.10318E-01
        -0.10318E-01
        -0.10318E-01
        -0.10318E-01
        -0.10318E-01
        -0.10318E-01
        -0.10318E-01
        -0.10318E-01
        -0.10318E-01
        -0.10318E-01
        -0.10318E-01
        -0.10318E-01
        -0.10318E-01
        -0.10318E-01
        -0.10318E-01
        -0.10318E-01
        -0.10318E-01
        -0.10318E-01
        -0.10318E-01
        -0.10318E-01
        -0.10318E-01
        -0.10318E-01
        -0.10318E-01
        -0.10318E-01
        -0.10318E-01
        -0.10318E-01
        -0.10318E-01
        -0.10318E-01
        -0.10318E-01
        -0.10318E-01
        -0.10318E-01
        -0.10318E-01
        -0.10318E-01
        -0.10318E-01
        -0.10318E-01
        -0.10318E-01
        -0.10318E-01
        -0.10318E-01
        -0.10318E-01
        -0.10318E-01
        -0.10318E-01
        -0.10318E-01
        -0.10318E-01
        -0.10318E-01
        -0.10318E-01
        -0.10318E-01
        -0.10318E-01
        -0.10318E-01
        -0.10318E-01
        -0.10318E-01
        -0.10318E-01
        -0.10318E-01
        -0.10318E-01
        -0.10318E-01
        -0.10318E-01
        -0.10318E-01
        -0.10318E-01
        -0.10318E-01
        -0.10318E-01
        -0.10318E-01
        -0.10318E-01
        -0.10318E-01
        -0.10318E-01
        -0.10318E-01
        -0.10318E-01
        -0.10318E-01
        -0.10318E-01
        -0.10318E-01
        -0.10318E-01
        -0.10318E-01
        -0.10318E-01
        -0.10318E-01
        -0.10318E-01
        -0.10318E-01
        -0.10318E-01
        -0.10318E-01
        -0.10318E-01
        -0.10318E-01
        -0.10318E-01
        -0.10318E-01
        -0.10318E-01
        -0.10318E-01
        -0.10318E-01
        -0.10318E-01
        -0.10318E-01
        -0.10318E-01
        -0.10318E-01
        -0.10318E-01
        -0.10318E-01
        -0.10318E-01
        -0.10318E-01
        -0.10318E-01
        -0.10318E-01
        -0.10318E-01
        -0.10318E-01
        -0.10318E-01
        -0.10318E-01
        -0.10318E-01
        -0.10318E-01
        -0.10318E-01
        -0.10318E-01
        -0.10318E-01
        -0.10318E-01
        -0.10318E-01
        -0.10318E-01
        -0.10318E-01
        -0.10318E-01
        -0.10318E-01
        -0.10318E-01
        -0.10318E-01
        -0.10318E-01
        -0.10318E-01
        -0.10318E-01
        -0.10318E-01
        -0.10318E-01
        -0.10318E-01
        -0.10318E-01
        -0.10318E-01
        -0.10318E-01
        -0.10318E-01
        -0.10318E-01
        -0.10318E-01
        -0.10318E-01
        -0.10318E-01
        -0.10318E-01
        -0.10318E-01
        -0.10318E-01
        -0.10318E-01
        -0.10318E-01
        -0.10318E-01
        -0.10318E-01
        -0.10318E-01
        -0.10318E-01
        -0.10318E-01
        -0.10318E-01
        -0.10318E-01
        -0.10318E-01
        -0.10318E-01
        -0.10318E-01
        -0.10318E-01
        -0.10318E-01
        -0.10318E-01
        -0.10318E-01
        -0.10318E-01
        -0.10318E-01
        -0.10318E-01
        -0.10318E-01
        -0.10318E-01
        -0.10318E-01
        -0.10318E-01
        -0.10318E-01
        -0.10318E-01
        -0.10318E-01
        -0.10318E-01
        -0.10318E-01
        -0.10318E-01
        -0.10318E-01
        -0.10318E-01
        -0.10318E-01
        -0.10318E-01
        -0.10318E-01
        -0.10318E-01
        -0.10318E-01
        -0.10318E-01
        -0.10318E-01
        -0.10318E-01
        -0.10318E-01
        -0.10318E-01
        -0.10318E-01
        -0.10318E-01
        -0.10318E-01
        -0.10318E-01
        -0.10318E-01
        -0.10318E-01
        -0.10318E-01
        -0.10318E-01
        -0.10318E-01
        -0.10318E-01
        -0.10318E-01
        -0.10318E-01
        -0.10318E-01
        -0.10318E-01
        -0.10318E-01
        -0.10318E-01
        -0.10318E-01
        -0.10318E-01
        -0.10318E-01
        -0.10318E-01
        -0.10318E-01
        -0.10318E-01
        -0.10318E-01
        -0.10318E-01
        -0.10318E-01
        -0.10318E-01
        -0.10318E-01
        -0.10318E-01
        -0.10318E-01
        -0.10318E-01
        -0.10318E-01
        -0.10318E-01
        -0.10318E-01
        -0.10318E-01
        -0.10318E-01
        -0.10318E-01
        -0.10318E-01
        -0.10318E-01
        -0.10318E-01
        -0.10318E-01
        -0.10318E-01
        -0.10318E-01
        -0.10318E-01
        -0.10318E-01
        -0.10318E-01
        -0.10318E-01
        -0.10318E-01
        -0.10318E-01
        -0.10318E-01
        -0.10318E-01
        -0.10318E-01
        -0.10318E-01
        -0.10318E-01
        -0.10318E-01
        -0.10318E-01
        -0.10318E-01
        -0.10318E-01
        -0.10318E-01
        -0.10318E-01
        -0.10318E-01
        -0.10318E-01
        -0.10318E-01
        -0.10318E-01
        -0.10318E-01
        -0.10318E-01
        -0.10318E-01
        -0.10318E-01
        -0.10318E-01
        -0.10318E-01
        -0.10318E-01
        -0.10318E-01
        -0.10318E-01
        -0.10318E-01
        -0.10318E-01
        -0.10318E-01
        -0.10318E-01
        -0.10318E-01
        -0.10318E-01
        -0.10318E-01
        -0.10318E-01
        -0.10318E-01
        -0.10318E-01
        -0.10318E-01
        -0.10318E-01
        -0.10318E-01
        -0.10318E-01
        -0.10318E-01
        -0.10318E-01
        -0.10318E-01
        -0.10318E-01
        -0.10318E-01
        -0.10318E-01
        -0.10318E-01
        -0.10318E-01
        -0.10318E-01
        -0.10318E-01
        -0.10318E-01
        -0.10318E-01
        -0.10318E-01
        -0.10318E-01
        -0.10318E-01
        -0.10318E-01
        -0.10318E-01
        -0.10318E-01
        -0.10318E-01
        -0.10318E-01
        -0.10318E-01
        -0.10318E-01
        -0.10318E-01
        -0.10318E-01
        -0.10318E-01
        -0.10318E-01
        -0.10318E-01
        -0.10318E-01
        -0.10318E-01
        -0.10318E-01
        -0.10318E-01
        -0.10318E-01
        -0.10318E-01
        -0.10318E-01
        -0.10318E-01
        -0.10318E-01
        -0.10318E-01
        -0.10318E-01
        -0.10318E-01
        -0.10318E-01
        -0.10318E-01
        -0.10318E-01
        -0.10318E-01
        -0.10318E-01
        -0.10318E-01
        -0.10318E-01
        -0.10318E-01
        -0.10318E-01
        -0.10318E-01
        -0.10318E-01
        -0.10318E-01
        -0.10318E-01
        -0.10318E-01
        -0.10318E-01
        -0.10318E-01
        -0.10318E-01
        -0.10318E-01
        -0.10318E-01
        -0.10318E-01
        -0.10318E-01
        -0.10318E-01
        -0.10318E-01
        -0.10318E-01
        -0.10318E-01
        -0.10318E-01
        -0.10318E-01
        -0.10318E-01
        -0.10318E-01
        -0.10318E-01
        -0.10318E-01
        -0.10318E-01
        -0.10318E-01
        -0.10318E-01
        -0.10318E-01
        -0.10318E-01
        -0.10318E-01
        -0.10318E-01
        -0.10318E-01
        -0.10318E-01
        -0.10318E-01
        -0.10318E-01
        -0.10318E-01
        -0.10318E-01
        -0.10318E-01
        -0.10318E-01
        -0.10318E-01
        -0.10318E-01
        -0.10318E-01
        -0.10318E-01
        -0.10318E-01
        -0.10318E-01
        -0.10318E-01
        -0.10318E-01
        -0.10318E-01
        -0.10318E-01
        -0.10318E-01
        -0.10318E-01
        -0.10318E-01
        -0.10318E-01
        -0.10318E-01
        -0.10318E-01
        -0.10318E-01
        -0.10318E-01
        -0.10318E-01
        -0.10318E-01
        -0.10318E-01
        -0.10318E-01
        -0.10318E-01
        -0.10318E-01
        -0.10318E-01
        -0.10318E-01
        -0.10318E-01
        -0.10318E-01
        -0.10318E-01
        -0.10318E-01
        -0.10318E-01
        -0.10318E-01
        -0.10318E-01
        -0.10318E-01
        -0.10318E-01
        -0.10318E-01
        -0.10318E-01
        -0.10318E-01
        -0.10318E-01
        -0.10318E-01
        -0.10318E-01
        -0.10318E-01
        -0.10318E-01
        -0.10318E-01
        -0.10318E-01
        -0.10318E-01
        -0.10318E-01
        -0.10318E-01
        -0.10318E-01
        -0.10318E-01
        -0.10318E-01
        -0.10318E-01
        -0.10318E-01
        -0.10318E-01
        -0.10318E-01
        -0.10318E-01
        -0.10318E-01
        -0.10318E-01
        -0.10318E-01
        -0.10318E-01
        -0.10318E-01
        -0.10318E-01
        -0.10318E-01
        -0.10318E-01
        -0.10318E-01
        -0.10318E-01
        -0.10318E-01
        -0.10318E-01
        -0.10318E-01
        -0.10318E-01
        -0.10318E-01
        -0.10318E-01
        -0.10318E-01
        -0.10318E-01
        -0.10318E-01
        -0.10318E-01
        -0.10318E-01
        -0.10318E-01
        -0.10318E-01
        -0.10318E-01
        -0.10318E-01
        -0.10318E-01
        -0.10318E-01
        -0.10318E-01
        -0.10318E-01
        -0.10318E-01
        -0.10318E-01
        -0.10318E-01
        -0.10318E-01
        -0.10318E-01
        -0.10318E-01
        -0.10318E-01
        -0.10318E-01
        -0.10318E-01
        -0.10318E-01
        -0.10318E-01
        -0.10318E-01
        -0.10318E-01
        -0.10318E-01
        -0.10318E-01
        -0.10318E-01
        -0.10318E-01
        -0.10318E-01
        -0.10318E-01
        -0.10318E-01
        -0.10318E-01
        -0.10318E-01
        -0.10318E-01
        -0.10318E-01
        -0.10318E-01
        -0.10318E-01
        -0.10318E-01
        -0.10318E-01
        -0.10318E-01
        -0.10318E-01
        -0.10318E-01
        -0.10318E-01
        -0.10318E-01
        -0.10318E-01
        -0.10318E-01
        -0.10318E-01
        -0.10318E-01
        -0.10318E-01
        -0.10318E-01
        -0.10318E-01
        -0.10318E-01
        -0.10318E-01
        -0.10318E-01
        -0.10318E-01
        -0.10318E-01
        -0.10318E-01
        -0.10318E-01
        -0.10318E-01
        -0.10318E-01
        -0.10318E-01
        -0.10318E-01
        -0.10318E-01
        -0.10318E-01
        -0.10318E-01
        -0.10318E-01
        -0.10318E-01
        -0.10318E-01
        -0.10318E-01
        -0.10318E-01
        -0.10318E-01
        -0.10318E-01
        -0.10318E-01
        -0.10318E-01
        -0.10318E-01
        -0.10318E-01
        -0.10318E-01
        -0.10318E-01
        -0.10318E-01
        -0.10318E-01
        -0.10318E-01
        -0.10318E-01
        -0.10318E-01
        -0.10318E-01
        -0.10318E-01
        -0.10318E-01
        -0.10318E-01
        -0.10318E-01
        -0.10318E-01
        -0.10318E-01
        -0.10318E-01
        -0.10318E-01
        -0.10318E-01
        -0.10318E-01
        -0.10318E-01
        -0.10318E-01
        -0.10318E-01
        -0.10318E-01
        -0.10318E-01
        -0.10318E-01
        -0.10318E-01
        -0.10318E-01
        -0.10318E-01
        -0.10318E-01
        -0.10318E-01
        -0.10318E-01
        -0.10318E-01
        -0.10318E-01
        -0.10318E-01
        -0.10318E-01
        -0.10318E-01
        -0.10318E-01
        -0.10318E-01
        -0.10318E-01
        -0.10318E-01
        -0.10318E-01
        -0.10318E-01
        -0.10318E-01
        -0.10318E-01
        -0.10318E-01
        -0.10318E-01
        -0.10318E-01
        -0.10318E-01
        -0.10318E-01
        -0.10318E-01
        -0.10318E-01
        -0.10318E-01
        -0.10318E-01
        -0.10318E-01
        -0.10318E-01
        -0.10318E-01
        -0.10318E-01
        -0.10318E-01
        -0.10318E-01
        -0.10318E-01
        -0.10318E-01
        -0.10318E-01
        -0.10318E-01
        -0.10318E-01
        -0.10318E-01
        -0.10318E-01
        -0.10318E-01
        -0.10318E-01
        -0.10318E-01
        -0.10318E-01
        -0.10318E-01
        -0.10318E-01
        -0.10318E-01
        -0.10318E-01
        -0.10318E-01
        -0.10318E-01
        -0.10318E-01
        -0.10318E-01
        -0.10318E-01
        -0.10318E-01
        -0.10318E-01
        -0.10318E-01
        -0.10318E-01
        -0.10318E-01
        -0.10318E-01
        -0.10318E-01
        -0.10318E-01
        -0.10318E-01
        -0.10318E-01
        -0.10318E-01
        -0.10318E-01
        -0.10318E-01
        -0.10318E-01
        -0.10318E-01
        -0.10318E-01
        -0.10318E-01
        -0.10318E-01
        -0.10318E-01
        -0.10318E-01
        -0.10318E-01
        -0.10318E-01
        -0.10318E-01
        -0.10318E-01
        -0.10318E-01
        -0.10318E-01
        -0.10318E-01
        -0.10318E-01
        -0.10318E-01
        -0.10318E-01
        -0.10318E-01
        -0.10318E-01
        -0.10318E-01
        -0.10318E-01
        -0.10318E-01
        -0.10318E-01
        -0.10318E-01
        -0.10318E-01
        -0.10318E-01
        -0.10318E-01
        -0.10318E-01
        -0.10318E-01
        -0.10318E-01
        -0.10318E-01
        -0.10318E-01
        -0.10318E-01
        -0.10318E-01
        -0.10318E-01
        -0.10318E-01
        -0.10318E-01
        -0.10318E-01
        -0.10318E-01
        -0.10318E-01
        -0.10318E-01
        -0.10318E-01
        -0.10318E-01
        -0.10318E-01
        -0.10318E-01
        -0.10318E-01
        -0.10318E-01
        -0.10318E-01
        -0.10318E-01
        -0.10318E-01
        -0.10318E-01
        -0.10318E-01
        -0.10318E-01
        -0.10318E-01
        -0.10318E-01
        -0.10318E-01
        -0.10318E-01
        -0.10318E-01
        -0.10318E-01
        -0.10318E-01
        -0.10318E-01
        -0.10318E-01
        -0.10318E-01
        -0.10318E-01
        -0.10318E-01
        -0.10318E-01
        -0.10318E-01
        -0.10318E-01
        -0.10318E-01
        -0.10318E-01
        -0.10318E-01
        -0.10318E-01
        -0.10318E-01
        -0.10318E-01
        -0.10318E-01
        -0.10318E-01
        -0.10318E-01
        -0.10318E-01
        -0.10318E-01
        -0.10318E-01
        -0.10318E-01
        -0.10318E-01
        -0.10318E-01
        -0.10318E-01
        -0.10318E-01
        -0.10318E-01
        -0.10318E-01
        -0.10318E-01
        -0.10318E-01
        -0.10318E-01
        -0.10318E-01
        -0.10318E-01
        -0.10318E-01
        -0.10318E-01
        -0.10318E-01
        -0.10318E-01
        -0.10318E-01
        -0.10318E-01
        -0.10318E-01
        -0.10318E-01
        -0.10318E-01
        -0.10318E-01
        -0.10318E-01
        -0.10318E-01
        -0.10318E-01
        -0.10318E-01
        -0.10318E-01
        -0.10318E-01
        -0.10318E-01
        -0.10318E-01
        -0.10318E-01
        -0.10318E-01
        -0.10318E-01
        -0.10318E-01
        -0.10318E-01
        -0.10318E-01
        -0.10318E-01
        -0.10318E-01
        -0.10318E-01
        -0.10318E-01
        -0.10318E-01
        -0.10318E-01
        -0.10318E-01
        -0.10318E-01
        -0.10318E-01
        -0.10318E-01
        -0.10318E-01
        -0.10318E-01
        -0.10318E-01
        -0.10318E-01
        -0.10318E-01
        -0.10318E-01
        -0.10318E-01
        -0.10318E-01
        -0.10318E-01
        -0.10318E-01
        -0.10318E-01
        -0.10318E-01
        -0.10318E-01
        -0.10318E-01
        -0.10318E-01
        -0.10318E-01
        -0.10318E-01
        -0.10318E-01
        -0.10318E-01
        -0.10318E-01
        -0.10318E-01
        -0.10318E-01
        -0.10318E-01
        -0.10318E-01
        -0.10318E-01
        -0.10318E-01
        -0.10318E-01
        -0.10318E-01
        -0.10318E-01
        -0.10318E-01
        -0.10318E-01
        -0.10318E-01
        -0.10318E-01
        -0.10318E-01
        -0.10318E-01
        -0.10318E-01
        -0.10318E-01
        -0.10318E-01
        -0.10318E-01
        -0.10318E-01
        -0.10318E-01
        -0.10318E-01
        -0.10318E-01
        -0.10318E-01
        -0.10318E-01
        -0.10318E-01
        -0.10318E-01
        -0.10318E-01
        -0.10318E-01
        -0.10318E-01
        -0.10318E-01
        -0.10318E-01
        -0.10318E-01
        -0.10318E-01
        -0.10318E-01
        -0.10318E-01
        -0.10318E-01
        -0.10318E-01
        -0.10318E-01
        -0.10318E-01
        -0.10318E-01
        -0.10318E-01
        -0.10318E-01
        -0.10318E-01
        -0.10318E-01
        -0.10318E-01
        -0.10318E-01
        -0.10318E-01
        -0.10318E-01
        -0.10318E-01
        -0.10318E-01
        -0.10318E-01
        -0.10318E-01
        -0.10318E-01
        -0.10318E-01
        -0.10318E-01
        -0.10318E-01
        -0.10318E-01
        -0.10318E-01
        -0.10318E-01
        -0.10318E-01
        -0.10318E-01
        -0.10318E-01
        -0.10318E-01
        -0.10318E-01
        -0.10318E-01
        -0.10318E-01
        -0.10318E-01
        -0.10318E-01
        -0.10318E-01
        -0.10318E-01
        -0.10318E-01
        -0.10318E-01
        -0.10318E-01
        -0.10318E-01
        -0.10318E-01
        -0.10318E-01
        -0.10318E-01
        -0.10318E-01
        -0.10318E-01
        -0.10318E-01
        -0.10318E-01
        -0.10318E-01
        -0.10318E-01
        -0.10318E-01
        -0.10318E-01
        -0.10318E-01
        -0.10318E-01
        -0.10318E-01
        -0.10318E-01
        -0.10318E-01
        -0.10318E-01
        -0.10318E-01
        -0.10318E-01
        -0.10318E-01
        -0.10318E-01
        -0.10318E-01
        -0.10318E-01
        -0.10318E-01
        -0.10318E-01
        -0.10318E-01
        -0.10318E-01
        -0.10318E-01
        -0.10318E-01
        -0.10318E-01
        -0.10318E-01
        -0.10318E-01
        -0.10318E-01
        -0.10318E-01
        -0.10318E-01
        -0.10318E-01
        -0.10318E-01
        -0.10318E-01
        -0.10318E-01
        -0.10318E-01
        -0.10318E-01
        -0.10318E-01
        -0.10318E-01
        -0.10318E-01
        -0.10318E-01
        -0.10318E-01
        -0.10318E-01
        -0.10318E-01
        -0.10318E-01
        -0.10318E-01
        -0.10318E-01
        -0.10318E-01
        -0.10318E-01
        -0.10318E-01
        -0.10318E-01
        -0.10318E-01
        -0.10318E-01
        -0.10318E-01
        -0.10318E-01
        -0.10318E-01
        -0.10318E-01
        -0.10318E-01
        -0.10318E-01
        -0.10318E-01
        -0.10318E-01
        -0.10318E-01
        -0.10318E-01
        -0.10318E-01
        -0.10318E-01
        -0.10318E-01
        -0.10318E-01
        -0.10318E-01
        -0.10318E-01
        -0.10318E-01
        -0.10318E-01
        -0.10318E-01
        -0.10318E-01
        -0.10318E-01
        -0.10318E-01
        -0.10318E-01
        -0.10318E-01
        -0.10318E-01
        -0.10318E-01
        -0.10318E-01
        -0.10318E-01
        -0.10318E-01
        -0.10318E-01
        -0.10318E-01
        -0.10318E-01
        -0.10318E-01
        -0.10318E-01
        -0.10318E-01
        -0.10318E-01
        -0.10318E-01
        -0.10318E-01
        -0.10318E-01
        -0.10318E-01
        -0.10318E-01
        -0.10318E-01
        -0.10318E-01
        -0.10318E-01
        -0.10318E-01
        -0.10318E-01
        -0.10318E-01
        -0.10318E-01
        -0.10318E-01
        -0.10318E-01
        -0.10318E-01
        -0.10318E-01
        -0.10318E-01
        -0.10318E-01
        -0.10318E-01
        -0.10318E-01
        -0.10318E-01
        -0.10318E-01
        -0.10318E-01
        -0.10318E-01
        -0.10318E-01
        -0.10318E-01
        -0.10318E-01
        -0.10318E-01
        -0.10318E-01
        -0.10318E-01
        -0.10318E-01
        -0.10318E-01
        -0.10318E-01
        -0.10318E-01
        -0.10318E-01
        -0.10318E-01
        -0.10318E-01
        -0.10318E-01
        -0.10318E-01
        -0.10318E-01
        -0.10318E-01
        -0.10318E-01
        -0.10318E-01
        -0.10318E-01
        -0.10318E-01
        -0.10318E-01
        -0.10318E-01
        -0.10318E-01
        -0.10318E-01
        -0.10318E-01
        -0.10318E-01
        -0.10318E-01
        -0.10318E-01
        -0.10318E-01
        -0.10318E-01
        -0.10318E-01
        -0.10318E-01
        -0.10318E-01
        -0.10318E-01
        -0.10318E-01
        -0.10318E-01
        -0.10318E-01
        -0.10318E-01
        -0.10318E-01
        -0.10318E-01
        -0.10318E-01
        -0.10318E-01
        -0.10318E-01
        -0.10318E-01
        -0.10318E-01
        -0.10318E-01
        -0.10318E-01
        -0.10318E-01
        -0.10318E-01
        -0.10318E-01
        -0.10318E-01
        -0.10318E-01
        -0.10318E-01
        -0.10318E-01
        -0.10318E-01
        -0.10318E-01
        -0.10318E-01
        -0.10318E-01
        -0.10318E-01
        -0.10318E-01
        -0.10318E-01
        -0.10318E-01
        -0.10318E-01
  
SCALARS                     velocity_x  double 1
LOOKUP_TABLE default
         0.00000E+00
         0.00000E+00
         0.00000E+00
         0.00000E+00
         0.00000E+00
         0.00000E+00
         0.00000E+00
         0.00000E+00
         0.00000E+00
         0.00000E+00
         0.00000E+00
         0.00000E+00
         0.00000E+00
         0.00000E+00
         0.00000E+00
         0.00000E+00
         0.00000E+00
         0.00000E+00
         0.00000E+00
         0.00000E+00
         0.00000E+00
         0.00000E+00
         0.00000E+00
         0.00000E+00
         0.00000E+00
         0.00000E+00
         0.00000E+00
         0.00000E+00
         0.00000E+00
         0.00000E+00
         0.00000E+00
         0.00000E+00
         0.00000E+00
         0.00000E+00
         0.00000E+00
         0.00000E+00
         0.00000E+00
         0.00000E+00
         0.00000E+00
         0.00000E+00
         0.00000E+00
         0.00000E+00
         0.00000E+00
         0.00000E+00
         0.00000E+00
         0.00000E+00
         0.00000E+00
         0.00000E+00
         0.00000E+00
         0.00000E+00
         0.00000E+00
         0.00000E+00
         0.00000E+00
         0.00000E+00
         0.00000E+00
         0.00000E+00
         0.00000E+00
         0.00000E+00
         0.00000E+00
         0.00000E+00
         0.00000E+00
         0.00000E+00
         0.00000E+00
         0.00000E+00
         0.00000E+00
         0.00000E+00
         0.00000E+00
         0.00000E+00
         0.00000E+00
         0.00000E+00
         0.00000E+00
         0.00000E+00
         0.00000E+00
         0.00000E+00
         0.00000E+00
         0.00000E+00
         0.00000E+00
         0.00000E+00
         0.00000E+00
         0.00000E+00
         0.00000E+00
         0.00000E+00
         0.00000E+00
         0.00000E+00
         0.00000E+00
         0.00000E+00
         0.00000E+00
         0.00000E+00
         0.00000E+00
         0.00000E+00
         0.00000E+00
         0.00000E+00
         0.00000E+00
         0.00000E+00
         0.00000E+00
         0.00000E+00
         0.00000E+00
         0.00000E+00
         0.00000E+00
         0.00000E+00
         0.00000E+00
         0.00000E+00
         0.00000E+00
         0.00000E+00
         0.00000E+00
         0.00000E+00
         0.00000E+00
         0.00000E+00
         0.00000E+00
         0.00000E+00
         0.00000E+00
         0.00000E+00
         0.00000E+00
         0.00000E+00
         0.00000E+00
         0.00000E+00
         0.00000E+00
         0.00000E+00
         0.00000E+00
         0.00000E+00
         0.00000E+00
         0.00000E+00
         0.00000E+00
         0.00000E+00
         0.00000E+00
         0.00000E+00
         0.00000E+00
         0.00000E+00
         0.00000E+00
         0.00000E+00
         0.00000E+00
         0.00000E+00
         0.00000E+00
         0.00000E+00
         0.00000E+00
         0.00000E+00
         0.00000E+00
         0.00000E+00
         0.00000E+00
         0.00000E+00
         0.00000E+00
         0.00000E+00
         0.00000E+00
         0.00000E+00
         0.00000E+00
         0.00000E+00
         0.00000E+00
         0.00000E+00
         0.00000E+00
         0.00000E+00
         0.00000E+00
         0.00000E+00
         0.00000E+00
         0.00000E+00
         0.00000E+00
         0.00000E+00
         0.00000E+00
         0.00000E+00
         0.00000E+00
         0.00000E+00
         0.00000E+00
         0.00000E+00
         0.00000E+00
         0.00000E+00
         0.00000E+00
         0.00000E+00
         0.00000E+00
         0.00000E+00
         0.00000E+00
         0.00000E+00
         0.00000E+00
         0.00000E+00
         0.00000E+00
         0.00000E+00
         0.00000E+00
         0.00000E+00
         0.00000E+00
         0.00000E+00
         0.00000E+00
         0.00000E+00
         0.00000E+00
         0.00000E+00
         0.00000E+00
         0.00000E+00
         0.00000E+00
         0.00000E+00
         0.00000E+00
         0.00000E+00
         0.00000E+00
         0.00000E+00
         0.00000E+00
         0.00000E+00
         0.00000E+00
         0.00000E+00
         0.00000E+00
         0.00000E+00
         0.00000E+00
         0.00000E+00
         0.00000E+00
         0.00000E+00
         0.00000E+00
         0.00000E+00
         0.00000E+00
         0.00000E+00
         0.00000E+00
         0.00000E+00
         0.00000E+00
         0.00000E+00
         0.00000E+00
         0.00000E+00
         0.00000E+00
         0.00000E+00
         0.00000E+00
         0.00000E+00
         0.00000E+00
         0.00000E+00
         0.00000E+00
         0.00000E+00
         0.00000E+00
         0.00000E+00
         0.00000E+00
         0.00000E+00
         0.00000E+00
         0.00000E+00
         0.00000E+00
         0.00000E+00
         0.00000E+00
         0.00000E+00
         0.00000E+00
         0.00000E+00
         0.00000E+00
         0.00000E+00
         0.00000E+00
         0.00000E+00
         0.00000E+00
         0.00000E+00
         0.00000E+00
         0.00000E+00
         0.00000E+00
         0.00000E+00
         0.00000E+00
         0.00000E+00
         0.00000E+00
         0.00000E+00
         0.00000E+00
         0.00000E+00
         0.00000E+00
         0.00000E+00
         0.00000E+00
         0.00000E+00
         0.00000E+00
         0.00000E+00
         0.00000E+00
         0.00000E+00
         0.00000E+00
         0.00000E+00
         0.00000E+00
         0.00000E+00
         0.00000E+00
         0.00000E+00
         0.00000E+00
         0.00000E+00
         0.00000E+00
         0.00000E+00
         0.00000E+00
         0.00000E+00
         0.00000E+00
         0.00000E+00
         0.00000E+00
         0.00000E+00
         0.00000E+00
         0.00000E+00
         0.00000E+00
         0.00000E+00
         0.00000E+00
         0.00000E+00
         0.00000E+00
         0.00000E+00
         0.00000E+00
         0.00000E+00
         0.00000E+00
         0.00000E+00
         0.00000E+00
         0.00000E+00
         0.00000E+00
         0.00000E+00
         0.00000E+00
         0.00000E+00
         0.00000E+00
         0.00000E+00
         0.00000E+00
         0.00000E+00
         0.00000E+00
         0.00000E+00
         0.00000E+00
         0.00000E+00
         0.00000E+00
         0.00000E+00
         0.00000E+00
         0.00000E+00
         0.00000E+00
         0.00000E+00
         0.00000E+00
         0.00000E+00
         0.00000E+00
         0.00000E+00
         0.00000E+00
         0.00000E+00
         0.00000E+00
         0.00000E+00
         0.00000E+00
         0.00000E+00
         0.00000E+00
         0.00000E+00
         0.00000E+00
         0.00000E+00
         0.00000E+00
         0.00000E+00
         0.00000E+00
         0.00000E+00
         0.00000E+00
         0.00000E+00
         0.00000E+00
         0.00000E+00
         0.00000E+00
         0.00000E+00
         0.00000E+00
         0.00000E+00
         0.00000E+00
         0.00000E+00
         0.00000E+00
         0.00000E+00
         0.00000E+00
         0.00000E+00
         0.00000E+00
         0.00000E+00
         0.00000E+00
         0.00000E+00
         0.00000E+00
         0.00000E+00
         0.00000E+00
         0.00000E+00
         0.00000E+00
         0.00000E+00
         0.00000E+00
         0.00000E+00
         0.00000E+00
         0.00000E+00
         0.00000E+00
         0.00000E+00
         0.00000E+00
         0.00000E+00
         0.00000E+00
         0.00000E+00
         0.00000E+00
         0.00000E+00
         0.00000E+00
         0.00000E+00
         0.00000E+00
         0.00000E+00
         0.00000E+00
         0.00000E+00
         0.00000E+00
         0.00000E+00
         0.00000E+00
         0.00000E+00
         0.00000E+00
         0.00000E+00
         0.00000E+00
         0.00000E+00
         0.00000E+00
         0.00000E+00
         0.00000E+00
         0.00000E+00
         0.00000E+00
         0.00000E+00
         0.00000E+00
         0.00000E+00
         0.00000E+00
         0.00000E+00
         0.00000E+00
         0.00000E+00
         0.00000E+00
         0.00000E+00
         0.00000E+00
         0.00000E+00
         0.00000E+00
         0.00000E+00
         0.00000E+00
         0.00000E+00
         0.00000E+00
         0.00000E+00
         0.00000E+00
         0.00000E+00
         0.00000E+00
         0.00000E+00
         0.00000E+00
         0.00000E+00
         0.00000E+00
         0.00000E+00
         0.00000E+00
         0.00000E+00
         0.00000E+00
         0.00000E+00
         0.00000E+00
         0.00000E+00
         0.00000E+00
         0.00000E+00
         0.00000E+00
         0.00000E+00
         0.00000E+00
         0.00000E+00
         0.00000E+00
         0.00000E+00
         0.00000E+00
         0.00000E+00
         0.00000E+00
         0.00000E+00
         0.00000E+00
         0.00000E+00
         0.00000E+00
         0.00000E+00
         0.00000E+00
         0.00000E+00
         0.00000E+00
         0.00000E+00
         0.00000E+00
         0.00000E+00
         0.00000E+00
         0.00000E+00
         0.00000E+00
         0.00000E+00
         0.00000E+00
         0.00000E+00
         0.00000E+00
         0.00000E+00
         0.00000E+00
         0.00000E+00
         0.00000E+00
         0.00000E+00
         0.00000E+00
         0.00000E+00
         0.00000E+00
         0.00000E+00
         0.00000E+00
         0.00000E+00
         0.00000E+00
         0.00000E+00
         0.00000E+00
         0.00000E+00
         0.00000E+00
         0.00000E+00
         0.00000E+00
         0.00000E+00
         0.00000E+00
         0.00000E+00
         0.00000E+00
         0.00000E+00
         0.00000E+00
         0.00000E+00
         0.00000E+00
         0.00000E+00
         0.00000E+00
         0.00000E+00
         0.00000E+00
         0.00000E+00
         0.00000E+00
         0.00000E+00
         0.00000E+00
         0.00000E+00
         0.00000E+00
         0.00000E+00
         0.00000E+00
         0.00000E+00
         0.00000E+00
         0.00000E+00
         0.00000E+00
         0.00000E+00
         0.00000E+00
         0.00000E+00
         0.00000E+00
         0.00000E+00
         0.00000E+00
         0.00000E+00
         0.00000E+00
         0.00000E+00
         0.00000E+00
         0.00000E+00
         0.00000E+00
         0.00000E+00
         0.00000E+00
         0.00000E+00
         0.00000E+00
         0.00000E+00
         0.00000E+00
         0.00000E+00
         0.00000E+00
         0.00000E+00
         0.00000E+00
         0.00000E+00
         0.00000E+00
         0.00000E+00
         0.00000E+00
         0.00000E+00
         0.00000E+00
         0.00000E+00
         0.00000E+00
         0.00000E+00
         0.00000E+00
         0.00000E+00
         0.00000E+00
         0.00000E+00
         0.00000E+00
         0.00000E+00
         0.00000E+00
         0.00000E+00
         0.00000E+00
         0.00000E+00
         0.00000E+00
         0.00000E+00
         0.00000E+00
         0.00000E+00
         0.00000E+00
         0.00000E+00
         0.00000E+00
         0.00000E+00
         0.00000E+00
         0.00000E+00
         0.00000E+00
         0.00000E+00
         0.00000E+00
         0.00000E+00
         0.00000E+00
         0.00000E+00
         0.00000E+00
         0.00000E+00
         0.00000E+00
         0.00000E+00
         0.00000E+00
         0.00000E+00
         0.00000E+00
         0.00000E+00
         0.00000E+00
         0.00000E+00
         0.00000E+00
         0.00000E+00
         0.00000E+00
         0.00000E+00
         0.00000E+00
         0.00000E+00
         0.00000E+00
         0.00000E+00
         0.00000E+00
         0.00000E+00
         0.00000E+00
         0.00000E+00
         0.00000E+00
         0.00000E+00
         0.00000E+00
         0.00000E+00
         0.00000E+00
         0.00000E+00
         0.00000E+00
         0.00000E+00
         0.00000E+00
         0.00000E+00
         0.00000E+00
         0.00000E+00
         0.00000E+00
         0.00000E+00
         0.00000E+00
         0.00000E+00
         0.00000E+00
         0.00000E+00
         0.00000E+00
         0.00000E+00
         0.00000E+00
         0.00000E+00
         0.00000E+00
         0.00000E+00
         0.00000E+00
         0.00000E+00
         0.00000E+00
         0.00000E+00
         0.00000E+00
         0.00000E+00
         0.00000E+00
         0.00000E+00
         0.00000E+00
         0.00000E+00
         0.00000E+00
         0.00000E+00
         0.00000E+00
         0.00000E+00
         0.00000E+00
         0.00000E+00
         0.00000E+00
         0.00000E+00
         0.00000E+00
         0.00000E+00
         0.00000E+00
         0.00000E+00
         0.00000E+00
         0.00000E+00
         0.00000E+00
         0.00000E+00
         0.00000E+00
         0.00000E+00
         0.00000E+00
         0.00000E+00
         0.00000E+00
         0.00000E+00
         0.00000E+00
         0.00000E+00
         0.00000E+00
         0.00000E+00
         0.00000E+00
         0.00000E+00
         0.00000E+00
         0.00000E+00
         0.00000E+00
         0.00000E+00
         0.00000E+00
         0.00000E+00
         0.00000E+00
         0.00000E+00
         0.00000E+00
         0.00000E+00
         0.00000E+00
         0.00000E+00
         0.00000E+00
         0.00000E+00
         0.00000E+00
         0.00000E+00
         0.00000E+00
         0.00000E+00
         0.00000E+00
         0.00000E+00
         0.00000E+00
         0.00000E+00
         0.00000E+00
         0.00000E+00
         0.00000E+00
         0.00000E+00
         0.00000E+00
         0.00000E+00
         0.00000E+00
         0.00000E+00
         0.00000E+00
         0.00000E+00
         0.00000E+00
         0.00000E+00
         0.00000E+00
         0.00000E+00
         0.00000E+00
         0.00000E+00
         0.00000E+00
         0.00000E+00
         0.00000E+00
         0.00000E+00
         0.00000E+00
         0.00000E+00
         0.00000E+00
         0.00000E+00
         0.00000E+00
         0.00000E+00
         0.00000E+00
         0.00000E+00
         0.00000E+00
         0.00000E+00
         0.00000E+00
         0.00000E+00
         0.00000E+00
         0.00000E+00
         0.00000E+00
         0.00000E+00
         0.00000E+00
         0.00000E+00
         0.00000E+00
         0.00000E+00
         0.00000E+00
         0.00000E+00
         0.00000E+00
         0.00000E+00
         0.00000E+00
         0.00000E+00
         0.00000E+00
         0.00000E+00
         0.00000E+00
         0.00000E+00
         0.00000E+00
         0.00000E+00
         0.00000E+00
         0.00000E+00
         0.00000E+00
         0.00000E+00
         0.00000E+00
         0.00000E+00
         0.00000E+00
         0.00000E+00
         0.00000E+00
         0.00000E+00
         0.00000E+00
         0.00000E+00
         0.00000E+00
         0.00000E+00
         0.00000E+00
         0.00000E+00
         0.00000E+00
         0.00000E+00
         0.00000E+00
         0.00000E+00
         0.00000E+00
         0.00000E+00
         0.00000E+00
         0.00000E+00
         0.00000E+00
         0.00000E+00
         0.00000E+00
         0.00000E+00
         0.00000E+00
         0.00000E+00
         0.00000E+00
         0.00000E+00
         0.00000E+00
         0.00000E+00
         0.00000E+00
         0.00000E+00
         0.00000E+00
         0.00000E+00
         0.00000E+00
         0.00000E+00
         0.00000E+00
         0.00000E+00
         0.00000E+00
         0.00000E+00
         0.00000E+00
         0.00000E+00
         0.00000E+00
         0.00000E+00
         0.00000E+00
         0.00000E+00
         0.00000E+00
         0.00000E+00
         0.00000E+00
         0.00000E+00
         0.00000E+00
         0.00000E+00
         0.00000E+00
         0.00000E+00
         0.00000E+00
         0.00000E+00
         0.00000E+00
         0.00000E+00
         0.00000E+00
         0.00000E+00
         0.00000E+00
         0.00000E+00
         0.00000E+00
         0.00000E+00
         0.00000E+00
         0.00000E+00
         0.00000E+00
         0.00000E+00
         0.00000E+00
         0.00000E+00
         0.00000E+00
         0.00000E+00
         0.00000E+00
         0.00000E+00
         0.00000E+00
         0.00000E+00
         0.00000E+00
         0.00000E+00
         0.00000E+00
         0.00000E+00
         0.00000E+00
         0.00000E+00
         0.00000E+00
         0.00000E+00
         0.00000E+00
         0.00000E+00
         0.00000E+00
         0.00000E+00
         0.00000E+00
         0.00000E+00
         0.00000E+00
         0.00000E+00
         0.00000E+00
         0.00000E+00
         0.00000E+00
         0.00000E+00
         0.00000E+00
         0.00000E+00
         0.00000E+00
         0.00000E+00
         0.00000E+00
         0.00000E+00
         0.00000E+00
         0.00000E+00
         0.00000E+00
         0.00000E+00
         0.00000E+00
         0.00000E+00
         0.00000E+00
         0.00000E+00
         0.00000E+00
         0.00000E+00
         0.00000E+00
         0.00000E+00
         0.00000E+00
         0.00000E+00
         0.00000E+00
         0.00000E+00
         0.00000E+00
         0.00000E+00
         0.00000E+00
         0.00000E+00
         0.00000E+00
         0.00000E+00
         0.00000E+00
         0.00000E+00
         0.00000E+00
         0.00000E+00
         0.00000E+00
         0.00000E+00
         0.00000E+00
         0.00000E+00
         0.00000E+00
         0.00000E+00
         0.00000E+00
         0.00000E+00
         0.00000E+00
         0.00000E+00
         0.00000E+00
         0.00000E+00
         0.00000E+00
         0.00000E+00
         0.00000E+00
         0.00000E+00
         0.00000E+00
         0.00000E+00
         0.00000E+00
         0.00000E+00
         0.00000E+00
         0.00000E+00
         0.00000E+00
         0.00000E+00
         0.00000E+00
         0.00000E+00
         0.00000E+00
         0.00000E+00
         0.00000E+00
         0.00000E+00
         0.00000E+00
         0.00000E+00
         0.00000E+00
         0.00000E+00
         0.00000E+00
         0.00000E+00
         0.00000E+00
         0.00000E+00
         0.00000E+00
         0.00000E+00
         0.00000E+00
         0.00000E+00
         0.00000E+00
         0.00000E+00
         0.00000E+00
         0.00000E+00
         0.00000E+00
         0.00000E+00
         0.00000E+00
         0.00000E+00
         0.00000E+00
         0.00000E+00
         0.00000E+00
         0.00000E+00
         0.00000E+00
         0.00000E+00
         0.00000E+00
         0.00000E+00
         0.00000E+00
         0.00000E+00
         0.00000E+00
         0.00000E+00
         0.00000E+00
         0.00000E+00
         0.00000E+00
         0.00000E+00
         0.00000E+00
         0.00000E+00
         0.00000E+00
         0.00000E+00
         0.00000E+00
         0.00000E+00
         0.00000E+00
         0.00000E+00
         0.00000E+00
         0.00000E+00
         0.00000E+00
         0.00000E+00
         0.00000E+00
         0.00000E+00
         0.00000E+00
         0.00000E+00
         0.00000E+00
         0.00000E+00
         0.00000E+00
         0.00000E+00
         0.00000E+00
         0.00000E+00
         0.00000E+00
         0.00000E+00
         0.00000E+00
         0.00000E+00
         0.00000E+00
         0.00000E+00
         0.00000E+00
         0.00000E+00
         0.00000E+00
         0.00000E+00
         0.00000E+00
         0.00000E+00
         0.00000E+00
         0.00000E+00
         0.00000E+00
         0.00000E+00
         0.00000E+00
         0.00000E+00
         0.00000E+00
         0.00000E+00
         0.00000E+00
         0.00000E+00
         0.00000E+00
         0.00000E+00
         0.00000E+00
         0.00000E+00
         0.00000E+00
         0.00000E+00
         0.00000E+00
         0.00000E+00
         0.00000E+00
         0.00000E+00
         0.00000E+00
         0.00000E+00
         0.00000E+00
         0.00000E+00
         0.00000E+00
         0.00000E+00
         0.00000E+00
         0.00000E+00
         0.00000E+00
         0.00000E+00
         0.00000E+00
         0.00000E+00
         0.00000E+00
         0.00000E+00
         0.00000E+00
         0.00000E+00
         0.00000E+00
         0.00000E+00
         0.00000E+00
         0.00000E+00
         0.00000E+00
         0.00000E+00
         0.00000E+00
         0.00000E+00
         0.00000E+00
         0.00000E+00
         0.00000E+00
         0.00000E+00
         0.00000E+00
         0.00000E+00
         0.00000E+00
         0.00000E+00
         0.00000E+00
         0.00000E+00
         0.00000E+00
         0.00000E+00
         0.00000E+00
         0.00000E+00
         0.00000E+00
         0.00000E+00
         0.00000E+00
         0.00000E+00
         0.00000E+00
         0.00000E+00
         0.00000E+00
         0.00000E+00
         0.00000E+00
         0.00000E+00
         0.00000E+00
         0.00000E+00
         0.00000E+00
         0.00000E+00
         0.00000E+00
         0.00000E+00
         0.00000E+00
         0.00000E+00
         0.00000E+00
         0.00000E+00
         0.00000E+00
         0.00000E+00
         0.00000E+00
         0.00000E+00
         0.00000E+00
         0.00000E+00
         0.00000E+00
         0.00000E+00
         0.00000E+00
         0.00000E+00
         0.00000E+00
         0.00000E+00
         0.00000E+00
         0.00000E+00
         0.00000E+00
         0.00000E+00
         0.00000E+00
         0.00000E+00
         0.00000E+00
         0.00000E+00
         0.00000E+00
         0.00000E+00
         0.00000E+00
         0.00000E+00
         0.00000E+00
         0.00000E+00
         0.00000E+00
         0.00000E+00
         0.00000E+00
         0.00000E+00
         0.00000E+00
         0.00000E+00
         0.00000E+00
         0.00000E+00
         0.00000E+00
         0.00000E+00
         0.00000E+00
         0.00000E+00
         0.00000E+00
         0.00000E+00
         0.00000E+00
         0.00000E+00
         0.00000E+00
         0.00000E+00
         0.00000E+00
         0.00000E+00
         0.00000E+00
         0.00000E+00
         0.00000E+00
         0.00000E+00
         0.00000E+00
         0.00000E+00
         0.00000E+00
         0.00000E+00
         0.00000E+00
         0.00000E+00
         0.00000E+00
         0.00000E+00
         0.00000E+00
         0.00000E+00
         0.00000E+00
         0.00000E+00
         0.00000E+00
         0.00000E+00
         0.00000E+00
         0.00000E+00
         0.00000E+00
         0.00000E+00
         0.00000E+00
         0.00000E+00
         0.00000E+00
         0.00000E+00
         0.00000E+00
         0.00000E+00
         0.00000E+00
         0.00000E+00
         0.00000E+00
         0.00000E+00
         0.00000E+00
         0.00000E+00
         0.00000E+00
         0.00000E+00
         0.00000E+00
         0.00000E+00
         0.00000E+00
         0.00000E+00
         0.00000E+00
         0.00000E+00
         0.00000E+00
         0.00000E+00
         0.00000E+00
         0.00000E+00
         0.00000E+00
         0.00000E+00
         0.00000E+00
         0.00000E+00
         0.00000E+00
         0.00000E+00
         0.00000E+00
         0.00000E+00
         0.00000E+00
         0.00000E+00
         0.00000E+00
         0.00000E+00
         0.00000E+00
         0.00000E+00
         0.00000E+00
         0.00000E+00
         0.00000E+00
         0.00000E+00
         0.00000E+00
         0.00000E+00
         0.00000E+00
         0.00000E+00
         0.00000E+00
         0.00000E+00
         0.00000E+00
         0.00000E+00
         0.00000E+00
         0.00000E+00
         0.00000E+00
         0.00000E+00
         0.00000E+00
         0.00000E+00
         0.00000E+00
         0.00000E+00
         0.00000E+00
         0.00000E+00
         0.00000E+00
         0.00000E+00
         0.00000E+00
         0.00000E+00
         0.00000E+00
         0.00000E+00
         0.00000E+00
         0.00000E+00
         0.00000E+00
         0.00000E+00
         0.00000E+00
         0.00000E+00
         0.00000E+00
         0.00000E+00
         0.00000E+00
         0.00000E+00
         0.00000E+00
         0.00000E+00
         0.00000E+00
         0.00000E+00
         0.00000E+00
         0.00000E+00
         0.00000E+00
         0.00000E+00
         0.00000E+00
         0.00000E+00
         0.00000E+00
         0.00000E+00
         0.00000E+00
         0.00000E+00
         0.00000E+00
         0.00000E+00
         0.00000E+00
         0.00000E+00
         0.00000E+00
         0.00000E+00
         0.00000E+00
         0.00000E+00
         0.00000E+00
         0.00000E+00
         0.00000E+00
         0.00000E+00
         0.00000E+00
         0.00000E+00
         0.00000E+00
         0.00000E+00
         0.00000E+00
         0.00000E+00
         0.00000E+00
         0.00000E+00
         0.00000E+00
         0.00000E+00
         0.00000E+00
         0.00000E+00
         0.00000E+00
         0.00000E+00
         0.00000E+00
         0.00000E+00
         0.00000E+00
         0.00000E+00
         0.00000E+00
         0.00000E+00
         0.00000E+00
         0.00000E+00
         0.00000E+00
         0.00000E+00
         0.00000E+00
         0.00000E+00
         0.00000E+00
         0.00000E+00
         0.00000E+00
         0.00000E+00
         0.00000E+00
         0.00000E+00
         0.00000E+00
         0.00000E+00
         0.00000E+00
         0.00000E+00
         0.00000E+00
         0.00000E+00
         0.00000E+00
         0.00000E+00
         0.00000E+00
         0.00000E+00
         0.00000E+00
         0.00000E+00
         0.00000E+00
         0.00000E+00
         0.00000E+00
         0.00000E+00
         0.00000E+00
         0.00000E+00
         0.00000E+00
         0.00000E+00
         0.00000E+00
         0.00000E+00
         0.00000E+00
         0.00000E+00
         0.00000E+00
         0.00000E+00
         0.00000E+00
         0.00000E+00
         0.00000E+00
         0.00000E+00
         0.00000E+00
         0.00000E+00
         0.00000E+00
         0.00000E+00
         0.00000E+00
         0.00000E+00
         0.00000E+00
         0.00000E+00
         0.00000E+00
         0.00000E+00
         0.00000E+00
         0.00000E+00
         0.00000E+00
         0.00000E+00
         0.00000E+00
         0.00000E+00
         0.00000E+00
         0.00000E+00
         0.00000E+00
         0.00000E+00
         0.00000E+00
         0.00000E+00
         0.00000E+00
         0.00000E+00
         0.00000E+00
         0.00000E+00
         0.00000E+00
         0.00000E+00
         0.00000E+00
         0.00000E+00
         0.00000E+00
         0.00000E+00
         0.00000E+00
         0.00000E+00
         0.00000E+00
         0.00000E+00
         0.00000E+00
         0.00000E+00
         0.00000E+00
         0.00000E+00
         0.00000E+00
         0.00000E+00
         0.00000E+00
         0.00000E+00
         0.00000E+00
         0.00000E+00
         0.00000E+00
         0.00000E+00
         0.00000E+00
         0.00000E+00
         0.00000E+00
         0.00000E+00
         0.00000E+00
         0.00000E+00
         0.00000E+00
         0.00000E+00
         0.00000E+00
         0.00000E+00
         0.00000E+00
         0.00000E+00
         0.00000E+00
         0.00000E+00
         0.00000E+00
         0.00000E+00
         0.00000E+00
         0.00000E+00
         0.00000E+00
         0.00000E+00
         0.00000E+00
         0.00000E+00
         0.00000E+00
         0.00000E+00
         0.00000E+00
         0.00000E+00
         0.00000E+00
         0.00000E+00
         0.00000E+00
         0.00000E+00
         0.00000E+00
         0.00000E+00
         0.00000E+00
         0.00000E+00
         0.00000E+00
         0.00000E+00
         0.00000E+00
         0.00000E+00
         0.00000E+00
         0.00000E+00
         0.00000E+00
         0.00000E+00
         0.00000E+00
         0.00000E+00
         0.00000E+00
         0.00000E+00
         0.00000E+00
         0.00000E+00
         0.00000E+00
         0.00000E+00
         0.00000E+00
         0.00000E+00
         0.00000E+00
         0.00000E+00
         0.00000E+00
         0.00000E+00
         0.00000E+00
         0.00000E+00
         0.00000E+00
         0.00000E+00
         0.00000E+00
         0.00000E+00
         0.00000E+00
         0.00000E+00
         0.00000E+00
         0.00000E+00
         0.00000E+00
         0.00000E+00
         0.00000E+00
         0.00000E+00
         0.00000E+00
         0.00000E+00
         0.00000E+00
         0.00000E+00
         0.00000E+00
         0.00000E+00
         0.00000E+00
         0.00000E+00
         0.00000E+00
         0.00000E+00
         0.00000E+00
         0.00000E+00
         0.00000E+00
         0.00000E+00
         0.00000E+00
         0.00000E+00
         0.00000E+00
         0.00000E+00
         0.00000E+00
         0.00000E+00
         0.00000E+00
         0.00000E+00
         0.00000E+00
         0.00000E+00
         0.00000E+00
         0.00000E+00
         0.00000E+00
         0.00000E+00
         0.00000E+00
         0.00000E+00
         0.00000E+00
         0.00000E+00
         0.00000E+00
         0.00000E+00
         0.00000E+00
         0.00000E+00
         0.00000E+00
         0.00000E+00
         0.00000E+00
         0.00000E+00
         0.00000E+00
         0.00000E+00
         0.00000E+00
         0.00000E+00
         0.00000E+00
         0.00000E+00
         0.00000E+00
         0.00000E+00
         0.00000E+00
         0.00000E+00
         0.00000E+00
         0.00000E+00
         0.00000E+00
         0.00000E+00
         0.00000E+00
         0.00000E+00
         0.00000E+00
         0.00000E+00
         0.00000E+00
         0.00000E+00
         0.00000E+00
         0.00000E+00
         0.00000E+00
         0.00000E+00
         0.00000E+00
         0.00000E+00
         0.00000E+00
         0.00000E+00
         0.00000E+00
         0.00000E+00
         0.00000E+00
         0.00000E+00
         0.00000E+00
         0.00000E+00
         0.00000E+00
         0.00000E+00
         0.00000E+00
         0.00000E+00
         0.00000E+00
         0.00000E+00
         0.00000E+00
         0.00000E+00
         0.00000E+00
         0.00000E+00
         0.00000E+00
         0.00000E+00
         0.00000E+00
         0.00000E+00
         0.00000E+00
         0.00000E+00
         0.00000E+00
         0.00000E+00
         0.00000E+00
         0.00000E+00
         0.00000E+00
         0.00000E+00
         0.00000E+00
         0.00000E+00
         0.00000E+00
         0.00000E+00
         0.00000E+00
         0.00000E+00
         0.00000E+00
         0.00000E+00
         0.00000E+00
         0.00000E+00
         0.00000E+00
         0.00000E+00
         0.00000E+00
         0.00000E+00
         0.00000E+00
         0.00000E+00
         0.00000E+00
         0.00000E+00
         0.00000E+00
         0.00000E+00
         0.00000E+00
         0.00000E+00
         0.00000E+00
         0.00000E+00
         0.00000E+00
         0.00000E+00
         0.00000E+00
         0.00000E+00
         0.00000E+00
         0.00000E+00
         0.00000E+00
         0.00000E+00
         0.00000E+00
         0.00000E+00
         0.00000E+00
         0.00000E+00
         0.00000E+00
         0.00000E+00
         0.00000E+00
         0.00000E+00
         0.00000E+00
         0.00000E+00
         0.00000E+00
         0.00000E+00
         0.00000E+00
         0.00000E+00
         0.00000E+00
         0.00000E+00
         0.00000E+00
         0.00000E+00
         0.00000E+00
         0.00000E+00
         0.00000E+00
         0.00000E+00
         0.00000E+00
         0.00000E+00
         0.00000E+00
         0.00000E+00
         0.00000E+00
         0.00000E+00
         0.00000E+00
         0.00000E+00
         0.00000E+00
         0.00000E+00
         0.00000E+00
         0.00000E+00
         0.00000E+00
         0.00000E+00
         0.00000E+00
         0.00000E+00
         0.00000E+00
         0.00000E+00
         0.00000E+00
         0.00000E+00
         0.00000E+00
         0.00000E+00
         0.00000E+00
         0.00000E+00
         0.00000E+00
         0.00000E+00
         0.00000E+00
         0.00000E+00
         0.00000E+00
         0.00000E+00
         0.00000E+00
         0.00000E+00
         0.00000E+00
         0.00000E+00
         0.00000E+00
         0.00000E+00
         0.00000E+00
         0.00000E+00
         0.00000E+00
         0.00000E+00
         0.00000E+00
         0.00000E+00
         0.00000E+00
         0.00000E+00
         0.00000E+00
         0.00000E+00
         0.00000E+00
         0.00000E+00
         0.00000E+00
         0.00000E+00
         0.00000E+00
         0.00000E+00
         0.00000E+00
         0.00000E+00
         0.00000E+00
         0.00000E+00
         0.00000E+00
         0.00000E+00
         0.00000E+00
         0.00000E+00
         0.00000E+00
         0.00000E+00
         0.00000E+00
         0.00000E+00
         0.00000E+00
         0.00000E+00
         0.00000E+00
         0.00000E+00
         0.00000E+00
         0.00000E+00
         0.00000E+00
         0.00000E+00
         0.00000E+00
         0.00000E+00
         0.00000E+00
         0.00000E+00
         0.00000E+00
         0.00000E+00
         0.00000E+00
         0.00000E+00
         0.00000E+00
         0.00000E+00
         0.00000E+00
         0.00000E+00
         0.00000E+00
         0.00000E+00
         0.00000E+00
         0.00000E+00
         0.00000E+00
         0.00000E+00
         0.00000E+00
         0.00000E+00
         0.00000E+00
         0.00000E+00
         0.00000E+00
         0.00000E+00
         0.00000E+00
         0.00000E+00
         0.00000E+00
         0.00000E+00
         0.00000E+00
         0.00000E+00
         0.00000E+00
         0.00000E+00
         0.00000E+00
         0.00000E+00
         0.00000E+00
         0.00000E+00
         0.00000E+00
         0.00000E+00
         0.00000E+00
         0.00000E+00
         0.00000E+00
         0.00000E+00
         0.00000E+00
         0.00000E+00
         0.00000E+00
         0.00000E+00
         0.00000E+00
         0.00000E+00
         0.00000E+00
         0.00000E+00
         0.00000E+00
         0.00000E+00
         0.00000E+00
         0.00000E+00
         0.00000E+00
         0.00000E+00
         0.00000E+00
         0.00000E+00
         0.00000E+00
         0.00000E+00
         0.00000E+00
         0.00000E+00
         0.00000E+00
         0.00000E+00
         0.00000E+00
         0.00000E+00
         0.00000E+00
         0.00000E+00
         0.00000E+00
         0.00000E+00
         0.00000E+00
         0.00000E+00
         0.00000E+00
         0.00000E+00
         0.00000E+00
         0.00000E+00
         0.00000E+00
         0.00000E+00
         0.00000E+00
         0.00000E+00
         0.00000E+00
         0.00000E+00
         0.00000E+00
         0.00000E+00
         0.00000E+00
         0.00000E+00
         0.00000E+00
         0.00000E+00
         0.00000E+00
         0.00000E+00
         0.00000E+00
         0.00000E+00
         0.00000E+00
         0.00000E+00
         0.00000E+00
         0.00000E+00
         0.00000E+00
         0.00000E+00
         0.00000E+00
         0.00000E+00
         0.00000E+00
         0.00000E+00
         0.00000E+00
         0.00000E+00
         0.00000E+00
         0.00000E+00
         0.00000E+00
         0.00000E+00
         0.00000E+00
         0.00000E+00
         0.00000E+00
         0.00000E+00
         0.00000E+00
         0.00000E+00
         0.00000E+00
         0.00000E+00
         0.00000E+00
         0.00000E+00
         0.00000E+00
         0.00000E+00
         0.00000E+00
         0.00000E+00
         0.00000E+00
         0.00000E+00
         0.00000E+00
         0.00000E+00
         0.00000E+00
         0.00000E+00
         0.00000E+00
         0.00000E+00
         0.00000E+00
         0.00000E+00
         0.00000E+00
         0.00000E+00
         0.00000E+00
         0.00000E+00
         0.00000E+00
         0.00000E+00
         0.00000E+00
         0.00000E+00
         0.00000E+00
         0.00000E+00
         0.00000E+00
         0.00000E+00
         0.00000E+00
         0.00000E+00
         0.00000E+00
         0.00000E+00
         0.00000E+00
         0.00000E+00
         0.00000E+00
         0.00000E+00
         0.00000E+00
         0.00000E+00
         0.00000E+00
         0.00000E+00
         0.00000E+00
         0.00000E+00
         0.00000E+00
         0.00000E+00
         0.00000E+00
         0.00000E+00
         0.00000E+00
         0.00000E+00
         0.00000E+00
         0.00000E+00
         0.00000E+00
         0.00000E+00
         0.00000E+00
         0.00000E+00
         0.00000E+00
         0.00000E+00
         0.00000E+00
         0.00000E+00
         0.00000E+00
         0.00000E+00
         0.00000E+00
         0.00000E+00
         0.00000E+00
         0.00000E+00
         0.00000E+00
         0.00000E+00
         0.00000E+00
         0.00000E+00
         0.00000E+00
         0.00000E+00
         0.00000E+00
         0.00000E+00
         0.00000E+00
         0.00000E+00
         0.00000E+00
         0.00000E+00
         0.00000E+00
         0.00000E+00
         0.00000E+00
         0.00000E+00
         0.00000E+00
         0.00000E+00
         0.00000E+00
         0.00000E+00
         0.00000E+00
         0.00000E+00
         0.00000E+00
         0.00000E+00
         0.00000E+00
         0.00000E+00
         0.00000E+00
         0.00000E+00
         0.00000E+00
         0.00000E+00
         0.00000E+00
         0.00000E+00
         0.00000E+00
         0.00000E+00
         0.00000E+00
         0.00000E+00
         0.00000E+00
         0.00000E+00
         0.00000E+00
         0.00000E+00
         0.00000E+00
         0.00000E+00
         0.00000E+00
         0.00000E+00
         0.00000E+00
         0.00000E+00
         0.00000E+00
         0.00000E+00
         0.00000E+00
         0.00000E+00
         0.00000E+00
         0.00000E+00
         0.00000E+00
         0.00000E+00
         0.00000E+00
         0.00000E+00
         0.00000E+00
         0.00000E+00
         0.00000E+00
         0.00000E+00
         0.00000E+00
         0.00000E+00
         0.00000E+00
         0.00000E+00
         0.00000E+00
         0.00000E+00
         0.00000E+00
         0.00000E+00
         0.00000E+00
         0.00000E+00
         0.00000E+00
         0.00000E+00
         0.00000E+00
         0.00000E+00
         0.00000E+00
         0.00000E+00
         0.00000E+00
         0.00000E+00
         0.00000E+00
         0.00000E+00
         0.00000E+00
         0.00000E+00
         0.00000E+00
         0.00000E+00
         0.00000E+00
         0.00000E+00
         0.00000E+00
         0.00000E+00
         0.00000E+00
         0.00000E+00
         0.00000E+00
         0.00000E+00
         0.00000E+00
         0.00000E+00
         0.00000E+00
         0.00000E+00
         0.00000E+00
         0.00000E+00
         0.00000E+00
         0.00000E+00
         0.00000E+00
         0.00000E+00
         0.00000E+00
         0.00000E+00
         0.00000E+00
         0.00000E+00
         0.00000E+00
         0.00000E+00
         0.00000E+00
         0.00000E+00
         0.00000E+00
         0.00000E+00
         0.00000E+00
         0.00000E+00
         0.00000E+00
         0.00000E+00
         0.00000E+00
         0.00000E+00
         0.00000E+00
         0.00000E+00
         0.00000E+00
         0.00000E+00
         0.00000E+00
         0.00000E+00
         0.00000E+00
         0.00000E+00
         0.00000E+00
         0.00000E+00
         0.00000E+00
         0.00000E+00
         0.00000E+00
         0.00000E+00
         0.00000E+00
         0.00000E+00
         0.00000E+00
         0.00000E+00
         0.00000E+00
         0.00000E+00
         0.00000E+00
         0.00000E+00
         0.00000E+00
         0.00000E+00
         0.00000E+00
         0.00000E+00
         0.00000E+00
         0.00000E+00
         0.00000E+00
         0.00000E+00
         0.00000E+00
         0.00000E+00
         0.00000E+00
         0.00000E+00
         0.00000E+00
         0.00000E+00
         0.00000E+00
         0.00000E+00
         0.00000E+00
         0.00000E+00
         0.00000E+00
         0.00000E+00
         0.00000E+00
         0.00000E+00
         0.00000E+00
         0.00000E+00
         0.00000E+00
         0.00000E+00
         0.00000E+00
         0.00000E+00
         0.00000E+00
         0.00000E+00
         0.00000E+00
         0.00000E+00
         0.00000E+00
         0.00000E+00
         0.00000E+00
         0.00000E+00
         0.00000E+00
         0.00000E+00
         0.00000E+00
         0.00000E+00
         0.00000E+00
         0.00000E+00
         0.00000E+00
         0.00000E+00
         0.00000E+00
         0.00000E+00
         0.00000E+00
         0.00000E+00
         0.00000E+00
         0.00000E+00
         0.00000E+00
         0.00000E+00
         0.00000E+00
         0.00000E+00
         0.00000E+00
         0.00000E+00
  
SCALARS                     velocity_y  double 1
LOOKUP_TABLE default
         0.00000E+00
         0.00000E+00
         0.00000E+00
         0.00000E+00
         0.00000E+00
         0.00000E+00
         0.00000E+00
         0.00000E+00
         0.00000E+00
         0.00000E+00
         0.00000E+00
         0.00000E+00
         0.00000E+00
         0.00000E+00
         0.00000E+00
         0.00000E+00
         0.00000E+00
         0.00000E+00
         0.00000E+00
         0.00000E+00
         0.00000E+00
         0.00000E+00
         0.00000E+00
         0.00000E+00
         0.00000E+00
         0.00000E+00
         0.00000E+00
         0.00000E+00
         0.00000E+00
         0.00000E+00
         0.00000E+00
         0.00000E+00
         0.00000E+00
         0.00000E+00
         0.00000E+00
         0.00000E+00
         0.00000E+00
         0.00000E+00
         0.00000E+00
         0.00000E+00
         0.00000E+00
         0.00000E+00
         0.00000E+00
         0.00000E+00
         0.00000E+00
         0.00000E+00
         0.00000E+00
         0.00000E+00
         0.00000E+00
         0.00000E+00
         0.00000E+00
         0.00000E+00
         0.00000E+00
         0.00000E+00
         0.00000E+00
         0.00000E+00
         0.00000E+00
         0.00000E+00
         0.00000E+00
         0.00000E+00
         0.00000E+00
         0.00000E+00
         0.00000E+00
         0.00000E+00
         0.00000E+00
         0.00000E+00
         0.00000E+00
         0.00000E+00
         0.00000E+00
         0.00000E+00
         0.00000E+00
         0.00000E+00
         0.00000E+00
         0.00000E+00
         0.00000E+00
         0.00000E+00
         0.00000E+00
         0.00000E+00
         0.00000E+00
         0.00000E+00
         0.00000E+00
         0.00000E+00
         0.00000E+00
         0.00000E+00
         0.00000E+00
         0.00000E+00
         0.00000E+00
         0.00000E+00
         0.00000E+00
         0.00000E+00
         0.00000E+00
         0.00000E+00
         0.00000E+00
         0.00000E+00
         0.00000E+00
         0.00000E+00
         0.00000E+00
         0.00000E+00
         0.00000E+00
         0.00000E+00
         0.00000E+00
         0.00000E+00
         0.00000E+00
         0.00000E+00
         0.00000E+00
         0.00000E+00
         0.00000E+00
         0.00000E+00
         0.00000E+00
         0.00000E+00
         0.00000E+00
         0.00000E+00
         0.00000E+00
         0.00000E+00
         0.00000E+00
         0.00000E+00
         0.00000E+00
         0.00000E+00
         0.00000E+00
         0.00000E+00
         0.00000E+00
         0.00000E+00
         0.00000E+00
         0.00000E+00
         0.00000E+00
         0.00000E+00
         0.00000E+00
         0.00000E+00
         0.00000E+00
         0.00000E+00
         0.00000E+00
         0.00000E+00
         0.00000E+00
         0.00000E+00
         0.00000E+00
         0.00000E+00
         0.00000E+00
         0.00000E+00
         0.00000E+00
         0.00000E+00
         0.00000E+00
         0.00000E+00
         0.00000E+00
         0.00000E+00
         0.00000E+00
         0.00000E+00
         0.00000E+00
         0.00000E+00
         0.00000E+00
         0.00000E+00
         0.00000E+00
         0.00000E+00
         0.00000E+00
         0.00000E+00
         0.00000E+00
         0.00000E+00
         0.00000E+00
         0.00000E+00
         0.00000E+00
         0.00000E+00
         0.00000E+00
         0.00000E+00
         0.00000E+00
         0.00000E+00
         0.00000E+00
         0.00000E+00
         0.00000E+00
         0.00000E+00
         0.00000E+00
         0.00000E+00
         0.00000E+00
         0.00000E+00
         0.00000E+00
         0.00000E+00
         0.00000E+00
         0.00000E+00
         0.00000E+00
         0.00000E+00
         0.00000E+00
         0.00000E+00
         0.00000E+00
         0.00000E+00
         0.00000E+00
         0.00000E+00
         0.00000E+00
         0.00000E+00
         0.00000E+00
         0.00000E+00
         0.00000E+00
         0.00000E+00
         0.00000E+00
         0.00000E+00
         0.00000E+00
         0.00000E+00
         0.00000E+00
         0.00000E+00
         0.00000E+00
         0.00000E+00
         0.00000E+00
         0.00000E+00
         0.00000E+00
         0.00000E+00
         0.00000E+00
         0.00000E+00
         0.00000E+00
         0.00000E+00
         0.00000E+00
         0.00000E+00
         0.00000E+00
         0.00000E+00
         0.00000E+00
         0.00000E+00
         0.00000E+00
         0.00000E+00
         0.00000E+00
         0.00000E+00
         0.00000E+00
         0.00000E+00
         0.00000E+00
         0.00000E+00
         0.00000E+00
         0.00000E+00
         0.00000E+00
         0.00000E+00
         0.00000E+00
         0.00000E+00
         0.00000E+00
         0.00000E+00
         0.00000E+00
         0.00000E+00
         0.00000E+00
         0.00000E+00
         0.00000E+00
         0.00000E+00
         0.00000E+00
         0.00000E+00
         0.00000E+00
         0.00000E+00
         0.00000E+00
         0.00000E+00
         0.00000E+00
         0.00000E+00
         0.00000E+00
         0.00000E+00
         0.00000E+00
         0.00000E+00
         0.00000E+00
         0.00000E+00
         0.00000E+00
         0.00000E+00
         0.00000E+00
         0.00000E+00
         0.00000E+00
         0.00000E+00
         0.00000E+00
         0.00000E+00
         0.00000E+00
         0.00000E+00
         0.00000E+00
         0.00000E+00
         0.00000E+00
         0.00000E+00
         0.00000E+00
         0.00000E+00
         0.00000E+00
         0.00000E+00
         0.00000E+00
         0.00000E+00
         0.00000E+00
         0.00000E+00
         0.00000E+00
         0.00000E+00
         0.00000E+00
         0.00000E+00
         0.00000E+00
         0.00000E+00
         0.00000E+00
         0.00000E+00
         0.00000E+00
         0.00000E+00
         0.00000E+00
         0.00000E+00
         0.00000E+00
         0.00000E+00
         0.00000E+00
         0.00000E+00
         0.00000E+00
         0.00000E+00
         0.00000E+00
         0.00000E+00
         0.00000E+00
         0.00000E+00
         0.00000E+00
         0.00000E+00
         0.00000E+00
         0.00000E+00
         0.00000E+00
         0.00000E+00
         0.00000E+00
         0.00000E+00
         0.00000E+00
         0.00000E+00
         0.00000E+00
         0.00000E+00
         0.00000E+00
         0.00000E+00
         0.00000E+00
         0.00000E+00
         0.00000E+00
         0.00000E+00
         0.00000E+00
         0.00000E+00
         0.00000E+00
         0.00000E+00
         0.00000E+00
         0.00000E+00
         0.00000E+00
         0.00000E+00
         0.00000E+00
         0.00000E+00
         0.00000E+00
         0.00000E+00
         0.00000E+00
         0.00000E+00
         0.00000E+00
         0.00000E+00
         0.00000E+00
         0.00000E+00
         0.00000E+00
         0.00000E+00
         0.00000E+00
         0.00000E+00
         0.00000E+00
         0.00000E+00
         0.00000E+00
         0.00000E+00
         0.00000E+00
         0.00000E+00
         0.00000E+00
         0.00000E+00
         0.00000E+00
         0.00000E+00
         0.00000E+00
         0.00000E+00
         0.00000E+00
         0.00000E+00
         0.00000E+00
         0.00000E+00
         0.00000E+00
         0.00000E+00
         0.00000E+00
         0.00000E+00
         0.00000E+00
         0.00000E+00
         0.00000E+00
         0.00000E+00
         0.00000E+00
         0.00000E+00
         0.00000E+00
         0.00000E+00
         0.00000E+00
         0.00000E+00
         0.00000E+00
         0.00000E+00
         0.00000E+00
         0.00000E+00
         0.00000E+00
         0.00000E+00
         0.00000E+00
         0.00000E+00
         0.00000E+00
         0.00000E+00
         0.00000E+00
         0.00000E+00
         0.00000E+00
         0.00000E+00
         0.00000E+00
         0.00000E+00
         0.00000E+00
         0.00000E+00
         0.00000E+00
         0.00000E+00
         0.00000E+00
         0.00000E+00
         0.00000E+00
         0.00000E+00
         0.00000E+00
         0.00000E+00
         0.00000E+00
         0.00000E+00
         0.00000E+00
         0.00000E+00
         0.00000E+00
         0.00000E+00
         0.00000E+00
         0.00000E+00
         0.00000E+00
         0.00000E+00
         0.00000E+00
         0.00000E+00
         0.00000E+00
         0.00000E+00
         0.00000E+00
         0.00000E+00
         0.00000E+00
         0.00000E+00
         0.00000E+00
         0.00000E+00
         0.00000E+00
         0.00000E+00
         0.00000E+00
         0.00000E+00
         0.00000E+00
         0.00000E+00
         0.00000E+00
         0.00000E+00
         0.00000E+00
         0.00000E+00
         0.00000E+00
         0.00000E+00
         0.00000E+00
         0.00000E+00
         0.00000E+00
         0.00000E+00
         0.00000E+00
         0.00000E+00
         0.00000E+00
         0.00000E+00
         0.00000E+00
         0.00000E+00
         0.00000E+00
         0.00000E+00
         0.00000E+00
         0.00000E+00
         0.00000E+00
         0.00000E+00
         0.00000E+00
         0.00000E+00
         0.00000E+00
         0.00000E+00
         0.00000E+00
         0.00000E+00
         0.00000E+00
         0.00000E+00
         0.00000E+00
         0.00000E+00
         0.00000E+00
         0.00000E+00
         0.00000E+00
         0.00000E+00
         0.00000E+00
         0.00000E+00
         0.00000E+00
         0.00000E+00
         0.00000E+00
         0.00000E+00
         0.00000E+00
         0.00000E+00
         0.00000E+00
         0.00000E+00
         0.00000E+00
         0.00000E+00
         0.00000E+00
         0.00000E+00
         0.00000E+00
         0.00000E+00
         0.00000E+00
         0.00000E+00
         0.00000E+00
         0.00000E+00
         0.00000E+00
         0.00000E+00
         0.00000E+00
         0.00000E+00
         0.00000E+00
         0.00000E+00
         0.00000E+00
         0.00000E+00
         0.00000E+00
         0.00000E+00
         0.00000E+00
         0.00000E+00
         0.00000E+00
         0.00000E+00
         0.00000E+00
         0.00000E+00
         0.00000E+00
         0.00000E+00
         0.00000E+00
         0.00000E+00
         0.00000E+00
         0.00000E+00
         0.00000E+00
         0.00000E+00
         0.00000E+00
         0.00000E+00
         0.00000E+00
         0.00000E+00
         0.00000E+00
         0.00000E+00
         0.00000E+00
         0.00000E+00
         0.00000E+00
         0.00000E+00
         0.00000E+00
         0.00000E+00
         0.00000E+00
         0.00000E+00
         0.00000E+00
         0.00000E+00
         0.00000E+00
         0.00000E+00
         0.00000E+00
         0.00000E+00
         0.00000E+00
         0.00000E+00
         0.00000E+00
         0.00000E+00
         0.00000E+00
         0.00000E+00
         0.00000E+00
         0.00000E+00
         0.00000E+00
         0.00000E+00
         0.00000E+00
         0.00000E+00
         0.00000E+00
         0.00000E+00
         0.00000E+00
         0.00000E+00
         0.00000E+00
         0.00000E+00
         0.00000E+00
         0.00000E+00
         0.00000E+00
         0.00000E+00
         0.00000E+00
         0.00000E+00
         0.00000E+00
         0.00000E+00
         0.00000E+00
         0.00000E+00
         0.00000E+00
         0.00000E+00
         0.00000E+00
         0.00000E+00
         0.00000E+00
         0.00000E+00
         0.00000E+00
         0.00000E+00
         0.00000E+00
         0.00000E+00
         0.00000E+00
         0.00000E+00
         0.00000E+00
         0.00000E+00
         0.00000E+00
         0.00000E+00
         0.00000E+00
         0.00000E+00
         0.00000E+00
         0.00000E+00
         0.00000E+00
         0.00000E+00
         0.00000E+00
         0.00000E+00
         0.00000E+00
         0.00000E+00
         0.00000E+00
         0.00000E+00
         0.00000E+00
         0.00000E+00
         0.00000E+00
         0.00000E+00
         0.00000E+00
         0.00000E+00
         0.00000E+00
         0.00000E+00
         0.00000E+00
         0.00000E+00
         0.00000E+00
         0.00000E+00
         0.00000E+00
         0.00000E+00
         0.00000E+00
         0.00000E+00
         0.00000E+00
         0.00000E+00
         0.00000E+00
         0.00000E+00
         0.00000E+00
         0.00000E+00
         0.00000E+00
         0.00000E+00
         0.00000E+00
         0.00000E+00
         0.00000E+00
         0.00000E+00
         0.00000E+00
         0.00000E+00
         0.00000E+00
         0.00000E+00
         0.00000E+00
         0.00000E+00
         0.00000E+00
         0.00000E+00
         0.00000E+00
         0.00000E+00
         0.00000E+00
         0.00000E+00
         0.00000E+00
         0.00000E+00
         0.00000E+00
         0.00000E+00
         0.00000E+00
         0.00000E+00
         0.00000E+00
         0.00000E+00
         0.00000E+00
         0.00000E+00
         0.00000E+00
         0.00000E+00
         0.00000E+00
         0.00000E+00
         0.00000E+00
         0.00000E+00
         0.00000E+00
         0.00000E+00
         0.00000E+00
         0.00000E+00
         0.00000E+00
         0.00000E+00
         0.00000E+00
         0.00000E+00
         0.00000E+00
         0.00000E+00
         0.00000E+00
         0.00000E+00
         0.00000E+00
         0.00000E+00
         0.00000E+00
         0.00000E+00
         0.00000E+00
         0.00000E+00
         0.00000E+00
         0.00000E+00
         0.00000E+00
         0.00000E+00
         0.00000E+00
         0.00000E+00
         0.00000E+00
         0.00000E+00
         0.00000E+00
         0.00000E+00
         0.00000E+00
         0.00000E+00
         0.00000E+00
         0.00000E+00
         0.00000E+00
         0.00000E+00
         0.00000E+00
         0.00000E+00
         0.00000E+00
         0.00000E+00
         0.00000E+00
         0.00000E+00
         0.00000E+00
         0.00000E+00
         0.00000E+00
         0.00000E+00
         0.00000E+00
         0.00000E+00
         0.00000E+00
         0.00000E+00
         0.00000E+00
         0.00000E+00
         0.00000E+00
         0.00000E+00
         0.00000E+00
         0.00000E+00
         0.00000E+00
         0.00000E+00
         0.00000E+00
         0.00000E+00
         0.00000E+00
         0.00000E+00
         0.00000E+00
         0.00000E+00
         0.00000E+00
         0.00000E+00
         0.00000E+00
         0.00000E+00
         0.00000E+00
         0.00000E+00
         0.00000E+00
         0.00000E+00
         0.00000E+00
         0.00000E+00
         0.00000E+00
         0.00000E+00
         0.00000E+00
         0.00000E+00
         0.00000E+00
         0.00000E+00
         0.00000E+00
         0.00000E+00
         0.00000E+00
         0.00000E+00
         0.00000E+00
         0.00000E+00
         0.00000E+00
         0.00000E+00
         0.00000E+00
         0.00000E+00
         0.00000E+00
         0.00000E+00
         0.00000E+00
         0.00000E+00
         0.00000E+00
         0.00000E+00
         0.00000E+00
         0.00000E+00
         0.00000E+00
         0.00000E+00
         0.00000E+00
         0.00000E+00
         0.00000E+00
         0.00000E+00
         0.00000E+00
         0.00000E+00
         0.00000E+00
         0.00000E+00
         0.00000E+00
         0.00000E+00
         0.00000E+00
         0.00000E+00
         0.00000E+00
         0.00000E+00
         0.00000E+00
         0.00000E+00
         0.00000E+00
         0.00000E+00
         0.00000E+00
         0.00000E+00
         0.00000E+00
         0.00000E+00
         0.00000E+00
         0.00000E+00
         0.00000E+00
         0.00000E+00
         0.00000E+00
         0.00000E+00
         0.00000E+00
         0.00000E+00
         0.00000E+00
         0.00000E+00
         0.00000E+00
         0.00000E+00
         0.00000E+00
         0.00000E+00
         0.00000E+00
         0.00000E+00
         0.00000E+00
         0.00000E+00
         0.00000E+00
         0.00000E+00
         0.00000E+00
         0.00000E+00
         0.00000E+00
         0.00000E+00
         0.00000E+00
         0.00000E+00
         0.00000E+00
         0.00000E+00
         0.00000E+00
         0.00000E+00
         0.00000E+00
         0.00000E+00
         0.00000E+00
         0.00000E+00
         0.00000E+00
         0.00000E+00
         0.00000E+00
         0.00000E+00
         0.00000E+00
         0.00000E+00
         0.00000E+00
         0.00000E+00
         0.00000E+00
         0.00000E+00
         0.00000E+00
         0.00000E+00
         0.00000E+00
         0.00000E+00
         0.00000E+00
         0.00000E+00
         0.00000E+00
         0.00000E+00
         0.00000E+00
         0.00000E+00
         0.00000E+00
         0.00000E+00
         0.00000E+00
         0.00000E+00
         0.00000E+00
         0.00000E+00
         0.00000E+00
         0.00000E+00
         0.00000E+00
         0.00000E+00
         0.00000E+00
         0.00000E+00
         0.00000E+00
         0.00000E+00
         0.00000E+00
         0.00000E+00
         0.00000E+00
         0.00000E+00
         0.00000E+00
         0.00000E+00
         0.00000E+00
         0.00000E+00
         0.00000E+00
         0.00000E+00
         0.00000E+00
         0.00000E+00
         0.00000E+00
         0.00000E+00
         0.00000E+00
         0.00000E+00
         0.00000E+00
         0.00000E+00
         0.00000E+00
         0.00000E+00
         0.00000E+00
         0.00000E+00
         0.00000E+00
         0.00000E+00
         0.00000E+00
         0.00000E+00
         0.00000E+00
         0.00000E+00
         0.00000E+00
         0.00000E+00
         0.00000E+00
         0.00000E+00
         0.00000E+00
         0.00000E+00
         0.00000E+00
         0.00000E+00
         0.00000E+00
         0.00000E+00
         0.00000E+00
         0.00000E+00
         0.00000E+00
         0.00000E+00
         0.00000E+00
         0.00000E+00
         0.00000E+00
         0.00000E+00
         0.00000E+00
         0.00000E+00
         0.00000E+00
         0.00000E+00
         0.00000E+00
         0.00000E+00
         0.00000E+00
         0.00000E+00
         0.00000E+00
         0.00000E+00
         0.00000E+00
         0.00000E+00
         0.00000E+00
         0.00000E+00
         0.00000E+00
         0.00000E+00
         0.00000E+00
         0.00000E+00
         0.00000E+00
         0.00000E+00
         0.00000E+00
         0.00000E+00
         0.00000E+00
         0.00000E+00
         0.00000E+00
         0.00000E+00
         0.00000E+00
         0.00000E+00
         0.00000E+00
         0.00000E+00
         0.00000E+00
         0.00000E+00
         0.00000E+00
         0.00000E+00
         0.00000E+00
         0.00000E+00
         0.00000E+00
         0.00000E+00
         0.00000E+00
         0.00000E+00
         0.00000E+00
         0.00000E+00
         0.00000E+00
         0.00000E+00
         0.00000E+00
         0.00000E+00
         0.00000E+00
         0.00000E+00
         0.00000E+00
         0.00000E+00
         0.00000E+00
         0.00000E+00
         0.00000E+00
         0.00000E+00
         0.00000E+00
         0.00000E+00
         0.00000E+00
         0.00000E+00
         0.00000E+00
         0.00000E+00
         0.00000E+00
         0.00000E+00
         0.00000E+00
         0.00000E+00
         0.00000E+00
         0.00000E+00
         0.00000E+00
         0.00000E+00
         0.00000E+00
         0.00000E+00
         0.00000E+00
         0.00000E+00
         0.00000E+00
         0.00000E+00
         0.00000E+00
         0.00000E+00
         0.00000E+00
         0.00000E+00
         0.00000E+00
         0.00000E+00
         0.00000E+00
         0.00000E+00
         0.00000E+00
         0.00000E+00
         0.00000E+00
         0.00000E+00
         0.00000E+00
         0.00000E+00
         0.00000E+00
         0.00000E+00
         0.00000E+00
         0.00000E+00
         0.00000E+00
         0.00000E+00
         0.00000E+00
         0.00000E+00
         0.00000E+00
         0.00000E+00
         0.00000E+00
         0.00000E+00
         0.00000E+00
         0.00000E+00
         0.00000E+00
         0.00000E+00
         0.00000E+00
         0.00000E+00
         0.00000E+00
         0.00000E+00
         0.00000E+00
         0.00000E+00
         0.00000E+00
         0.00000E+00
         0.00000E+00
         0.00000E+00
         0.00000E+00
         0.00000E+00
         0.00000E+00
         0.00000E+00
         0.00000E+00
         0.00000E+00
         0.00000E+00
         0.00000E+00
         0.00000E+00
         0.00000E+00
         0.00000E+00
         0.00000E+00
         0.00000E+00
         0.00000E+00
         0.00000E+00
         0.00000E+00
         0.00000E+00
         0.00000E+00
         0.00000E+00
         0.00000E+00
         0.00000E+00
         0.00000E+00
         0.00000E+00
         0.00000E+00
         0.00000E+00
         0.00000E+00
         0.00000E+00
         0.00000E+00
         0.00000E+00
         0.00000E+00
         0.00000E+00
         0.00000E+00
         0.00000E+00
         0.00000E+00
         0.00000E+00
         0.00000E+00
         0.00000E+00
         0.00000E+00
         0.00000E+00
         0.00000E+00
         0.00000E+00
         0.00000E+00
         0.00000E+00
         0.00000E+00
         0.00000E+00
         0.00000E+00
         0.00000E+00
         0.00000E+00
         0.00000E+00
         0.00000E+00
         0.00000E+00
         0.00000E+00
         0.00000E+00
         0.00000E+00
         0.00000E+00
         0.00000E+00
         0.00000E+00
         0.00000E+00
         0.00000E+00
         0.00000E+00
         0.00000E+00
         0.00000E+00
         0.00000E+00
         0.00000E+00
         0.00000E+00
         0.00000E+00
         0.00000E+00
         0.00000E+00
         0.00000E+00
         0.00000E+00
         0.00000E+00
         0.00000E+00
         0.00000E+00
         0.00000E+00
         0.00000E+00
         0.00000E+00
         0.00000E+00
         0.00000E+00
         0.00000E+00
         0.00000E+00
         0.00000E+00
         0.00000E+00
         0.00000E+00
         0.00000E+00
         0.00000E+00
         0.00000E+00
         0.00000E+00
         0.00000E+00
         0.00000E+00
         0.00000E+00
         0.00000E+00
         0.00000E+00
         0.00000E+00
         0.00000E+00
         0.00000E+00
         0.00000E+00
         0.00000E+00
         0.00000E+00
         0.00000E+00
         0.00000E+00
         0.00000E+00
         0.00000E+00
         0.00000E+00
         0.00000E+00
         0.00000E+00
         0.00000E+00
         0.00000E+00
         0.00000E+00
         0.00000E+00
         0.00000E+00
         0.00000E+00
         0.00000E+00
         0.00000E+00
         0.00000E+00
         0.00000E+00
         0.00000E+00
         0.00000E+00
         0.00000E+00
         0.00000E+00
         0.00000E+00
         0.00000E+00
         0.00000E+00
         0.00000E+00
         0.00000E+00
         0.00000E+00
         0.00000E+00
         0.00000E+00
         0.00000E+00
         0.00000E+00
         0.00000E+00
         0.00000E+00
         0.00000E+00
         0.00000E+00
         0.00000E+00
         0.00000E+00
         0.00000E+00
         0.00000E+00
         0.00000E+00
         0.00000E+00
         0.00000E+00
         0.00000E+00
         0.00000E+00
         0.00000E+00
         0.00000E+00
         0.00000E+00
         0.00000E+00
         0.00000E+00
         0.00000E+00
         0.00000E+00
         0.00000E+00
         0.00000E+00
         0.00000E+00
         0.00000E+00
         0.00000E+00
         0.00000E+00
         0.00000E+00
         0.00000E+00
         0.00000E+00
         0.00000E+00
         0.00000E+00
         0.00000E+00
         0.00000E+00
         0.00000E+00
         0.00000E+00
         0.00000E+00
         0.00000E+00
         0.00000E+00
         0.00000E+00
         0.00000E+00
         0.00000E+00
         0.00000E+00
         0.00000E+00
         0.00000E+00
         0.00000E+00
         0.00000E+00
         0.00000E+00
         0.00000E+00
         0.00000E+00
         0.00000E+00
         0.00000E+00
         0.00000E+00
         0.00000E+00
         0.00000E+00
         0.00000E+00
         0.00000E+00
         0.00000E+00
         0.00000E+00
         0.00000E+00
         0.00000E+00
         0.00000E+00
         0.00000E+00
         0.00000E+00
         0.00000E+00
         0.00000E+00
         0.00000E+00
         0.00000E+00
         0.00000E+00
         0.00000E+00
         0.00000E+00
         0.00000E+00
         0.00000E+00
         0.00000E+00
         0.00000E+00
         0.00000E+00
         0.00000E+00
         0.00000E+00
         0.00000E+00
         0.00000E+00
         0.00000E+00
         0.00000E+00
         0.00000E+00
         0.00000E+00
         0.00000E+00
         0.00000E+00
         0.00000E+00
         0.00000E+00
         0.00000E+00
         0.00000E+00
         0.00000E+00
         0.00000E+00
         0.00000E+00
         0.00000E+00
         0.00000E+00
         0.00000E+00
         0.00000E+00
         0.00000E+00
         0.00000E+00
         0.00000E+00
         0.00000E+00
         0.00000E+00
         0.00000E+00
         0.00000E+00
         0.00000E+00
         0.00000E+00
         0.00000E+00
         0.00000E+00
         0.00000E+00
         0.00000E+00
         0.00000E+00
         0.00000E+00
         0.00000E+00
         0.00000E+00
         0.00000E+00
         0.00000E+00
         0.00000E+00
         0.00000E+00
         0.00000E+00
         0.00000E+00
         0.00000E+00
         0.00000E+00
         0.00000E+00
         0.00000E+00
         0.00000E+00
         0.00000E+00
         0.00000E+00
         0.00000E+00
         0.00000E+00
         0.00000E+00
         0.00000E+00
         0.00000E+00
         0.00000E+00
         0.00000E+00
         0.00000E+00
         0.00000E+00
         0.00000E+00
         0.00000E+00
         0.00000E+00
         0.00000E+00
         0.00000E+00
         0.00000E+00
         0.00000E+00
         0.00000E+00
         0.00000E+00
         0.00000E+00
         0.00000E+00
         0.00000E+00
         0.00000E+00
         0.00000E+00
         0.00000E+00
         0.00000E+00
         0.00000E+00
         0.00000E+00
         0.00000E+00
         0.00000E+00
         0.00000E+00
         0.00000E+00
         0.00000E+00
         0.00000E+00
         0.00000E+00
         0.00000E+00
         0.00000E+00
         0.00000E+00
         0.00000E+00
         0.00000E+00
         0.00000E+00
         0.00000E+00
         0.00000E+00
         0.00000E+00
         0.00000E+00
         0.00000E+00
         0.00000E+00
         0.00000E+00
         0.00000E+00
         0.00000E+00
         0.00000E+00
         0.00000E+00
         0.00000E+00
         0.00000E+00
         0.00000E+00
         0.00000E+00
         0.00000E+00
         0.00000E+00
         0.00000E+00
         0.00000E+00
         0.00000E+00
         0.00000E+00
         0.00000E+00
         0.00000E+00
         0.00000E+00
         0.00000E+00
         0.00000E+00
         0.00000E+00
         0.00000E+00
         0.00000E+00
         0.00000E+00
         0.00000E+00
         0.00000E+00
         0.00000E+00
         0.00000E+00
         0.00000E+00
         0.00000E+00
         0.00000E+00
         0.00000E+00
         0.00000E+00
         0.00000E+00
         0.00000E+00
         0.00000E+00
         0.00000E+00
         0.00000E+00
         0.00000E+00
         0.00000E+00
         0.00000E+00
         0.00000E+00
         0.00000E+00
         0.00000E+00
         0.00000E+00
         0.00000E+00
         0.00000E+00
         0.00000E+00
         0.00000E+00
         0.00000E+00
         0.00000E+00
         0.00000E+00
         0.00000E+00
         0.00000E+00
         0.00000E+00
         0.00000E+00
         0.00000E+00
         0.00000E+00
         0.00000E+00
         0.00000E+00
         0.00000E+00
         0.00000E+00
         0.00000E+00
         0.00000E+00
         0.00000E+00
         0.00000E+00
         0.00000E+00
         0.00000E+00
         0.00000E+00
         0.00000E+00
         0.00000E+00
         0.00000E+00
         0.00000E+00
         0.00000E+00
         0.00000E+00
         0.00000E+00
         0.00000E+00
         0.00000E+00
         0.00000E+00
         0.00000E+00
         0.00000E+00
         0.00000E+00
         0.00000E+00
         0.00000E+00
         0.00000E+00
         0.00000E+00
         0.00000E+00
         0.00000E+00
         0.00000E+00
         0.00000E+00
         0.00000E+00
         0.00000E+00
         0.00000E+00
         0.00000E+00
         0.00000E+00
         0.00000E+00
         0.00000E+00
         0.00000E+00
         0.00000E+00
         0.00000E+00
         0.00000E+00
         0.00000E+00
         0.00000E+00
         0.00000E+00
         0.00000E+00
         0.00000E+00
         0.00000E+00
         0.00000E+00
         0.00000E+00
         0.00000E+00
         0.00000E+00
         0.00000E+00
         0.00000E+00
         0.00000E+00
         0.00000E+00
         0.00000E+00
         0.00000E+00
         0.00000E+00
         0.00000E+00
         0.00000E+00
         0.00000E+00
         0.00000E+00
         0.00000E+00
         0.00000E+00
         0.00000E+00
         0.00000E+00
         0.00000E+00
         0.00000E+00
         0.00000E+00
         0.00000E+00
         0.00000E+00
         0.00000E+00
         0.00000E+00
         0.00000E+00
         0.00000E+00
         0.00000E+00
         0.00000E+00
         0.00000E+00
         0.00000E+00
         0.00000E+00
         0.00000E+00
         0.00000E+00
         0.00000E+00
         0.00000E+00
         0.00000E+00
         0.00000E+00
         0.00000E+00
         0.00000E+00
         0.00000E+00
         0.00000E+00
         0.00000E+00
         0.00000E+00
         0.00000E+00
         0.00000E+00
         0.00000E+00
         0.00000E+00
         0.00000E+00
         0.00000E+00
         0.00000E+00
         0.00000E+00
         0.00000E+00
         0.00000E+00
         0.00000E+00
         0.00000E+00
         0.00000E+00
         0.00000E+00
         0.00000E+00
         0.00000E+00
         0.00000E+00
         0.00000E+00
         0.00000E+00
         0.00000E+00
         0.00000E+00
         0.00000E+00
         0.00000E+00
         0.00000E+00
         0.00000E+00
         0.00000E+00
         0.00000E+00
         0.00000E+00
         0.00000E+00
         0.00000E+00
         0.00000E+00
         0.00000E+00
         0.00000E+00
         0.00000E+00
         0.00000E+00
         0.00000E+00
         0.00000E+00
         0.00000E+00
         0.00000E+00
         0.00000E+00
         0.00000E+00
         0.00000E+00
         0.00000E+00
         0.00000E+00
         0.00000E+00
         0.00000E+00
         0.00000E+00
         0.00000E+00
         0.00000E+00
         0.00000E+00
         0.00000E+00
         0.00000E+00
         0.00000E+00
         0.00000E+00
         0.00000E+00
         0.00000E+00
         0.00000E+00
         0.00000E+00
         0.00000E+00
         0.00000E+00
         0.00000E+00
         0.00000E+00
         0.00000E+00
         0.00000E+00
         0.00000E+00
         0.00000E+00
         0.00000E+00
         0.00000E+00
         0.00000E+00
         0.00000E+00
         0.00000E+00
         0.00000E+00
         0.00000E+00
         0.00000E+00
         0.00000E+00
         0.00000E+00
         0.00000E+00
         0.00000E+00
         0.00000E+00
         0.00000E+00
         0.00000E+00
         0.00000E+00
         0.00000E+00
         0.00000E+00
         0.00000E+00
         0.00000E+00
         0.00000E+00
         0.00000E+00
         0.00000E+00
         0.00000E+00
         0.00000E+00
         0.00000E+00
         0.00000E+00
         0.00000E+00
         0.00000E+00
         0.00000E+00
         0.00000E+00
         0.00000E+00
         0.00000E+00
         0.00000E+00
         0.00000E+00
         0.00000E+00
         0.00000E+00
         0.00000E+00
         0.00000E+00
         0.00000E+00
         0.00000E+00
         0.00000E+00
         0.00000E+00
         0.00000E+00
         0.00000E+00
         0.00000E+00
         0.00000E+00
         0.00000E+00
         0.00000E+00
         0.00000E+00
         0.00000E+00
         0.00000E+00
         0.00000E+00
         0.00000E+00
         0.00000E+00
         0.00000E+00
         0.00000E+00
         0.00000E+00
         0.00000E+00
         0.00000E+00
         0.00000E+00
         0.00000E+00
         0.00000E+00
         0.00000E+00
         0.00000E+00
         0.00000E+00
         0.00000E+00
         0.00000E+00
         0.00000E+00
         0.00000E+00
         0.00000E+00
         0.00000E+00
         0.00000E+00
         0.00000E+00
         0.00000E+00
         0.00000E+00
         0.00000E+00
         0.00000E+00
         0.00000E+00
         0.00000E+00
         0.00000E+00
         0.00000E+00
         0.00000E+00
         0.00000E+00
         0.00000E+00
         0.00000E+00
         0.00000E+00
         0.00000E+00
         0.00000E+00
         0.00000E+00
         0.00000E+00
         0.00000E+00
         0.00000E+00
         0.00000E+00
         0.00000E+00
         0.00000E+00
         0.00000E+00
         0.00000E+00
         0.00000E+00
         0.00000E+00
         0.00000E+00
         0.00000E+00
         0.00000E+00
         0.00000E+00
         0.00000E+00
         0.00000E+00
         0.00000E+00
         0.00000E+00
         0.00000E+00
         0.00000E+00
         0.00000E+00
         0.00000E+00
         0.00000E+00
         0.00000E+00
         0.00000E+00
         0.00000E+00
         0.00000E+00
         0.00000E+00
         0.00000E+00
         0.00000E+00
         0.00000E+00
         0.00000E+00
         0.00000E+00
         0.00000E+00
         0.00000E+00
         0.00000E+00
         0.00000E+00
         0.00000E+00
         0.00000E+00
         0.00000E+00
         0.00000E+00
         0.00000E+00
         0.00000E+00
         0.00000E+00
         0.00000E+00
         0.00000E+00
         0.00000E+00
         0.00000E+00
         0.00000E+00
         0.00000E+00
         0.00000E+00
         0.00000E+00
         0.00000E+00
         0.00000E+00
         0.00000E+00
         0.00000E+00
         0.00000E+00
         0.00000E+00
         0.00000E+00
         0.00000E+00
         0.00000E+00
         0.00000E+00
         0.00000E+00
         0.00000E+00
         0.00000E+00
         0.00000E+00
         0.00000E+00
         0.00000E+00
         0.00000E+00
         0.00000E+00
         0.00000E+00
         0.00000E+00
         0.00000E+00
         0.00000E+00
         0.00000E+00
         0.00000E+00
         0.00000E+00
         0.00000E+00
         0.00000E+00
         0.00000E+00
         0.00000E+00
         0.00000E+00
         0.00000E+00
         0.00000E+00
         0.00000E+00
         0.00000E+00
         0.00000E+00
         0.00000E+00
         0.00000E+00
         0.00000E+00
         0.00000E+00
         0.00000E+00
         0.00000E+00
         0.00000E+00
         0.00000E+00
         0.00000E+00
         0.00000E+00
         0.00000E+00
         0.00000E+00
         0.00000E+00
         0.00000E+00
         0.00000E+00
         0.00000E+00
         0.00000E+00
         0.00000E+00
         0.00000E+00
         0.00000E+00
         0.00000E+00
         0.00000E+00
         0.00000E+00
         0.00000E+00
         0.00000E+00
         0.00000E+00
         0.00000E+00
         0.00000E+00
         0.00000E+00
         0.00000E+00
         0.00000E+00
         0.00000E+00
         0.00000E+00
         0.00000E+00
         0.00000E+00
         0.00000E+00
         0.00000E+00
         0.00000E+00
         0.00000E+00
         0.00000E+00
         0.00000E+00
         0.00000E+00
         0.00000E+00
         0.00000E+00
         0.00000E+00
         0.00000E+00
         0.00000E+00
         0.00000E+00
         0.00000E+00
         0.00000E+00
         0.00000E+00
         0.00000E+00
         0.00000E+00
         0.00000E+00
         0.00000E+00
         0.00000E+00
         0.00000E+00
         0.00000E+00
         0.00000E+00
         0.00000E+00
         0.00000E+00
         0.00000E+00
         0.00000E+00
         0.00000E+00
         0.00000E+00
         0.00000E+00
         0.00000E+00
         0.00000E+00
         0.00000E+00
         0.00000E+00
         0.00000E+00
         0.00000E+00
         0.00000E+00
         0.00000E+00
         0.00000E+00
         0.00000E+00
         0.00000E+00
         0.00000E+00
         0.00000E+00
         0.00000E+00
         0.00000E+00
         0.00000E+00
         0.00000E+00
         0.00000E+00
         0.00000E+00
         0.00000E+00
         0.00000E+00
         0.00000E+00
         0.00000E+00
         0.00000E+00
         0.00000E+00
         0.00000E+00
         0.00000E+00
         0.00000E+00
         0.00000E+00
         0.00000E+00
         0.00000E+00
         0.00000E+00
         0.00000E+00
         0.00000E+00
         0.00000E+00
         0.00000E+00
         0.00000E+00
         0.00000E+00
         0.00000E+00
         0.00000E+00
         0.00000E+00
         0.00000E+00
         0.00000E+00
         0.00000E+00
         0.00000E+00
         0.00000E+00
         0.00000E+00
         0.00000E+00
         0.00000E+00
         0.00000E+00
         0.00000E+00
         0.00000E+00
         0.00000E+00
         0.00000E+00
         0.00000E+00
         0.00000E+00
         0.00000E+00
         0.00000E+00
         0.00000E+00
         0.00000E+00
         0.00000E+00
         0.00000E+00
         0.00000E+00
         0.00000E+00
         0.00000E+00
         0.00000E+00
         0.00000E+00
         0.00000E+00
         0.00000E+00
         0.00000E+00
         0.00000E+00
         0.00000E+00
         0.00000E+00
         0.00000E+00
         0.00000E+00
         0.00000E+00
         0.00000E+00
         0.00000E+00
         0.00000E+00
         0.00000E+00
         0.00000E+00
         0.00000E+00
         0.00000E+00
         0.00000E+00
         0.00000E+00
         0.00000E+00
         0.00000E+00
         0.00000E+00
         0.00000E+00
         0.00000E+00
         0.00000E+00
         0.00000E+00
         0.00000E+00
         0.00000E+00
         0.00000E+00
         0.00000E+00
         0.00000E+00
         0.00000E+00
         0.00000E+00
         0.00000E+00
         0.00000E+00
         0.00000E+00
         0.00000E+00
         0.00000E+00
         0.00000E+00
         0.00000E+00
         0.00000E+00
         0.00000E+00
         0.00000E+00
         0.00000E+00
         0.00000E+00
         0.00000E+00
         0.00000E+00
         0.00000E+00
         0.00000E+00
         0.00000E+00
         0.00000E+00
         0.00000E+00
         0.00000E+00
         0.00000E+00
         0.00000E+00
         0.00000E+00
         0.00000E+00
         0.00000E+00
         0.00000E+00
         0.00000E+00
         0.00000E+00
         0.00000E+00
         0.00000E+00
         0.00000E+00
         0.00000E+00
         0.00000E+00
         0.00000E+00
         0.00000E+00
         0.00000E+00
         0.00000E+00
         0.00000E+00
         0.00000E+00
         0.00000E+00
         0.00000E+00
         0.00000E+00
         0.00000E+00
         0.00000E+00
         0.00000E+00
         0.00000E+00
         0.00000E+00
         0.00000E+00
         0.00000E+00
         0.00000E+00
         0.00000E+00
         0.00000E+00
         0.00000E+00
         0.00000E+00
         0.00000E+00
         0.00000E+00
         0.00000E+00
         0.00000E+00
         0.00000E+00
         0.00000E+00
         0.00000E+00
         0.00000E+00
         0.00000E+00
         0.00000E+00
         0.00000E+00
         0.00000E+00
         0.00000E+00
         0.00000E+00
         0.00000E+00
         0.00000E+00
         0.00000E+00
         0.00000E+00
         0.00000E+00
         0.00000E+00
         0.00000E+00
         0.00000E+00
         0.00000E+00
         0.00000E+00
         0.00000E+00
         0.00000E+00
         0.00000E+00
         0.00000E+00
         0.00000E+00
         0.00000E+00
         0.00000E+00
         0.00000E+00
         0.00000E+00
         0.00000E+00
         0.00000E+00
         0.00000E+00
         0.00000E+00
         0.00000E+00
         0.00000E+00
         0.00000E+00
         0.00000E+00
         0.00000E+00
         0.00000E+00
         0.00000E+00
         0.00000E+00
         0.00000E+00
         0.00000E+00
         0.00000E+00
         0.00000E+00
         0.00000E+00
         0.00000E+00
         0.00000E+00
         0.00000E+00
         0.00000E+00
         0.00000E+00
         0.00000E+00
         0.00000E+00
         0.00000E+00
         0.00000E+00
         0.00000E+00
         0.00000E+00
  
SCALARS                     velocity_z  double 1
LOOKUP_TABLE default
        -0.37300E+03
        -0.37300E+03
        -0.37300E+03
        -0.37300E+03
         0.00000E+00
         0.00000E+00
         0.00000E+00
         0.00000E+00
        -0.37300E+03
        -0.37300E+03
         0.00000E+00
         0.00000E+00
        -0.37300E+03
        -0.37300E+03
         0.00000E+00
         0.00000E+00
        -0.37300E+03
        -0.37300E+03
         0.00000E+00
         0.00000E+00
        -0.37300E+03
        -0.37300E+03
        -0.37300E+03
         0.00000E+00
         0.00000E+00
         0.00000E+00
        -0.37300E+03
        -0.37300E+03
         0.00000E+00
         0.00000E+00
        -0.37300E+03
        -0.37300E+03
        -0.37300E+03
         0.00000E+00
         0.00000E+00
         0.00000E+00
        -0.37300E+03
        -0.37300E+03
         0.00000E+00
         0.00000E+00
        -0.37300E+03
        -0.37300E+03
         0.00000E+00
         0.00000E+00
        -0.37300E+03
        -0.37300E+03
         0.00000E+00
         0.00000E+00
        -0.37300E+03
         0.00000E+00
        -0.37300E+03
         0.00000E+00
        -0.37300E+03
         0.00000E+00
        -0.37300E+03
         0.00000E+00
        -0.37300E+03
        -0.37300E+03
         0.00000E+00
         0.00000E+00
        -0.37300E+03
        -0.37300E+03
         0.00000E+00
         0.00000E+00
        -0.37300E+03
         0.00000E+00
        -0.37300E+03
         0.00000E+00
        -0.37300E+03
        -0.37300E+03
         0.00000E+00
         0.00000E+00
        -0.37300E+03
         0.00000E+00
        -0.37300E+03
         0.00000E+00
        -0.37300E+03
         0.00000E+00
        -0.37300E+03
         0.00000E+00
        -0.37300E+03
        -0.37300E+03
         0.00000E+00
         0.00000E+00
        -0.37300E+03
         0.00000E+00
        -0.37300E+03
         0.00000E+00
        -0.37300E+03
         0.00000E+00
        -0.37300E+03
        -0.37300E+03
         0.00000E+00
         0.00000E+00
        -0.37300E+03
         0.00000E+00
        -0.37300E+03
         0.00000E+00
        -0.37300E+03
         0.00000E+00
        -0.37300E+03
        -0.37300E+03
         0.00000E+00
         0.00000E+00
        -0.37300E+03
        -0.37300E+03
         0.00000E+00
         0.00000E+00
        -0.37300E+03
         0.00000E+00
        -0.37300E+03
         0.00000E+00
        -0.37300E+03
         0.00000E+00
        -0.37300E+03
         0.00000E+00
        -0.37300E+03
         0.00000E+00
        -0.37300E+03
         0.00000E+00
        -0.37300E+03
         0.00000E+00
        -0.37300E+03
         0.00000E+00
        -0.37300E+03
         0.00000E+00
        -0.37300E+03
         0.00000E+00
        -0.37300E+03
         0.00000E+00
        -0.37300E+03
         0.00000E+00
        -0.37300E+03
         0.00000E+00
        -0.37300E+03
         0.00000E+00
        -0.37300E+03
         0.00000E+00
        -0.37300E+03
         0.00000E+00
        -0.37300E+03
         0.00000E+00
        -0.37300E+03
         0.00000E+00
        -0.37300E+03
         0.00000E+00
        -0.37300E+03
         0.00000E+00
        -0.37300E+03
         0.00000E+00
        -0.37300E+03
         0.00000E+00
        -0.37300E+03
         0.00000E+00
        -0.37300E+03
         0.00000E+00
        -0.37300E+03
        -0.37300E+03
        -0.37300E+03
        -0.37300E+03
        -0.37300E+03
        -0.37300E+03
        -0.37300E+03
        -0.37300E+03
        -0.37300E+03
        -0.37300E+03
        -0.37300E+03
        -0.37300E+03
        -0.37300E+03
        -0.37300E+03
        -0.37300E+03
        -0.37300E+03
        -0.37300E+03
        -0.37300E+03
        -0.37300E+03
        -0.37300E+03
        -0.37300E+03
        -0.37300E+03
        -0.37300E+03
        -0.37300E+03
        -0.37300E+03
        -0.37300E+03
        -0.37300E+03
        -0.37300E+03
        -0.37300E+03
        -0.37300E+03
        -0.37300E+03
        -0.37300E+03
        -0.37300E+03
        -0.37300E+03
        -0.37300E+03
        -0.37300E+03
        -0.37300E+03
        -0.37300E+03
        -0.37300E+03
        -0.37300E+03
        -0.37300E+03
        -0.37300E+03
        -0.37300E+03
        -0.37300E+03
        -0.37300E+03
        -0.37300E+03
        -0.37300E+03
        -0.37300E+03
        -0.37300E+03
        -0.37300E+03
        -0.37300E+03
        -0.37300E+03
        -0.37300E+03
        -0.37300E+03
        -0.37300E+03
        -0.37300E+03
        -0.37300E+03
        -0.37300E+03
        -0.37300E+03
        -0.37300E+03
        -0.37300E+03
        -0.37300E+03
        -0.37300E+03
        -0.37300E+03
        -0.37300E+03
        -0.37300E+03
        -0.37300E+03
        -0.37300E+03
        -0.37300E+03
        -0.37300E+03
        -0.37300E+03
        -0.37300E+03
        -0.37300E+03
        -0.37300E+03
        -0.37300E+03
        -0.37300E+03
        -0.37300E+03
        -0.37300E+03
        -0.37300E+03
        -0.37300E+03
        -0.37300E+03
        -0.37300E+03
        -0.37300E+03
        -0.37300E+03
        -0.37300E+03
        -0.37300E+03
        -0.37300E+03
        -0.37300E+03
        -0.37300E+03
        -0.37300E+03
        -0.37300E+03
        -0.37300E+03
        -0.37300E+03
        -0.37300E+03
        -0.37300E+03
        -0.37300E+03
        -0.37300E+03
        -0.37300E+03
        -0.37300E+03
        -0.37300E+03
        -0.37300E+03
        -0.37300E+03
        -0.37300E+03
        -0.37300E+03
        -0.37300E+03
        -0.37300E+03
        -0.37300E+03
        -0.37300E+03
        -0.37300E+03
        -0.37300E+03
        -0.37300E+03
        -0.37300E+03
        -0.37300E+03
        -0.37300E+03
        -0.37300E+03
        -0.37300E+03
        -0.37300E+03
        -0.37300E+03
        -0.37300E+03
        -0.37300E+03
        -0.37300E+03
        -0.37300E+03
        -0.37300E+03
        -0.37300E+03
        -0.37300E+03
        -0.37300E+03
        -0.37300E+03
        -0.37300E+03
        -0.37300E+03
        -0.37300E+03
        -0.37300E+03
        -0.37300E+03
        -0.37300E+03
        -0.37300E+03
        -0.37300E+03
        -0.37300E+03
        -0.37300E+03
        -0.37300E+03
        -0.37300E+03
        -0.37300E+03
        -0.37300E+03
        -0.37300E+03
        -0.37300E+03
        -0.37300E+03
        -0.37300E+03
        -0.37300E+03
        -0.37300E+03
        -0.37300E+03
        -0.37300E+03
        -0.37300E+03
        -0.37300E+03
        -0.37300E+03
        -0.37300E+03
        -0.37300E+03
        -0.37300E+03
        -0.37300E+03
        -0.37300E+03
        -0.37300E+03
        -0.37300E+03
        -0.37300E+03
        -0.37300E+03
        -0.37300E+03
        -0.37300E+03
        -0.37300E+03
        -0.37300E+03
        -0.37300E+03
        -0.37300E+03
        -0.37300E+03
        -0.37300E+03
        -0.37300E+03
        -0.37300E+03
        -0.37300E+03
        -0.37300E+03
        -0.37300E+03
        -0.37300E+03
        -0.37300E+03
        -0.37300E+03
        -0.37300E+03
        -0.37300E+03
        -0.37300E+03
        -0.37300E+03
        -0.37300E+03
        -0.37300E+03
        -0.37300E+03
        -0.37300E+03
        -0.37300E+03
        -0.37300E+03
        -0.37300E+03
        -0.37300E+03
        -0.37300E+03
        -0.37300E+03
        -0.37300E+03
        -0.37300E+03
        -0.37300E+03
        -0.37300E+03
        -0.37300E+03
        -0.37300E+03
        -0.37300E+03
        -0.37300E+03
        -0.37300E+03
        -0.37300E+03
        -0.37300E+03
        -0.37300E+03
        -0.37300E+03
        -0.37300E+03
        -0.37300E+03
        -0.37300E+03
        -0.37300E+03
        -0.37300E+03
        -0.37300E+03
        -0.37300E+03
        -0.37300E+03
        -0.37300E+03
        -0.37300E+03
        -0.37300E+03
        -0.37300E+03
        -0.37300E+03
        -0.37300E+03
        -0.37300E+03
        -0.37300E+03
        -0.37300E+03
        -0.37300E+03
        -0.37300E+03
        -0.37300E+03
        -0.37300E+03
        -0.37300E+03
        -0.37300E+03
        -0.37300E+03
        -0.37300E+03
        -0.37300E+03
        -0.37300E+03
        -0.37300E+03
        -0.37300E+03
        -0.37300E+03
        -0.37300E+03
        -0.37300E+03
        -0.37300E+03
        -0.37300E+03
        -0.37300E+03
        -0.37300E+03
        -0.37300E+03
        -0.37300E+03
        -0.37300E+03
        -0.37300E+03
        -0.37300E+03
        -0.37300E+03
        -0.37300E+03
        -0.37300E+03
        -0.37300E+03
        -0.37300E+03
        -0.37300E+03
        -0.37300E+03
        -0.37300E+03
        -0.37300E+03
        -0.37300E+03
        -0.37300E+03
        -0.37300E+03
        -0.37300E+03
        -0.37300E+03
        -0.37300E+03
        -0.37300E+03
        -0.37300E+03
        -0.37300E+03
        -0.37300E+03
        -0.37300E+03
        -0.37300E+03
        -0.37300E+03
        -0.37300E+03
        -0.37300E+03
        -0.37300E+03
        -0.37300E+03
        -0.37300E+03
        -0.37300E+03
        -0.37300E+03
        -0.37300E+03
        -0.37300E+03
        -0.37300E+03
        -0.37300E+03
        -0.37300E+03
        -0.37300E+03
        -0.37300E+03
        -0.37300E+03
        -0.37300E+03
        -0.37300E+03
        -0.37300E+03
        -0.37300E+03
        -0.37300E+03
        -0.37300E+03
        -0.37300E+03
        -0.37300E+03
        -0.37300E+03
        -0.37300E+03
        -0.37300E+03
        -0.37300E+03
        -0.37300E+03
        -0.37300E+03
        -0.37300E+03
        -0.37300E+03
        -0.37300E+03
        -0.37300E+03
        -0.37300E+03
        -0.37300E+03
        -0.37300E+03
        -0.37300E+03
        -0.37300E+03
        -0.37300E+03
        -0.37300E+03
        -0.37300E+03
        -0.37300E+03
        -0.37300E+03
        -0.37300E+03
        -0.37300E+03
        -0.37300E+03
        -0.37300E+03
        -0.37300E+03
        -0.37300E+03
        -0.37300E+03
        -0.37300E+03
        -0.37300E+03
        -0.37300E+03
        -0.37300E+03
        -0.37300E+03
        -0.37300E+03
        -0.37300E+03
        -0.37300E+03
        -0.37300E+03
        -0.37300E+03
        -0.37300E+03
        -0.37300E+03
        -0.37300E+03
        -0.37300E+03
        -0.37300E+03
        -0.37300E+03
        -0.37300E+03
        -0.37300E+03
        -0.37300E+03
        -0.37300E+03
        -0.37300E+03
        -0.37300E+03
        -0.37300E+03
        -0.37300E+03
        -0.37300E+03
        -0.37300E+03
        -0.37300E+03
        -0.37300E+03
        -0.37300E+03
        -0.37300E+03
        -0.37300E+03
        -0.37300E+03
        -0.37300E+03
        -0.37300E+03
        -0.37300E+03
        -0.37300E+03
        -0.37300E+03
        -0.37300E+03
        -0.37300E+03
        -0.37300E+03
        -0.37300E+03
        -0.37300E+03
        -0.37300E+03
        -0.37300E+03
        -0.37300E+03
        -0.37300E+03
        -0.37300E+03
        -0.37300E+03
        -0.37300E+03
        -0.37300E+03
        -0.37300E+03
        -0.37300E+03
        -0.37300E+03
        -0.37300E+03
        -0.37300E+03
        -0.37300E+03
        -0.37300E+03
        -0.37300E+03
        -0.37300E+03
        -0.37300E+03
        -0.37300E+03
        -0.37300E+03
        -0.37300E+03
        -0.37300E+03
        -0.37300E+03
        -0.37300E+03
        -0.37300E+03
        -0.37300E+03
        -0.37300E+03
        -0.37300E+03
        -0.37300E+03
        -0.37300E+03
        -0.37300E+03
        -0.37300E+03
        -0.37300E+03
        -0.37300E+03
        -0.37300E+03
        -0.37300E+03
        -0.37300E+03
        -0.37300E+03
        -0.37300E+03
        -0.37300E+03
        -0.37300E+03
        -0.37300E+03
        -0.37300E+03
        -0.37300E+03
        -0.37300E+03
        -0.37300E+03
        -0.37300E+03
        -0.37300E+03
        -0.37300E+03
        -0.37300E+03
        -0.37300E+03
        -0.37300E+03
        -0.37300E+03
        -0.37300E+03
        -0.37300E+03
        -0.37300E+03
        -0.37300E+03
        -0.37300E+03
        -0.37300E+03
        -0.37300E+03
        -0.37300E+03
        -0.37300E+03
        -0.37300E+03
        -0.37300E+03
        -0.37300E+03
        -0.37300E+03
        -0.37300E+03
        -0.37300E+03
        -0.37300E+03
        -0.37300E+03
        -0.37300E+03
        -0.37300E+03
        -0.37300E+03
        -0.37300E+03
        -0.37300E+03
        -0.37300E+03
        -0.37300E+03
        -0.37300E+03
        -0.37300E+03
        -0.37300E+03
        -0.37300E+03
        -0.37300E+03
        -0.37300E+03
        -0.37300E+03
        -0.37300E+03
        -0.37300E+03
        -0.37300E+03
        -0.37300E+03
        -0.37300E+03
        -0.37300E+03
        -0.37300E+03
        -0.37300E+03
        -0.37300E+03
        -0.37300E+03
        -0.37300E+03
        -0.37300E+03
        -0.37300E+03
        -0.37300E+03
        -0.37300E+03
        -0.37300E+03
        -0.37300E+03
        -0.37300E+03
        -0.37300E+03
        -0.37300E+03
        -0.37300E+03
        -0.37300E+03
        -0.37300E+03
        -0.37300E+03
        -0.37300E+03
        -0.37300E+03
        -0.37300E+03
        -0.37300E+03
        -0.37300E+03
        -0.37300E+03
        -0.37300E+03
        -0.37300E+03
        -0.37300E+03
        -0.37300E+03
        -0.37300E+03
        -0.37300E+03
        -0.37300E+03
        -0.37300E+03
        -0.37300E+03
        -0.37300E+03
        -0.37300E+03
        -0.37300E+03
        -0.37300E+03
        -0.37300E+03
        -0.37300E+03
        -0.37300E+03
        -0.37300E+03
        -0.37300E+03
        -0.37300E+03
        -0.37300E+03
        -0.37300E+03
        -0.37300E+03
        -0.37300E+03
        -0.37300E+03
        -0.37300E+03
        -0.37300E+03
        -0.37300E+03
        -0.37300E+03
        -0.37300E+03
        -0.37300E+03
        -0.37300E+03
        -0.37300E+03
        -0.37300E+03
        -0.37300E+03
        -0.37300E+03
        -0.37300E+03
        -0.37300E+03
        -0.37300E+03
        -0.37300E+03
        -0.37300E+03
        -0.37300E+03
        -0.37300E+03
        -0.37300E+03
        -0.37300E+03
        -0.37300E+03
        -0.37300E+03
        -0.37300E+03
        -0.37300E+03
        -0.37300E+03
        -0.37300E+03
        -0.37300E+03
        -0.37300E+03
        -0.37300E+03
        -0.37300E+03
        -0.37300E+03
        -0.37300E+03
        -0.37300E+03
        -0.37300E+03
        -0.37300E+03
        -0.37300E+03
        -0.37300E+03
        -0.37300E+03
        -0.37300E+03
        -0.37300E+03
        -0.37300E+03
        -0.37300E+03
        -0.37300E+03
        -0.37300E+03
        -0.37300E+03
        -0.37300E+03
        -0.37300E+03
        -0.37300E+03
        -0.37300E+03
        -0.37300E+03
        -0.37300E+03
        -0.37300E+03
        -0.37300E+03
        -0.37300E+03
        -0.37300E+03
        -0.37300E+03
        -0.37300E+03
        -0.37300E+03
        -0.37300E+03
        -0.37300E+03
        -0.37300E+03
        -0.37300E+03
        -0.37300E+03
        -0.37300E+03
        -0.37300E+03
        -0.37300E+03
        -0.37300E+03
        -0.37300E+03
        -0.37300E+03
        -0.37300E+03
        -0.37300E+03
        -0.37300E+03
        -0.37300E+03
        -0.37300E+03
        -0.37300E+03
        -0.37300E+03
        -0.37300E+03
        -0.37300E+03
        -0.37300E+03
        -0.37300E+03
        -0.37300E+03
        -0.37300E+03
        -0.37300E+03
        -0.37300E+03
        -0.37300E+03
        -0.37300E+03
        -0.37300E+03
        -0.37300E+03
        -0.37300E+03
        -0.37300E+03
        -0.37300E+03
        -0.37300E+03
        -0.37300E+03
        -0.37300E+03
        -0.37300E+03
        -0.37300E+03
        -0.37300E+03
        -0.37300E+03
        -0.37300E+03
        -0.37300E+03
        -0.37300E+03
        -0.37300E+03
        -0.37300E+03
        -0.37300E+03
        -0.37300E+03
        -0.37300E+03
        -0.37300E+03
        -0.37300E+03
        -0.37300E+03
        -0.37300E+03
        -0.37300E+03
        -0.37300E+03
        -0.37300E+03
        -0.37300E+03
        -0.37300E+03
        -0.37300E+03
        -0.37300E+03
        -0.37300E+03
        -0.37300E+03
        -0.37300E+03
        -0.37300E+03
        -0.37300E+03
        -0.37300E+03
        -0.37300E+03
        -0.37300E+03
        -0.37300E+03
        -0.37300E+03
        -0.37300E+03
        -0.37300E+03
        -0.37300E+03
        -0.37300E+03
        -0.37300E+03
        -0.37300E+03
        -0.37300E+03
        -0.37300E+03
        -0.37300E+03
        -0.37300E+03
        -0.37300E+03
        -0.37300E+03
        -0.37300E+03
        -0.37300E+03
        -0.37300E+03
        -0.37300E+03
        -0.37300E+03
        -0.37300E+03
        -0.37300E+03
        -0.37300E+03
        -0.37300E+03
        -0.37300E+03
        -0.37300E+03
        -0.37300E+03
        -0.37300E+03
        -0.37300E+03
        -0.37300E+03
        -0.37300E+03
        -0.37300E+03
        -0.37300E+03
        -0.37300E+03
        -0.37300E+03
        -0.37300E+03
        -0.37300E+03
        -0.37300E+03
        -0.37300E+03
        -0.37300E+03
        -0.37300E+03
        -0.37300E+03
        -0.37300E+03
        -0.37300E+03
        -0.37300E+03
        -0.37300E+03
        -0.37300E+03
        -0.37300E+03
        -0.37300E+03
        -0.37300E+03
        -0.37300E+03
        -0.37300E+03
        -0.37300E+03
        -0.37300E+03
        -0.37300E+03
        -0.37300E+03
        -0.37300E+03
        -0.37300E+03
        -0.37300E+03
        -0.37300E+03
        -0.37300E+03
        -0.37300E+03
        -0.37300E+03
        -0.37300E+03
        -0.37300E+03
        -0.37300E+03
        -0.37300E+03
        -0.37300E+03
        -0.37300E+03
        -0.37300E+03
        -0.37300E+03
        -0.37300E+03
        -0.37300E+03
        -0.37300E+03
        -0.37300E+03
        -0.37300E+03
        -0.37300E+03
        -0.37300E+03
        -0.37300E+03
        -0.37300E+03
        -0.37300E+03
        -0.37300E+03
        -0.37300E+03
        -0.37300E+03
        -0.37300E+03
        -0.37300E+03
        -0.37300E+03
        -0.37300E+03
        -0.37300E+03
        -0.37300E+03
        -0.37300E+03
        -0.37300E+03
        -0.37300E+03
        -0.37300E+03
        -0.37300E+03
        -0.37300E+03
        -0.37300E+03
        -0.37300E+03
        -0.37300E+03
        -0.37300E+03
        -0.37300E+03
        -0.37300E+03
        -0.37300E+03
        -0.37300E+03
        -0.37300E+03
        -0.37300E+03
        -0.37300E+03
        -0.37300E+03
        -0.37300E+03
        -0.37300E+03
        -0.37300E+03
        -0.37300E+03
        -0.37300E+03
        -0.37300E+03
        -0.37300E+03
        -0.37300E+03
        -0.37300E+03
        -0.37300E+03
        -0.37300E+03
        -0.37300E+03
        -0.37300E+03
        -0.37300E+03
        -0.37300E+03
        -0.37300E+03
        -0.37300E+03
        -0.37300E+03
        -0.37300E+03
        -0.37300E+03
        -0.37300E+03
        -0.37300E+03
        -0.37300E+03
        -0.37300E+03
        -0.37300E+03
        -0.37300E+03
        -0.37300E+03
        -0.37300E+03
        -0.37300E+03
        -0.37300E+03
        -0.37300E+03
        -0.37300E+03
        -0.37300E+03
        -0.37300E+03
        -0.37300E+03
        -0.37300E+03
        -0.37300E+03
        -0.37300E+03
        -0.37300E+03
        -0.37300E+03
        -0.37300E+03
        -0.37300E+03
        -0.37300E+03
        -0.37300E+03
        -0.37300E+03
        -0.37300E+03
        -0.37300E+03
        -0.37300E+03
        -0.37300E+03
        -0.37300E+03
        -0.37300E+03
        -0.37300E+03
        -0.37300E+03
        -0.37300E+03
        -0.37300E+03
        -0.37300E+03
        -0.37300E+03
        -0.37300E+03
        -0.37300E+03
        -0.37300E+03
        -0.37300E+03
        -0.37300E+03
        -0.37300E+03
        -0.37300E+03
        -0.37300E+03
        -0.37300E+03
        -0.37300E+03
        -0.37300E+03
        -0.37300E+03
        -0.37300E+03
        -0.37300E+03
        -0.37300E+03
        -0.37300E+03
        -0.37300E+03
        -0.37300E+03
        -0.37300E+03
        -0.37300E+03
        -0.37300E+03
        -0.37300E+03
        -0.37300E+03
        -0.37300E+03
        -0.37300E+03
        -0.37300E+03
        -0.37300E+03
        -0.37300E+03
        -0.37300E+03
        -0.37300E+03
        -0.37300E+03
        -0.37300E+03
        -0.37300E+03
        -0.37300E+03
        -0.37300E+03
        -0.37300E+03
        -0.37300E+03
        -0.37300E+03
        -0.37300E+03
        -0.37300E+03
        -0.37300E+03
        -0.37300E+03
        -0.37300E+03
        -0.37300E+03
        -0.37300E+03
        -0.37300E+03
        -0.37300E+03
        -0.37300E+03
        -0.37300E+03
        -0.37300E+03
        -0.37300E+03
        -0.37300E+03
        -0.37300E+03
        -0.37300E+03
        -0.37300E+03
        -0.37300E+03
        -0.37300E+03
        -0.37300E+03
        -0.37300E+03
        -0.37300E+03
        -0.37300E+03
        -0.37300E+03
        -0.37300E+03
        -0.37300E+03
        -0.37300E+03
        -0.37300E+03
        -0.37300E+03
        -0.37300E+03
        -0.37300E+03
        -0.37300E+03
        -0.37300E+03
        -0.37300E+03
        -0.37300E+03
        -0.37300E+03
        -0.37300E+03
        -0.37300E+03
        -0.37300E+03
        -0.37300E+03
        -0.37300E+03
        -0.37300E+03
        -0.37300E+03
        -0.37300E+03
        -0.37300E+03
        -0.37300E+03
        -0.37300E+03
        -0.37300E+03
        -0.37300E+03
        -0.37300E+03
        -0.37300E+03
        -0.37300E+03
        -0.37300E+03
        -0.37300E+03
        -0.37300E+03
        -0.37300E+03
        -0.37300E+03
        -0.37300E+03
        -0.37300E+03
        -0.37300E+03
        -0.37300E+03
        -0.37300E+03
        -0.37300E+03
        -0.37300E+03
        -0.37300E+03
        -0.37300E+03
        -0.37300E+03
        -0.37300E+03
        -0.37300E+03
        -0.37300E+03
        -0.37300E+03
        -0.37300E+03
        -0.37300E+03
        -0.37300E+03
        -0.37300E+03
        -0.37300E+03
        -0.37300E+03
        -0.37300E+03
        -0.37300E+03
        -0.37300E+03
        -0.37300E+03
        -0.37300E+03
        -0.37300E+03
        -0.37300E+03
        -0.37300E+03
        -0.37300E+03
        -0.37300E+03
        -0.37300E+03
        -0.37300E+03
        -0.37300E+03
        -0.37300E+03
        -0.37300E+03
        -0.37300E+03
        -0.37300E+03
        -0.37300E+03
        -0.37300E+03
        -0.37300E+03
        -0.37300E+03
        -0.37300E+03
        -0.37300E+03
        -0.37300E+03
        -0.37300E+03
        -0.37300E+03
        -0.37300E+03
        -0.37300E+03
        -0.37300E+03
        -0.37300E+03
        -0.37300E+03
        -0.37300E+03
        -0.37300E+03
        -0.37300E+03
        -0.37300E+03
        -0.37300E+03
        -0.37300E+03
        -0.37300E+03
        -0.37300E+03
        -0.37300E+03
        -0.37300E+03
        -0.37300E+03
        -0.37300E+03
        -0.37300E+03
        -0.37300E+03
        -0.37300E+03
        -0.37300E+03
        -0.37300E+03
        -0.37300E+03
        -0.37300E+03
        -0.37300E+03
        -0.37300E+03
        -0.37300E+03
        -0.37300E+03
        -0.37300E+03
        -0.37300E+03
        -0.37300E+03
        -0.37300E+03
        -0.37300E+03
        -0.37300E+03
        -0.37300E+03
        -0.37300E+03
        -0.37300E+03
        -0.37300E+03
        -0.37300E+03
        -0.37300E+03
        -0.37300E+03
        -0.37300E+03
        -0.37300E+03
        -0.37300E+03
        -0.37300E+03
        -0.37300E+03
        -0.37300E+03
        -0.37300E+03
        -0.37300E+03
        -0.37300E+03
        -0.37300E+03
        -0.37300E+03
        -0.37300E+03
        -0.37300E+03
        -0.37300E+03
        -0.37300E+03
        -0.37300E+03
        -0.37300E+03
        -0.37300E+03
        -0.37300E+03
        -0.37300E+03
        -0.37300E+03
        -0.37300E+03
        -0.37300E+03
        -0.37300E+03
        -0.37300E+03
        -0.37300E+03
        -0.37300E+03
        -0.37300E+03
        -0.37300E+03
        -0.37300E+03
        -0.37300E+03
        -0.37300E+03
        -0.37300E+03
        -0.37300E+03
        -0.37300E+03
        -0.37300E+03
        -0.37300E+03
        -0.37300E+03
        -0.37300E+03
        -0.37300E+03
        -0.37300E+03
        -0.37300E+03
        -0.37300E+03
        -0.37300E+03
        -0.37300E+03
        -0.37300E+03
        -0.37300E+03
        -0.37300E+03
        -0.37300E+03
        -0.37300E+03
        -0.37300E+03
        -0.37300E+03
        -0.37300E+03
        -0.37300E+03
        -0.37300E+03
        -0.37300E+03
        -0.37300E+03
        -0.37300E+03
        -0.37300E+03
        -0.37300E+03
        -0.37300E+03
        -0.37300E+03
        -0.37300E+03
        -0.37300E+03
        -0.37300E+03
        -0.37300E+03
        -0.37300E+03
        -0.37300E+03
        -0.37300E+03
        -0.37300E+03
        -0.37300E+03
        -0.37300E+03
        -0.37300E+03
        -0.37300E+03
        -0.37300E+03
        -0.37300E+03
        -0.37300E+03
        -0.37300E+03
        -0.37300E+03
        -0.37300E+03
        -0.37300E+03
        -0.37300E+03
        -0.37300E+03
        -0.37300E+03
        -0.37300E+03
        -0.37300E+03
        -0.37300E+03
        -0.37300E+03
        -0.37300E+03
        -0.37300E+03
        -0.37300E+03
        -0.37300E+03
        -0.37300E+03
        -0.37300E+03
        -0.37300E+03
        -0.37300E+03
        -0.37300E+03
        -0.37300E+03
        -0.37300E+03
        -0.37300E+03
        -0.37300E+03
        -0.37300E+03
        -0.37300E+03
        -0.37300E+03
        -0.37300E+03
        -0.37300E+03
        -0.37300E+03
        -0.37300E+03
        -0.37300E+03
        -0.37300E+03
        -0.37300E+03
        -0.37300E+03
        -0.37300E+03
        -0.37300E+03
        -0.37300E+03
        -0.37300E+03
        -0.37300E+03
        -0.37300E+03
        -0.37300E+03
        -0.37300E+03
        -0.37300E+03
        -0.37300E+03
        -0.37300E+03
        -0.37300E+03
        -0.37300E+03
        -0.37300E+03
        -0.37300E+03
        -0.37300E+03
        -0.37300E+03
        -0.37300E+03
        -0.37300E+03
        -0.37300E+03
        -0.37300E+03
        -0.37300E+03
        -0.37300E+03
        -0.37300E+03
        -0.37300E+03
        -0.37300E+03
        -0.37300E+03
        -0.37300E+03
        -0.37300E+03
        -0.37300E+03
        -0.37300E+03
        -0.37300E+03
        -0.37300E+03
        -0.37300E+03
        -0.37300E+03
        -0.37300E+03
        -0.37300E+03
        -0.37300E+03
        -0.37300E+03
        -0.37300E+03
        -0.37300E+03
        -0.37300E+03
        -0.37300E+03
        -0.37300E+03
        -0.37300E+03
        -0.37300E+03
        -0.37300E+03
        -0.37300E+03
        -0.37300E+03
        -0.37300E+03
        -0.37300E+03
        -0.37300E+03
        -0.37300E+03
        -0.37300E+03
        -0.37300E+03
        -0.37300E+03
        -0.37300E+03
        -0.37300E+03
        -0.37300E+03
        -0.37300E+03
        -0.37300E+03
        -0.37300E+03
        -0.37300E+03
        -0.37300E+03
        -0.37300E+03
        -0.37300E+03
        -0.37300E+03
        -0.37300E+03
        -0.37300E+03
        -0.37300E+03
        -0.37300E+03
        -0.37300E+03
        -0.37300E+03
        -0.37300E+03
        -0.37300E+03
        -0.37300E+03
        -0.37300E+03
        -0.37300E+03
        -0.37300E+03
        -0.37300E+03
        -0.37300E+03
        -0.37300E+03
        -0.37300E+03
        -0.37300E+03
        -0.37300E+03
        -0.37300E+03
        -0.37300E+03
        -0.37300E+03
        -0.37300E+03
        -0.37300E+03
        -0.37300E+03
        -0.37300E+03
        -0.37300E+03
        -0.37300E+03
        -0.37300E+03
        -0.37300E+03
        -0.37300E+03
        -0.37300E+03
        -0.37300E+03
        -0.37300E+03
        -0.37300E+03
        -0.37300E+03
        -0.37300E+03
        -0.37300E+03
        -0.37300E+03
        -0.37300E+03
        -0.37300E+03
        -0.37300E+03
        -0.37300E+03
        -0.37300E+03
        -0.37300E+03
        -0.37300E+03
        -0.37300E+03
        -0.37300E+03
        -0.37300E+03
        -0.37300E+03
        -0.37300E+03
        -0.37300E+03
        -0.37300E+03
        -0.37300E+03
        -0.37300E+03
        -0.37300E+03
        -0.37300E+03
        -0.37300E+03
        -0.37300E+03
        -0.37300E+03
        -0.37300E+03
        -0.37300E+03
        -0.37300E+03
        -0.37300E+03
        -0.37300E+03
        -0.37300E+03
        -0.37300E+03
        -0.37300E+03
        -0.37300E+03
        -0.37300E+03
        -0.37300E+03
        -0.37300E+03
        -0.37300E+03
        -0.37300E+03
        -0.37300E+03
        -0.37300E+03
        -0.37300E+03
        -0.37300E+03
        -0.37300E+03
        -0.37300E+03
        -0.37300E+03
        -0.37300E+03
        -0.37300E+03
        -0.37300E+03
        -0.37300E+03
        -0.37300E+03
        -0.37300E+03
        -0.37300E+03
        -0.37300E+03
        -0.37300E+03
        -0.37300E+03
        -0.37300E+03
        -0.37300E+03
        -0.37300E+03
        -0.37300E+03
        -0.37300E+03
        -0.37300E+03
        -0.37300E+03
        -0.37300E+03
        -0.37300E+03
        -0.37300E+03
        -0.37300E+03
        -0.37300E+03
        -0.37300E+03
        -0.37300E+03
        -0.37300E+03
        -0.37300E+03
        -0.37300E+03
        -0.37300E+03
        -0.37300E+03
        -0.37300E+03
        -0.37300E+03
        -0.37300E+03
        -0.37300E+03
        -0.37300E+03
        -0.37300E+03
        -0.37300E+03
        -0.37300E+03
        -0.37300E+03
        -0.37300E+03
        -0.37300E+03
        -0.37300E+03
        -0.37300E+03
        -0.37300E+03
        -0.37300E+03
        -0.37300E+03
        -0.37300E+03
        -0.37300E+03
        -0.37300E+03
        -0.37300E+03
        -0.37300E+03
        -0.37300E+03
        -0.37300E+03
        -0.37300E+03
        -0.37300E+03
        -0.37300E+03
        -0.37300E+03
        -0.37300E+03
        -0.37300E+03
        -0.37300E+03
        -0.37300E+03
        -0.37300E+03
        -0.37300E+03
        -0.37300E+03
        -0.37300E+03
        -0.37300E+03
        -0.37300E+03
        -0.37300E+03
        -0.37300E+03
        -0.37300E+03
        -0.37300E+03
        -0.37300E+03
        -0.37300E+03
        -0.37300E+03
        -0.37300E+03
        -0.37300E+03
        -0.37300E+03
        -0.37300E+03
        -0.37300E+03
        -0.37300E+03
        -0.37300E+03
        -0.37300E+03
        -0.37300E+03
        -0.37300E+03
        -0.37300E+03
        -0.37300E+03
        -0.37300E+03
        -0.37300E+03
        -0.37300E+03
        -0.37300E+03
        -0.37300E+03
        -0.37300E+03
        -0.37300E+03
        -0.37300E+03
        -0.37300E+03
        -0.37300E+03
        -0.37300E+03
        -0.37300E+03
        -0.37300E+03
        -0.37300E+03
        -0.37300E+03
        -0.37300E+03
        -0.37300E+03
        -0.37300E+03
        -0.37300E+03
        -0.37300E+03
        -0.37300E+03
        -0.37300E+03
        -0.37300E+03
        -0.37300E+03
        -0.37300E+03
        -0.37300E+03
        -0.37300E+03
        -0.37300E+03
        -0.37300E+03
        -0.37300E+03
        -0.37300E+03
        -0.37300E+03
        -0.37300E+03
        -0.37300E+03
        -0.37300E+03
        -0.37300E+03
        -0.37300E+03
        -0.37300E+03
        -0.37300E+03
        -0.37300E+03
        -0.37300E+03
        -0.37300E+03
        -0.37300E+03
        -0.37300E+03
        -0.37300E+03
        -0.37300E+03
        -0.37300E+03
        -0.37300E+03
        -0.37300E+03
        -0.37300E+03
        -0.37300E+03
        -0.37300E+03
        -0.37300E+03
        -0.37300E+03
        -0.37300E+03
        -0.37300E+03
        -0.37300E+03
        -0.37300E+03
        -0.37300E+03
        -0.37300E+03
        -0.37300E+03
        -0.37300E+03
        -0.37300E+03
        -0.37300E+03
        -0.37300E+03
        -0.37300E+03
        -0.37300E+03
        -0.37300E+03
        -0.37300E+03
        -0.37300E+03
        -0.37300E+03
        -0.37300E+03
        -0.37300E+03
        -0.37300E+03
        -0.37300E+03
        -0.37300E+03
        -0.37300E+03
        -0.37300E+03
        -0.37300E+03
        -0.37300E+03
        -0.37300E+03
        -0.37300E+03
        -0.37300E+03
        -0.37300E+03
        -0.37300E+03
        -0.37300E+03
        -0.37300E+03
        -0.37300E+03
        -0.37300E+03
        -0.37300E+03
        -0.37300E+03
        -0.37300E+03
        -0.37300E+03
        -0.37300E+03
        -0.37300E+03
        -0.37300E+03
        -0.37300E+03
        -0.37300E+03
        -0.37300E+03
        -0.37300E+03
        -0.37300E+03
        -0.37300E+03
        -0.37300E+03
        -0.37300E+03
        -0.37300E+03
        -0.37300E+03
        -0.37300E+03
        -0.37300E+03
        -0.37300E+03
        -0.37300E+03
        -0.37300E+03
        -0.37300E+03
        -0.37300E+03
        -0.37300E+03
        -0.37300E+03
        -0.37300E+03
        -0.37300E+03
        -0.37300E+03
        -0.37300E+03
        -0.37300E+03
        -0.37300E+03
        -0.37300E+03
        -0.37300E+03
        -0.37300E+03
        -0.37300E+03
        -0.37300E+03
        -0.37300E+03
        -0.37300E+03
        -0.37300E+03
        -0.37300E+03
        -0.37300E+03
        -0.37300E+03
        -0.37300E+03
        -0.37300E+03
        -0.37300E+03
        -0.37300E+03
        -0.37300E+03
        -0.37300E+03
        -0.37300E+03
        -0.37300E+03
        -0.37300E+03
        -0.37300E+03
        -0.37300E+03
        -0.37300E+03
        -0.37300E+03
        -0.37300E+03
        -0.37300E+03
        -0.37300E+03
        -0.37300E+03
        -0.37300E+03
        -0.37300E+03
        -0.37300E+03
        -0.37300E+03
        -0.37300E+03
        -0.37300E+03
        -0.37300E+03
        -0.37300E+03
        -0.37300E+03
        -0.37300E+03
        -0.37300E+03
        -0.37300E+03
        -0.37300E+03
        -0.37300E+03
        -0.37300E+03
        -0.37300E+03
        -0.37300E+03
        -0.37300E+03
        -0.37300E+03
        -0.37300E+03
        -0.37300E+03
        -0.37300E+03
        -0.37300E+03
        -0.37300E+03
        -0.37300E+03
        -0.37300E+03
        -0.37300E+03
        -0.37300E+03
        -0.37300E+03
        -0.37300E+03
        -0.37300E+03
        -0.37300E+03
        -0.37300E+03
        -0.37300E+03
        -0.37300E+03
        -0.37300E+03
        -0.37300E+03
        -0.37300E+03
        -0.37300E+03
        -0.37300E+03
        -0.37300E+03
        -0.37300E+03
        -0.37300E+03
        -0.37300E+03
        -0.37300E+03
        -0.37300E+03
        -0.37300E+03
        -0.37300E+03
        -0.37300E+03
        -0.37300E+03
        -0.37300E+03
        -0.37300E+03
        -0.37300E+03
        -0.37300E+03
        -0.37300E+03
        -0.37300E+03
        -0.37300E+03
        -0.37300E+03
        -0.37300E+03
        -0.37300E+03
        -0.37300E+03
        -0.37300E+03
        -0.37300E+03
        -0.37300E+03
        -0.37300E+03
        -0.37300E+03
        -0.37300E+03
        -0.37300E+03
        -0.37300E+03
        -0.37300E+03
        -0.37300E+03
        -0.37300E+03
        -0.37300E+03
        -0.37300E+03
        -0.37300E+03
        -0.37300E+03
        -0.37300E+03
        -0.37300E+03
        -0.37300E+03
        -0.37300E+03
        -0.37300E+03
        -0.37300E+03
        -0.37300E+03
        -0.37300E+03
        -0.37300E+03
        -0.37300E+03
        -0.37300E+03
        -0.37300E+03
        -0.37300E+03
        -0.37300E+03
        -0.37300E+03
        -0.37300E+03
        -0.37300E+03
        -0.37300E+03
        -0.37300E+03
        -0.37300E+03
        -0.37300E+03
        -0.37300E+03
        -0.37300E+03
        -0.37300E+03
        -0.37300E+03
        -0.37300E+03
        -0.37300E+03
        -0.37300E+03
        -0.37300E+03
        -0.37300E+03
        -0.37300E+03
        -0.37300E+03
        -0.37300E+03
        -0.37300E+03
        -0.37300E+03
        -0.37300E+03
        -0.37300E+03
        -0.37300E+03
        -0.37300E+03
        -0.37300E+03
        -0.37300E+03
        -0.37300E+03
        -0.37300E+03
        -0.37300E+03
        -0.37300E+03
        -0.37300E+03
        -0.37300E+03
        -0.37300E+03
        -0.37300E+03
        -0.37300E+03
        -0.37300E+03
        -0.37300E+03
        -0.37300E+03
        -0.37300E+03
        -0.37300E+03
        -0.37300E+03
        -0.37300E+03
        -0.37300E+03
        -0.37300E+03
        -0.37300E+03
        -0.37300E+03
        -0.37300E+03
        -0.37300E+03
        -0.37300E+03
        -0.37300E+03
        -0.37300E+03
        -0.37300E+03
        -0.37300E+03
        -0.37300E+03
        -0.37300E+03
        -0.37300E+03
        -0.37300E+03
        -0.37300E+03
        -0.37300E+03
        -0.37300E+03
        -0.37300E+03
        -0.37300E+03
        -0.37300E+03
        -0.37300E+03
        -0.37300E+03
        -0.37300E+03
        -0.37300E+03
        -0.37300E+03
        -0.37300E+03
        -0.37300E+03
        -0.37300E+03
        -0.37300E+03
        -0.37300E+03
        -0.37300E+03
        -0.37300E+03
        -0.37300E+03
        -0.37300E+03
        -0.37300E+03
        -0.37300E+03
        -0.37300E+03
        -0.37300E+03
        -0.37300E+03
        -0.37300E+03
        -0.37300E+03
        -0.37300E+03
        -0.37300E+03
        -0.37300E+03
        -0.37300E+03
        -0.37300E+03
        -0.37300E+03
        -0.37300E+03
        -0.37300E+03
        -0.37300E+03
        -0.37300E+03
        -0.37300E+03
        -0.37300E+03
        -0.37300E+03
        -0.37300E+03
        -0.37300E+03
        -0.37300E+03
        -0.37300E+03
        -0.37300E+03
        -0.37300E+03
        -0.37300E+03
        -0.37300E+03
        -0.37300E+03
        -0.37300E+03
        -0.37300E+03
        -0.37300E+03
        -0.37300E+03
        -0.37300E+03
        -0.37300E+03
        -0.37300E+03
        -0.37300E+03
        -0.37300E+03
        -0.37300E+03
        -0.37300E+03
        -0.37300E+03
        -0.37300E+03
        -0.37300E+03
        -0.37300E+03
        -0.37300E+03
        -0.37300E+03
        -0.37300E+03
        -0.37300E+03
        -0.37300E+03
        -0.37300E+03
        -0.37300E+03
        -0.37300E+03
        -0.37300E+03
        -0.37300E+03
        -0.37300E+03
        -0.37300E+03
        -0.37300E+03
        -0.37300E+03
        -0.37300E+03
        -0.37300E+03
        -0.37300E+03
        -0.37300E+03
        -0.37300E+03
        -0.37300E+03
        -0.37300E+03
        -0.37300E+03
        -0.37300E+03
        -0.37300E+03
        -0.37300E+03
        -0.37300E+03
        -0.37300E+03
        -0.37300E+03
        -0.37300E+03
        -0.37300E+03
        -0.37300E+03
        -0.37300E+03
        -0.37300E+03
        -0.37300E+03
        -0.37300E+03
        -0.37300E+03
        -0.37300E+03
        -0.37300E+03
        -0.37300E+03
        -0.37300E+03
        -0.37300E+03
        -0.37300E+03
        -0.37300E+03
        -0.37300E+03
        -0.37300E+03
        -0.37300E+03
        -0.37300E+03
        -0.37300E+03
        -0.37300E+03
        -0.37300E+03
        -0.37300E+03
        -0.37300E+03
        -0.37300E+03
        -0.37300E+03
        -0.37300E+03
        -0.37300E+03
        -0.37300E+03
        -0.37300E+03
        -0.37300E+03
        -0.37300E+03
        -0.37300E+03
        -0.37300E+03
        -0.37300E+03
        -0.37300E+03
        -0.37300E+03
        -0.37300E+03
        -0.37300E+03
        -0.37300E+03
        -0.37300E+03
        -0.37300E+03
        -0.37300E+03
        -0.37300E+03
        -0.37300E+03
        -0.37300E+03
        -0.37300E+03
        -0.37300E+03
        -0.37300E+03
        -0.37300E+03
        -0.37300E+03
        -0.37300E+03
        -0.37300E+03
        -0.37300E+03
        -0.37300E+03
        -0.37300E+03
        -0.37300E+03
        -0.37300E+03
        -0.37300E+03
        -0.37300E+03
        -0.37300E+03
        -0.37300E+03
        -0.37300E+03
        -0.37300E+03
        -0.37300E+03
        -0.37300E+03
        -0.37300E+03
        -0.37300E+03
        -0.37300E+03
        -0.37300E+03
        -0.37300E+03
        -0.37300E+03
        -0.37300E+03
        -0.37300E+03
        -0.37300E+03
        -0.37300E+03
        -0.37300E+03
        -0.37300E+03
        -0.37300E+03
        -0.37300E+03
        -0.37300E+03
        -0.37300E+03
        -0.37300E+03
        -0.37300E+03
        -0.37300E+03
        -0.37300E+03
        -0.37300E+03
        -0.37300E+03
        -0.37300E+03
        -0.37300E+03
        -0.37300E+03
        -0.37300E+03
        -0.37300E+03
  
SCALARS                 acceleration_x  double 1
LOOKUP_TABLE default
         0.00000E+00
         0.00000E+00
         0.00000E+00
         0.00000E+00
         0.00000E+00
         0.00000E+00
         0.00000E+00
         0.00000E+00
         0.00000E+00
         0.00000E+00
         0.00000E+00
         0.00000E+00
         0.00000E+00
         0.00000E+00
         0.00000E+00
         0.00000E+00
         0.00000E+00
         0.00000E+00
         0.00000E+00
         0.00000E+00
         0.00000E+00
         0.00000E+00
         0.00000E+00
         0.00000E+00
         0.00000E+00
         0.00000E+00
         0.00000E+00
         0.00000E+00
         0.00000E+00
         0.00000E+00
         0.00000E+00
         0.00000E+00
         0.00000E+00
         0.00000E+00
         0.00000E+00
         0.00000E+00
         0.00000E+00
         0.00000E+00
         0.00000E+00
         0.00000E+00
         0.00000E+00
         0.00000E+00
         0.00000E+00
         0.00000E+00
         0.00000E+00
         0.00000E+00
         0.00000E+00
         0.00000E+00
         0.00000E+00
         0.00000E+00
         0.00000E+00
         0.00000E+00
         0.00000E+00
         0.00000E+00
         0.00000E+00
         0.00000E+00
         0.00000E+00
         0.00000E+00
         0.00000E+00
         0.00000E+00
         0.00000E+00
         0.00000E+00
         0.00000E+00
         0.00000E+00
         0.00000E+00
         0.00000E+00
         0.00000E+00
         0.00000E+00
         0.00000E+00
         0.00000E+00
         0.00000E+00
         0.00000E+00
         0.00000E+00
         0.00000E+00
         0.00000E+00
         0.00000E+00
         0.00000E+00
         0.00000E+00
         0.00000E+00
         0.00000E+00
         0.00000E+00
         0.00000E+00
         0.00000E+00
         0.00000E+00
         0.00000E+00
         0.00000E+00
         0.00000E+00
         0.00000E+00
         0.00000E+00
         0.00000E+00
         0.00000E+00
         0.00000E+00
         0.00000E+00
         0.00000E+00
         0.00000E+00
         0.00000E+00
         0.00000E+00
         0.00000E+00
         0.00000E+00
         0.00000E+00
         0.00000E+00
         0.00000E+00
         0.00000E+00
         0.00000E+00
         0.00000E+00
         0.00000E+00
         0.00000E+00
         0.00000E+00
         0.00000E+00
         0.00000E+00
         0.00000E+00
         0.00000E+00
         0.00000E+00
         0.00000E+00
         0.00000E+00
         0.00000E+00
         0.00000E+00
         0.00000E+00
         0.00000E+00
         0.00000E+00
         0.00000E+00
         0.00000E+00
         0.00000E+00
         0.00000E+00
         0.00000E+00
         0.00000E+00
         0.00000E+00
         0.00000E+00
         0.00000E+00
         0.00000E+00
         0.00000E+00
         0.00000E+00
         0.00000E+00
         0.00000E+00
         0.00000E+00
         0.00000E+00
         0.00000E+00
         0.00000E+00
         0.00000E+00
         0.00000E+00
         0.00000E+00
         0.00000E+00
         0.00000E+00
         0.00000E+00
         0.00000E+00
         0.00000E+00
         0.00000E+00
         0.00000E+00
         0.00000E+00
         0.00000E+00
         0.00000E+00
         0.00000E+00
         0.00000E+00
         0.00000E+00
         0.00000E+00
         0.00000E+00
         0.00000E+00
         0.00000E+00
         0.00000E+00
         0.00000E+00
         0.00000E+00
         0.00000E+00
         0.00000E+00
         0.00000E+00
         0.00000E+00
         0.00000E+00
         0.00000E+00
         0.00000E+00
         0.00000E+00
         0.00000E+00
         0.00000E+00
         0.00000E+00
         0.00000E+00
         0.00000E+00
         0.00000E+00
         0.00000E+00
         0.00000E+00
         0.00000E+00
         0.00000E+00
         0.00000E+00
         0.00000E+00
         0.00000E+00
         0.00000E+00
         0.00000E+00
         0.00000E+00
         0.00000E+00
         0.00000E+00
         0.00000E+00
         0.00000E+00
         0.00000E+00
         0.00000E+00
         0.00000E+00
         0.00000E+00
         0.00000E+00
         0.00000E+00
         0.00000E+00
         0.00000E+00
         0.00000E+00
         0.00000E+00
         0.00000E+00
         0.00000E+00
         0.00000E+00
         0.00000E+00
         0.00000E+00
         0.00000E+00
         0.00000E+00
         0.00000E+00
         0.00000E+00
         0.00000E+00
         0.00000E+00
         0.00000E+00
         0.00000E+00
         0.00000E+00
         0.00000E+00
         0.00000E+00
         0.00000E+00
         0.00000E+00
         0.00000E+00
         0.00000E+00
         0.00000E+00
         0.00000E+00
         0.00000E+00
         0.00000E+00
         0.00000E+00
         0.00000E+00
         0.00000E+00
         0.00000E+00
         0.00000E+00
         0.00000E+00
         0.00000E+00
         0.00000E+00
         0.00000E+00
         0.00000E+00
         0.00000E+00
         0.00000E+00
         0.00000E+00
         0.00000E+00
         0.00000E+00
         0.00000E+00
         0.00000E+00
         0.00000E+00
         0.00000E+00
         0.00000E+00
         0.00000E+00
         0.00000E+00
         0.00000E+00
         0.00000E+00
         0.00000E+00
         0.00000E+00
         0.00000E+00
         0.00000E+00
         0.00000E+00
         0.00000E+00
         0.00000E+00
         0.00000E+00
         0.00000E+00
         0.00000E+00
         0.00000E+00
         0.00000E+00
         0.00000E+00
         0.00000E+00
         0.00000E+00
         0.00000E+00
         0.00000E+00
         0.00000E+00
         0.00000E+00
         0.00000E+00
         0.00000E+00
         0.00000E+00
         0.00000E+00
         0.00000E+00
         0.00000E+00
         0.00000E+00
         0.00000E+00
         0.00000E+00
         0.00000E+00
         0.00000E+00
         0.00000E+00
         0.00000E+00
         0.00000E+00
         0.00000E+00
         0.00000E+00
         0.00000E+00
         0.00000E+00
         0.00000E+00
         0.00000E+00
         0.00000E+00
         0.00000E+00
         0.00000E+00
         0.00000E+00
         0.00000E+00
         0.00000E+00
         0.00000E+00
         0.00000E+00
         0.00000E+00
         0.00000E+00
         0.00000E+00
         0.00000E+00
         0.00000E+00
         0.00000E+00
         0.00000E+00
         0.00000E+00
         0.00000E+00
         0.00000E+00
         0.00000E+00
         0.00000E+00
         0.00000E+00
         0.00000E+00
         0.00000E+00
         0.00000E+00
         0.00000E+00
         0.00000E+00
         0.00000E+00
         0.00000E+00
         0.00000E+00
         0.00000E+00
         0.00000E+00
         0.00000E+00
         0.00000E+00
         0.00000E+00
         0.00000E+00
         0.00000E+00
         0.00000E+00
         0.00000E+00
         0.00000E+00
         0.00000E+00
         0.00000E+00
         0.00000E+00
         0.00000E+00
         0.00000E+00
         0.00000E+00
         0.00000E+00
         0.00000E+00
         0.00000E+00
         0.00000E+00
         0.00000E+00
         0.00000E+00
         0.00000E+00
         0.00000E+00
         0.00000E+00
         0.00000E+00
         0.00000E+00
         0.00000E+00
         0.00000E+00
         0.00000E+00
         0.00000E+00
         0.00000E+00
         0.00000E+00
         0.00000E+00
         0.00000E+00
         0.00000E+00
         0.00000E+00
         0.00000E+00
         0.00000E+00
         0.00000E+00
         0.00000E+00
         0.00000E+00
         0.00000E+00
         0.00000E+00
         0.00000E+00
         0.00000E+00
         0.00000E+00
         0.00000E+00
         0.00000E+00
         0.00000E+00
         0.00000E+00
         0.00000E+00
         0.00000E+00
         0.00000E+00
         0.00000E+00
         0.00000E+00
         0.00000E+00
         0.00000E+00
         0.00000E+00
         0.00000E+00
         0.00000E+00
         0.00000E+00
         0.00000E+00
         0.00000E+00
         0.00000E+00
         0.00000E+00
         0.00000E+00
         0.00000E+00
         0.00000E+00
         0.00000E+00
         0.00000E+00
         0.00000E+00
         0.00000E+00
         0.00000E+00
         0.00000E+00
         0.00000E+00
         0.00000E+00
         0.00000E+00
         0.00000E+00
         0.00000E+00
         0.00000E+00
         0.00000E+00
         0.00000E+00
         0.00000E+00
         0.00000E+00
         0.00000E+00
         0.00000E+00
         0.00000E+00
         0.00000E+00
         0.00000E+00
         0.00000E+00
         0.00000E+00
         0.00000E+00
         0.00000E+00
         0.00000E+00
         0.00000E+00
         0.00000E+00
         0.00000E+00
         0.00000E+00
         0.00000E+00
         0.00000E+00
         0.00000E+00
         0.00000E+00
         0.00000E+00
         0.00000E+00
         0.00000E+00
         0.00000E+00
         0.00000E+00
         0.00000E+00
         0.00000E+00
         0.00000E+00
         0.00000E+00
         0.00000E+00
         0.00000E+00
         0.00000E+00
         0.00000E+00
         0.00000E+00
         0.00000E+00
         0.00000E+00
         0.00000E+00
         0.00000E+00
         0.00000E+00
         0.00000E+00
         0.00000E+00
         0.00000E+00
         0.00000E+00
         0.00000E+00
         0.00000E+00
         0.00000E+00
         0.00000E+00
         0.00000E+00
         0.00000E+00
         0.00000E+00
         0.00000E+00
         0.00000E+00
         0.00000E+00
         0.00000E+00
         0.00000E+00
         0.00000E+00
         0.00000E+00
         0.00000E+00
         0.00000E+00
         0.00000E+00
         0.00000E+00
         0.00000E+00
         0.00000E+00
         0.00000E+00
         0.00000E+00
         0.00000E+00
         0.00000E+00
         0.00000E+00
         0.00000E+00
         0.00000E+00
         0.00000E+00
         0.00000E+00
         0.00000E+00
         0.00000E+00
         0.00000E+00
         0.00000E+00
         0.00000E+00
         0.00000E+00
         0.00000E+00
         0.00000E+00
         0.00000E+00
         0.00000E+00
         0.00000E+00
         0.00000E+00
         0.00000E+00
         0.00000E+00
         0.00000E+00
         0.00000E+00
         0.00000E+00
         0.00000E+00
         0.00000E+00
         0.00000E+00
         0.00000E+00
         0.00000E+00
         0.00000E+00
         0.00000E+00
         0.00000E+00
         0.00000E+00
         0.00000E+00
         0.00000E+00
         0.00000E+00
         0.00000E+00
         0.00000E+00
         0.00000E+00
         0.00000E+00
         0.00000E+00
         0.00000E+00
         0.00000E+00
         0.00000E+00
         0.00000E+00
         0.00000E+00
         0.00000E+00
         0.00000E+00
         0.00000E+00
         0.00000E+00
         0.00000E+00
         0.00000E+00
         0.00000E+00
         0.00000E+00
         0.00000E+00
         0.00000E+00
         0.00000E+00
         0.00000E+00
         0.00000E+00
         0.00000E+00
         0.00000E+00
         0.00000E+00
         0.00000E+00
         0.00000E+00
         0.00000E+00
         0.00000E+00
         0.00000E+00
         0.00000E+00
         0.00000E+00
         0.00000E+00
         0.00000E+00
         0.00000E+00
         0.00000E+00
         0.00000E+00
         0.00000E+00
         0.00000E+00
         0.00000E+00
         0.00000E+00
         0.00000E+00
         0.00000E+00
         0.00000E+00
         0.00000E+00
         0.00000E+00
         0.00000E+00
         0.00000E+00
         0.00000E+00
         0.00000E+00
         0.00000E+00
         0.00000E+00
         0.00000E+00
         0.00000E+00
         0.00000E+00
         0.00000E+00
         0.00000E+00
         0.00000E+00
         0.00000E+00
         0.00000E+00
         0.00000E+00
         0.00000E+00
         0.00000E+00
         0.00000E+00
         0.00000E+00
         0.00000E+00
         0.00000E+00
         0.00000E+00
         0.00000E+00
         0.00000E+00
         0.00000E+00
         0.00000E+00
         0.00000E+00
         0.00000E+00
         0.00000E+00
         0.00000E+00
         0.00000E+00
         0.00000E+00
         0.00000E+00
         0.00000E+00
         0.00000E+00
         0.00000E+00
         0.00000E+00
         0.00000E+00
         0.00000E+00
         0.00000E+00
         0.00000E+00
         0.00000E+00
         0.00000E+00
         0.00000E+00
         0.00000E+00
         0.00000E+00
         0.00000E+00
         0.00000E+00
         0.00000E+00
         0.00000E+00
         0.00000E+00
         0.00000E+00
         0.00000E+00
         0.00000E+00
         0.00000E+00
         0.00000E+00
         0.00000E+00
         0.00000E+00
         0.00000E+00
         0.00000E+00
         0.00000E+00
         0.00000E+00
         0.00000E+00
         0.00000E+00
         0.00000E+00
         0.00000E+00
         0.00000E+00
         0.00000E+00
         0.00000E+00
         0.00000E+00
         0.00000E+00
         0.00000E+00
         0.00000E+00
         0.00000E+00
         0.00000E+00
         0.00000E+00
         0.00000E+00
         0.00000E+00
         0.00000E+00
         0.00000E+00
         0.00000E+00
         0.00000E+00
         0.00000E+00
         0.00000E+00
         0.00000E+00
         0.00000E+00
         0.00000E+00
         0.00000E+00
         0.00000E+00
         0.00000E+00
         0.00000E+00
         0.00000E+00
         0.00000E+00
         0.00000E+00
         0.00000E+00
         0.00000E+00
         0.00000E+00
         0.00000E+00
         0.00000E+00
         0.00000E+00
         0.00000E+00
         0.00000E+00
         0.00000E+00
         0.00000E+00
         0.00000E+00
         0.00000E+00
         0.00000E+00
         0.00000E+00
         0.00000E+00
         0.00000E+00
         0.00000E+00
         0.00000E+00
         0.00000E+00
         0.00000E+00
         0.00000E+00
         0.00000E+00
         0.00000E+00
         0.00000E+00
         0.00000E+00
         0.00000E+00
         0.00000E+00
         0.00000E+00
         0.00000E+00
         0.00000E+00
         0.00000E+00
         0.00000E+00
         0.00000E+00
         0.00000E+00
         0.00000E+00
         0.00000E+00
         0.00000E+00
         0.00000E+00
         0.00000E+00
         0.00000E+00
         0.00000E+00
         0.00000E+00
         0.00000E+00
         0.00000E+00
         0.00000E+00
         0.00000E+00
         0.00000E+00
         0.00000E+00
         0.00000E+00
         0.00000E+00
         0.00000E+00
         0.00000E+00
         0.00000E+00
         0.00000E+00
         0.00000E+00
         0.00000E+00
         0.00000E+00
         0.00000E+00
         0.00000E+00
         0.00000E+00
         0.00000E+00
         0.00000E+00
         0.00000E+00
         0.00000E+00
         0.00000E+00
         0.00000E+00
         0.00000E+00
         0.00000E+00
         0.00000E+00
         0.00000E+00
         0.00000E+00
         0.00000E+00
         0.00000E+00
         0.00000E+00
         0.00000E+00
         0.00000E+00
         0.00000E+00
         0.00000E+00
         0.00000E+00
         0.00000E+00
         0.00000E+00
         0.00000E+00
         0.00000E+00
         0.00000E+00
         0.00000E+00
         0.00000E+00
         0.00000E+00
         0.00000E+00
         0.00000E+00
         0.00000E+00
         0.00000E+00
         0.00000E+00
         0.00000E+00
         0.00000E+00
         0.00000E+00
         0.00000E+00
         0.00000E+00
         0.00000E+00
         0.00000E+00
         0.00000E+00
         0.00000E+00
         0.00000E+00
         0.00000E+00
         0.00000E+00
         0.00000E+00
         0.00000E+00
         0.00000E+00
         0.00000E+00
         0.00000E+00
         0.00000E+00
         0.00000E+00
         0.00000E+00
         0.00000E+00
         0.00000E+00
         0.00000E+00
         0.00000E+00
         0.00000E+00
         0.00000E+00
         0.00000E+00
         0.00000E+00
         0.00000E+00
         0.00000E+00
         0.00000E+00
         0.00000E+00
         0.00000E+00
         0.00000E+00
         0.00000E+00
         0.00000E+00
         0.00000E+00
         0.00000E+00
         0.00000E+00
         0.00000E+00
         0.00000E+00
         0.00000E+00
         0.00000E+00
         0.00000E+00
         0.00000E+00
         0.00000E+00
         0.00000E+00
         0.00000E+00
         0.00000E+00
         0.00000E+00
         0.00000E+00
         0.00000E+00
         0.00000E+00
         0.00000E+00
         0.00000E+00
         0.00000E+00
         0.00000E+00
         0.00000E+00
         0.00000E+00
         0.00000E+00
         0.00000E+00
         0.00000E+00
         0.00000E+00
         0.00000E+00
         0.00000E+00
         0.00000E+00
         0.00000E+00
         0.00000E+00
         0.00000E+00
         0.00000E+00
         0.00000E+00
         0.00000E+00
         0.00000E+00
         0.00000E+00
         0.00000E+00
         0.00000E+00
         0.00000E+00
         0.00000E+00
         0.00000E+00
         0.00000E+00
         0.00000E+00
         0.00000E+00
         0.00000E+00
         0.00000E+00
         0.00000E+00
         0.00000E+00
         0.00000E+00
         0.00000E+00
         0.00000E+00
         0.00000E+00
         0.00000E+00
         0.00000E+00
         0.00000E+00
         0.00000E+00
         0.00000E+00
         0.00000E+00
         0.00000E+00
         0.00000E+00
         0.00000E+00
         0.00000E+00
         0.00000E+00
         0.00000E+00
         0.00000E+00
         0.00000E+00
         0.00000E+00
         0.00000E+00
         0.00000E+00
         0.00000E+00
         0.00000E+00
         0.00000E+00
         0.00000E+00
         0.00000E+00
         0.00000E+00
         0.00000E+00
         0.00000E+00
         0.00000E+00
         0.00000E+00
         0.00000E+00
         0.00000E+00
         0.00000E+00
         0.00000E+00
         0.00000E+00
         0.00000E+00
         0.00000E+00
         0.00000E+00
         0.00000E+00
         0.00000E+00
         0.00000E+00
         0.00000E+00
         0.00000E+00
         0.00000E+00
         0.00000E+00
         0.00000E+00
         0.00000E+00
         0.00000E+00
         0.00000E+00
         0.00000E+00
         0.00000E+00
         0.00000E+00
         0.00000E+00
         0.00000E+00
         0.00000E+00
         0.00000E+00
         0.00000E+00
         0.00000E+00
         0.00000E+00
         0.00000E+00
         0.00000E+00
         0.00000E+00
         0.00000E+00
         0.00000E+00
         0.00000E+00
         0.00000E+00
         0.00000E+00
         0.00000E+00
         0.00000E+00
         0.00000E+00
         0.00000E+00
         0.00000E+00
         0.00000E+00
         0.00000E+00
         0.00000E+00
         0.00000E+00
         0.00000E+00
         0.00000E+00
         0.00000E+00
         0.00000E+00
         0.00000E+00
         0.00000E+00
         0.00000E+00
         0.00000E+00
         0.00000E+00
         0.00000E+00
         0.00000E+00
         0.00000E+00
         0.00000E+00
         0.00000E+00
         0.00000E+00
         0.00000E+00
         0.00000E+00
         0.00000E+00
         0.00000E+00
         0.00000E+00
         0.00000E+00
         0.00000E+00
         0.00000E+00
         0.00000E+00
         0.00000E+00
         0.00000E+00
         0.00000E+00
         0.00000E+00
         0.00000E+00
         0.00000E+00
         0.00000E+00
         0.00000E+00
         0.00000E+00
         0.00000E+00
         0.00000E+00
         0.00000E+00
         0.00000E+00
         0.00000E+00
         0.00000E+00
         0.00000E+00
         0.00000E+00
         0.00000E+00
         0.00000E+00
         0.00000E+00
         0.00000E+00
         0.00000E+00
         0.00000E+00
         0.00000E+00
         0.00000E+00
         0.00000E+00
         0.00000E+00
         0.00000E+00
         0.00000E+00
         0.00000E+00
         0.00000E+00
         0.00000E+00
         0.00000E+00
         0.00000E+00
         0.00000E+00
         0.00000E+00
         0.00000E+00
         0.00000E+00
         0.00000E+00
         0.00000E+00
         0.00000E+00
         0.00000E+00
         0.00000E+00
         0.00000E+00
         0.00000E+00
         0.00000E+00
         0.00000E+00
         0.00000E+00
         0.00000E+00
         0.00000E+00
         0.00000E+00
         0.00000E+00
         0.00000E+00
         0.00000E+00
         0.00000E+00
         0.00000E+00
         0.00000E+00
         0.00000E+00
         0.00000E+00
         0.00000E+00
         0.00000E+00
         0.00000E+00
         0.00000E+00
         0.00000E+00
         0.00000E+00
         0.00000E+00
         0.00000E+00
         0.00000E+00
         0.00000E+00
         0.00000E+00
         0.00000E+00
         0.00000E+00
         0.00000E+00
         0.00000E+00
         0.00000E+00
         0.00000E+00
         0.00000E+00
         0.00000E+00
         0.00000E+00
         0.00000E+00
         0.00000E+00
         0.00000E+00
         0.00000E+00
         0.00000E+00
         0.00000E+00
         0.00000E+00
         0.00000E+00
         0.00000E+00
         0.00000E+00
         0.00000E+00
         0.00000E+00
         0.00000E+00
         0.00000E+00
         0.00000E+00
         0.00000E+00
         0.00000E+00
         0.00000E+00
         0.00000E+00
         0.00000E+00
         0.00000E+00
         0.00000E+00
         0.00000E+00
         0.00000E+00
         0.00000E+00
         0.00000E+00
         0.00000E+00
         0.00000E+00
         0.00000E+00
         0.00000E+00
         0.00000E+00
         0.00000E+00
         0.00000E+00
         0.00000E+00
         0.00000E+00
         0.00000E+00
         0.00000E+00
         0.00000E+00
         0.00000E+00
         0.00000E+00
         0.00000E+00
         0.00000E+00
         0.00000E+00
         0.00000E+00
         0.00000E+00
         0.00000E+00
         0.00000E+00
         0.00000E+00
         0.00000E+00
         0.00000E+00
         0.00000E+00
         0.00000E+00
         0.00000E+00
         0.00000E+00
         0.00000E+00
         0.00000E+00
         0.00000E+00
         0.00000E+00
         0.00000E+00
         0.00000E+00
         0.00000E+00
         0.00000E+00
         0.00000E+00
         0.00000E+00
         0.00000E+00
         0.00000E+00
         0.00000E+00
         0.00000E+00
         0.00000E+00
         0.00000E+00
         0.00000E+00
         0.00000E+00
         0.00000E+00
         0.00000E+00
         0.00000E+00
         0.00000E+00
         0.00000E+00
         0.00000E+00
         0.00000E+00
         0.00000E+00
         0.00000E+00
         0.00000E+00
         0.00000E+00
         0.00000E+00
         0.00000E+00
         0.00000E+00
         0.00000E+00
         0.00000E+00
         0.00000E+00
         0.00000E+00
         0.00000E+00
         0.00000E+00
         0.00000E+00
         0.00000E+00
         0.00000E+00
         0.00000E+00
         0.00000E+00
         0.00000E+00
         0.00000E+00
         0.00000E+00
         0.00000E+00
         0.00000E+00
         0.00000E+00
         0.00000E+00
         0.00000E+00
         0.00000E+00
         0.00000E+00
         0.00000E+00
         0.00000E+00
         0.00000E+00
         0.00000E+00
         0.00000E+00
         0.00000E+00
         0.00000E+00
         0.00000E+00
         0.00000E+00
         0.00000E+00
         0.00000E+00
         0.00000E+00
         0.00000E+00
         0.00000E+00
         0.00000E+00
         0.00000E+00
         0.00000E+00
         0.00000E+00
         0.00000E+00
         0.00000E+00
         0.00000E+00
         0.00000E+00
         0.00000E+00
         0.00000E+00
         0.00000E+00
         0.00000E+00
         0.00000E+00
         0.00000E+00
         0.00000E+00
         0.00000E+00
         0.00000E+00
         0.00000E+00
         0.00000E+00
         0.00000E+00
         0.00000E+00
         0.00000E+00
         0.00000E+00
         0.00000E+00
         0.00000E+00
         0.00000E+00
         0.00000E+00
         0.00000E+00
         0.00000E+00
         0.00000E+00
         0.00000E+00
         0.00000E+00
         0.00000E+00
         0.00000E+00
         0.00000E+00
         0.00000E+00
         0.00000E+00
         0.00000E+00
         0.00000E+00
         0.00000E+00
         0.00000E+00
         0.00000E+00
         0.00000E+00
         0.00000E+00
         0.00000E+00
         0.00000E+00
         0.00000E+00
         0.00000E+00
         0.00000E+00
         0.00000E+00
         0.00000E+00
         0.00000E+00
         0.00000E+00
         0.00000E+00
         0.00000E+00
         0.00000E+00
         0.00000E+00
         0.00000E+00
         0.00000E+00
         0.00000E+00
         0.00000E+00
         0.00000E+00
         0.00000E+00
         0.00000E+00
         0.00000E+00
         0.00000E+00
         0.00000E+00
         0.00000E+00
         0.00000E+00
         0.00000E+00
         0.00000E+00
         0.00000E+00
         0.00000E+00
         0.00000E+00
         0.00000E+00
         0.00000E+00
         0.00000E+00
         0.00000E+00
         0.00000E+00
         0.00000E+00
         0.00000E+00
         0.00000E+00
         0.00000E+00
         0.00000E+00
         0.00000E+00
         0.00000E+00
         0.00000E+00
         0.00000E+00
         0.00000E+00
         0.00000E+00
         0.00000E+00
         0.00000E+00
         0.00000E+00
         0.00000E+00
         0.00000E+00
         0.00000E+00
         0.00000E+00
         0.00000E+00
         0.00000E+00
         0.00000E+00
         0.00000E+00
         0.00000E+00
         0.00000E+00
         0.00000E+00
         0.00000E+00
         0.00000E+00
         0.00000E+00
         0.00000E+00
         0.00000E+00
         0.00000E+00
         0.00000E+00
         0.00000E+00
         0.00000E+00
         0.00000E+00
         0.00000E+00
         0.00000E+00
         0.00000E+00
         0.00000E+00
         0.00000E+00
         0.00000E+00
         0.00000E+00
         0.00000E+00
         0.00000E+00
         0.00000E+00
         0.00000E+00
         0.00000E+00
         0.00000E+00
         0.00000E+00
         0.00000E+00
         0.00000E+00
         0.00000E+00
         0.00000E+00
         0.00000E+00
         0.00000E+00
         0.00000E+00
         0.00000E+00
         0.00000E+00
         0.00000E+00
         0.00000E+00
         0.00000E+00
         0.00000E+00
         0.00000E+00
         0.00000E+00
         0.00000E+00
         0.00000E+00
         0.00000E+00
         0.00000E+00
         0.00000E+00
         0.00000E+00
         0.00000E+00
         0.00000E+00
         0.00000E+00
         0.00000E+00
         0.00000E+00
         0.00000E+00
         0.00000E+00
         0.00000E+00
         0.00000E+00
         0.00000E+00
         0.00000E+00
         0.00000E+00
         0.00000E+00
         0.00000E+00
         0.00000E+00
         0.00000E+00
         0.00000E+00
         0.00000E+00
         0.00000E+00
         0.00000E+00
         0.00000E+00
         0.00000E+00
         0.00000E+00
         0.00000E+00
         0.00000E+00
         0.00000E+00
         0.00000E+00
         0.00000E+00
         0.00000E+00
         0.00000E+00
         0.00000E+00
         0.00000E+00
         0.00000E+00
         0.00000E+00
         0.00000E+00
         0.00000E+00
         0.00000E+00
         0.00000E+00
         0.00000E+00
         0.00000E+00
         0.00000E+00
         0.00000E+00
         0.00000E+00
         0.00000E+00
         0.00000E+00
         0.00000E+00
         0.00000E+00
         0.00000E+00
         0.00000E+00
         0.00000E+00
         0.00000E+00
         0.00000E+00
         0.00000E+00
         0.00000E+00
         0.00000E+00
         0.00000E+00
         0.00000E+00
         0.00000E+00
         0.00000E+00
         0.00000E+00
         0.00000E+00
         0.00000E+00
         0.00000E+00
         0.00000E+00
         0.00000E+00
         0.00000E+00
         0.00000E+00
         0.00000E+00
         0.00000E+00
         0.00000E+00
         0.00000E+00
         0.00000E+00
         0.00000E+00
         0.00000E+00
         0.00000E+00
         0.00000E+00
         0.00000E+00
         0.00000E+00
         0.00000E+00
         0.00000E+00
         0.00000E+00
         0.00000E+00
         0.00000E+00
         0.00000E+00
         0.00000E+00
         0.00000E+00
         0.00000E+00
         0.00000E+00
         0.00000E+00
         0.00000E+00
         0.00000E+00
         0.00000E+00
         0.00000E+00
         0.00000E+00
         0.00000E+00
         0.00000E+00
         0.00000E+00
         0.00000E+00
         0.00000E+00
         0.00000E+00
         0.00000E+00
         0.00000E+00
         0.00000E+00
         0.00000E+00
         0.00000E+00
         0.00000E+00
         0.00000E+00
         0.00000E+00
         0.00000E+00
         0.00000E+00
         0.00000E+00
         0.00000E+00
         0.00000E+00
         0.00000E+00
         0.00000E+00
         0.00000E+00
         0.00000E+00
         0.00000E+00
         0.00000E+00
         0.00000E+00
         0.00000E+00
         0.00000E+00
         0.00000E+00
         0.00000E+00
         0.00000E+00
         0.00000E+00
         0.00000E+00
         0.00000E+00
         0.00000E+00
         0.00000E+00
         0.00000E+00
         0.00000E+00
         0.00000E+00
         0.00000E+00
         0.00000E+00
         0.00000E+00
         0.00000E+00
         0.00000E+00
         0.00000E+00
         0.00000E+00
         0.00000E+00
         0.00000E+00
         0.00000E+00
         0.00000E+00
         0.00000E+00
         0.00000E+00
         0.00000E+00
         0.00000E+00
         0.00000E+00
         0.00000E+00
         0.00000E+00
         0.00000E+00
         0.00000E+00
         0.00000E+00
         0.00000E+00
         0.00000E+00
         0.00000E+00
         0.00000E+00
         0.00000E+00
         0.00000E+00
         0.00000E+00
         0.00000E+00
         0.00000E+00
         0.00000E+00
         0.00000E+00
         0.00000E+00
         0.00000E+00
         0.00000E+00
         0.00000E+00
         0.00000E+00
         0.00000E+00
         0.00000E+00
         0.00000E+00
         0.00000E+00
         0.00000E+00
         0.00000E+00
         0.00000E+00
         0.00000E+00
         0.00000E+00
         0.00000E+00
         0.00000E+00
         0.00000E+00
         0.00000E+00
         0.00000E+00
         0.00000E+00
         0.00000E+00
         0.00000E+00
         0.00000E+00
         0.00000E+00
         0.00000E+00
         0.00000E+00
         0.00000E+00
         0.00000E+00
         0.00000E+00
         0.00000E+00
         0.00000E+00
         0.00000E+00
         0.00000E+00
         0.00000E+00
         0.00000E+00
         0.00000E+00
         0.00000E+00
         0.00000E+00
         0.00000E+00
         0.00000E+00
         0.00000E+00
         0.00000E+00
         0.00000E+00
         0.00000E+00
         0.00000E+00
         0.00000E+00
         0.00000E+00
         0.00000E+00
         0.00000E+00
         0.00000E+00
         0.00000E+00
         0.00000E+00
         0.00000E+00
         0.00000E+00
         0.00000E+00
         0.00000E+00
         0.00000E+00
         0.00000E+00
         0.00000E+00
         0.00000E+00
         0.00000E+00
         0.00000E+00
         0.00000E+00
         0.00000E+00
         0.00000E+00
         0.00000E+00
         0.00000E+00
         0.00000E+00
         0.00000E+00
         0.00000E+00
         0.00000E+00
         0.00000E+00
         0.00000E+00
         0.00000E+00
         0.00000E+00
         0.00000E+00
         0.00000E+00
         0.00000E+00
         0.00000E+00
         0.00000E+00
         0.00000E+00
         0.00000E+00
         0.00000E+00
         0.00000E+00
         0.00000E+00
         0.00000E+00
         0.00000E+00
         0.00000E+00
         0.00000E+00
         0.00000E+00
         0.00000E+00
         0.00000E+00
         0.00000E+00
         0.00000E+00
         0.00000E+00
         0.00000E+00
         0.00000E+00
         0.00000E+00
         0.00000E+00
         0.00000E+00
         0.00000E+00
         0.00000E+00
         0.00000E+00
         0.00000E+00
         0.00000E+00
         0.00000E+00
         0.00000E+00
         0.00000E+00
         0.00000E+00
         0.00000E+00
         0.00000E+00
         0.00000E+00
         0.00000E+00
         0.00000E+00
         0.00000E+00
         0.00000E+00
         0.00000E+00
         0.00000E+00
         0.00000E+00
         0.00000E+00
         0.00000E+00
         0.00000E+00
         0.00000E+00
         0.00000E+00
         0.00000E+00
         0.00000E+00
         0.00000E+00
         0.00000E+00
         0.00000E+00
         0.00000E+00
         0.00000E+00
         0.00000E+00
         0.00000E+00
         0.00000E+00
         0.00000E+00
         0.00000E+00
         0.00000E+00
         0.00000E+00
         0.00000E+00
         0.00000E+00
         0.00000E+00
         0.00000E+00
         0.00000E+00
         0.00000E+00
         0.00000E+00
         0.00000E+00
         0.00000E+00
         0.00000E+00
         0.00000E+00
         0.00000E+00
         0.00000E+00
         0.00000E+00
         0.00000E+00
         0.00000E+00
         0.00000E+00
         0.00000E+00
         0.00000E+00
         0.00000E+00
         0.00000E+00
         0.00000E+00
         0.00000E+00
         0.00000E+00
         0.00000E+00
         0.00000E+00
         0.00000E+00
         0.00000E+00
         0.00000E+00
         0.00000E+00
         0.00000E+00
         0.00000E+00
         0.00000E+00
         0.00000E+00
         0.00000E+00
         0.00000E+00
         0.00000E+00
         0.00000E+00
         0.00000E+00
         0.00000E+00
         0.00000E+00
         0.00000E+00
         0.00000E+00
         0.00000E+00
         0.00000E+00
         0.00000E+00
         0.00000E+00
         0.00000E+00
         0.00000E+00
         0.00000E+00
         0.00000E+00
         0.00000E+00
         0.00000E+00
         0.00000E+00
         0.00000E+00
         0.00000E+00
         0.00000E+00
         0.00000E+00
         0.00000E+00
         0.00000E+00
         0.00000E+00
         0.00000E+00
         0.00000E+00
         0.00000E+00
         0.00000E+00
         0.00000E+00
         0.00000E+00
         0.00000E+00
         0.00000E+00
         0.00000E+00
         0.00000E+00
         0.00000E+00
         0.00000E+00
         0.00000E+00
         0.00000E+00
         0.00000E+00
         0.00000E+00
         0.00000E+00
         0.00000E+00
         0.00000E+00
         0.00000E+00
         0.00000E+00
         0.00000E+00
         0.00000E+00
         0.00000E+00
         0.00000E+00
         0.00000E+00
         0.00000E+00
         0.00000E+00
         0.00000E+00
         0.00000E+00
         0.00000E+00
         0.00000E+00
         0.00000E+00
         0.00000E+00
         0.00000E+00
         0.00000E+00
         0.00000E+00
         0.00000E+00
         0.00000E+00
         0.00000E+00
         0.00000E+00
         0.00000E+00
         0.00000E+00
         0.00000E+00
         0.00000E+00
         0.00000E+00
         0.00000E+00
         0.00000E+00
         0.00000E+00
         0.00000E+00
         0.00000E+00
         0.00000E+00
         0.00000E+00
         0.00000E+00
         0.00000E+00
         0.00000E+00
         0.00000E+00
         0.00000E+00
         0.00000E+00
         0.00000E+00
         0.00000E+00
         0.00000E+00
         0.00000E+00
         0.00000E+00
         0.00000E+00
         0.00000E+00
         0.00000E+00
         0.00000E+00
         0.00000E+00
         0.00000E+00
         0.00000E+00
         0.00000E+00
         0.00000E+00
         0.00000E+00
         0.00000E+00
         0.00000E+00
         0.00000E+00
         0.00000E+00
         0.00000E+00
         0.00000E+00
         0.00000E+00
         0.00000E+00
         0.00000E+00
         0.00000E+00
         0.00000E+00
         0.00000E+00
         0.00000E+00
         0.00000E+00
         0.00000E+00
         0.00000E+00
         0.00000E+00
         0.00000E+00
         0.00000E+00
         0.00000E+00
         0.00000E+00
         0.00000E+00
         0.00000E+00
         0.00000E+00
         0.00000E+00
         0.00000E+00
         0.00000E+00
         0.00000E+00
         0.00000E+00
         0.00000E+00
         0.00000E+00
         0.00000E+00
         0.00000E+00
         0.00000E+00
         0.00000E+00
         0.00000E+00
         0.00000E+00
         0.00000E+00
         0.00000E+00
         0.00000E+00
         0.00000E+00
         0.00000E+00
         0.00000E+00
         0.00000E+00
         0.00000E+00
         0.00000E+00
         0.00000E+00
         0.00000E+00
         0.00000E+00
         0.00000E+00
         0.00000E+00
         0.00000E+00
         0.00000E+00
         0.00000E+00
         0.00000E+00
         0.00000E+00
         0.00000E+00
         0.00000E+00
         0.00000E+00
         0.00000E+00
         0.00000E+00
         0.00000E+00
         0.00000E+00
         0.00000E+00
         0.00000E+00
         0.00000E+00
         0.00000E+00
         0.00000E+00
         0.00000E+00
         0.00000E+00
         0.00000E+00
         0.00000E+00
         0.00000E+00
         0.00000E+00
         0.00000E+00
         0.00000E+00
         0.00000E+00
         0.00000E+00
         0.00000E+00
         0.00000E+00
         0.00000E+00
         0.00000E+00
         0.00000E+00
         0.00000E+00
         0.00000E+00
         0.00000E+00
         0.00000E+00
         0.00000E+00
         0.00000E+00
         0.00000E+00
         0.00000E+00
         0.00000E+00
         0.00000E+00
         0.00000E+00
         0.00000E+00
         0.00000E+00
         0.00000E+00
         0.00000E+00
         0.00000E+00
         0.00000E+00
         0.00000E+00
         0.00000E+00
         0.00000E+00
         0.00000E+00
         0.00000E+00
         0.00000E+00
         0.00000E+00
         0.00000E+00
         0.00000E+00
         0.00000E+00
         0.00000E+00
         0.00000E+00
         0.00000E+00
         0.00000E+00
         0.00000E+00
         0.00000E+00
         0.00000E+00
         0.00000E+00
         0.00000E+00
         0.00000E+00
         0.00000E+00
         0.00000E+00
         0.00000E+00
         0.00000E+00
         0.00000E+00
         0.00000E+00
         0.00000E+00
         0.00000E+00
         0.00000E+00
         0.00000E+00
         0.00000E+00
         0.00000E+00
         0.00000E+00
         0.00000E+00
         0.00000E+00
         0.00000E+00
         0.00000E+00
         0.00000E+00
         0.00000E+00
         0.00000E+00
         0.00000E+00
         0.00000E+00
         0.00000E+00
         0.00000E+00
         0.00000E+00
         0.00000E+00
         0.00000E+00
         0.00000E+00
         0.00000E+00
         0.00000E+00
         0.00000E+00
         0.00000E+00
         0.00000E+00
         0.00000E+00
         0.00000E+00
         0.00000E+00
         0.00000E+00
         0.00000E+00
         0.00000E+00
         0.00000E+00
         0.00000E+00
         0.00000E+00
         0.00000E+00
         0.00000E+00
         0.00000E+00
         0.00000E+00
         0.00000E+00
         0.00000E+00
         0.00000E+00
         0.00000E+00
         0.00000E+00
         0.00000E+00
         0.00000E+00
         0.00000E+00
         0.00000E+00
         0.00000E+00
         0.00000E+00
         0.00000E+00
         0.00000E+00
         0.00000E+00
         0.00000E+00
         0.00000E+00
         0.00000E+00
         0.00000E+00
         0.00000E+00
         0.00000E+00
         0.00000E+00
         0.00000E+00
         0.00000E+00
         0.00000E+00
         0.00000E+00
         0.00000E+00
         0.00000E+00
         0.00000E+00
         0.00000E+00
         0.00000E+00
         0.00000E+00
         0.00000E+00
         0.00000E+00
         0.00000E+00
         0.00000E+00
         0.00000E+00
         0.00000E+00
         0.00000E+00
         0.00000E+00
         0.00000E+00
         0.00000E+00
         0.00000E+00
         0.00000E+00
         0.00000E+00
         0.00000E+00
         0.00000E+00
         0.00000E+00
         0.00000E+00
         0.00000E+00
         0.00000E+00
         0.00000E+00
         0.00000E+00
         0.00000E+00
         0.00000E+00
         0.00000E+00
         0.00000E+00
         0.00000E+00
         0.00000E+00
         0.00000E+00
         0.00000E+00
         0.00000E+00
         0.00000E+00
         0.00000E+00
         0.00000E+00
         0.00000E+00
         0.00000E+00
         0.00000E+00
         0.00000E+00
         0.00000E+00
         0.00000E+00
         0.00000E+00
         0.00000E+00
         0.00000E+00
         0.00000E+00
         0.00000E+00
         0.00000E+00
         0.00000E+00
         0.00000E+00
  
SCALARS                 acceleration_y  double 1
LOOKUP_TABLE default
         0.00000E+00
         0.00000E+00
         0.00000E+00
         0.00000E+00
         0.00000E+00
         0.00000E+00
         0.00000E+00
         0.00000E+00
         0.00000E+00
         0.00000E+00
         0.00000E+00
         0.00000E+00
         0.00000E+00
         0.00000E+00
         0.00000E+00
         0.00000E+00
         0.00000E+00
         0.00000E+00
         0.00000E+00
         0.00000E+00
         0.00000E+00
         0.00000E+00
         0.00000E+00
         0.00000E+00
         0.00000E+00
         0.00000E+00
         0.00000E+00
         0.00000E+00
         0.00000E+00
         0.00000E+00
         0.00000E+00
         0.00000E+00
         0.00000E+00
         0.00000E+00
         0.00000E+00
         0.00000E+00
         0.00000E+00
         0.00000E+00
         0.00000E+00
         0.00000E+00
         0.00000E+00
         0.00000E+00
         0.00000E+00
         0.00000E+00
         0.00000E+00
         0.00000E+00
         0.00000E+00
         0.00000E+00
         0.00000E+00
         0.00000E+00
         0.00000E+00
         0.00000E+00
         0.00000E+00
         0.00000E+00
         0.00000E+00
         0.00000E+00
         0.00000E+00
         0.00000E+00
         0.00000E+00
         0.00000E+00
         0.00000E+00
         0.00000E+00
         0.00000E+00
         0.00000E+00
         0.00000E+00
         0.00000E+00
         0.00000E+00
         0.00000E+00
         0.00000E+00
         0.00000E+00
         0.00000E+00
         0.00000E+00
         0.00000E+00
         0.00000E+00
         0.00000E+00
         0.00000E+00
         0.00000E+00
         0.00000E+00
         0.00000E+00
         0.00000E+00
         0.00000E+00
         0.00000E+00
         0.00000E+00
         0.00000E+00
         0.00000E+00
         0.00000E+00
         0.00000E+00
         0.00000E+00
         0.00000E+00
         0.00000E+00
         0.00000E+00
         0.00000E+00
         0.00000E+00
         0.00000E+00
         0.00000E+00
         0.00000E+00
         0.00000E+00
         0.00000E+00
         0.00000E+00
         0.00000E+00
         0.00000E+00
         0.00000E+00
         0.00000E+00
         0.00000E+00
         0.00000E+00
         0.00000E+00
         0.00000E+00
         0.00000E+00
         0.00000E+00
         0.00000E+00
         0.00000E+00
         0.00000E+00
         0.00000E+00
         0.00000E+00
         0.00000E+00
         0.00000E+00
         0.00000E+00
         0.00000E+00
         0.00000E+00
         0.00000E+00
         0.00000E+00
         0.00000E+00
         0.00000E+00
         0.00000E+00
         0.00000E+00
         0.00000E+00
         0.00000E+00
         0.00000E+00
         0.00000E+00
         0.00000E+00
         0.00000E+00
         0.00000E+00
         0.00000E+00
         0.00000E+00
         0.00000E+00
         0.00000E+00
         0.00000E+00
         0.00000E+00
         0.00000E+00
         0.00000E+00
         0.00000E+00
         0.00000E+00
         0.00000E+00
         0.00000E+00
         0.00000E+00
         0.00000E+00
         0.00000E+00
         0.00000E+00
         0.00000E+00
         0.00000E+00
         0.00000E+00
         0.00000E+00
         0.00000E+00
         0.00000E+00
         0.00000E+00
         0.00000E+00
         0.00000E+00
         0.00000E+00
         0.00000E+00
         0.00000E+00
         0.00000E+00
         0.00000E+00
         0.00000E+00
         0.00000E+00
         0.00000E+00
         0.00000E+00
         0.00000E+00
         0.00000E+00
         0.00000E+00
         0.00000E+00
         0.00000E+00
         0.00000E+00
         0.00000E+00
         0.00000E+00
         0.00000E+00
         0.00000E+00
         0.00000E+00
         0.00000E+00
         0.00000E+00
         0.00000E+00
         0.00000E+00
         0.00000E+00
         0.00000E+00
         0.00000E+00
         0.00000E+00
         0.00000E+00
         0.00000E+00
         0.00000E+00
         0.00000E+00
         0.00000E+00
         0.00000E+00
         0.00000E+00
         0.00000E+00
         0.00000E+00
         0.00000E+00
         0.00000E+00
         0.00000E+00
         0.00000E+00
         0.00000E+00
         0.00000E+00
         0.00000E+00
         0.00000E+00
         0.00000E+00
         0.00000E+00
         0.00000E+00
         0.00000E+00
         0.00000E+00
         0.00000E+00
         0.00000E+00
         0.00000E+00
         0.00000E+00
         0.00000E+00
         0.00000E+00
         0.00000E+00
         0.00000E+00
         0.00000E+00
         0.00000E+00
         0.00000E+00
         0.00000E+00
         0.00000E+00
         0.00000E+00
         0.00000E+00
         0.00000E+00
         0.00000E+00
         0.00000E+00
         0.00000E+00
         0.00000E+00
         0.00000E+00
         0.00000E+00
         0.00000E+00
         0.00000E+00
         0.00000E+00
         0.00000E+00
         0.00000E+00
         0.00000E+00
         0.00000E+00
         0.00000E+00
         0.00000E+00
         0.00000E+00
         0.00000E+00
         0.00000E+00
         0.00000E+00
         0.00000E+00
         0.00000E+00
         0.00000E+00
         0.00000E+00
         0.00000E+00
         0.00000E+00
         0.00000E+00
         0.00000E+00
         0.00000E+00
         0.00000E+00
         0.00000E+00
         0.00000E+00
         0.00000E+00
         0.00000E+00
         0.00000E+00
         0.00000E+00
         0.00000E+00
         0.00000E+00
         0.00000E+00
         0.00000E+00
         0.00000E+00
         0.00000E+00
         0.00000E+00
         0.00000E+00
         0.00000E+00
         0.00000E+00
         0.00000E+00
         0.00000E+00
         0.00000E+00
         0.00000E+00
         0.00000E+00
         0.00000E+00
         0.00000E+00
         0.00000E+00
         0.00000E+00
         0.00000E+00
         0.00000E+00
         0.00000E+00
         0.00000E+00
         0.00000E+00
         0.00000E+00
         0.00000E+00
         0.00000E+00
         0.00000E+00
         0.00000E+00
         0.00000E+00
         0.00000E+00
         0.00000E+00
         0.00000E+00
         0.00000E+00
         0.00000E+00
         0.00000E+00
         0.00000E+00
         0.00000E+00
         0.00000E+00
         0.00000E+00
         0.00000E+00
         0.00000E+00
         0.00000E+00
         0.00000E+00
         0.00000E+00
         0.00000E+00
         0.00000E+00
         0.00000E+00
         0.00000E+00
         0.00000E+00
         0.00000E+00
         0.00000E+00
         0.00000E+00
         0.00000E+00
         0.00000E+00
         0.00000E+00
         0.00000E+00
         0.00000E+00
         0.00000E+00
         0.00000E+00
         0.00000E+00
         0.00000E+00
         0.00000E+00
         0.00000E+00
         0.00000E+00
         0.00000E+00
         0.00000E+00
         0.00000E+00
         0.00000E+00
         0.00000E+00
         0.00000E+00
         0.00000E+00
         0.00000E+00
         0.00000E+00
         0.00000E+00
         0.00000E+00
         0.00000E+00
         0.00000E+00
         0.00000E+00
         0.00000E+00
         0.00000E+00
         0.00000E+00
         0.00000E+00
         0.00000E+00
         0.00000E+00
         0.00000E+00
         0.00000E+00
         0.00000E+00
         0.00000E+00
         0.00000E+00
         0.00000E+00
         0.00000E+00
         0.00000E+00
         0.00000E+00
         0.00000E+00
         0.00000E+00
         0.00000E+00
         0.00000E+00
         0.00000E+00
         0.00000E+00
         0.00000E+00
         0.00000E+00
         0.00000E+00
         0.00000E+00
         0.00000E+00
         0.00000E+00
         0.00000E+00
         0.00000E+00
         0.00000E+00
         0.00000E+00
         0.00000E+00
         0.00000E+00
         0.00000E+00
         0.00000E+00
         0.00000E+00
         0.00000E+00
         0.00000E+00
         0.00000E+00
         0.00000E+00
         0.00000E+00
         0.00000E+00
         0.00000E+00
         0.00000E+00
         0.00000E+00
         0.00000E+00
         0.00000E+00
         0.00000E+00
         0.00000E+00
         0.00000E+00
         0.00000E+00
         0.00000E+00
         0.00000E+00
         0.00000E+00
         0.00000E+00
         0.00000E+00
         0.00000E+00
         0.00000E+00
         0.00000E+00
         0.00000E+00
         0.00000E+00
         0.00000E+00
         0.00000E+00
         0.00000E+00
         0.00000E+00
         0.00000E+00
         0.00000E+00
         0.00000E+00
         0.00000E+00
         0.00000E+00
         0.00000E+00
         0.00000E+00
         0.00000E+00
         0.00000E+00
         0.00000E+00
         0.00000E+00
         0.00000E+00
         0.00000E+00
         0.00000E+00
         0.00000E+00
         0.00000E+00
         0.00000E+00
         0.00000E+00
         0.00000E+00
         0.00000E+00
         0.00000E+00
         0.00000E+00
         0.00000E+00
         0.00000E+00
         0.00000E+00
         0.00000E+00
         0.00000E+00
         0.00000E+00
         0.00000E+00
         0.00000E+00
         0.00000E+00
         0.00000E+00
         0.00000E+00
         0.00000E+00
         0.00000E+00
         0.00000E+00
         0.00000E+00
         0.00000E+00
         0.00000E+00
         0.00000E+00
         0.00000E+00
         0.00000E+00
         0.00000E+00
         0.00000E+00
         0.00000E+00
         0.00000E+00
         0.00000E+00
         0.00000E+00
         0.00000E+00
         0.00000E+00
         0.00000E+00
         0.00000E+00
         0.00000E+00
         0.00000E+00
         0.00000E+00
         0.00000E+00
         0.00000E+00
         0.00000E+00
         0.00000E+00
         0.00000E+00
         0.00000E+00
         0.00000E+00
         0.00000E+00
         0.00000E+00
         0.00000E+00
         0.00000E+00
         0.00000E+00
         0.00000E+00
         0.00000E+00
         0.00000E+00
         0.00000E+00
         0.00000E+00
         0.00000E+00
         0.00000E+00
         0.00000E+00
         0.00000E+00
         0.00000E+00
         0.00000E+00
         0.00000E+00
         0.00000E+00
         0.00000E+00
         0.00000E+00
         0.00000E+00
         0.00000E+00
         0.00000E+00
         0.00000E+00
         0.00000E+00
         0.00000E+00
         0.00000E+00
         0.00000E+00
         0.00000E+00
         0.00000E+00
         0.00000E+00
         0.00000E+00
         0.00000E+00
         0.00000E+00
         0.00000E+00
         0.00000E+00
         0.00000E+00
         0.00000E+00
         0.00000E+00
         0.00000E+00
         0.00000E+00
         0.00000E+00
         0.00000E+00
         0.00000E+00
         0.00000E+00
         0.00000E+00
         0.00000E+00
         0.00000E+00
         0.00000E+00
         0.00000E+00
         0.00000E+00
         0.00000E+00
         0.00000E+00
         0.00000E+00
         0.00000E+00
         0.00000E+00
         0.00000E+00
         0.00000E+00
         0.00000E+00
         0.00000E+00
         0.00000E+00
         0.00000E+00
         0.00000E+00
         0.00000E+00
         0.00000E+00
         0.00000E+00
         0.00000E+00
         0.00000E+00
         0.00000E+00
         0.00000E+00
         0.00000E+00
         0.00000E+00
         0.00000E+00
         0.00000E+00
         0.00000E+00
         0.00000E+00
         0.00000E+00
         0.00000E+00
         0.00000E+00
         0.00000E+00
         0.00000E+00
         0.00000E+00
         0.00000E+00
         0.00000E+00
         0.00000E+00
         0.00000E+00
         0.00000E+00
         0.00000E+00
         0.00000E+00
         0.00000E+00
         0.00000E+00
         0.00000E+00
         0.00000E+00
         0.00000E+00
         0.00000E+00
         0.00000E+00
         0.00000E+00
         0.00000E+00
         0.00000E+00
         0.00000E+00
         0.00000E+00
         0.00000E+00
         0.00000E+00
         0.00000E+00
         0.00000E+00
         0.00000E+00
         0.00000E+00
         0.00000E+00
         0.00000E+00
         0.00000E+00
         0.00000E+00
         0.00000E+00
         0.00000E+00
         0.00000E+00
         0.00000E+00
         0.00000E+00
         0.00000E+00
         0.00000E+00
         0.00000E+00
         0.00000E+00
         0.00000E+00
         0.00000E+00
         0.00000E+00
         0.00000E+00
         0.00000E+00
         0.00000E+00
         0.00000E+00
         0.00000E+00
         0.00000E+00
         0.00000E+00
         0.00000E+00
         0.00000E+00
         0.00000E+00
         0.00000E+00
         0.00000E+00
         0.00000E+00
         0.00000E+00
         0.00000E+00
         0.00000E+00
         0.00000E+00
         0.00000E+00
         0.00000E+00
         0.00000E+00
         0.00000E+00
         0.00000E+00
         0.00000E+00
         0.00000E+00
         0.00000E+00
         0.00000E+00
         0.00000E+00
         0.00000E+00
         0.00000E+00
         0.00000E+00
         0.00000E+00
         0.00000E+00
         0.00000E+00
         0.00000E+00
         0.00000E+00
         0.00000E+00
         0.00000E+00
         0.00000E+00
         0.00000E+00
         0.00000E+00
         0.00000E+00
         0.00000E+00
         0.00000E+00
         0.00000E+00
         0.00000E+00
         0.00000E+00
         0.00000E+00
         0.00000E+00
         0.00000E+00
         0.00000E+00
         0.00000E+00
         0.00000E+00
         0.00000E+00
         0.00000E+00
         0.00000E+00
         0.00000E+00
         0.00000E+00
         0.00000E+00
         0.00000E+00
         0.00000E+00
         0.00000E+00
         0.00000E+00
         0.00000E+00
         0.00000E+00
         0.00000E+00
         0.00000E+00
         0.00000E+00
         0.00000E+00
         0.00000E+00
         0.00000E+00
         0.00000E+00
         0.00000E+00
         0.00000E+00
         0.00000E+00
         0.00000E+00
         0.00000E+00
         0.00000E+00
         0.00000E+00
         0.00000E+00
         0.00000E+00
         0.00000E+00
         0.00000E+00
         0.00000E+00
         0.00000E+00
         0.00000E+00
         0.00000E+00
         0.00000E+00
         0.00000E+00
         0.00000E+00
         0.00000E+00
         0.00000E+00
         0.00000E+00
         0.00000E+00
         0.00000E+00
         0.00000E+00
         0.00000E+00
         0.00000E+00
         0.00000E+00
         0.00000E+00
         0.00000E+00
         0.00000E+00
         0.00000E+00
         0.00000E+00
         0.00000E+00
         0.00000E+00
         0.00000E+00
         0.00000E+00
         0.00000E+00
         0.00000E+00
         0.00000E+00
         0.00000E+00
         0.00000E+00
         0.00000E+00
         0.00000E+00
         0.00000E+00
         0.00000E+00
         0.00000E+00
         0.00000E+00
         0.00000E+00
         0.00000E+00
         0.00000E+00
         0.00000E+00
         0.00000E+00
         0.00000E+00
         0.00000E+00
         0.00000E+00
         0.00000E+00
         0.00000E+00
         0.00000E+00
         0.00000E+00
         0.00000E+00
         0.00000E+00
         0.00000E+00
         0.00000E+00
         0.00000E+00
         0.00000E+00
         0.00000E+00
         0.00000E+00
         0.00000E+00
         0.00000E+00
         0.00000E+00
         0.00000E+00
         0.00000E+00
         0.00000E+00
         0.00000E+00
         0.00000E+00
         0.00000E+00
         0.00000E+00
         0.00000E+00
         0.00000E+00
         0.00000E+00
         0.00000E+00
         0.00000E+00
         0.00000E+00
         0.00000E+00
         0.00000E+00
         0.00000E+00
         0.00000E+00
         0.00000E+00
         0.00000E+00
         0.00000E+00
         0.00000E+00
         0.00000E+00
         0.00000E+00
         0.00000E+00
         0.00000E+00
         0.00000E+00
         0.00000E+00
         0.00000E+00
         0.00000E+00
         0.00000E+00
         0.00000E+00
         0.00000E+00
         0.00000E+00
         0.00000E+00
         0.00000E+00
         0.00000E+00
         0.00000E+00
         0.00000E+00
         0.00000E+00
         0.00000E+00
         0.00000E+00
         0.00000E+00
         0.00000E+00
         0.00000E+00
         0.00000E+00
         0.00000E+00
         0.00000E+00
         0.00000E+00
         0.00000E+00
         0.00000E+00
         0.00000E+00
         0.00000E+00
         0.00000E+00
         0.00000E+00
         0.00000E+00
         0.00000E+00
         0.00000E+00
         0.00000E+00
         0.00000E+00
         0.00000E+00
         0.00000E+00
         0.00000E+00
         0.00000E+00
         0.00000E+00
         0.00000E+00
         0.00000E+00
         0.00000E+00
         0.00000E+00
         0.00000E+00
         0.00000E+00
         0.00000E+00
         0.00000E+00
         0.00000E+00
         0.00000E+00
         0.00000E+00
         0.00000E+00
         0.00000E+00
         0.00000E+00
         0.00000E+00
         0.00000E+00
         0.00000E+00
         0.00000E+00
         0.00000E+00
         0.00000E+00
         0.00000E+00
         0.00000E+00
         0.00000E+00
         0.00000E+00
         0.00000E+00
         0.00000E+00
         0.00000E+00
         0.00000E+00
         0.00000E+00
         0.00000E+00
         0.00000E+00
         0.00000E+00
         0.00000E+00
         0.00000E+00
         0.00000E+00
         0.00000E+00
         0.00000E+00
         0.00000E+00
         0.00000E+00
         0.00000E+00
         0.00000E+00
         0.00000E+00
         0.00000E+00
         0.00000E+00
         0.00000E+00
         0.00000E+00
         0.00000E+00
         0.00000E+00
         0.00000E+00
         0.00000E+00
         0.00000E+00
         0.00000E+00
         0.00000E+00
         0.00000E+00
         0.00000E+00
         0.00000E+00
         0.00000E+00
         0.00000E+00
         0.00000E+00
         0.00000E+00
         0.00000E+00
         0.00000E+00
         0.00000E+00
         0.00000E+00
         0.00000E+00
         0.00000E+00
         0.00000E+00
         0.00000E+00
         0.00000E+00
         0.00000E+00
         0.00000E+00
         0.00000E+00
         0.00000E+00
         0.00000E+00
         0.00000E+00
         0.00000E+00
         0.00000E+00
         0.00000E+00
         0.00000E+00
         0.00000E+00
         0.00000E+00
         0.00000E+00
         0.00000E+00
         0.00000E+00
         0.00000E+00
         0.00000E+00
         0.00000E+00
         0.00000E+00
         0.00000E+00
         0.00000E+00
         0.00000E+00
         0.00000E+00
         0.00000E+00
         0.00000E+00
         0.00000E+00
         0.00000E+00
         0.00000E+00
         0.00000E+00
         0.00000E+00
         0.00000E+00
         0.00000E+00
         0.00000E+00
         0.00000E+00
         0.00000E+00
         0.00000E+00
         0.00000E+00
         0.00000E+00
         0.00000E+00
         0.00000E+00
         0.00000E+00
         0.00000E+00
         0.00000E+00
         0.00000E+00
         0.00000E+00
         0.00000E+00
         0.00000E+00
         0.00000E+00
         0.00000E+00
         0.00000E+00
         0.00000E+00
         0.00000E+00
         0.00000E+00
         0.00000E+00
         0.00000E+00
         0.00000E+00
         0.00000E+00
         0.00000E+00
         0.00000E+00
         0.00000E+00
         0.00000E+00
         0.00000E+00
         0.00000E+00
         0.00000E+00
         0.00000E+00
         0.00000E+00
         0.00000E+00
         0.00000E+00
         0.00000E+00
         0.00000E+00
         0.00000E+00
         0.00000E+00
         0.00000E+00
         0.00000E+00
         0.00000E+00
         0.00000E+00
         0.00000E+00
         0.00000E+00
         0.00000E+00
         0.00000E+00
         0.00000E+00
         0.00000E+00
         0.00000E+00
         0.00000E+00
         0.00000E+00
         0.00000E+00
         0.00000E+00
         0.00000E+00
         0.00000E+00
         0.00000E+00
         0.00000E+00
         0.00000E+00
         0.00000E+00
         0.00000E+00
         0.00000E+00
         0.00000E+00
         0.00000E+00
         0.00000E+00
         0.00000E+00
         0.00000E+00
         0.00000E+00
         0.00000E+00
         0.00000E+00
         0.00000E+00
         0.00000E+00
         0.00000E+00
         0.00000E+00
         0.00000E+00
         0.00000E+00
         0.00000E+00
         0.00000E+00
         0.00000E+00
         0.00000E+00
         0.00000E+00
         0.00000E+00
         0.00000E+00
         0.00000E+00
         0.00000E+00
         0.00000E+00
         0.00000E+00
         0.00000E+00
         0.00000E+00
         0.00000E+00
         0.00000E+00
         0.00000E+00
         0.00000E+00
         0.00000E+00
         0.00000E+00
         0.00000E+00
         0.00000E+00
         0.00000E+00
         0.00000E+00
         0.00000E+00
         0.00000E+00
         0.00000E+00
         0.00000E+00
         0.00000E+00
         0.00000E+00
         0.00000E+00
         0.00000E+00
         0.00000E+00
         0.00000E+00
         0.00000E+00
         0.00000E+00
         0.00000E+00
         0.00000E+00
         0.00000E+00
         0.00000E+00
         0.00000E+00
         0.00000E+00
         0.00000E+00
         0.00000E+00
         0.00000E+00
         0.00000E+00
         0.00000E+00
         0.00000E+00
         0.00000E+00
         0.00000E+00
         0.00000E+00
         0.00000E+00
         0.00000E+00
         0.00000E+00
         0.00000E+00
         0.00000E+00
         0.00000E+00
         0.00000E+00
         0.00000E+00
         0.00000E+00
         0.00000E+00
         0.00000E+00
         0.00000E+00
         0.00000E+00
         0.00000E+00
         0.00000E+00
         0.00000E+00
         0.00000E+00
         0.00000E+00
         0.00000E+00
         0.00000E+00
         0.00000E+00
         0.00000E+00
         0.00000E+00
         0.00000E+00
         0.00000E+00
         0.00000E+00
         0.00000E+00
         0.00000E+00
         0.00000E+00
         0.00000E+00
         0.00000E+00
         0.00000E+00
         0.00000E+00
         0.00000E+00
         0.00000E+00
         0.00000E+00
         0.00000E+00
         0.00000E+00
         0.00000E+00
         0.00000E+00
         0.00000E+00
         0.00000E+00
         0.00000E+00
         0.00000E+00
         0.00000E+00
         0.00000E+00
         0.00000E+00
         0.00000E+00
         0.00000E+00
         0.00000E+00
         0.00000E+00
         0.00000E+00
         0.00000E+00
         0.00000E+00
         0.00000E+00
         0.00000E+00
         0.00000E+00
         0.00000E+00
         0.00000E+00
         0.00000E+00
         0.00000E+00
         0.00000E+00
         0.00000E+00
         0.00000E+00
         0.00000E+00
         0.00000E+00
         0.00000E+00
         0.00000E+00
         0.00000E+00
         0.00000E+00
         0.00000E+00
         0.00000E+00
         0.00000E+00
         0.00000E+00
         0.00000E+00
         0.00000E+00
         0.00000E+00
         0.00000E+00
         0.00000E+00
         0.00000E+00
         0.00000E+00
         0.00000E+00
         0.00000E+00
         0.00000E+00
         0.00000E+00
         0.00000E+00
         0.00000E+00
         0.00000E+00
         0.00000E+00
         0.00000E+00
         0.00000E+00
         0.00000E+00
         0.00000E+00
         0.00000E+00
         0.00000E+00
         0.00000E+00
         0.00000E+00
         0.00000E+00
         0.00000E+00
         0.00000E+00
         0.00000E+00
         0.00000E+00
         0.00000E+00
         0.00000E+00
         0.00000E+00
         0.00000E+00
         0.00000E+00
         0.00000E+00
         0.00000E+00
         0.00000E+00
         0.00000E+00
         0.00000E+00
         0.00000E+00
         0.00000E+00
         0.00000E+00
         0.00000E+00
         0.00000E+00
         0.00000E+00
         0.00000E+00
         0.00000E+00
         0.00000E+00
         0.00000E+00
         0.00000E+00
         0.00000E+00
         0.00000E+00
         0.00000E+00
         0.00000E+00
         0.00000E+00
         0.00000E+00
         0.00000E+00
         0.00000E+00
         0.00000E+00
         0.00000E+00
         0.00000E+00
         0.00000E+00
         0.00000E+00
         0.00000E+00
         0.00000E+00
         0.00000E+00
         0.00000E+00
         0.00000E+00
         0.00000E+00
         0.00000E+00
         0.00000E+00
         0.00000E+00
         0.00000E+00
         0.00000E+00
         0.00000E+00
         0.00000E+00
         0.00000E+00
         0.00000E+00
         0.00000E+00
         0.00000E+00
         0.00000E+00
         0.00000E+00
         0.00000E+00
         0.00000E+00
         0.00000E+00
         0.00000E+00
         0.00000E+00
         0.00000E+00
         0.00000E+00
         0.00000E+00
         0.00000E+00
         0.00000E+00
         0.00000E+00
         0.00000E+00
         0.00000E+00
         0.00000E+00
         0.00000E+00
         0.00000E+00
         0.00000E+00
         0.00000E+00
         0.00000E+00
         0.00000E+00
         0.00000E+00
         0.00000E+00
         0.00000E+00
         0.00000E+00
         0.00000E+00
         0.00000E+00
         0.00000E+00
         0.00000E+00
         0.00000E+00
         0.00000E+00
         0.00000E+00
         0.00000E+00
         0.00000E+00
         0.00000E+00
         0.00000E+00
         0.00000E+00
         0.00000E+00
         0.00000E+00
         0.00000E+00
         0.00000E+00
         0.00000E+00
         0.00000E+00
         0.00000E+00
         0.00000E+00
         0.00000E+00
         0.00000E+00
         0.00000E+00
         0.00000E+00
         0.00000E+00
         0.00000E+00
         0.00000E+00
         0.00000E+00
         0.00000E+00
         0.00000E+00
         0.00000E+00
         0.00000E+00
         0.00000E+00
         0.00000E+00
         0.00000E+00
         0.00000E+00
         0.00000E+00
         0.00000E+00
         0.00000E+00
         0.00000E+00
         0.00000E+00
         0.00000E+00
         0.00000E+00
         0.00000E+00
         0.00000E+00
         0.00000E+00
         0.00000E+00
         0.00000E+00
         0.00000E+00
         0.00000E+00
         0.00000E+00
         0.00000E+00
         0.00000E+00
         0.00000E+00
         0.00000E+00
         0.00000E+00
         0.00000E+00
         0.00000E+00
         0.00000E+00
         0.00000E+00
         0.00000E+00
         0.00000E+00
         0.00000E+00
         0.00000E+00
         0.00000E+00
         0.00000E+00
         0.00000E+00
         0.00000E+00
         0.00000E+00
         0.00000E+00
         0.00000E+00
         0.00000E+00
         0.00000E+00
         0.00000E+00
         0.00000E+00
         0.00000E+00
         0.00000E+00
         0.00000E+00
         0.00000E+00
         0.00000E+00
         0.00000E+00
         0.00000E+00
         0.00000E+00
         0.00000E+00
         0.00000E+00
         0.00000E+00
         0.00000E+00
         0.00000E+00
         0.00000E+00
         0.00000E+00
         0.00000E+00
         0.00000E+00
         0.00000E+00
         0.00000E+00
         0.00000E+00
         0.00000E+00
         0.00000E+00
         0.00000E+00
         0.00000E+00
         0.00000E+00
         0.00000E+00
         0.00000E+00
         0.00000E+00
         0.00000E+00
         0.00000E+00
         0.00000E+00
         0.00000E+00
         0.00000E+00
         0.00000E+00
         0.00000E+00
         0.00000E+00
         0.00000E+00
         0.00000E+00
         0.00000E+00
         0.00000E+00
         0.00000E+00
         0.00000E+00
         0.00000E+00
         0.00000E+00
         0.00000E+00
         0.00000E+00
         0.00000E+00
         0.00000E+00
         0.00000E+00
         0.00000E+00
         0.00000E+00
         0.00000E+00
         0.00000E+00
         0.00000E+00
         0.00000E+00
         0.00000E+00
         0.00000E+00
         0.00000E+00
         0.00000E+00
         0.00000E+00
         0.00000E+00
         0.00000E+00
         0.00000E+00
         0.00000E+00
         0.00000E+00
         0.00000E+00
         0.00000E+00
         0.00000E+00
         0.00000E+00
         0.00000E+00
         0.00000E+00
         0.00000E+00
         0.00000E+00
         0.00000E+00
         0.00000E+00
         0.00000E+00
         0.00000E+00
         0.00000E+00
         0.00000E+00
         0.00000E+00
         0.00000E+00
         0.00000E+00
         0.00000E+00
         0.00000E+00
         0.00000E+00
         0.00000E+00
         0.00000E+00
         0.00000E+00
         0.00000E+00
         0.00000E+00
         0.00000E+00
         0.00000E+00
         0.00000E+00
         0.00000E+00
         0.00000E+00
         0.00000E+00
         0.00000E+00
         0.00000E+00
         0.00000E+00
         0.00000E+00
         0.00000E+00
         0.00000E+00
         0.00000E+00
         0.00000E+00
         0.00000E+00
         0.00000E+00
         0.00000E+00
         0.00000E+00
         0.00000E+00
         0.00000E+00
         0.00000E+00
         0.00000E+00
         0.00000E+00
         0.00000E+00
         0.00000E+00
         0.00000E+00
         0.00000E+00
         0.00000E+00
         0.00000E+00
         0.00000E+00
         0.00000E+00
         0.00000E+00
         0.00000E+00
         0.00000E+00
         0.00000E+00
         0.00000E+00
         0.00000E+00
         0.00000E+00
         0.00000E+00
         0.00000E+00
         0.00000E+00
         0.00000E+00
         0.00000E+00
         0.00000E+00
         0.00000E+00
         0.00000E+00
         0.00000E+00
         0.00000E+00
         0.00000E+00
         0.00000E+00
         0.00000E+00
         0.00000E+00
         0.00000E+00
         0.00000E+00
         0.00000E+00
         0.00000E+00
         0.00000E+00
         0.00000E+00
         0.00000E+00
         0.00000E+00
         0.00000E+00
         0.00000E+00
         0.00000E+00
         0.00000E+00
         0.00000E+00
         0.00000E+00
         0.00000E+00
         0.00000E+00
         0.00000E+00
         0.00000E+00
         0.00000E+00
         0.00000E+00
         0.00000E+00
         0.00000E+00
         0.00000E+00
         0.00000E+00
         0.00000E+00
         0.00000E+00
         0.00000E+00
         0.00000E+00
         0.00000E+00
         0.00000E+00
         0.00000E+00
         0.00000E+00
         0.00000E+00
         0.00000E+00
         0.00000E+00
         0.00000E+00
         0.00000E+00
         0.00000E+00
         0.00000E+00
         0.00000E+00
         0.00000E+00
         0.00000E+00
         0.00000E+00
         0.00000E+00
         0.00000E+00
         0.00000E+00
         0.00000E+00
         0.00000E+00
         0.00000E+00
         0.00000E+00
         0.00000E+00
         0.00000E+00
         0.00000E+00
         0.00000E+00
         0.00000E+00
         0.00000E+00
         0.00000E+00
         0.00000E+00
         0.00000E+00
         0.00000E+00
         0.00000E+00
         0.00000E+00
         0.00000E+00
         0.00000E+00
         0.00000E+00
         0.00000E+00
         0.00000E+00
         0.00000E+00
         0.00000E+00
         0.00000E+00
         0.00000E+00
         0.00000E+00
         0.00000E+00
         0.00000E+00
         0.00000E+00
         0.00000E+00
         0.00000E+00
         0.00000E+00
         0.00000E+00
         0.00000E+00
         0.00000E+00
         0.00000E+00
         0.00000E+00
         0.00000E+00
         0.00000E+00
         0.00000E+00
         0.00000E+00
         0.00000E+00
         0.00000E+00
         0.00000E+00
         0.00000E+00
         0.00000E+00
         0.00000E+00
         0.00000E+00
         0.00000E+00
         0.00000E+00
         0.00000E+00
         0.00000E+00
         0.00000E+00
         0.00000E+00
         0.00000E+00
         0.00000E+00
         0.00000E+00
         0.00000E+00
         0.00000E+00
         0.00000E+00
         0.00000E+00
         0.00000E+00
         0.00000E+00
         0.00000E+00
         0.00000E+00
         0.00000E+00
         0.00000E+00
         0.00000E+00
         0.00000E+00
         0.00000E+00
         0.00000E+00
         0.00000E+00
         0.00000E+00
         0.00000E+00
         0.00000E+00
         0.00000E+00
         0.00000E+00
         0.00000E+00
         0.00000E+00
         0.00000E+00
         0.00000E+00
         0.00000E+00
         0.00000E+00
         0.00000E+00
         0.00000E+00
         0.00000E+00
         0.00000E+00
         0.00000E+00
         0.00000E+00
         0.00000E+00
         0.00000E+00
         0.00000E+00
         0.00000E+00
         0.00000E+00
         0.00000E+00
         0.00000E+00
         0.00000E+00
         0.00000E+00
         0.00000E+00
         0.00000E+00
         0.00000E+00
         0.00000E+00
         0.00000E+00
         0.00000E+00
         0.00000E+00
         0.00000E+00
         0.00000E+00
         0.00000E+00
         0.00000E+00
         0.00000E+00
         0.00000E+00
         0.00000E+00
         0.00000E+00
         0.00000E+00
         0.00000E+00
         0.00000E+00
         0.00000E+00
         0.00000E+00
         0.00000E+00
         0.00000E+00
         0.00000E+00
         0.00000E+00
         0.00000E+00
         0.00000E+00
         0.00000E+00
         0.00000E+00
         0.00000E+00
         0.00000E+00
         0.00000E+00
         0.00000E+00
         0.00000E+00
         0.00000E+00
         0.00000E+00
         0.00000E+00
         0.00000E+00
         0.00000E+00
         0.00000E+00
         0.00000E+00
         0.00000E+00
         0.00000E+00
         0.00000E+00
         0.00000E+00
         0.00000E+00
         0.00000E+00
         0.00000E+00
         0.00000E+00
         0.00000E+00
         0.00000E+00
         0.00000E+00
         0.00000E+00
         0.00000E+00
         0.00000E+00
         0.00000E+00
         0.00000E+00
         0.00000E+00
         0.00000E+00
         0.00000E+00
         0.00000E+00
         0.00000E+00
         0.00000E+00
         0.00000E+00
         0.00000E+00
         0.00000E+00
         0.00000E+00
         0.00000E+00
         0.00000E+00
         0.00000E+00
         0.00000E+00
         0.00000E+00
         0.00000E+00
         0.00000E+00
         0.00000E+00
         0.00000E+00
         0.00000E+00
         0.00000E+00
         0.00000E+00
         0.00000E+00
         0.00000E+00
         0.00000E+00
         0.00000E+00
         0.00000E+00
         0.00000E+00
         0.00000E+00
         0.00000E+00
         0.00000E+00
         0.00000E+00
         0.00000E+00
         0.00000E+00
         0.00000E+00
         0.00000E+00
         0.00000E+00
         0.00000E+00
         0.00000E+00
         0.00000E+00
         0.00000E+00
         0.00000E+00
         0.00000E+00
         0.00000E+00
         0.00000E+00
         0.00000E+00
         0.00000E+00
         0.00000E+00
         0.00000E+00
         0.00000E+00
         0.00000E+00
         0.00000E+00
         0.00000E+00
         0.00000E+00
         0.00000E+00
         0.00000E+00
         0.00000E+00
         0.00000E+00
         0.00000E+00
         0.00000E+00
         0.00000E+00
         0.00000E+00
         0.00000E+00
         0.00000E+00
         0.00000E+00
         0.00000E+00
         0.00000E+00
         0.00000E+00
         0.00000E+00
         0.00000E+00
         0.00000E+00
         0.00000E+00
         0.00000E+00
         0.00000E+00
         0.00000E+00
         0.00000E+00
         0.00000E+00
         0.00000E+00
         0.00000E+00
         0.00000E+00
         0.00000E+00
         0.00000E+00
         0.00000E+00
         0.00000E+00
         0.00000E+00
         0.00000E+00
         0.00000E+00
         0.00000E+00
         0.00000E+00
         0.00000E+00
         0.00000E+00
         0.00000E+00
         0.00000E+00
         0.00000E+00
         0.00000E+00
         0.00000E+00
         0.00000E+00
         0.00000E+00
         0.00000E+00
         0.00000E+00
         0.00000E+00
         0.00000E+00
         0.00000E+00
         0.00000E+00
         0.00000E+00
         0.00000E+00
         0.00000E+00
         0.00000E+00
         0.00000E+00
         0.00000E+00
         0.00000E+00
         0.00000E+00
         0.00000E+00
         0.00000E+00
         0.00000E+00
         0.00000E+00
         0.00000E+00
         0.00000E+00
         0.00000E+00
         0.00000E+00
         0.00000E+00
         0.00000E+00
         0.00000E+00
         0.00000E+00
         0.00000E+00
         0.00000E+00
         0.00000E+00
         0.00000E+00
         0.00000E+00
         0.00000E+00
         0.00000E+00
         0.00000E+00
         0.00000E+00
         0.00000E+00
         0.00000E+00
         0.00000E+00
         0.00000E+00
         0.00000E+00
         0.00000E+00
         0.00000E+00
         0.00000E+00
         0.00000E+00
         0.00000E+00
         0.00000E+00
         0.00000E+00
         0.00000E+00
         0.00000E+00
         0.00000E+00
         0.00000E+00
         0.00000E+00
         0.00000E+00
         0.00000E+00
         0.00000E+00
         0.00000E+00
         0.00000E+00
         0.00000E+00
         0.00000E+00
         0.00000E+00
         0.00000E+00
         0.00000E+00
         0.00000E+00
         0.00000E+00
         0.00000E+00
         0.00000E+00
         0.00000E+00
         0.00000E+00
         0.00000E+00
         0.00000E+00
         0.00000E+00
         0.00000E+00
         0.00000E+00
         0.00000E+00
         0.00000E+00
         0.00000E+00
         0.00000E+00
         0.00000E+00
         0.00000E+00
         0.00000E+00
         0.00000E+00
         0.00000E+00
         0.00000E+00
         0.00000E+00
         0.00000E+00
         0.00000E+00
         0.00000E+00
         0.00000E+00
         0.00000E+00
         0.00000E+00
         0.00000E+00
         0.00000E+00
         0.00000E+00
         0.00000E+00
         0.00000E+00
         0.00000E+00
         0.00000E+00
         0.00000E+00
         0.00000E+00
         0.00000E+00
         0.00000E+00
         0.00000E+00
         0.00000E+00
         0.00000E+00
         0.00000E+00
         0.00000E+00
         0.00000E+00
         0.00000E+00
         0.00000E+00
         0.00000E+00
         0.00000E+00
         0.00000E+00
         0.00000E+00
         0.00000E+00
         0.00000E+00
         0.00000E+00
         0.00000E+00
         0.00000E+00
         0.00000E+00
         0.00000E+00
         0.00000E+00
         0.00000E+00
         0.00000E+00
         0.00000E+00
         0.00000E+00
         0.00000E+00
         0.00000E+00
         0.00000E+00
         0.00000E+00
         0.00000E+00
         0.00000E+00
         0.00000E+00
         0.00000E+00
         0.00000E+00
         0.00000E+00
         0.00000E+00
         0.00000E+00
         0.00000E+00
         0.00000E+00
         0.00000E+00
         0.00000E+00
         0.00000E+00
         0.00000E+00
         0.00000E+00
         0.00000E+00
         0.00000E+00
         0.00000E+00
         0.00000E+00
         0.00000E+00
         0.00000E+00
         0.00000E+00
         0.00000E+00
         0.00000E+00
         0.00000E+00
         0.00000E+00
         0.00000E+00
         0.00000E+00
         0.00000E+00
         0.00000E+00
         0.00000E+00
         0.00000E+00
         0.00000E+00
         0.00000E+00
         0.00000E+00
         0.00000E+00
         0.00000E+00
         0.00000E+00
         0.00000E+00
         0.00000E+00
         0.00000E+00
         0.00000E+00
         0.00000E+00
         0.00000E+00
         0.00000E+00
         0.00000E+00
         0.00000E+00
         0.00000E+00
         0.00000E+00
         0.00000E+00
         0.00000E+00
         0.00000E+00
         0.00000E+00
         0.00000E+00
         0.00000E+00
         0.00000E+00
         0.00000E+00
         0.00000E+00
         0.00000E+00
         0.00000E+00
         0.00000E+00
         0.00000E+00
         0.00000E+00
         0.00000E+00
         0.00000E+00
         0.00000E+00
         0.00000E+00
         0.00000E+00
         0.00000E+00
         0.00000E+00
         0.00000E+00
         0.00000E+00
         0.00000E+00
         0.00000E+00
         0.00000E+00
         0.00000E+00
         0.00000E+00
         0.00000E+00
         0.00000E+00
         0.00000E+00
         0.00000E+00
         0.00000E+00
         0.00000E+00
         0.00000E+00
         0.00000E+00
         0.00000E+00
         0.00000E+00
         0.00000E+00
         0.00000E+00
         0.00000E+00
         0.00000E+00
         0.00000E+00
         0.00000E+00
         0.00000E+00
         0.00000E+00
         0.00000E+00
         0.00000E+00
         0.00000E+00
         0.00000E+00
         0.00000E+00
         0.00000E+00
         0.00000E+00
         0.00000E+00
         0.00000E+00
         0.00000E+00
         0.00000E+00
         0.00000E+00
  
SCALARS                 acceleration_z  double 1
LOOKUP_TABLE default
         0.00000E+00
         0.00000E+00
         0.00000E+00
         0.00000E+00
         0.00000E+00
         0.00000E+00
         0.00000E+00
         0.00000E+00
         0.00000E+00
         0.00000E+00
         0.00000E+00
         0.00000E+00
         0.00000E+00
         0.00000E+00
         0.00000E+00
         0.00000E+00
         0.00000E+00
         0.00000E+00
         0.00000E+00
         0.00000E+00
         0.00000E+00
         0.00000E+00
         0.00000E+00
         0.00000E+00
         0.00000E+00
         0.00000E+00
         0.00000E+00
         0.00000E+00
         0.00000E+00
         0.00000E+00
         0.00000E+00
         0.00000E+00
         0.00000E+00
         0.00000E+00
         0.00000E+00
         0.00000E+00
         0.00000E+00
         0.00000E+00
         0.00000E+00
         0.00000E+00
         0.00000E+00
         0.00000E+00
         0.00000E+00
         0.00000E+00
         0.00000E+00
         0.00000E+00
         0.00000E+00
         0.00000E+00
         0.00000E+00
         0.00000E+00
         0.00000E+00
         0.00000E+00
         0.00000E+00
         0.00000E+00
         0.00000E+00
         0.00000E+00
         0.00000E+00
         0.00000E+00
         0.00000E+00
         0.00000E+00
         0.00000E+00
         0.00000E+00
         0.00000E+00
         0.00000E+00
         0.00000E+00
         0.00000E+00
         0.00000E+00
         0.00000E+00
         0.00000E+00
         0.00000E+00
         0.00000E+00
         0.00000E+00
         0.00000E+00
         0.00000E+00
         0.00000E+00
         0.00000E+00
         0.00000E+00
         0.00000E+00
         0.00000E+00
         0.00000E+00
         0.00000E+00
         0.00000E+00
         0.00000E+00
         0.00000E+00
         0.00000E+00
         0.00000E+00
         0.00000E+00
         0.00000E+00
         0.00000E+00
         0.00000E+00
         0.00000E+00
         0.00000E+00
         0.00000E+00
         0.00000E+00
         0.00000E+00
         0.00000E+00
         0.00000E+00
         0.00000E+00
         0.00000E+00
         0.00000E+00
         0.00000E+00
         0.00000E+00
         0.00000E+00
         0.00000E+00
         0.00000E+00
         0.00000E+00
         0.00000E+00
         0.00000E+00
         0.00000E+00
         0.00000E+00
         0.00000E+00
         0.00000E+00
         0.00000E+00
         0.00000E+00
         0.00000E+00
         0.00000E+00
         0.00000E+00
         0.00000E+00
         0.00000E+00
         0.00000E+00
         0.00000E+00
         0.00000E+00
         0.00000E+00
         0.00000E+00
         0.00000E+00
         0.00000E+00
         0.00000E+00
         0.00000E+00
         0.00000E+00
         0.00000E+00
         0.00000E+00
         0.00000E+00
         0.00000E+00
         0.00000E+00
         0.00000E+00
         0.00000E+00
         0.00000E+00
         0.00000E+00
         0.00000E+00
         0.00000E+00
         0.00000E+00
         0.00000E+00
         0.00000E+00
         0.00000E+00
         0.00000E+00
         0.00000E+00
         0.00000E+00
         0.00000E+00
         0.00000E+00
         0.00000E+00
         0.00000E+00
         0.00000E+00
         0.00000E+00
         0.00000E+00
         0.00000E+00
         0.00000E+00
         0.00000E+00
         0.00000E+00
         0.00000E+00
         0.00000E+00
         0.00000E+00
         0.00000E+00
         0.00000E+00
         0.00000E+00
         0.00000E+00
         0.00000E+00
         0.00000E+00
         0.00000E+00
         0.00000E+00
         0.00000E+00
         0.00000E+00
         0.00000E+00
         0.00000E+00
         0.00000E+00
         0.00000E+00
         0.00000E+00
         0.00000E+00
         0.00000E+00
         0.00000E+00
         0.00000E+00
         0.00000E+00
         0.00000E+00
         0.00000E+00
         0.00000E+00
         0.00000E+00
         0.00000E+00
         0.00000E+00
         0.00000E+00
         0.00000E+00
         0.00000E+00
         0.00000E+00
         0.00000E+00
         0.00000E+00
         0.00000E+00
         0.00000E+00
         0.00000E+00
         0.00000E+00
         0.00000E+00
         0.00000E+00
         0.00000E+00
         0.00000E+00
         0.00000E+00
         0.00000E+00
         0.00000E+00
         0.00000E+00
         0.00000E+00
         0.00000E+00
         0.00000E+00
         0.00000E+00
         0.00000E+00
         0.00000E+00
         0.00000E+00
         0.00000E+00
         0.00000E+00
         0.00000E+00
         0.00000E+00
         0.00000E+00
         0.00000E+00
         0.00000E+00
         0.00000E+00
         0.00000E+00
         0.00000E+00
         0.00000E+00
         0.00000E+00
         0.00000E+00
         0.00000E+00
         0.00000E+00
         0.00000E+00
         0.00000E+00
         0.00000E+00
         0.00000E+00
         0.00000E+00
         0.00000E+00
         0.00000E+00
         0.00000E+00
         0.00000E+00
         0.00000E+00
         0.00000E+00
         0.00000E+00
         0.00000E+00
         0.00000E+00
         0.00000E+00
         0.00000E+00
         0.00000E+00
         0.00000E+00
         0.00000E+00
         0.00000E+00
         0.00000E+00
         0.00000E+00
         0.00000E+00
         0.00000E+00
         0.00000E+00
         0.00000E+00
         0.00000E+00
         0.00000E+00
         0.00000E+00
         0.00000E+00
         0.00000E+00
         0.00000E+00
         0.00000E+00
         0.00000E+00
         0.00000E+00
         0.00000E+00
         0.00000E+00
         0.00000E+00
         0.00000E+00
         0.00000E+00
         0.00000E+00
         0.00000E+00
         0.00000E+00
         0.00000E+00
         0.00000E+00
         0.00000E+00
         0.00000E+00
         0.00000E+00
         0.00000E+00
         0.00000E+00
         0.00000E+00
         0.00000E+00
         0.00000E+00
         0.00000E+00
         0.00000E+00
         0.00000E+00
         0.00000E+00
         0.00000E+00
         0.00000E+00
         0.00000E+00
         0.00000E+00
         0.00000E+00
         0.00000E+00
         0.00000E+00
         0.00000E+00
         0.00000E+00
         0.00000E+00
         0.00000E+00
         0.00000E+00
         0.00000E+00
         0.00000E+00
         0.00000E+00
         0.00000E+00
         0.00000E+00
         0.00000E+00
         0.00000E+00
         0.00000E+00
         0.00000E+00
         0.00000E+00
         0.00000E+00
         0.00000E+00
         0.00000E+00
         0.00000E+00
         0.00000E+00
         0.00000E+00
         0.00000E+00
         0.00000E+00
         0.00000E+00
         0.00000E+00
         0.00000E+00
         0.00000E+00
         0.00000E+00
         0.00000E+00
         0.00000E+00
         0.00000E+00
         0.00000E+00
         0.00000E+00
         0.00000E+00
         0.00000E+00
         0.00000E+00
         0.00000E+00
         0.00000E+00
         0.00000E+00
         0.00000E+00
         0.00000E+00
         0.00000E+00
         0.00000E+00
         0.00000E+00
         0.00000E+00
         0.00000E+00
         0.00000E+00
         0.00000E+00
         0.00000E+00
         0.00000E+00
         0.00000E+00
         0.00000E+00
         0.00000E+00
         0.00000E+00
         0.00000E+00
         0.00000E+00
         0.00000E+00
         0.00000E+00
         0.00000E+00
         0.00000E+00
         0.00000E+00
         0.00000E+00
         0.00000E+00
         0.00000E+00
         0.00000E+00
         0.00000E+00
         0.00000E+00
         0.00000E+00
         0.00000E+00
         0.00000E+00
         0.00000E+00
         0.00000E+00
         0.00000E+00
         0.00000E+00
         0.00000E+00
         0.00000E+00
         0.00000E+00
         0.00000E+00
         0.00000E+00
         0.00000E+00
         0.00000E+00
         0.00000E+00
         0.00000E+00
         0.00000E+00
         0.00000E+00
         0.00000E+00
         0.00000E+00
         0.00000E+00
         0.00000E+00
         0.00000E+00
         0.00000E+00
         0.00000E+00
         0.00000E+00
         0.00000E+00
         0.00000E+00
         0.00000E+00
         0.00000E+00
         0.00000E+00
         0.00000E+00
         0.00000E+00
         0.00000E+00
         0.00000E+00
         0.00000E+00
         0.00000E+00
         0.00000E+00
         0.00000E+00
         0.00000E+00
         0.00000E+00
         0.00000E+00
         0.00000E+00
         0.00000E+00
         0.00000E+00
         0.00000E+00
         0.00000E+00
         0.00000E+00
         0.00000E+00
         0.00000E+00
         0.00000E+00
         0.00000E+00
         0.00000E+00
         0.00000E+00
         0.00000E+00
         0.00000E+00
         0.00000E+00
         0.00000E+00
         0.00000E+00
         0.00000E+00
         0.00000E+00
         0.00000E+00
         0.00000E+00
         0.00000E+00
         0.00000E+00
         0.00000E+00
         0.00000E+00
         0.00000E+00
         0.00000E+00
         0.00000E+00
         0.00000E+00
         0.00000E+00
         0.00000E+00
         0.00000E+00
         0.00000E+00
         0.00000E+00
         0.00000E+00
         0.00000E+00
         0.00000E+00
         0.00000E+00
         0.00000E+00
         0.00000E+00
         0.00000E+00
         0.00000E+00
         0.00000E+00
         0.00000E+00
         0.00000E+00
         0.00000E+00
         0.00000E+00
         0.00000E+00
         0.00000E+00
         0.00000E+00
         0.00000E+00
         0.00000E+00
         0.00000E+00
         0.00000E+00
         0.00000E+00
         0.00000E+00
         0.00000E+00
         0.00000E+00
         0.00000E+00
         0.00000E+00
         0.00000E+00
         0.00000E+00
         0.00000E+00
         0.00000E+00
         0.00000E+00
         0.00000E+00
         0.00000E+00
         0.00000E+00
         0.00000E+00
         0.00000E+00
         0.00000E+00
         0.00000E+00
         0.00000E+00
         0.00000E+00
         0.00000E+00
         0.00000E+00
         0.00000E+00
         0.00000E+00
         0.00000E+00
         0.00000E+00
         0.00000E+00
         0.00000E+00
         0.00000E+00
         0.00000E+00
         0.00000E+00
         0.00000E+00
         0.00000E+00
         0.00000E+00
         0.00000E+00
         0.00000E+00
         0.00000E+00
         0.00000E+00
         0.00000E+00
         0.00000E+00
         0.00000E+00
         0.00000E+00
         0.00000E+00
         0.00000E+00
         0.00000E+00
         0.00000E+00
         0.00000E+00
         0.00000E+00
         0.00000E+00
         0.00000E+00
         0.00000E+00
         0.00000E+00
         0.00000E+00
         0.00000E+00
         0.00000E+00
         0.00000E+00
         0.00000E+00
         0.00000E+00
         0.00000E+00
         0.00000E+00
         0.00000E+00
         0.00000E+00
         0.00000E+00
         0.00000E+00
         0.00000E+00
         0.00000E+00
         0.00000E+00
         0.00000E+00
         0.00000E+00
         0.00000E+00
         0.00000E+00
         0.00000E+00
         0.00000E+00
         0.00000E+00
         0.00000E+00
         0.00000E+00
         0.00000E+00
         0.00000E+00
         0.00000E+00
         0.00000E+00
         0.00000E+00
         0.00000E+00
         0.00000E+00
         0.00000E+00
         0.00000E+00
         0.00000E+00
         0.00000E+00
         0.00000E+00
         0.00000E+00
         0.00000E+00
         0.00000E+00
         0.00000E+00
         0.00000E+00
         0.00000E+00
         0.00000E+00
         0.00000E+00
         0.00000E+00
         0.00000E+00
         0.00000E+00
         0.00000E+00
         0.00000E+00
         0.00000E+00
         0.00000E+00
         0.00000E+00
         0.00000E+00
         0.00000E+00
         0.00000E+00
         0.00000E+00
         0.00000E+00
         0.00000E+00
         0.00000E+00
         0.00000E+00
         0.00000E+00
         0.00000E+00
         0.00000E+00
         0.00000E+00
         0.00000E+00
         0.00000E+00
         0.00000E+00
         0.00000E+00
         0.00000E+00
         0.00000E+00
         0.00000E+00
         0.00000E+00
         0.00000E+00
         0.00000E+00
         0.00000E+00
         0.00000E+00
         0.00000E+00
         0.00000E+00
         0.00000E+00
         0.00000E+00
         0.00000E+00
         0.00000E+00
         0.00000E+00
         0.00000E+00
         0.00000E+00
         0.00000E+00
         0.00000E+00
         0.00000E+00
         0.00000E+00
         0.00000E+00
         0.00000E+00
         0.00000E+00
         0.00000E+00
         0.00000E+00
         0.00000E+00
         0.00000E+00
         0.00000E+00
         0.00000E+00
         0.00000E+00
         0.00000E+00
         0.00000E+00
         0.00000E+00
         0.00000E+00
         0.00000E+00
         0.00000E+00
         0.00000E+00
         0.00000E+00
         0.00000E+00
         0.00000E+00
         0.00000E+00
         0.00000E+00
         0.00000E+00
         0.00000E+00
         0.00000E+00
         0.00000E+00
         0.00000E+00
         0.00000E+00
         0.00000E+00
         0.00000E+00
         0.00000E+00
         0.00000E+00
         0.00000E+00
         0.00000E+00
         0.00000E+00
         0.00000E+00
         0.00000E+00
         0.00000E+00
         0.00000E+00
         0.00000E+00
         0.00000E+00
         0.00000E+00
         0.00000E+00
         0.00000E+00
         0.00000E+00
         0.00000E+00
         0.00000E+00
         0.00000E+00
         0.00000E+00
         0.00000E+00
         0.00000E+00
         0.00000E+00
         0.00000E+00
         0.00000E+00
         0.00000E+00
         0.00000E+00
         0.00000E+00
         0.00000E+00
         0.00000E+00
         0.00000E+00
         0.00000E+00
         0.00000E+00
         0.00000E+00
         0.00000E+00
         0.00000E+00
         0.00000E+00
         0.00000E+00
         0.00000E+00
         0.00000E+00
         0.00000E+00
         0.00000E+00
         0.00000E+00
         0.00000E+00
         0.00000E+00
         0.00000E+00
         0.00000E+00
         0.00000E+00
         0.00000E+00
         0.00000E+00
         0.00000E+00
         0.00000E+00
         0.00000E+00
         0.00000E+00
         0.00000E+00
         0.00000E+00
         0.00000E+00
         0.00000E+00
         0.00000E+00
         0.00000E+00
         0.00000E+00
         0.00000E+00
         0.00000E+00
         0.00000E+00
         0.00000E+00
         0.00000E+00
         0.00000E+00
         0.00000E+00
         0.00000E+00
         0.00000E+00
         0.00000E+00
         0.00000E+00
         0.00000E+00
         0.00000E+00
         0.00000E+00
         0.00000E+00
         0.00000E+00
         0.00000E+00
         0.00000E+00
         0.00000E+00
         0.00000E+00
         0.00000E+00
         0.00000E+00
         0.00000E+00
         0.00000E+00
         0.00000E+00
         0.00000E+00
         0.00000E+00
         0.00000E+00
         0.00000E+00
         0.00000E+00
         0.00000E+00
         0.00000E+00
         0.00000E+00
         0.00000E+00
         0.00000E+00
         0.00000E+00
         0.00000E+00
         0.00000E+00
         0.00000E+00
         0.00000E+00
         0.00000E+00
         0.00000E+00
         0.00000E+00
         0.00000E+00
         0.00000E+00
         0.00000E+00
         0.00000E+00
         0.00000E+00
         0.00000E+00
         0.00000E+00
         0.00000E+00
         0.00000E+00
         0.00000E+00
         0.00000E+00
         0.00000E+00
         0.00000E+00
         0.00000E+00
         0.00000E+00
         0.00000E+00
         0.00000E+00
         0.00000E+00
         0.00000E+00
         0.00000E+00
         0.00000E+00
         0.00000E+00
         0.00000E+00
         0.00000E+00
         0.00000E+00
         0.00000E+00
         0.00000E+00
         0.00000E+00
         0.00000E+00
         0.00000E+00
         0.00000E+00
         0.00000E+00
         0.00000E+00
         0.00000E+00
         0.00000E+00
         0.00000E+00
         0.00000E+00
         0.00000E+00
         0.00000E+00
         0.00000E+00
         0.00000E+00
         0.00000E+00
         0.00000E+00
         0.00000E+00
         0.00000E+00
         0.00000E+00
         0.00000E+00
         0.00000E+00
         0.00000E+00
         0.00000E+00
         0.00000E+00
         0.00000E+00
         0.00000E+00
         0.00000E+00
         0.00000E+00
         0.00000E+00
         0.00000E+00
         0.00000E+00
         0.00000E+00
         0.00000E+00
         0.00000E+00
         0.00000E+00
         0.00000E+00
         0.00000E+00
         0.00000E+00
         0.00000E+00
         0.00000E+00
         0.00000E+00
         0.00000E+00
         0.00000E+00
         0.00000E+00
         0.00000E+00
         0.00000E+00
         0.00000E+00
         0.00000E+00
         0.00000E+00
         0.00000E+00
         0.00000E+00
         0.00000E+00
         0.00000E+00
         0.00000E+00
         0.00000E+00
         0.00000E+00
         0.00000E+00
         0.00000E+00
         0.00000E+00
         0.00000E+00
         0.00000E+00
         0.00000E+00
         0.00000E+00
         0.00000E+00
         0.00000E+00
         0.00000E+00
         0.00000E+00
         0.00000E+00
         0.00000E+00
         0.00000E+00
         0.00000E+00
         0.00000E+00
         0.00000E+00
         0.00000E+00
         0.00000E+00
         0.00000E+00
         0.00000E+00
         0.00000E+00
         0.00000E+00
         0.00000E+00
         0.00000E+00
         0.00000E+00
         0.00000E+00
         0.00000E+00
         0.00000E+00
         0.00000E+00
         0.00000E+00
         0.00000E+00
         0.00000E+00
         0.00000E+00
         0.00000E+00
         0.00000E+00
         0.00000E+00
         0.00000E+00
         0.00000E+00
         0.00000E+00
         0.00000E+00
         0.00000E+00
         0.00000E+00
         0.00000E+00
         0.00000E+00
         0.00000E+00
         0.00000E+00
         0.00000E+00
         0.00000E+00
         0.00000E+00
         0.00000E+00
         0.00000E+00
         0.00000E+00
         0.00000E+00
         0.00000E+00
         0.00000E+00
         0.00000E+00
         0.00000E+00
         0.00000E+00
         0.00000E+00
         0.00000E+00
         0.00000E+00
         0.00000E+00
         0.00000E+00
         0.00000E+00
         0.00000E+00
         0.00000E+00
         0.00000E+00
         0.00000E+00
         0.00000E+00
         0.00000E+00
         0.00000E+00
         0.00000E+00
         0.00000E+00
         0.00000E+00
         0.00000E+00
         0.00000E+00
         0.00000E+00
         0.00000E+00
         0.00000E+00
         0.00000E+00
         0.00000E+00
         0.00000E+00
         0.00000E+00
         0.00000E+00
         0.00000E+00
         0.00000E+00
         0.00000E+00
         0.00000E+00
         0.00000E+00
         0.00000E+00
         0.00000E+00
         0.00000E+00
         0.00000E+00
         0.00000E+00
         0.00000E+00
         0.00000E+00
         0.00000E+00
         0.00000E+00
         0.00000E+00
         0.00000E+00
         0.00000E+00
         0.00000E+00
         0.00000E+00
         0.00000E+00
         0.00000E+00
         0.00000E+00
         0.00000E+00
         0.00000E+00
         0.00000E+00
         0.00000E+00
         0.00000E+00
         0.00000E+00
         0.00000E+00
         0.00000E+00
         0.00000E+00
         0.00000E+00
         0.00000E+00
         0.00000E+00
         0.00000E+00
         0.00000E+00
         0.00000E+00
         0.00000E+00
         0.00000E+00
         0.00000E+00
         0.00000E+00
         0.00000E+00
         0.00000E+00
         0.00000E+00
         0.00000E+00
         0.00000E+00
         0.00000E+00
         0.00000E+00
         0.00000E+00
         0.00000E+00
         0.00000E+00
         0.00000E+00
         0.00000E+00
         0.00000E+00
         0.00000E+00
         0.00000E+00
         0.00000E+00
         0.00000E+00
         0.00000E+00
         0.00000E+00
         0.00000E+00
         0.00000E+00
         0.00000E+00
         0.00000E+00
         0.00000E+00
         0.00000E+00
         0.00000E+00
         0.00000E+00
         0.00000E+00
         0.00000E+00
         0.00000E+00
         0.00000E+00
         0.00000E+00
         0.00000E+00
         0.00000E+00
         0.00000E+00
         0.00000E+00
         0.00000E+00
         0.00000E+00
         0.00000E+00
         0.00000E+00
         0.00000E+00
         0.00000E+00
         0.00000E+00
         0.00000E+00
         0.00000E+00
         0.00000E+00
         0.00000E+00
         0.00000E+00
         0.00000E+00
         0.00000E+00
         0.00000E+00
         0.00000E+00
         0.00000E+00
         0.00000E+00
         0.00000E+00
         0.00000E+00
         0.00000E+00
         0.00000E+00
         0.00000E+00
         0.00000E+00
         0.00000E+00
         0.00000E+00
         0.00000E+00
         0.00000E+00
         0.00000E+00
         0.00000E+00
         0.00000E+00
         0.00000E+00
         0.00000E+00
         0.00000E+00
         0.00000E+00
         0.00000E+00
         0.00000E+00
         0.00000E+00
         0.00000E+00
         0.00000E+00
         0.00000E+00
         0.00000E+00
         0.00000E+00
         0.00000E+00
         0.00000E+00
         0.00000E+00
         0.00000E+00
         0.00000E+00
         0.00000E+00
         0.00000E+00
         0.00000E+00
         0.00000E+00
         0.00000E+00
         0.00000E+00
         0.00000E+00
         0.00000E+00
         0.00000E+00
         0.00000E+00
         0.00000E+00
         0.00000E+00
         0.00000E+00
         0.00000E+00
         0.00000E+00
         0.00000E+00
         0.00000E+00
         0.00000E+00
         0.00000E+00
         0.00000E+00
         0.00000E+00
         0.00000E+00
         0.00000E+00
         0.00000E+00
         0.00000E+00
         0.00000E+00
         0.00000E+00
         0.00000E+00
         0.00000E+00
         0.00000E+00
         0.00000E+00
         0.00000E+00
         0.00000E+00
         0.00000E+00
         0.00000E+00
         0.00000E+00
         0.00000E+00
         0.00000E+00
         0.00000E+00
         0.00000E+00
         0.00000E+00
         0.00000E+00
         0.00000E+00
         0.00000E+00
         0.00000E+00
         0.00000E+00
         0.00000E+00
         0.00000E+00
         0.00000E+00
         0.00000E+00
         0.00000E+00
         0.00000E+00
         0.00000E+00
         0.00000E+00
         0.00000E+00
         0.00000E+00
         0.00000E+00
         0.00000E+00
         0.00000E+00
         0.00000E+00
         0.00000E+00
         0.00000E+00
         0.00000E+00
         0.00000E+00
         0.00000E+00
         0.00000E+00
         0.00000E+00
         0.00000E+00
         0.00000E+00
         0.00000E+00
         0.00000E+00
         0.00000E+00
         0.00000E+00
         0.00000E+00
         0.00000E+00
         0.00000E+00
         0.00000E+00
         0.00000E+00
         0.00000E+00
         0.00000E+00
         0.00000E+00
         0.00000E+00
         0.00000E+00
         0.00000E+00
         0.00000E+00
         0.00000E+00
         0.00000E+00
         0.00000E+00
         0.00000E+00
         0.00000E+00
         0.00000E+00
         0.00000E+00
         0.00000E+00
         0.00000E+00
         0.00000E+00
         0.00000E+00
         0.00000E+00
         0.00000E+00
         0.00000E+00
         0.00000E+00
         0.00000E+00
         0.00000E+00
         0.00000E+00
         0.00000E+00
         0.00000E+00
         0.00000E+00
         0.00000E+00
         0.00000E+00
         0.00000E+00
         0.00000E+00
         0.00000E+00
         0.00000E+00
         0.00000E+00
         0.00000E+00
         0.00000E+00
         0.00000E+00
         0.00000E+00
         0.00000E+00
         0.00000E+00
         0.00000E+00
         0.00000E+00
         0.00000E+00
         0.00000E+00
         0.00000E+00
         0.00000E+00
         0.00000E+00
         0.00000E+00
         0.00000E+00
         0.00000E+00
         0.00000E+00
         0.00000E+00
         0.00000E+00
         0.00000E+00
         0.00000E+00
         0.00000E+00
         0.00000E+00
         0.00000E+00
         0.00000E+00
         0.00000E+00
         0.00000E+00
         0.00000E+00
         0.00000E+00
         0.00000E+00
         0.00000E+00
         0.00000E+00
         0.00000E+00
         0.00000E+00
         0.00000E+00
         0.00000E+00
         0.00000E+00
         0.00000E+00
         0.00000E+00
         0.00000E+00
         0.00000E+00
         0.00000E+00
         0.00000E+00
         0.00000E+00
         0.00000E+00
         0.00000E+00
         0.00000E+00
         0.00000E+00
         0.00000E+00
         0.00000E+00
         0.00000E+00
         0.00000E+00
         0.00000E+00
         0.00000E+00
         0.00000E+00
         0.00000E+00
         0.00000E+00
         0.00000E+00
         0.00000E+00
         0.00000E+00
         0.00000E+00
         0.00000E+00
         0.00000E+00
         0.00000E+00
         0.00000E+00
         0.00000E+00
         0.00000E+00
         0.00000E+00
         0.00000E+00
         0.00000E+00
         0.00000E+00
         0.00000E+00
         0.00000E+00
         0.00000E+00
         0.00000E+00
         0.00000E+00
         0.00000E+00
         0.00000E+00
         0.00000E+00
         0.00000E+00
         0.00000E+00
         0.00000E+00
         0.00000E+00
         0.00000E+00
         0.00000E+00
         0.00000E+00
         0.00000E+00
         0.00000E+00
         0.00000E+00
         0.00000E+00
         0.00000E+00
         0.00000E+00
         0.00000E+00
         0.00000E+00
         0.00000E+00
         0.00000E+00
         0.00000E+00
         0.00000E+00
         0.00000E+00
         0.00000E+00
         0.00000E+00
         0.00000E+00
         0.00000E+00
         0.00000E+00
         0.00000E+00
         0.00000E+00
         0.00000E+00
         0.00000E+00
         0.00000E+00
         0.00000E+00
         0.00000E+00
         0.00000E+00
         0.00000E+00
         0.00000E+00
         0.00000E+00
         0.00000E+00
         0.00000E+00
         0.00000E+00
         0.00000E+00
         0.00000E+00
         0.00000E+00
         0.00000E+00
         0.00000E+00
         0.00000E+00
         0.00000E+00
         0.00000E+00
         0.00000E+00
         0.00000E+00
         0.00000E+00
         0.00000E+00
         0.00000E+00
         0.00000E+00
         0.00000E+00
         0.00000E+00
         0.00000E+00
         0.00000E+00
         0.00000E+00
         0.00000E+00
         0.00000E+00
         0.00000E+00
         0.00000E+00
         0.00000E+00
         0.00000E+00
         0.00000E+00
         0.00000E+00
         0.00000E+00
         0.00000E+00
         0.00000E+00
         0.00000E+00
         0.00000E+00
         0.00000E+00
         0.00000E+00
         0.00000E+00
         0.00000E+00
         0.00000E+00
         0.00000E+00
         0.00000E+00
         0.00000E+00
         0.00000E+00
         0.00000E+00
         0.00000E+00
         0.00000E+00
         0.00000E+00
         0.00000E+00
         0.00000E+00
         0.00000E+00
         0.00000E+00
         0.00000E+00
         0.00000E+00
         0.00000E+00
         0.00000E+00
         0.00000E+00
         0.00000E+00
         0.00000E+00
         0.00000E+00
         0.00000E+00
         0.00000E+00
         0.00000E+00
         0.00000E+00
         0.00000E+00
         0.00000E+00
         0.00000E+00
         0.00000E+00
         0.00000E+00
         0.00000E+00
         0.00000E+00
         0.00000E+00
         0.00000E+00
         0.00000E+00
         0.00000E+00
         0.00000E+00
         0.00000E+00
         0.00000E+00
         0.00000E+00
         0.00000E+00
         0.00000E+00
         0.00000E+00
         0.00000E+00
         0.00000E+00
         0.00000E+00
         0.00000E+00
         0.00000E+00
         0.00000E+00
         0.00000E+00
         0.00000E+00
         0.00000E+00
         0.00000E+00
         0.00000E+00
         0.00000E+00
         0.00000E+00
         0.00000E+00
         0.00000E+00
         0.00000E+00
         0.00000E+00
         0.00000E+00
         0.00000E+00
         0.00000E+00
         0.00000E+00
         0.00000E+00
         0.00000E+00
         0.00000E+00
         0.00000E+00
         0.00000E+00
         0.00000E+00
         0.00000E+00
         0.00000E+00
         0.00000E+00
         0.00000E+00
         0.00000E+00
         0.00000E+00
         0.00000E+00
         0.00000E+00
         0.00000E+00
         0.00000E+00
         0.00000E+00
         0.00000E+00
         0.00000E+00
         0.00000E+00
         0.00000E+00
         0.00000E+00
         0.00000E+00
         0.00000E+00
         0.00000E+00
         0.00000E+00
         0.00000E+00
         0.00000E+00
         0.00000E+00
         0.00000E+00
         0.00000E+00
         0.00000E+00
         0.00000E+00
         0.00000E+00
         0.00000E+00
         0.00000E+00
         0.00000E+00
         0.00000E+00
         0.00000E+00
         0.00000E+00
         0.00000E+00
         0.00000E+00
         0.00000E+00
         0.00000E+00
         0.00000E+00
         0.00000E+00
         0.00000E+00
         0.00000E+00
         0.00000E+00
         0.00000E+00
         0.00000E+00
         0.00000E+00
         0.00000E+00
         0.00000E+00
         0.00000E+00
         0.00000E+00
         0.00000E+00
         0.00000E+00
         0.00000E+00
         0.00000E+00
         0.00000E+00
         0.00000E+00
         0.00000E+00
         0.00000E+00
         0.00000E+00
         0.00000E+00
         0.00000E+00
         0.00000E+00
         0.00000E+00
         0.00000E+00
         0.00000E+00
         0.00000E+00
         0.00000E+00
         0.00000E+00
         0.00000E+00
         0.00000E+00
         0.00000E+00
         0.00000E+00
         0.00000E+00
         0.00000E+00
         0.00000E+00
         0.00000E+00
         0.00000E+00
         0.00000E+00
         0.00000E+00
         0.00000E+00
         0.00000E+00
         0.00000E+00
         0.00000E+00
         0.00000E+00
         0.00000E+00
         0.00000E+00
         0.00000E+00
         0.00000E+00
         0.00000E+00
         0.00000E+00
         0.00000E+00
         0.00000E+00
         0.00000E+00
         0.00000E+00
         0.00000E+00
         0.00000E+00
         0.00000E+00
         0.00000E+00
         0.00000E+00
         0.00000E+00
         0.00000E+00
         0.00000E+00
         0.00000E+00
         0.00000E+00
         0.00000E+00
         0.00000E+00
         0.00000E+00
         0.00000E+00
         0.00000E+00
         0.00000E+00
         0.00000E+00
         0.00000E+00
         0.00000E+00
         0.00000E+00
         0.00000E+00
         0.00000E+00
         0.00000E+00
         0.00000E+00
         0.00000E+00
         0.00000E+00
         0.00000E+00
         0.00000E+00
         0.00000E+00
         0.00000E+00
         0.00000E+00
         0.00000E+00
         0.00000E+00
         0.00000E+00
         0.00000E+00
         0.00000E+00
         0.00000E+00
         0.00000E+00
         0.00000E+00
         0.00000E+00
         0.00000E+00
         0.00000E+00
         0.00000E+00
         0.00000E+00
         0.00000E+00
         0.00000E+00
         0.00000E+00
         0.00000E+00
         0.00000E+00
         0.00000E+00
         0.00000E+00
         0.00000E+00
         0.00000E+00
         0.00000E+00
         0.00000E+00
         0.00000E+00
         0.00000E+00
         0.00000E+00
         0.00000E+00
         0.00000E+00
         0.00000E+00
         0.00000E+00
         0.00000E+00
         0.00000E+00
         0.00000E+00
         0.00000E+00
         0.00000E+00
         0.00000E+00
         0.00000E+00
         0.00000E+00
         0.00000E+00
         0.00000E+00
         0.00000E+00
         0.00000E+00
         0.00000E+00
         0.00000E+00
         0.00000E+00
         0.00000E+00
         0.00000E+00
         0.00000E+00
         0.00000E+00
         0.00000E+00
         0.00000E+00
         0.00000E+00
         0.00000E+00
         0.00000E+00
         0.00000E+00
         0.00000E+00
         0.00000E+00
         0.00000E+00
         0.00000E+00
         0.00000E+00
         0.00000E+00
         0.00000E+00
         0.00000E+00
         0.00000E+00
         0.00000E+00
         0.00000E+00
         0.00000E+00
         0.00000E+00
         0.00000E+00
         0.00000E+00
         0.00000E+00
         0.00000E+00
         0.00000E+00
         0.00000E+00
         0.00000E+00
         0.00000E+00
         0.00000E+00
         0.00000E+00
         0.00000E+00
         0.00000E+00
         0.00000E+00
         0.00000E+00
         0.00000E+00
         0.00000E+00
         0.00000E+00
         0.00000E+00
         0.00000E+00
         0.00000E+00
         0.00000E+00
         0.00000E+00
         0.00000E+00
         0.00000E+00
         0.00000E+00
         0.00000E+00
         0.00000E+00
         0.00000E+00
         0.00000E+00
         0.00000E+00
         0.00000E+00
         0.00000E+00
         0.00000E+00
         0.00000E+00
         0.00000E+00
         0.00000E+00
         0.00000E+00
         0.00000E+00
         0.00000E+00
         0.00000E+00
         0.00000E+00
         0.00000E+00
         0.00000E+00
         0.00000E+00
         0.00000E+00
         0.00000E+00
         0.00000E+00
         0.00000E+00
         0.00000E+00
         0.00000E+00
         0.00000E+00
         0.00000E+00
         0.00000E+00
         0.00000E+00
         0.00000E+00
         0.00000E+00
         0.00000E+00
         0.00000E+00
         0.00000E+00
         0.00000E+00
         0.00000E+00
         0.00000E+00
         0.00000E+00
         0.00000E+00
         0.00000E+00
         0.00000E+00
         0.00000E+00
         0.00000E+00
         0.00000E+00
         0.00000E+00
         0.00000E+00
         0.00000E+00
         0.00000E+00
         0.00000E+00
         0.00000E+00
         0.00000E+00
         0.00000E+00
         0.00000E+00
         0.00000E+00
         0.00000E+00
         0.00000E+00
         0.00000E+00
         0.00000E+00
         0.00000E+00
         0.00000E+00
         0.00000E+00
         0.00000E+00
         0.00000E+00
         0.00000E+00
         0.00000E+00
         0.00000E+00
         0.00000E+00
         0.00000E+00
         0.00000E+00
         0.00000E+00
         0.00000E+00
         0.00000E+00
         0.00000E+00
         0.00000E+00
         0.00000E+00
         0.00000E+00
         0.00000E+00
         0.00000E+00
         0.00000E+00
         0.00000E+00
         0.00000E+00
         0.00000E+00
         0.00000E+00
         0.00000E+00
         0.00000E+00
         0.00000E+00
         0.00000E+00
         0.00000E+00
         0.00000E+00
         0.00000E+00
         0.00000E+00
         0.00000E+00
         0.00000E+00
         0.00000E+00
         0.00000E+00
         0.00000E+00
         0.00000E+00
         0.00000E+00
         0.00000E+00
         0.00000E+00
         0.00000E+00
         0.00000E+00
         0.00000E+00
         0.00000E+00
         0.00000E+00
         0.00000E+00
         0.00000E+00
         0.00000E+00
         0.00000E+00
         0.00000E+00
         0.00000E+00
         0.00000E+00
         0.00000E+00
         0.00000E+00
         0.00000E+00
         0.00000E+00
         0.00000E+00
         0.00000E+00
         0.00000E+00
         0.00000E+00
         0.00000E+00
         0.00000E+00
         0.00000E+00
         0.00000E+00
         0.00000E+00
         0.00000E+00
         0.00000E+00
         0.00000E+00
         0.00000E+00
         0.00000E+00
         0.00000E+00
         0.00000E+00
         0.00000E+00
         0.00000E+00
         0.00000E+00
         0.00000E+00
         0.00000E+00
         0.00000E+00
         0.00000E+00
         0.00000E+00
         0.00000E+00
         0.00000E+00
         0.00000E+00
         0.00000E+00
         0.00000E+00
         0.00000E+00
         0.00000E+00
         0.00000E+00
         0.00000E+00
         0.00000E+00
         0.00000E+00
         0.00000E+00
         0.00000E+00
         0.00000E+00
         0.00000E+00
         0.00000E+00
         0.00000E+00
         0.00000E+00
         0.00000E+00
         0.00000E+00
         0.00000E+00
         0.00000E+00
         0.00000E+00
         0.00000E+00
         0.00000E+00
         0.00000E+00
         0.00000E+00
         0.00000E+00
         0.00000E+00
         0.00000E+00
         0.00000E+00
         0.00000E+00
         0.00000E+00
         0.00000E+00
         0.00000E+00
         0.00000E+00
         0.00000E+00
         0.00000E+00
         0.00000E+00
         0.00000E+00
         0.00000E+00
         0.00000E+00
         0.00000E+00
         0.00000E+00
         0.00000E+00
         0.00000E+00
         0.00000E+00
         0.00000E+00
         0.00000E+00
         0.00000E+00
         0.00000E+00
         0.00000E+00
         0.00000E+00
         0.00000E+00
         0.00000E+00
         0.00000E+00
         0.00000E+00
         0.00000E+00
         0.00000E+00
         0.00000E+00
         0.00000E+00
         0.00000E+00
         0.00000E+00
         0.00000E+00
         0.00000E+00
         0.00000E+00
         0.00000E+00
         0.00000E+00
         0.00000E+00
         0.00000E+00
         0.00000E+00
         0.00000E+00
         0.00000E+00
         0.00000E+00
         0.00000E+00
         0.00000E+00
         0.00000E+00
         0.00000E+00
         0.00000E+00
         0.00000E+00
         0.00000E+00
         0.00000E+00
         0.00000E+00
         0.00000E+00
         0.00000E+00
         0.00000E+00
         0.00000E+00
         0.00000E+00
         0.00000E+00
         0.00000E+00
         0.00000E+00
         0.00000E+00
         0.00000E+00
         0.00000E+00
         0.00000E+00
         0.00000E+00
         0.00000E+00
         0.00000E+00
         0.00000E+00
         0.00000E+00
         0.00000E+00
         0.00000E+00
         0.00000E+00
         0.00000E+00
         0.00000E+00
         0.00000E+00
         0.00000E+00
         0.00000E+00
         0.00000E+00
         0.00000E+00
         0.00000E+00
         0.00000E+00
         0.00000E+00
         0.00000E+00
         0.00000E+00
         0.00000E+00
         0.00000E+00
         0.00000E+00
         0.00000E+00
         0.00000E+00
         0.00000E+00
         0.00000E+00
         0.00000E+00
         0.00000E+00
         0.00000E+00
         0.00000E+00
         0.00000E+00
         0.00000E+00
         0.00000E+00
         0.00000E+00
         0.00000E+00
         0.00000E+00
         0.00000E+00
         0.00000E+00
         0.00000E+00
         0.00000E+00
         0.00000E+00
         0.00000E+00
         0.00000E+00
         0.00000E+00
         0.00000E+00
         0.00000E+00
         0.00000E+00
         0.00000E+00
         0.00000E+00
         0.00000E+00
         0.00000E+00
         0.00000E+00
         0.00000E+00
         0.00000E+00
         0.00000E+00
         0.00000E+00
         0.00000E+00
         0.00000E+00
         0.00000E+00
         0.00000E+00
         0.00000E+00
         0.00000E+00
         0.00000E+00
         0.00000E+00
         0.00000E+00
         0.00000E+00
         0.00000E+00
         0.00000E+00
         0.00000E+00
         0.00000E+00
         0.00000E+00
         0.00000E+00
         0.00000E+00
         0.00000E+00
         0.00000E+00
         0.00000E+00
         0.00000E+00
         0.00000E+00
         0.00000E+00
         0.00000E+00
         0.00000E+00
         0.00000E+00
         0.00000E+00
         0.00000E+00
         0.00000E+00
         0.00000E+00
         0.00000E+00
         0.00000E+00
         0.00000E+00
         0.00000E+00
         0.00000E+00
         0.00000E+00
         0.00000E+00
         0.00000E+00
         0.00000E+00
         0.00000E+00
         0.00000E+00
         0.00000E+00
         0.00000E+00
         0.00000E+00
         0.00000E+00
         0.00000E+00
         0.00000E+00
         0.00000E+00
         0.00000E+00
         0.00000E+00
         0.00000E+00
         0.00000E+00
         0.00000E+00
         0.00000E+00
         0.00000E+00
         0.00000E+00
         0.00000E+00
         0.00000E+00
         0.00000E+00
         0.00000E+00
         0.00000E+00
         0.00000E+00
         0.00000E+00
         0.00000E+00
         0.00000E+00
         0.00000E+00
         0.00000E+00
         0.00000E+00
         0.00000E+00
         0.00000E+00
         0.00000E+00
         0.00000E+00
         0.00000E+00
         0.00000E+00
         0.00000E+00
         0.00000E+00
         0.00000E+00
         0.00000E+00
         0.00000E+00
         0.00000E+00
         0.00000E+00
  
SCALARS                         fint_x  double 1
LOOKUP_TABLE default
         0.00000E+00
         0.00000E+00
         0.00000E+00
         0.00000E+00
         0.00000E+00
         0.00000E+00
         0.00000E+00
         0.00000E+00
         0.00000E+00
         0.00000E+00
         0.00000E+00
         0.00000E+00
         0.00000E+00
         0.00000E+00
         0.00000E+00
         0.00000E+00
         0.00000E+00
         0.00000E+00
         0.00000E+00
         0.00000E+00
         0.00000E+00
         0.00000E+00
         0.00000E+00
         0.00000E+00
         0.00000E+00
         0.00000E+00
         0.00000E+00
         0.00000E+00
         0.00000E+00
         0.00000E+00
         0.00000E+00
         0.00000E+00
         0.00000E+00
         0.00000E+00
         0.00000E+00
         0.00000E+00
         0.00000E+00
         0.00000E+00
         0.00000E+00
         0.00000E+00
         0.00000E+00
         0.00000E+00
         0.00000E+00
         0.00000E+00
         0.00000E+00
         0.00000E+00
         0.00000E+00
         0.00000E+00
         0.00000E+00
         0.00000E+00
         0.00000E+00
         0.00000E+00
         0.00000E+00
         0.00000E+00
         0.00000E+00
         0.00000E+00
         0.00000E+00
         0.00000E+00
         0.00000E+00
         0.00000E+00
         0.00000E+00
         0.00000E+00
         0.00000E+00
         0.00000E+00
         0.00000E+00
         0.00000E+00
         0.00000E+00
         0.00000E+00
         0.00000E+00
         0.00000E+00
         0.00000E+00
         0.00000E+00
         0.00000E+00
         0.00000E+00
         0.00000E+00
         0.00000E+00
         0.00000E+00
         0.00000E+00
         0.00000E+00
         0.00000E+00
         0.00000E+00
         0.00000E+00
         0.00000E+00
         0.00000E+00
         0.00000E+00
         0.00000E+00
         0.00000E+00
         0.00000E+00
         0.00000E+00
         0.00000E+00
         0.00000E+00
         0.00000E+00
         0.00000E+00
         0.00000E+00
         0.00000E+00
         0.00000E+00
         0.00000E+00
         0.00000E+00
         0.00000E+00
         0.00000E+00
         0.00000E+00
         0.00000E+00
         0.00000E+00
         0.00000E+00
         0.00000E+00
         0.00000E+00
         0.00000E+00
         0.00000E+00
         0.00000E+00
         0.00000E+00
         0.00000E+00
         0.00000E+00
         0.00000E+00
         0.00000E+00
         0.00000E+00
         0.00000E+00
         0.00000E+00
         0.00000E+00
         0.00000E+00
         0.00000E+00
         0.00000E+00
         0.00000E+00
         0.00000E+00
         0.00000E+00
         0.00000E+00
         0.00000E+00
         0.00000E+00
         0.00000E+00
         0.00000E+00
         0.00000E+00
         0.00000E+00
         0.00000E+00
         0.00000E+00
         0.00000E+00
         0.00000E+00
         0.00000E+00
         0.00000E+00
         0.00000E+00
         0.00000E+00
         0.00000E+00
         0.00000E+00
         0.00000E+00
         0.00000E+00
         0.00000E+00
         0.00000E+00
         0.00000E+00
         0.00000E+00
         0.00000E+00
         0.00000E+00
         0.00000E+00
         0.00000E+00
         0.00000E+00
         0.00000E+00
         0.00000E+00
         0.00000E+00
         0.00000E+00
         0.00000E+00
         0.00000E+00
         0.00000E+00
         0.00000E+00
         0.00000E+00
         0.00000E+00
         0.00000E+00
         0.00000E+00
         0.00000E+00
         0.00000E+00
         0.00000E+00
         0.00000E+00
         0.00000E+00
         0.00000E+00
         0.00000E+00
         0.00000E+00
         0.00000E+00
         0.00000E+00
         0.00000E+00
         0.00000E+00
         0.00000E+00
         0.00000E+00
         0.00000E+00
         0.00000E+00
         0.00000E+00
         0.00000E+00
         0.00000E+00
         0.00000E+00
         0.00000E+00
         0.00000E+00
         0.00000E+00
         0.00000E+00
         0.00000E+00
         0.00000E+00
         0.00000E+00
         0.00000E+00
         0.00000E+00
         0.00000E+00
         0.00000E+00
         0.00000E+00
         0.00000E+00
         0.00000E+00
         0.00000E+00
         0.00000E+00
         0.00000E+00
         0.00000E+00
         0.00000E+00
         0.00000E+00
         0.00000E+00
         0.00000E+00
         0.00000E+00
         0.00000E+00
         0.00000E+00
         0.00000E+00
         0.00000E+00
         0.00000E+00
         0.00000E+00
         0.00000E+00
         0.00000E+00
         0.00000E+00
         0.00000E+00
         0.00000E+00
         0.00000E+00
         0.00000E+00
         0.00000E+00
         0.00000E+00
         0.00000E+00
         0.00000E+00
         0.00000E+00
         0.00000E+00
         0.00000E+00
         0.00000E+00
         0.00000E+00
         0.00000E+00
         0.00000E+00
         0.00000E+00
         0.00000E+00
         0.00000E+00
         0.00000E+00
         0.00000E+00
         0.00000E+00
         0.00000E+00
         0.00000E+00
         0.00000E+00
         0.00000E+00
         0.00000E+00
         0.00000E+00
         0.00000E+00
         0.00000E+00
         0.00000E+00
         0.00000E+00
         0.00000E+00
         0.00000E+00
         0.00000E+00
         0.00000E+00
         0.00000E+00
         0.00000E+00
         0.00000E+00
         0.00000E+00
         0.00000E+00
         0.00000E+00
         0.00000E+00
         0.00000E+00
         0.00000E+00
         0.00000E+00
         0.00000E+00
         0.00000E+00
         0.00000E+00
         0.00000E+00
         0.00000E+00
         0.00000E+00
         0.00000E+00
         0.00000E+00
         0.00000E+00
         0.00000E+00
         0.00000E+00
         0.00000E+00
         0.00000E+00
         0.00000E+00
         0.00000E+00
         0.00000E+00
         0.00000E+00
         0.00000E+00
         0.00000E+00
         0.00000E+00
         0.00000E+00
         0.00000E+00
         0.00000E+00
         0.00000E+00
         0.00000E+00
         0.00000E+00
         0.00000E+00
         0.00000E+00
         0.00000E+00
         0.00000E+00
         0.00000E+00
         0.00000E+00
         0.00000E+00
         0.00000E+00
         0.00000E+00
         0.00000E+00
         0.00000E+00
         0.00000E+00
         0.00000E+00
         0.00000E+00
         0.00000E+00
         0.00000E+00
         0.00000E+00
         0.00000E+00
         0.00000E+00
         0.00000E+00
         0.00000E+00
         0.00000E+00
         0.00000E+00
         0.00000E+00
         0.00000E+00
         0.00000E+00
         0.00000E+00
         0.00000E+00
         0.00000E+00
         0.00000E+00
         0.00000E+00
         0.00000E+00
         0.00000E+00
         0.00000E+00
         0.00000E+00
         0.00000E+00
         0.00000E+00
         0.00000E+00
         0.00000E+00
         0.00000E+00
         0.00000E+00
         0.00000E+00
         0.00000E+00
         0.00000E+00
         0.00000E+00
         0.00000E+00
         0.00000E+00
         0.00000E+00
         0.00000E+00
         0.00000E+00
         0.00000E+00
         0.00000E+00
         0.00000E+00
         0.00000E+00
         0.00000E+00
         0.00000E+00
         0.00000E+00
         0.00000E+00
         0.00000E+00
         0.00000E+00
         0.00000E+00
         0.00000E+00
         0.00000E+00
         0.00000E+00
         0.00000E+00
         0.00000E+00
         0.00000E+00
         0.00000E+00
         0.00000E+00
         0.00000E+00
         0.00000E+00
         0.00000E+00
         0.00000E+00
         0.00000E+00
         0.00000E+00
         0.00000E+00
         0.00000E+00
         0.00000E+00
         0.00000E+00
         0.00000E+00
         0.00000E+00
         0.00000E+00
         0.00000E+00
         0.00000E+00
         0.00000E+00
         0.00000E+00
         0.00000E+00
         0.00000E+00
         0.00000E+00
         0.00000E+00
         0.00000E+00
         0.00000E+00
         0.00000E+00
         0.00000E+00
         0.00000E+00
         0.00000E+00
         0.00000E+00
         0.00000E+00
         0.00000E+00
         0.00000E+00
         0.00000E+00
         0.00000E+00
         0.00000E+00
         0.00000E+00
         0.00000E+00
         0.00000E+00
         0.00000E+00
         0.00000E+00
         0.00000E+00
         0.00000E+00
         0.00000E+00
         0.00000E+00
         0.00000E+00
         0.00000E+00
         0.00000E+00
         0.00000E+00
         0.00000E+00
         0.00000E+00
         0.00000E+00
         0.00000E+00
         0.00000E+00
         0.00000E+00
         0.00000E+00
         0.00000E+00
         0.00000E+00
         0.00000E+00
         0.00000E+00
         0.00000E+00
         0.00000E+00
         0.00000E+00
         0.00000E+00
         0.00000E+00
         0.00000E+00
         0.00000E+00
         0.00000E+00
         0.00000E+00
         0.00000E+00
         0.00000E+00
         0.00000E+00
         0.00000E+00
         0.00000E+00
         0.00000E+00
         0.00000E+00
         0.00000E+00
         0.00000E+00
         0.00000E+00
         0.00000E+00
         0.00000E+00
         0.00000E+00
         0.00000E+00
         0.00000E+00
         0.00000E+00
         0.00000E+00
         0.00000E+00
         0.00000E+00
         0.00000E+00
         0.00000E+00
         0.00000E+00
         0.00000E+00
         0.00000E+00
         0.00000E+00
         0.00000E+00
         0.00000E+00
         0.00000E+00
         0.00000E+00
         0.00000E+00
         0.00000E+00
         0.00000E+00
         0.00000E+00
         0.00000E+00
         0.00000E+00
         0.00000E+00
         0.00000E+00
         0.00000E+00
         0.00000E+00
         0.00000E+00
         0.00000E+00
         0.00000E+00
         0.00000E+00
         0.00000E+00
         0.00000E+00
         0.00000E+00
         0.00000E+00
         0.00000E+00
         0.00000E+00
         0.00000E+00
         0.00000E+00
         0.00000E+00
         0.00000E+00
         0.00000E+00
         0.00000E+00
         0.00000E+00
         0.00000E+00
         0.00000E+00
         0.00000E+00
         0.00000E+00
         0.00000E+00
         0.00000E+00
         0.00000E+00
         0.00000E+00
         0.00000E+00
         0.00000E+00
         0.00000E+00
         0.00000E+00
         0.00000E+00
         0.00000E+00
         0.00000E+00
         0.00000E+00
         0.00000E+00
         0.00000E+00
         0.00000E+00
         0.00000E+00
         0.00000E+00
         0.00000E+00
         0.00000E+00
         0.00000E+00
         0.00000E+00
         0.00000E+00
         0.00000E+00
         0.00000E+00
         0.00000E+00
         0.00000E+00
         0.00000E+00
         0.00000E+00
         0.00000E+00
         0.00000E+00
         0.00000E+00
         0.00000E+00
         0.00000E+00
         0.00000E+00
         0.00000E+00
         0.00000E+00
         0.00000E+00
         0.00000E+00
         0.00000E+00
         0.00000E+00
         0.00000E+00
         0.00000E+00
         0.00000E+00
         0.00000E+00
         0.00000E+00
         0.00000E+00
         0.00000E+00
         0.00000E+00
         0.00000E+00
         0.00000E+00
         0.00000E+00
         0.00000E+00
         0.00000E+00
         0.00000E+00
         0.00000E+00
         0.00000E+00
         0.00000E+00
         0.00000E+00
         0.00000E+00
         0.00000E+00
         0.00000E+00
         0.00000E+00
         0.00000E+00
         0.00000E+00
         0.00000E+00
         0.00000E+00
         0.00000E+00
         0.00000E+00
         0.00000E+00
         0.00000E+00
         0.00000E+00
         0.00000E+00
         0.00000E+00
         0.00000E+00
         0.00000E+00
         0.00000E+00
         0.00000E+00
         0.00000E+00
         0.00000E+00
         0.00000E+00
         0.00000E+00
         0.00000E+00
         0.00000E+00
         0.00000E+00
         0.00000E+00
         0.00000E+00
         0.00000E+00
         0.00000E+00
         0.00000E+00
         0.00000E+00
         0.00000E+00
         0.00000E+00
         0.00000E+00
         0.00000E+00
         0.00000E+00
         0.00000E+00
         0.00000E+00
         0.00000E+00
         0.00000E+00
         0.00000E+00
         0.00000E+00
         0.00000E+00
         0.00000E+00
         0.00000E+00
         0.00000E+00
         0.00000E+00
         0.00000E+00
         0.00000E+00
         0.00000E+00
         0.00000E+00
         0.00000E+00
         0.00000E+00
         0.00000E+00
         0.00000E+00
         0.00000E+00
         0.00000E+00
         0.00000E+00
         0.00000E+00
         0.00000E+00
         0.00000E+00
         0.00000E+00
         0.00000E+00
         0.00000E+00
         0.00000E+00
         0.00000E+00
         0.00000E+00
         0.00000E+00
         0.00000E+00
         0.00000E+00
         0.00000E+00
         0.00000E+00
         0.00000E+00
         0.00000E+00
         0.00000E+00
         0.00000E+00
         0.00000E+00
         0.00000E+00
         0.00000E+00
         0.00000E+00
         0.00000E+00
         0.00000E+00
         0.00000E+00
         0.00000E+00
         0.00000E+00
         0.00000E+00
         0.00000E+00
         0.00000E+00
         0.00000E+00
         0.00000E+00
         0.00000E+00
         0.00000E+00
         0.00000E+00
         0.00000E+00
         0.00000E+00
         0.00000E+00
         0.00000E+00
         0.00000E+00
         0.00000E+00
         0.00000E+00
         0.00000E+00
         0.00000E+00
         0.00000E+00
         0.00000E+00
         0.00000E+00
         0.00000E+00
         0.00000E+00
         0.00000E+00
         0.00000E+00
         0.00000E+00
         0.00000E+00
         0.00000E+00
         0.00000E+00
         0.00000E+00
         0.00000E+00
         0.00000E+00
         0.00000E+00
         0.00000E+00
         0.00000E+00
         0.00000E+00
         0.00000E+00
         0.00000E+00
         0.00000E+00
         0.00000E+00
         0.00000E+00
         0.00000E+00
         0.00000E+00
         0.00000E+00
         0.00000E+00
         0.00000E+00
         0.00000E+00
         0.00000E+00
         0.00000E+00
         0.00000E+00
         0.00000E+00
         0.00000E+00
         0.00000E+00
         0.00000E+00
         0.00000E+00
         0.00000E+00
         0.00000E+00
         0.00000E+00
         0.00000E+00
         0.00000E+00
         0.00000E+00
         0.00000E+00
         0.00000E+00
         0.00000E+00
         0.00000E+00
         0.00000E+00
         0.00000E+00
         0.00000E+00
         0.00000E+00
         0.00000E+00
         0.00000E+00
         0.00000E+00
         0.00000E+00
         0.00000E+00
         0.00000E+00
         0.00000E+00
         0.00000E+00
         0.00000E+00
         0.00000E+00
         0.00000E+00
         0.00000E+00
         0.00000E+00
         0.00000E+00
         0.00000E+00
         0.00000E+00
         0.00000E+00
         0.00000E+00
         0.00000E+00
         0.00000E+00
         0.00000E+00
         0.00000E+00
         0.00000E+00
         0.00000E+00
         0.00000E+00
         0.00000E+00
         0.00000E+00
         0.00000E+00
         0.00000E+00
         0.00000E+00
         0.00000E+00
         0.00000E+00
         0.00000E+00
         0.00000E+00
         0.00000E+00
         0.00000E+00
         0.00000E+00
         0.00000E+00
         0.00000E+00
         0.00000E+00
         0.00000E+00
         0.00000E+00
         0.00000E+00
         0.00000E+00
         0.00000E+00
         0.00000E+00
         0.00000E+00
         0.00000E+00
         0.00000E+00
         0.00000E+00
         0.00000E+00
         0.00000E+00
         0.00000E+00
         0.00000E+00
         0.00000E+00
         0.00000E+00
         0.00000E+00
         0.00000E+00
         0.00000E+00
         0.00000E+00
         0.00000E+00
         0.00000E+00
         0.00000E+00
         0.00000E+00
         0.00000E+00
         0.00000E+00
         0.00000E+00
         0.00000E+00
         0.00000E+00
         0.00000E+00
         0.00000E+00
         0.00000E+00
         0.00000E+00
         0.00000E+00
         0.00000E+00
         0.00000E+00
         0.00000E+00
         0.00000E+00
         0.00000E+00
         0.00000E+00
         0.00000E+00
         0.00000E+00
         0.00000E+00
         0.00000E+00
         0.00000E+00
         0.00000E+00
         0.00000E+00
         0.00000E+00
         0.00000E+00
         0.00000E+00
         0.00000E+00
         0.00000E+00
         0.00000E+00
         0.00000E+00
         0.00000E+00
         0.00000E+00
         0.00000E+00
         0.00000E+00
         0.00000E+00
         0.00000E+00
         0.00000E+00
         0.00000E+00
         0.00000E+00
         0.00000E+00
         0.00000E+00
         0.00000E+00
         0.00000E+00
         0.00000E+00
         0.00000E+00
         0.00000E+00
         0.00000E+00
         0.00000E+00
         0.00000E+00
         0.00000E+00
         0.00000E+00
         0.00000E+00
         0.00000E+00
         0.00000E+00
         0.00000E+00
         0.00000E+00
         0.00000E+00
         0.00000E+00
         0.00000E+00
         0.00000E+00
         0.00000E+00
         0.00000E+00
         0.00000E+00
         0.00000E+00
         0.00000E+00
         0.00000E+00
         0.00000E+00
         0.00000E+00
         0.00000E+00
         0.00000E+00
         0.00000E+00
         0.00000E+00
         0.00000E+00
         0.00000E+00
         0.00000E+00
         0.00000E+00
         0.00000E+00
         0.00000E+00
         0.00000E+00
         0.00000E+00
         0.00000E+00
         0.00000E+00
         0.00000E+00
         0.00000E+00
         0.00000E+00
         0.00000E+00
         0.00000E+00
         0.00000E+00
         0.00000E+00
         0.00000E+00
         0.00000E+00
         0.00000E+00
         0.00000E+00
         0.00000E+00
         0.00000E+00
         0.00000E+00
         0.00000E+00
         0.00000E+00
         0.00000E+00
         0.00000E+00
         0.00000E+00
         0.00000E+00
         0.00000E+00
         0.00000E+00
         0.00000E+00
         0.00000E+00
         0.00000E+00
         0.00000E+00
         0.00000E+00
         0.00000E+00
         0.00000E+00
         0.00000E+00
         0.00000E+00
         0.00000E+00
         0.00000E+00
         0.00000E+00
         0.00000E+00
         0.00000E+00
         0.00000E+00
         0.00000E+00
         0.00000E+00
         0.00000E+00
         0.00000E+00
         0.00000E+00
         0.00000E+00
         0.00000E+00
         0.00000E+00
         0.00000E+00
         0.00000E+00
         0.00000E+00
         0.00000E+00
         0.00000E+00
         0.00000E+00
         0.00000E+00
         0.00000E+00
         0.00000E+00
         0.00000E+00
         0.00000E+00
         0.00000E+00
         0.00000E+00
         0.00000E+00
         0.00000E+00
         0.00000E+00
         0.00000E+00
         0.00000E+00
         0.00000E+00
         0.00000E+00
         0.00000E+00
         0.00000E+00
         0.00000E+00
         0.00000E+00
         0.00000E+00
         0.00000E+00
         0.00000E+00
         0.00000E+00
         0.00000E+00
         0.00000E+00
         0.00000E+00
         0.00000E+00
         0.00000E+00
         0.00000E+00
         0.00000E+00
         0.00000E+00
         0.00000E+00
         0.00000E+00
         0.00000E+00
         0.00000E+00
         0.00000E+00
         0.00000E+00
         0.00000E+00
         0.00000E+00
         0.00000E+00
         0.00000E+00
         0.00000E+00
         0.00000E+00
         0.00000E+00
         0.00000E+00
         0.00000E+00
         0.00000E+00
         0.00000E+00
         0.00000E+00
         0.00000E+00
         0.00000E+00
         0.00000E+00
         0.00000E+00
         0.00000E+00
         0.00000E+00
         0.00000E+00
         0.00000E+00
         0.00000E+00
         0.00000E+00
         0.00000E+00
         0.00000E+00
         0.00000E+00
         0.00000E+00
         0.00000E+00
         0.00000E+00
         0.00000E+00
         0.00000E+00
         0.00000E+00
         0.00000E+00
         0.00000E+00
         0.00000E+00
         0.00000E+00
         0.00000E+00
         0.00000E+00
         0.00000E+00
         0.00000E+00
         0.00000E+00
         0.00000E+00
         0.00000E+00
         0.00000E+00
         0.00000E+00
         0.00000E+00
         0.00000E+00
         0.00000E+00
         0.00000E+00
         0.00000E+00
         0.00000E+00
         0.00000E+00
         0.00000E+00
         0.00000E+00
         0.00000E+00
         0.00000E+00
         0.00000E+00
         0.00000E+00
         0.00000E+00
         0.00000E+00
         0.00000E+00
         0.00000E+00
         0.00000E+00
         0.00000E+00
         0.00000E+00
         0.00000E+00
         0.00000E+00
         0.00000E+00
         0.00000E+00
         0.00000E+00
         0.00000E+00
         0.00000E+00
         0.00000E+00
         0.00000E+00
         0.00000E+00
         0.00000E+00
         0.00000E+00
         0.00000E+00
         0.00000E+00
         0.00000E+00
         0.00000E+00
         0.00000E+00
         0.00000E+00
         0.00000E+00
         0.00000E+00
         0.00000E+00
         0.00000E+00
         0.00000E+00
         0.00000E+00
         0.00000E+00
         0.00000E+00
         0.00000E+00
         0.00000E+00
         0.00000E+00
         0.00000E+00
         0.00000E+00
         0.00000E+00
         0.00000E+00
         0.00000E+00
         0.00000E+00
         0.00000E+00
         0.00000E+00
         0.00000E+00
         0.00000E+00
         0.00000E+00
         0.00000E+00
         0.00000E+00
         0.00000E+00
         0.00000E+00
         0.00000E+00
         0.00000E+00
         0.00000E+00
         0.00000E+00
         0.00000E+00
         0.00000E+00
         0.00000E+00
         0.00000E+00
         0.00000E+00
         0.00000E+00
         0.00000E+00
         0.00000E+00
         0.00000E+00
         0.00000E+00
         0.00000E+00
         0.00000E+00
         0.00000E+00
         0.00000E+00
         0.00000E+00
         0.00000E+00
         0.00000E+00
         0.00000E+00
         0.00000E+00
         0.00000E+00
         0.00000E+00
         0.00000E+00
         0.00000E+00
         0.00000E+00
         0.00000E+00
         0.00000E+00
         0.00000E+00
         0.00000E+00
         0.00000E+00
         0.00000E+00
         0.00000E+00
         0.00000E+00
         0.00000E+00
         0.00000E+00
         0.00000E+00
         0.00000E+00
         0.00000E+00
         0.00000E+00
         0.00000E+00
         0.00000E+00
         0.00000E+00
         0.00000E+00
         0.00000E+00
         0.00000E+00
         0.00000E+00
         0.00000E+00
         0.00000E+00
         0.00000E+00
         0.00000E+00
         0.00000E+00
         0.00000E+00
         0.00000E+00
         0.00000E+00
         0.00000E+00
         0.00000E+00
         0.00000E+00
         0.00000E+00
         0.00000E+00
         0.00000E+00
         0.00000E+00
         0.00000E+00
         0.00000E+00
         0.00000E+00
         0.00000E+00
         0.00000E+00
         0.00000E+00
         0.00000E+00
         0.00000E+00
         0.00000E+00
         0.00000E+00
         0.00000E+00
         0.00000E+00
         0.00000E+00
         0.00000E+00
         0.00000E+00
         0.00000E+00
         0.00000E+00
         0.00000E+00
         0.00000E+00
         0.00000E+00
         0.00000E+00
         0.00000E+00
         0.00000E+00
         0.00000E+00
         0.00000E+00
         0.00000E+00
         0.00000E+00
         0.00000E+00
         0.00000E+00
         0.00000E+00
         0.00000E+00
         0.00000E+00
         0.00000E+00
         0.00000E+00
         0.00000E+00
         0.00000E+00
         0.00000E+00
         0.00000E+00
         0.00000E+00
         0.00000E+00
         0.00000E+00
         0.00000E+00
         0.00000E+00
         0.00000E+00
         0.00000E+00
         0.00000E+00
         0.00000E+00
         0.00000E+00
         0.00000E+00
         0.00000E+00
         0.00000E+00
         0.00000E+00
         0.00000E+00
         0.00000E+00
         0.00000E+00
         0.00000E+00
         0.00000E+00
         0.00000E+00
         0.00000E+00
         0.00000E+00
         0.00000E+00
         0.00000E+00
         0.00000E+00
         0.00000E+00
         0.00000E+00
         0.00000E+00
         0.00000E+00
         0.00000E+00
         0.00000E+00
         0.00000E+00
         0.00000E+00
         0.00000E+00
         0.00000E+00
         0.00000E+00
         0.00000E+00
         0.00000E+00
         0.00000E+00
         0.00000E+00
         0.00000E+00
         0.00000E+00
         0.00000E+00
         0.00000E+00
         0.00000E+00
         0.00000E+00
         0.00000E+00
         0.00000E+00
         0.00000E+00
         0.00000E+00
         0.00000E+00
         0.00000E+00
         0.00000E+00
         0.00000E+00
         0.00000E+00
         0.00000E+00
         0.00000E+00
         0.00000E+00
         0.00000E+00
         0.00000E+00
         0.00000E+00
         0.00000E+00
         0.00000E+00
         0.00000E+00
         0.00000E+00
         0.00000E+00
         0.00000E+00
         0.00000E+00
         0.00000E+00
         0.00000E+00
         0.00000E+00
         0.00000E+00
         0.00000E+00
         0.00000E+00
         0.00000E+00
         0.00000E+00
         0.00000E+00
         0.00000E+00
         0.00000E+00
         0.00000E+00
         0.00000E+00
         0.00000E+00
         0.00000E+00
         0.00000E+00
         0.00000E+00
         0.00000E+00
         0.00000E+00
         0.00000E+00
         0.00000E+00
         0.00000E+00
         0.00000E+00
         0.00000E+00
         0.00000E+00
         0.00000E+00
         0.00000E+00
         0.00000E+00
         0.00000E+00
         0.00000E+00
         0.00000E+00
         0.00000E+00
         0.00000E+00
         0.00000E+00
         0.00000E+00
         0.00000E+00
         0.00000E+00
         0.00000E+00
         0.00000E+00
         0.00000E+00
         0.00000E+00
         0.00000E+00
         0.00000E+00
         0.00000E+00
         0.00000E+00
         0.00000E+00
         0.00000E+00
         0.00000E+00
         0.00000E+00
         0.00000E+00
         0.00000E+00
         0.00000E+00
         0.00000E+00
         0.00000E+00
         0.00000E+00
         0.00000E+00
         0.00000E+00
         0.00000E+00
         0.00000E+00
         0.00000E+00
         0.00000E+00
         0.00000E+00
         0.00000E+00
         0.00000E+00
         0.00000E+00
         0.00000E+00
         0.00000E+00
         0.00000E+00
         0.00000E+00
         0.00000E+00
         0.00000E+00
         0.00000E+00
         0.00000E+00
         0.00000E+00
         0.00000E+00
         0.00000E+00
         0.00000E+00
         0.00000E+00
         0.00000E+00
         0.00000E+00
         0.00000E+00
         0.00000E+00
         0.00000E+00
         0.00000E+00
         0.00000E+00
         0.00000E+00
         0.00000E+00
         0.00000E+00
         0.00000E+00
         0.00000E+00
         0.00000E+00
         0.00000E+00
         0.00000E+00
         0.00000E+00
         0.00000E+00
         0.00000E+00
         0.00000E+00
         0.00000E+00
         0.00000E+00
         0.00000E+00
         0.00000E+00
         0.00000E+00
         0.00000E+00
         0.00000E+00
         0.00000E+00
         0.00000E+00
         0.00000E+00
         0.00000E+00
         0.00000E+00
         0.00000E+00
         0.00000E+00
         0.00000E+00
         0.00000E+00
         0.00000E+00
         0.00000E+00
         0.00000E+00
         0.00000E+00
         0.00000E+00
         0.00000E+00
         0.00000E+00
         0.00000E+00
         0.00000E+00
         0.00000E+00
         0.00000E+00
         0.00000E+00
         0.00000E+00
         0.00000E+00
         0.00000E+00
         0.00000E+00
         0.00000E+00
         0.00000E+00
         0.00000E+00
         0.00000E+00
         0.00000E+00
         0.00000E+00
         0.00000E+00
         0.00000E+00
         0.00000E+00
         0.00000E+00
         0.00000E+00
         0.00000E+00
         0.00000E+00
         0.00000E+00
         0.00000E+00
         0.00000E+00
         0.00000E+00
         0.00000E+00
         0.00000E+00
         0.00000E+00
         0.00000E+00
         0.00000E+00
         0.00000E+00
         0.00000E+00
         0.00000E+00
         0.00000E+00
         0.00000E+00
         0.00000E+00
         0.00000E+00
         0.00000E+00
         0.00000E+00
         0.00000E+00
         0.00000E+00
         0.00000E+00
         0.00000E+00
         0.00000E+00
         0.00000E+00
         0.00000E+00
         0.00000E+00
         0.00000E+00
         0.00000E+00
         0.00000E+00
         0.00000E+00
         0.00000E+00
         0.00000E+00
         0.00000E+00
         0.00000E+00
         0.00000E+00
         0.00000E+00
         0.00000E+00
         0.00000E+00
         0.00000E+00
         0.00000E+00
         0.00000E+00
         0.00000E+00
         0.00000E+00
         0.00000E+00
         0.00000E+00
         0.00000E+00
         0.00000E+00
         0.00000E+00
         0.00000E+00
         0.00000E+00
         0.00000E+00
         0.00000E+00
         0.00000E+00
         0.00000E+00
         0.00000E+00
         0.00000E+00
         0.00000E+00
         0.00000E+00
         0.00000E+00
         0.00000E+00
         0.00000E+00
         0.00000E+00
         0.00000E+00
         0.00000E+00
         0.00000E+00
         0.00000E+00
         0.00000E+00
         0.00000E+00
         0.00000E+00
         0.00000E+00
         0.00000E+00
         0.00000E+00
         0.00000E+00
         0.00000E+00
         0.00000E+00
         0.00000E+00
         0.00000E+00
         0.00000E+00
         0.00000E+00
         0.00000E+00
         0.00000E+00
         0.00000E+00
         0.00000E+00
         0.00000E+00
         0.00000E+00
         0.00000E+00
         0.00000E+00
         0.00000E+00
         0.00000E+00
         0.00000E+00
         0.00000E+00
         0.00000E+00
         0.00000E+00
         0.00000E+00
         0.00000E+00
         0.00000E+00
         0.00000E+00
         0.00000E+00
         0.00000E+00
         0.00000E+00
         0.00000E+00
         0.00000E+00
         0.00000E+00
         0.00000E+00
         0.00000E+00
         0.00000E+00
         0.00000E+00
         0.00000E+00
         0.00000E+00
         0.00000E+00
         0.00000E+00
         0.00000E+00
         0.00000E+00
         0.00000E+00
         0.00000E+00
         0.00000E+00
         0.00000E+00
         0.00000E+00
         0.00000E+00
         0.00000E+00
         0.00000E+00
         0.00000E+00
         0.00000E+00
         0.00000E+00
         0.00000E+00
         0.00000E+00
         0.00000E+00
         0.00000E+00
         0.00000E+00
         0.00000E+00
         0.00000E+00
         0.00000E+00
         0.00000E+00
         0.00000E+00
         0.00000E+00
         0.00000E+00
         0.00000E+00
         0.00000E+00
         0.00000E+00
         0.00000E+00
         0.00000E+00
         0.00000E+00
         0.00000E+00
         0.00000E+00
         0.00000E+00
         0.00000E+00
         0.00000E+00
         0.00000E+00
         0.00000E+00
         0.00000E+00
         0.00000E+00
         0.00000E+00
         0.00000E+00
         0.00000E+00
         0.00000E+00
         0.00000E+00
         0.00000E+00
         0.00000E+00
         0.00000E+00
         0.00000E+00
         0.00000E+00
         0.00000E+00
         0.00000E+00
         0.00000E+00
         0.00000E+00
         0.00000E+00
         0.00000E+00
         0.00000E+00
         0.00000E+00
         0.00000E+00
         0.00000E+00
         0.00000E+00
         0.00000E+00
         0.00000E+00
         0.00000E+00
         0.00000E+00
         0.00000E+00
         0.00000E+00
         0.00000E+00
         0.00000E+00
         0.00000E+00
         0.00000E+00
         0.00000E+00
         0.00000E+00
         0.00000E+00
         0.00000E+00
         0.00000E+00
         0.00000E+00
         0.00000E+00
         0.00000E+00
         0.00000E+00
         0.00000E+00
         0.00000E+00
         0.00000E+00
         0.00000E+00
         0.00000E+00
         0.00000E+00
         0.00000E+00
         0.00000E+00
         0.00000E+00
         0.00000E+00
         0.00000E+00
         0.00000E+00
         0.00000E+00
         0.00000E+00
         0.00000E+00
         0.00000E+00
         0.00000E+00
         0.00000E+00
         0.00000E+00
         0.00000E+00
         0.00000E+00
         0.00000E+00
         0.00000E+00
         0.00000E+00
         0.00000E+00
         0.00000E+00
         0.00000E+00
         0.00000E+00
         0.00000E+00
         0.00000E+00
         0.00000E+00
         0.00000E+00
         0.00000E+00
         0.00000E+00
         0.00000E+00
         0.00000E+00
         0.00000E+00
         0.00000E+00
         0.00000E+00
         0.00000E+00
         0.00000E+00
         0.00000E+00
         0.00000E+00
         0.00000E+00
         0.00000E+00
         0.00000E+00
         0.00000E+00
         0.00000E+00
         0.00000E+00
         0.00000E+00
         0.00000E+00
         0.00000E+00
         0.00000E+00
         0.00000E+00
         0.00000E+00
         0.00000E+00
         0.00000E+00
         0.00000E+00
         0.00000E+00
         0.00000E+00
         0.00000E+00
         0.00000E+00
         0.00000E+00
         0.00000E+00
         0.00000E+00
         0.00000E+00
         0.00000E+00
         0.00000E+00
         0.00000E+00
         0.00000E+00
         0.00000E+00
         0.00000E+00
         0.00000E+00
         0.00000E+00
         0.00000E+00
         0.00000E+00
         0.00000E+00
         0.00000E+00
         0.00000E+00
         0.00000E+00
         0.00000E+00
         0.00000E+00
         0.00000E+00
         0.00000E+00
         0.00000E+00
         0.00000E+00
         0.00000E+00
         0.00000E+00
         0.00000E+00
         0.00000E+00
         0.00000E+00
         0.00000E+00
         0.00000E+00
         0.00000E+00
         0.00000E+00
         0.00000E+00
         0.00000E+00
         0.00000E+00
         0.00000E+00
         0.00000E+00
         0.00000E+00
         0.00000E+00
         0.00000E+00
         0.00000E+00
         0.00000E+00
         0.00000E+00
         0.00000E+00
         0.00000E+00
         0.00000E+00
         0.00000E+00
         0.00000E+00
         0.00000E+00
         0.00000E+00
         0.00000E+00
         0.00000E+00
         0.00000E+00
         0.00000E+00
         0.00000E+00
         0.00000E+00
         0.00000E+00
         0.00000E+00
         0.00000E+00
         0.00000E+00
         0.00000E+00
         0.00000E+00
         0.00000E+00
         0.00000E+00
         0.00000E+00
         0.00000E+00
         0.00000E+00
         0.00000E+00
         0.00000E+00
         0.00000E+00
         0.00000E+00
         0.00000E+00
         0.00000E+00
         0.00000E+00
         0.00000E+00
         0.00000E+00
         0.00000E+00
         0.00000E+00
         0.00000E+00
         0.00000E+00
         0.00000E+00
         0.00000E+00
         0.00000E+00
         0.00000E+00
         0.00000E+00
         0.00000E+00
         0.00000E+00
         0.00000E+00
         0.00000E+00
         0.00000E+00
         0.00000E+00
         0.00000E+00
         0.00000E+00
         0.00000E+00
         0.00000E+00
         0.00000E+00
         0.00000E+00
         0.00000E+00
         0.00000E+00
         0.00000E+00
         0.00000E+00
         0.00000E+00
         0.00000E+00
         0.00000E+00
         0.00000E+00
         0.00000E+00
         0.00000E+00
         0.00000E+00
         0.00000E+00
         0.00000E+00
         0.00000E+00
         0.00000E+00
         0.00000E+00
         0.00000E+00
         0.00000E+00
         0.00000E+00
         0.00000E+00
         0.00000E+00
         0.00000E+00
         0.00000E+00
         0.00000E+00
         0.00000E+00
         0.00000E+00
         0.00000E+00
         0.00000E+00
         0.00000E+00
         0.00000E+00
         0.00000E+00
         0.00000E+00
         0.00000E+00
         0.00000E+00
         0.00000E+00
         0.00000E+00
         0.00000E+00
         0.00000E+00
         0.00000E+00
         0.00000E+00
         0.00000E+00
         0.00000E+00
         0.00000E+00
         0.00000E+00
         0.00000E+00
         0.00000E+00
         0.00000E+00
         0.00000E+00
         0.00000E+00
         0.00000E+00
         0.00000E+00
         0.00000E+00
         0.00000E+00
         0.00000E+00
         0.00000E+00
         0.00000E+00
         0.00000E+00
         0.00000E+00
         0.00000E+00
         0.00000E+00
         0.00000E+00
         0.00000E+00
         0.00000E+00
         0.00000E+00
         0.00000E+00
         0.00000E+00
         0.00000E+00
         0.00000E+00
         0.00000E+00
         0.00000E+00
         0.00000E+00
         0.00000E+00
         0.00000E+00
         0.00000E+00
         0.00000E+00
         0.00000E+00
         0.00000E+00
         0.00000E+00
         0.00000E+00
         0.00000E+00
         0.00000E+00
         0.00000E+00
         0.00000E+00
         0.00000E+00
         0.00000E+00
         0.00000E+00
         0.00000E+00
         0.00000E+00
         0.00000E+00
         0.00000E+00
         0.00000E+00
         0.00000E+00
         0.00000E+00
         0.00000E+00
         0.00000E+00
         0.00000E+00
         0.00000E+00
         0.00000E+00
         0.00000E+00
         0.00000E+00
         0.00000E+00
         0.00000E+00
         0.00000E+00
         0.00000E+00
         0.00000E+00
         0.00000E+00
         0.00000E+00
         0.00000E+00
         0.00000E+00
         0.00000E+00
         0.00000E+00
         0.00000E+00
         0.00000E+00
         0.00000E+00
         0.00000E+00
         0.00000E+00
         0.00000E+00
         0.00000E+00
         0.00000E+00
         0.00000E+00
         0.00000E+00
         0.00000E+00
         0.00000E+00
         0.00000E+00
         0.00000E+00
         0.00000E+00
         0.00000E+00
         0.00000E+00
         0.00000E+00
         0.00000E+00
         0.00000E+00
         0.00000E+00
         0.00000E+00
         0.00000E+00
         0.00000E+00
         0.00000E+00
         0.00000E+00
         0.00000E+00
         0.00000E+00
         0.00000E+00
         0.00000E+00
         0.00000E+00
         0.00000E+00
         0.00000E+00
         0.00000E+00
         0.00000E+00
         0.00000E+00
         0.00000E+00
         0.00000E+00
         0.00000E+00
         0.00000E+00
         0.00000E+00
         0.00000E+00
         0.00000E+00
         0.00000E+00
         0.00000E+00
         0.00000E+00
         0.00000E+00
         0.00000E+00
         0.00000E+00
         0.00000E+00
         0.00000E+00
         0.00000E+00
         0.00000E+00
         0.00000E+00
         0.00000E+00
         0.00000E+00
         0.00000E+00
         0.00000E+00
         0.00000E+00
         0.00000E+00
         0.00000E+00
         0.00000E+00
         0.00000E+00
         0.00000E+00
         0.00000E+00
         0.00000E+00
         0.00000E+00
         0.00000E+00
         0.00000E+00
         0.00000E+00
         0.00000E+00
         0.00000E+00
         0.00000E+00
         0.00000E+00
         0.00000E+00
         0.00000E+00
         0.00000E+00
         0.00000E+00
         0.00000E+00
         0.00000E+00
         0.00000E+00
         0.00000E+00
         0.00000E+00
         0.00000E+00
         0.00000E+00
         0.00000E+00
         0.00000E+00
         0.00000E+00
         0.00000E+00
         0.00000E+00
         0.00000E+00
         0.00000E+00
         0.00000E+00
         0.00000E+00
         0.00000E+00
         0.00000E+00
         0.00000E+00
         0.00000E+00
         0.00000E+00
         0.00000E+00
         0.00000E+00
         0.00000E+00
         0.00000E+00
         0.00000E+00
         0.00000E+00
         0.00000E+00
         0.00000E+00
         0.00000E+00
         0.00000E+00
         0.00000E+00
         0.00000E+00
         0.00000E+00
         0.00000E+00
         0.00000E+00
         0.00000E+00
         0.00000E+00
         0.00000E+00
         0.00000E+00
         0.00000E+00
         0.00000E+00
         0.00000E+00
         0.00000E+00
         0.00000E+00
         0.00000E+00
         0.00000E+00
         0.00000E+00
         0.00000E+00
         0.00000E+00
         0.00000E+00
         0.00000E+00
         0.00000E+00
         0.00000E+00
         0.00000E+00
         0.00000E+00
         0.00000E+00
         0.00000E+00
         0.00000E+00
         0.00000E+00
         0.00000E+00
         0.00000E+00
  
SCALARS                         fint_y  double 1
LOOKUP_TABLE default
         0.00000E+00
         0.00000E+00
         0.00000E+00
         0.00000E+00
         0.00000E+00
         0.00000E+00
         0.00000E+00
         0.00000E+00
         0.00000E+00
         0.00000E+00
         0.00000E+00
         0.00000E+00
         0.00000E+00
         0.00000E+00
         0.00000E+00
         0.00000E+00
         0.00000E+00
         0.00000E+00
         0.00000E+00
         0.00000E+00
         0.00000E+00
         0.00000E+00
         0.00000E+00
         0.00000E+00
         0.00000E+00
         0.00000E+00
         0.00000E+00
         0.00000E+00
         0.00000E+00
         0.00000E+00
         0.00000E+00
         0.00000E+00
         0.00000E+00
         0.00000E+00
         0.00000E+00
         0.00000E+00
         0.00000E+00
         0.00000E+00
         0.00000E+00
         0.00000E+00
         0.00000E+00
         0.00000E+00
         0.00000E+00
         0.00000E+00
         0.00000E+00
         0.00000E+00
         0.00000E+00
         0.00000E+00
         0.00000E+00
         0.00000E+00
         0.00000E+00
         0.00000E+00
         0.00000E+00
         0.00000E+00
         0.00000E+00
         0.00000E+00
         0.00000E+00
         0.00000E+00
         0.00000E+00
         0.00000E+00
         0.00000E+00
         0.00000E+00
         0.00000E+00
         0.00000E+00
         0.00000E+00
         0.00000E+00
         0.00000E+00
         0.00000E+00
         0.00000E+00
         0.00000E+00
         0.00000E+00
         0.00000E+00
         0.00000E+00
         0.00000E+00
         0.00000E+00
         0.00000E+00
         0.00000E+00
         0.00000E+00
         0.00000E+00
         0.00000E+00
         0.00000E+00
         0.00000E+00
         0.00000E+00
         0.00000E+00
         0.00000E+00
         0.00000E+00
         0.00000E+00
         0.00000E+00
         0.00000E+00
         0.00000E+00
         0.00000E+00
         0.00000E+00
         0.00000E+00
         0.00000E+00
         0.00000E+00
         0.00000E+00
         0.00000E+00
         0.00000E+00
         0.00000E+00
         0.00000E+00
         0.00000E+00
         0.00000E+00
         0.00000E+00
         0.00000E+00
         0.00000E+00
         0.00000E+00
         0.00000E+00
         0.00000E+00
         0.00000E+00
         0.00000E+00
         0.00000E+00
         0.00000E+00
         0.00000E+00
         0.00000E+00
         0.00000E+00
         0.00000E+00
         0.00000E+00
         0.00000E+00
         0.00000E+00
         0.00000E+00
         0.00000E+00
         0.00000E+00
         0.00000E+00
         0.00000E+00
         0.00000E+00
         0.00000E+00
         0.00000E+00
         0.00000E+00
         0.00000E+00
         0.00000E+00
         0.00000E+00
         0.00000E+00
         0.00000E+00
         0.00000E+00
         0.00000E+00
         0.00000E+00
         0.00000E+00
         0.00000E+00
         0.00000E+00
         0.00000E+00
         0.00000E+00
         0.00000E+00
         0.00000E+00
         0.00000E+00
         0.00000E+00
         0.00000E+00
         0.00000E+00
         0.00000E+00
         0.00000E+00
         0.00000E+00
         0.00000E+00
         0.00000E+00
         0.00000E+00
         0.00000E+00
         0.00000E+00
         0.00000E+00
         0.00000E+00
         0.00000E+00
         0.00000E+00
         0.00000E+00
         0.00000E+00
         0.00000E+00
         0.00000E+00
         0.00000E+00
         0.00000E+00
         0.00000E+00
         0.00000E+00
         0.00000E+00
         0.00000E+00
         0.00000E+00
         0.00000E+00
         0.00000E+00
         0.00000E+00
         0.00000E+00
         0.00000E+00
         0.00000E+00
         0.00000E+00
         0.00000E+00
         0.00000E+00
         0.00000E+00
         0.00000E+00
         0.00000E+00
         0.00000E+00
         0.00000E+00
         0.00000E+00
         0.00000E+00
         0.00000E+00
         0.00000E+00
         0.00000E+00
         0.00000E+00
         0.00000E+00
         0.00000E+00
         0.00000E+00
         0.00000E+00
         0.00000E+00
         0.00000E+00
         0.00000E+00
         0.00000E+00
         0.00000E+00
         0.00000E+00
         0.00000E+00
         0.00000E+00
         0.00000E+00
         0.00000E+00
         0.00000E+00
         0.00000E+00
         0.00000E+00
         0.00000E+00
         0.00000E+00
         0.00000E+00
         0.00000E+00
         0.00000E+00
         0.00000E+00
         0.00000E+00
         0.00000E+00
         0.00000E+00
         0.00000E+00
         0.00000E+00
         0.00000E+00
         0.00000E+00
         0.00000E+00
         0.00000E+00
         0.00000E+00
         0.00000E+00
         0.00000E+00
         0.00000E+00
         0.00000E+00
         0.00000E+00
         0.00000E+00
         0.00000E+00
         0.00000E+00
         0.00000E+00
         0.00000E+00
         0.00000E+00
         0.00000E+00
         0.00000E+00
         0.00000E+00
         0.00000E+00
         0.00000E+00
         0.00000E+00
         0.00000E+00
         0.00000E+00
         0.00000E+00
         0.00000E+00
         0.00000E+00
         0.00000E+00
         0.00000E+00
         0.00000E+00
         0.00000E+00
         0.00000E+00
         0.00000E+00
         0.00000E+00
         0.00000E+00
         0.00000E+00
         0.00000E+00
         0.00000E+00
         0.00000E+00
         0.00000E+00
         0.00000E+00
         0.00000E+00
         0.00000E+00
         0.00000E+00
         0.00000E+00
         0.00000E+00
         0.00000E+00
         0.00000E+00
         0.00000E+00
         0.00000E+00
         0.00000E+00
         0.00000E+00
         0.00000E+00
         0.00000E+00
         0.00000E+00
         0.00000E+00
         0.00000E+00
         0.00000E+00
         0.00000E+00
         0.00000E+00
         0.00000E+00
         0.00000E+00
         0.00000E+00
         0.00000E+00
         0.00000E+00
         0.00000E+00
         0.00000E+00
         0.00000E+00
         0.00000E+00
         0.00000E+00
         0.00000E+00
         0.00000E+00
         0.00000E+00
         0.00000E+00
         0.00000E+00
         0.00000E+00
         0.00000E+00
         0.00000E+00
         0.00000E+00
         0.00000E+00
         0.00000E+00
         0.00000E+00
         0.00000E+00
         0.00000E+00
         0.00000E+00
         0.00000E+00
         0.00000E+00
         0.00000E+00
         0.00000E+00
         0.00000E+00
         0.00000E+00
         0.00000E+00
         0.00000E+00
         0.00000E+00
         0.00000E+00
         0.00000E+00
         0.00000E+00
         0.00000E+00
         0.00000E+00
         0.00000E+00
         0.00000E+00
         0.00000E+00
         0.00000E+00
         0.00000E+00
         0.00000E+00
         0.00000E+00
         0.00000E+00
         0.00000E+00
         0.00000E+00
         0.00000E+00
         0.00000E+00
         0.00000E+00
         0.00000E+00
         0.00000E+00
         0.00000E+00
         0.00000E+00
         0.00000E+00
         0.00000E+00
         0.00000E+00
         0.00000E+00
         0.00000E+00
         0.00000E+00
         0.00000E+00
         0.00000E+00
         0.00000E+00
         0.00000E+00
         0.00000E+00
         0.00000E+00
         0.00000E+00
         0.00000E+00
         0.00000E+00
         0.00000E+00
         0.00000E+00
         0.00000E+00
         0.00000E+00
         0.00000E+00
         0.00000E+00
         0.00000E+00
         0.00000E+00
         0.00000E+00
         0.00000E+00
         0.00000E+00
         0.00000E+00
         0.00000E+00
         0.00000E+00
         0.00000E+00
         0.00000E+00
         0.00000E+00
         0.00000E+00
         0.00000E+00
         0.00000E+00
         0.00000E+00
         0.00000E+00
         0.00000E+00
         0.00000E+00
         0.00000E+00
         0.00000E+00
         0.00000E+00
         0.00000E+00
         0.00000E+00
         0.00000E+00
         0.00000E+00
         0.00000E+00
         0.00000E+00
         0.00000E+00
         0.00000E+00
         0.00000E+00
         0.00000E+00
         0.00000E+00
         0.00000E+00
         0.00000E+00
         0.00000E+00
         0.00000E+00
         0.00000E+00
         0.00000E+00
         0.00000E+00
         0.00000E+00
         0.00000E+00
         0.00000E+00
         0.00000E+00
         0.00000E+00
         0.00000E+00
         0.00000E+00
         0.00000E+00
         0.00000E+00
         0.00000E+00
         0.00000E+00
         0.00000E+00
         0.00000E+00
         0.00000E+00
         0.00000E+00
         0.00000E+00
         0.00000E+00
         0.00000E+00
         0.00000E+00
         0.00000E+00
         0.00000E+00
         0.00000E+00
         0.00000E+00
         0.00000E+00
         0.00000E+00
         0.00000E+00
         0.00000E+00
         0.00000E+00
         0.00000E+00
         0.00000E+00
         0.00000E+00
         0.00000E+00
         0.00000E+00
         0.00000E+00
         0.00000E+00
         0.00000E+00
         0.00000E+00
         0.00000E+00
         0.00000E+00
         0.00000E+00
         0.00000E+00
         0.00000E+00
         0.00000E+00
         0.00000E+00
         0.00000E+00
         0.00000E+00
         0.00000E+00
         0.00000E+00
         0.00000E+00
         0.00000E+00
         0.00000E+00
         0.00000E+00
         0.00000E+00
         0.00000E+00
         0.00000E+00
         0.00000E+00
         0.00000E+00
         0.00000E+00
         0.00000E+00
         0.00000E+00
         0.00000E+00
         0.00000E+00
         0.00000E+00
         0.00000E+00
         0.00000E+00
         0.00000E+00
         0.00000E+00
         0.00000E+00
         0.00000E+00
         0.00000E+00
         0.00000E+00
         0.00000E+00
         0.00000E+00
         0.00000E+00
         0.00000E+00
         0.00000E+00
         0.00000E+00
         0.00000E+00
         0.00000E+00
         0.00000E+00
         0.00000E+00
         0.00000E+00
         0.00000E+00
         0.00000E+00
         0.00000E+00
         0.00000E+00
         0.00000E+00
         0.00000E+00
         0.00000E+00
         0.00000E+00
         0.00000E+00
         0.00000E+00
         0.00000E+00
         0.00000E+00
         0.00000E+00
         0.00000E+00
         0.00000E+00
         0.00000E+00
         0.00000E+00
         0.00000E+00
         0.00000E+00
         0.00000E+00
         0.00000E+00
         0.00000E+00
         0.00000E+00
         0.00000E+00
         0.00000E+00
         0.00000E+00
         0.00000E+00
         0.00000E+00
         0.00000E+00
         0.00000E+00
         0.00000E+00
         0.00000E+00
         0.00000E+00
         0.00000E+00
         0.00000E+00
         0.00000E+00
         0.00000E+00
         0.00000E+00
         0.00000E+00
         0.00000E+00
         0.00000E+00
         0.00000E+00
         0.00000E+00
         0.00000E+00
         0.00000E+00
         0.00000E+00
         0.00000E+00
         0.00000E+00
         0.00000E+00
         0.00000E+00
         0.00000E+00
         0.00000E+00
         0.00000E+00
         0.00000E+00
         0.00000E+00
         0.00000E+00
         0.00000E+00
         0.00000E+00
         0.00000E+00
         0.00000E+00
         0.00000E+00
         0.00000E+00
         0.00000E+00
         0.00000E+00
         0.00000E+00
         0.00000E+00
         0.00000E+00
         0.00000E+00
         0.00000E+00
         0.00000E+00
         0.00000E+00
         0.00000E+00
         0.00000E+00
         0.00000E+00
         0.00000E+00
         0.00000E+00
         0.00000E+00
         0.00000E+00
         0.00000E+00
         0.00000E+00
         0.00000E+00
         0.00000E+00
         0.00000E+00
         0.00000E+00
         0.00000E+00
         0.00000E+00
         0.00000E+00
         0.00000E+00
         0.00000E+00
         0.00000E+00
         0.00000E+00
         0.00000E+00
         0.00000E+00
         0.00000E+00
         0.00000E+00
         0.00000E+00
         0.00000E+00
         0.00000E+00
         0.00000E+00
         0.00000E+00
         0.00000E+00
         0.00000E+00
         0.00000E+00
         0.00000E+00
         0.00000E+00
         0.00000E+00
         0.00000E+00
         0.00000E+00
         0.00000E+00
         0.00000E+00
         0.00000E+00
         0.00000E+00
         0.00000E+00
         0.00000E+00
         0.00000E+00
         0.00000E+00
         0.00000E+00
         0.00000E+00
         0.00000E+00
         0.00000E+00
         0.00000E+00
         0.00000E+00
         0.00000E+00
         0.00000E+00
         0.00000E+00
         0.00000E+00
         0.00000E+00
         0.00000E+00
         0.00000E+00
         0.00000E+00
         0.00000E+00
         0.00000E+00
         0.00000E+00
         0.00000E+00
         0.00000E+00
         0.00000E+00
         0.00000E+00
         0.00000E+00
         0.00000E+00
         0.00000E+00
         0.00000E+00
         0.00000E+00
         0.00000E+00
         0.00000E+00
         0.00000E+00
         0.00000E+00
         0.00000E+00
         0.00000E+00
         0.00000E+00
         0.00000E+00
         0.00000E+00
         0.00000E+00
         0.00000E+00
         0.00000E+00
         0.00000E+00
         0.00000E+00
         0.00000E+00
         0.00000E+00
         0.00000E+00
         0.00000E+00
         0.00000E+00
         0.00000E+00
         0.00000E+00
         0.00000E+00
         0.00000E+00
         0.00000E+00
         0.00000E+00
         0.00000E+00
         0.00000E+00
         0.00000E+00
         0.00000E+00
         0.00000E+00
         0.00000E+00
         0.00000E+00
         0.00000E+00
         0.00000E+00
         0.00000E+00
         0.00000E+00
         0.00000E+00
         0.00000E+00
         0.00000E+00
         0.00000E+00
         0.00000E+00
         0.00000E+00
         0.00000E+00
         0.00000E+00
         0.00000E+00
         0.00000E+00
         0.00000E+00
         0.00000E+00
         0.00000E+00
         0.00000E+00
         0.00000E+00
         0.00000E+00
         0.00000E+00
         0.00000E+00
         0.00000E+00
         0.00000E+00
         0.00000E+00
         0.00000E+00
         0.00000E+00
         0.00000E+00
         0.00000E+00
         0.00000E+00
         0.00000E+00
         0.00000E+00
         0.00000E+00
         0.00000E+00
         0.00000E+00
         0.00000E+00
         0.00000E+00
         0.00000E+00
         0.00000E+00
         0.00000E+00
         0.00000E+00
         0.00000E+00
         0.00000E+00
         0.00000E+00
         0.00000E+00
         0.00000E+00
         0.00000E+00
         0.00000E+00
         0.00000E+00
         0.00000E+00
         0.00000E+00
         0.00000E+00
         0.00000E+00
         0.00000E+00
         0.00000E+00
         0.00000E+00
         0.00000E+00
         0.00000E+00
         0.00000E+00
         0.00000E+00
         0.00000E+00
         0.00000E+00
         0.00000E+00
         0.00000E+00
         0.00000E+00
         0.00000E+00
         0.00000E+00
         0.00000E+00
         0.00000E+00
         0.00000E+00
         0.00000E+00
         0.00000E+00
         0.00000E+00
         0.00000E+00
         0.00000E+00
         0.00000E+00
         0.00000E+00
         0.00000E+00
         0.00000E+00
         0.00000E+00
         0.00000E+00
         0.00000E+00
         0.00000E+00
         0.00000E+00
         0.00000E+00
         0.00000E+00
         0.00000E+00
         0.00000E+00
         0.00000E+00
         0.00000E+00
         0.00000E+00
         0.00000E+00
         0.00000E+00
         0.00000E+00
         0.00000E+00
         0.00000E+00
         0.00000E+00
         0.00000E+00
         0.00000E+00
         0.00000E+00
         0.00000E+00
         0.00000E+00
         0.00000E+00
         0.00000E+00
         0.00000E+00
         0.00000E+00
         0.00000E+00
         0.00000E+00
         0.00000E+00
         0.00000E+00
         0.00000E+00
         0.00000E+00
         0.00000E+00
         0.00000E+00
         0.00000E+00
         0.00000E+00
         0.00000E+00
         0.00000E+00
         0.00000E+00
         0.00000E+00
         0.00000E+00
         0.00000E+00
         0.00000E+00
         0.00000E+00
         0.00000E+00
         0.00000E+00
         0.00000E+00
         0.00000E+00
         0.00000E+00
         0.00000E+00
         0.00000E+00
         0.00000E+00
         0.00000E+00
         0.00000E+00
         0.00000E+00
         0.00000E+00
         0.00000E+00
         0.00000E+00
         0.00000E+00
         0.00000E+00
         0.00000E+00
         0.00000E+00
         0.00000E+00
         0.00000E+00
         0.00000E+00
         0.00000E+00
         0.00000E+00
         0.00000E+00
         0.00000E+00
         0.00000E+00
         0.00000E+00
         0.00000E+00
         0.00000E+00
         0.00000E+00
         0.00000E+00
         0.00000E+00
         0.00000E+00
         0.00000E+00
         0.00000E+00
         0.00000E+00
         0.00000E+00
         0.00000E+00
         0.00000E+00
         0.00000E+00
         0.00000E+00
         0.00000E+00
         0.00000E+00
         0.00000E+00
         0.00000E+00
         0.00000E+00
         0.00000E+00
         0.00000E+00
         0.00000E+00
         0.00000E+00
         0.00000E+00
         0.00000E+00
         0.00000E+00
         0.00000E+00
         0.00000E+00
         0.00000E+00
         0.00000E+00
         0.00000E+00
         0.00000E+00
         0.00000E+00
         0.00000E+00
         0.00000E+00
         0.00000E+00
         0.00000E+00
         0.00000E+00
         0.00000E+00
         0.00000E+00
         0.00000E+00
         0.00000E+00
         0.00000E+00
         0.00000E+00
         0.00000E+00
         0.00000E+00
         0.00000E+00
         0.00000E+00
         0.00000E+00
         0.00000E+00
         0.00000E+00
         0.00000E+00
         0.00000E+00
         0.00000E+00
         0.00000E+00
         0.00000E+00
         0.00000E+00
         0.00000E+00
         0.00000E+00
         0.00000E+00
         0.00000E+00
         0.00000E+00
         0.00000E+00
         0.00000E+00
         0.00000E+00
         0.00000E+00
         0.00000E+00
         0.00000E+00
         0.00000E+00
         0.00000E+00
         0.00000E+00
         0.00000E+00
         0.00000E+00
         0.00000E+00
         0.00000E+00
         0.00000E+00
         0.00000E+00
         0.00000E+00
         0.00000E+00
         0.00000E+00
         0.00000E+00
         0.00000E+00
         0.00000E+00
         0.00000E+00
         0.00000E+00
         0.00000E+00
         0.00000E+00
         0.00000E+00
         0.00000E+00
         0.00000E+00
         0.00000E+00
         0.00000E+00
         0.00000E+00
         0.00000E+00
         0.00000E+00
         0.00000E+00
         0.00000E+00
         0.00000E+00
         0.00000E+00
         0.00000E+00
         0.00000E+00
         0.00000E+00
         0.00000E+00
         0.00000E+00
         0.00000E+00
         0.00000E+00
         0.00000E+00
         0.00000E+00
         0.00000E+00
         0.00000E+00
         0.00000E+00
         0.00000E+00
         0.00000E+00
         0.00000E+00
         0.00000E+00
         0.00000E+00
         0.00000E+00
         0.00000E+00
         0.00000E+00
         0.00000E+00
         0.00000E+00
         0.00000E+00
         0.00000E+00
         0.00000E+00
         0.00000E+00
         0.00000E+00
         0.00000E+00
         0.00000E+00
         0.00000E+00
         0.00000E+00
         0.00000E+00
         0.00000E+00
         0.00000E+00
         0.00000E+00
         0.00000E+00
         0.00000E+00
         0.00000E+00
         0.00000E+00
         0.00000E+00
         0.00000E+00
         0.00000E+00
         0.00000E+00
         0.00000E+00
         0.00000E+00
         0.00000E+00
         0.00000E+00
         0.00000E+00
         0.00000E+00
         0.00000E+00
         0.00000E+00
         0.00000E+00
         0.00000E+00
         0.00000E+00
         0.00000E+00
         0.00000E+00
         0.00000E+00
         0.00000E+00
         0.00000E+00
         0.00000E+00
         0.00000E+00
         0.00000E+00
         0.00000E+00
         0.00000E+00
         0.00000E+00
         0.00000E+00
         0.00000E+00
         0.00000E+00
         0.00000E+00
         0.00000E+00
         0.00000E+00
         0.00000E+00
         0.00000E+00
         0.00000E+00
         0.00000E+00
         0.00000E+00
         0.00000E+00
         0.00000E+00
         0.00000E+00
         0.00000E+00
         0.00000E+00
         0.00000E+00
         0.00000E+00
         0.00000E+00
         0.00000E+00
         0.00000E+00
         0.00000E+00
         0.00000E+00
         0.00000E+00
         0.00000E+00
         0.00000E+00
         0.00000E+00
         0.00000E+00
         0.00000E+00
         0.00000E+00
         0.00000E+00
         0.00000E+00
         0.00000E+00
         0.00000E+00
         0.00000E+00
         0.00000E+00
         0.00000E+00
         0.00000E+00
         0.00000E+00
         0.00000E+00
         0.00000E+00
         0.00000E+00
         0.00000E+00
         0.00000E+00
         0.00000E+00
         0.00000E+00
         0.00000E+00
         0.00000E+00
         0.00000E+00
         0.00000E+00
         0.00000E+00
         0.00000E+00
         0.00000E+00
         0.00000E+00
         0.00000E+00
         0.00000E+00
         0.00000E+00
         0.00000E+00
         0.00000E+00
         0.00000E+00
         0.00000E+00
         0.00000E+00
         0.00000E+00
         0.00000E+00
         0.00000E+00
         0.00000E+00
         0.00000E+00
         0.00000E+00
         0.00000E+00
         0.00000E+00
         0.00000E+00
         0.00000E+00
         0.00000E+00
         0.00000E+00
         0.00000E+00
         0.00000E+00
         0.00000E+00
         0.00000E+00
         0.00000E+00
         0.00000E+00
         0.00000E+00
         0.00000E+00
         0.00000E+00
         0.00000E+00
         0.00000E+00
         0.00000E+00
         0.00000E+00
         0.00000E+00
         0.00000E+00
         0.00000E+00
         0.00000E+00
         0.00000E+00
         0.00000E+00
         0.00000E+00
         0.00000E+00
         0.00000E+00
         0.00000E+00
         0.00000E+00
         0.00000E+00
         0.00000E+00
         0.00000E+00
         0.00000E+00
         0.00000E+00
         0.00000E+00
         0.00000E+00
         0.00000E+00
         0.00000E+00
         0.00000E+00
         0.00000E+00
         0.00000E+00
         0.00000E+00
         0.00000E+00
         0.00000E+00
         0.00000E+00
         0.00000E+00
         0.00000E+00
         0.00000E+00
         0.00000E+00
         0.00000E+00
         0.00000E+00
         0.00000E+00
         0.00000E+00
         0.00000E+00
         0.00000E+00
         0.00000E+00
         0.00000E+00
         0.00000E+00
         0.00000E+00
         0.00000E+00
         0.00000E+00
         0.00000E+00
         0.00000E+00
         0.00000E+00
         0.00000E+00
         0.00000E+00
         0.00000E+00
         0.00000E+00
         0.00000E+00
         0.00000E+00
         0.00000E+00
         0.00000E+00
         0.00000E+00
         0.00000E+00
         0.00000E+00
         0.00000E+00
         0.00000E+00
         0.00000E+00
         0.00000E+00
         0.00000E+00
         0.00000E+00
         0.00000E+00
         0.00000E+00
         0.00000E+00
         0.00000E+00
         0.00000E+00
         0.00000E+00
         0.00000E+00
         0.00000E+00
         0.00000E+00
         0.00000E+00
         0.00000E+00
         0.00000E+00
         0.00000E+00
         0.00000E+00
         0.00000E+00
         0.00000E+00
         0.00000E+00
         0.00000E+00
         0.00000E+00
         0.00000E+00
         0.00000E+00
         0.00000E+00
         0.00000E+00
         0.00000E+00
         0.00000E+00
         0.00000E+00
         0.00000E+00
         0.00000E+00
         0.00000E+00
         0.00000E+00
         0.00000E+00
         0.00000E+00
         0.00000E+00
         0.00000E+00
         0.00000E+00
         0.00000E+00
         0.00000E+00
         0.00000E+00
         0.00000E+00
         0.00000E+00
         0.00000E+00
         0.00000E+00
         0.00000E+00
         0.00000E+00
         0.00000E+00
         0.00000E+00
         0.00000E+00
         0.00000E+00
         0.00000E+00
         0.00000E+00
         0.00000E+00
         0.00000E+00
         0.00000E+00
         0.00000E+00
         0.00000E+00
         0.00000E+00
         0.00000E+00
         0.00000E+00
         0.00000E+00
         0.00000E+00
         0.00000E+00
         0.00000E+00
         0.00000E+00
         0.00000E+00
         0.00000E+00
         0.00000E+00
         0.00000E+00
         0.00000E+00
         0.00000E+00
         0.00000E+00
         0.00000E+00
         0.00000E+00
         0.00000E+00
         0.00000E+00
         0.00000E+00
         0.00000E+00
         0.00000E+00
         0.00000E+00
         0.00000E+00
         0.00000E+00
         0.00000E+00
         0.00000E+00
         0.00000E+00
         0.00000E+00
         0.00000E+00
         0.00000E+00
         0.00000E+00
         0.00000E+00
         0.00000E+00
         0.00000E+00
         0.00000E+00
         0.00000E+00
         0.00000E+00
         0.00000E+00
         0.00000E+00
         0.00000E+00
         0.00000E+00
         0.00000E+00
         0.00000E+00
         0.00000E+00
         0.00000E+00
         0.00000E+00
         0.00000E+00
         0.00000E+00
         0.00000E+00
         0.00000E+00
         0.00000E+00
         0.00000E+00
         0.00000E+00
         0.00000E+00
         0.00000E+00
         0.00000E+00
         0.00000E+00
         0.00000E+00
         0.00000E+00
         0.00000E+00
         0.00000E+00
         0.00000E+00
         0.00000E+00
         0.00000E+00
         0.00000E+00
         0.00000E+00
         0.00000E+00
         0.00000E+00
         0.00000E+00
         0.00000E+00
         0.00000E+00
         0.00000E+00
         0.00000E+00
         0.00000E+00
         0.00000E+00
         0.00000E+00
         0.00000E+00
         0.00000E+00
         0.00000E+00
         0.00000E+00
         0.00000E+00
         0.00000E+00
         0.00000E+00
         0.00000E+00
         0.00000E+00
         0.00000E+00
         0.00000E+00
         0.00000E+00
         0.00000E+00
         0.00000E+00
         0.00000E+00
         0.00000E+00
         0.00000E+00
         0.00000E+00
         0.00000E+00
         0.00000E+00
         0.00000E+00
         0.00000E+00
         0.00000E+00
         0.00000E+00
         0.00000E+00
         0.00000E+00
         0.00000E+00
         0.00000E+00
         0.00000E+00
         0.00000E+00
         0.00000E+00
         0.00000E+00
         0.00000E+00
         0.00000E+00
         0.00000E+00
         0.00000E+00
         0.00000E+00
         0.00000E+00
         0.00000E+00
         0.00000E+00
         0.00000E+00
         0.00000E+00
         0.00000E+00
         0.00000E+00
         0.00000E+00
         0.00000E+00
         0.00000E+00
         0.00000E+00
         0.00000E+00
         0.00000E+00
         0.00000E+00
         0.00000E+00
         0.00000E+00
         0.00000E+00
         0.00000E+00
         0.00000E+00
         0.00000E+00
         0.00000E+00
         0.00000E+00
         0.00000E+00
         0.00000E+00
         0.00000E+00
         0.00000E+00
         0.00000E+00
         0.00000E+00
         0.00000E+00
         0.00000E+00
         0.00000E+00
         0.00000E+00
         0.00000E+00
         0.00000E+00
         0.00000E+00
         0.00000E+00
         0.00000E+00
         0.00000E+00
         0.00000E+00
         0.00000E+00
         0.00000E+00
         0.00000E+00
         0.00000E+00
         0.00000E+00
         0.00000E+00
         0.00000E+00
         0.00000E+00
         0.00000E+00
         0.00000E+00
         0.00000E+00
         0.00000E+00
         0.00000E+00
         0.00000E+00
         0.00000E+00
         0.00000E+00
         0.00000E+00
         0.00000E+00
         0.00000E+00
         0.00000E+00
         0.00000E+00
         0.00000E+00
         0.00000E+00
         0.00000E+00
         0.00000E+00
         0.00000E+00
         0.00000E+00
         0.00000E+00
         0.00000E+00
         0.00000E+00
         0.00000E+00
         0.00000E+00
         0.00000E+00
         0.00000E+00
         0.00000E+00
         0.00000E+00
         0.00000E+00
         0.00000E+00
         0.00000E+00
         0.00000E+00
         0.00000E+00
         0.00000E+00
         0.00000E+00
         0.00000E+00
         0.00000E+00
         0.00000E+00
         0.00000E+00
         0.00000E+00
         0.00000E+00
         0.00000E+00
         0.00000E+00
         0.00000E+00
         0.00000E+00
         0.00000E+00
         0.00000E+00
         0.00000E+00
         0.00000E+00
         0.00000E+00
         0.00000E+00
         0.00000E+00
         0.00000E+00
         0.00000E+00
         0.00000E+00
         0.00000E+00
         0.00000E+00
         0.00000E+00
         0.00000E+00
         0.00000E+00
         0.00000E+00
         0.00000E+00
         0.00000E+00
         0.00000E+00
         0.00000E+00
         0.00000E+00
         0.00000E+00
         0.00000E+00
         0.00000E+00
         0.00000E+00
         0.00000E+00
         0.00000E+00
         0.00000E+00
         0.00000E+00
         0.00000E+00
         0.00000E+00
         0.00000E+00
         0.00000E+00
         0.00000E+00
         0.00000E+00
         0.00000E+00
         0.00000E+00
         0.00000E+00
         0.00000E+00
         0.00000E+00
         0.00000E+00
         0.00000E+00
         0.00000E+00
         0.00000E+00
         0.00000E+00
         0.00000E+00
         0.00000E+00
         0.00000E+00
         0.00000E+00
         0.00000E+00
         0.00000E+00
         0.00000E+00
         0.00000E+00
         0.00000E+00
         0.00000E+00
         0.00000E+00
         0.00000E+00
         0.00000E+00
         0.00000E+00
         0.00000E+00
         0.00000E+00
         0.00000E+00
         0.00000E+00
         0.00000E+00
         0.00000E+00
         0.00000E+00
         0.00000E+00
         0.00000E+00
         0.00000E+00
         0.00000E+00
         0.00000E+00
         0.00000E+00
         0.00000E+00
         0.00000E+00
         0.00000E+00
         0.00000E+00
         0.00000E+00
         0.00000E+00
         0.00000E+00
         0.00000E+00
         0.00000E+00
         0.00000E+00
         0.00000E+00
         0.00000E+00
         0.00000E+00
         0.00000E+00
         0.00000E+00
         0.00000E+00
         0.00000E+00
         0.00000E+00
         0.00000E+00
         0.00000E+00
         0.00000E+00
         0.00000E+00
         0.00000E+00
         0.00000E+00
         0.00000E+00
         0.00000E+00
         0.00000E+00
         0.00000E+00
         0.00000E+00
         0.00000E+00
         0.00000E+00
         0.00000E+00
         0.00000E+00
         0.00000E+00
         0.00000E+00
         0.00000E+00
         0.00000E+00
         0.00000E+00
         0.00000E+00
         0.00000E+00
         0.00000E+00
         0.00000E+00
         0.00000E+00
         0.00000E+00
         0.00000E+00
         0.00000E+00
         0.00000E+00
         0.00000E+00
         0.00000E+00
         0.00000E+00
         0.00000E+00
         0.00000E+00
         0.00000E+00
         0.00000E+00
         0.00000E+00
         0.00000E+00
         0.00000E+00
         0.00000E+00
         0.00000E+00
         0.00000E+00
         0.00000E+00
         0.00000E+00
         0.00000E+00
         0.00000E+00
         0.00000E+00
         0.00000E+00
         0.00000E+00
         0.00000E+00
         0.00000E+00
         0.00000E+00
         0.00000E+00
         0.00000E+00
         0.00000E+00
         0.00000E+00
         0.00000E+00
         0.00000E+00
         0.00000E+00
         0.00000E+00
         0.00000E+00
         0.00000E+00
         0.00000E+00
         0.00000E+00
         0.00000E+00
         0.00000E+00
         0.00000E+00
         0.00000E+00
         0.00000E+00
         0.00000E+00
         0.00000E+00
         0.00000E+00
         0.00000E+00
         0.00000E+00
         0.00000E+00
         0.00000E+00
         0.00000E+00
         0.00000E+00
         0.00000E+00
         0.00000E+00
         0.00000E+00
         0.00000E+00
         0.00000E+00
         0.00000E+00
         0.00000E+00
         0.00000E+00
         0.00000E+00
         0.00000E+00
         0.00000E+00
         0.00000E+00
         0.00000E+00
         0.00000E+00
         0.00000E+00
         0.00000E+00
         0.00000E+00
         0.00000E+00
         0.00000E+00
         0.00000E+00
         0.00000E+00
         0.00000E+00
         0.00000E+00
         0.00000E+00
         0.00000E+00
         0.00000E+00
         0.00000E+00
         0.00000E+00
         0.00000E+00
         0.00000E+00
         0.00000E+00
         0.00000E+00
         0.00000E+00
         0.00000E+00
         0.00000E+00
         0.00000E+00
         0.00000E+00
         0.00000E+00
         0.00000E+00
         0.00000E+00
         0.00000E+00
         0.00000E+00
         0.00000E+00
         0.00000E+00
         0.00000E+00
         0.00000E+00
         0.00000E+00
         0.00000E+00
         0.00000E+00
         0.00000E+00
         0.00000E+00
         0.00000E+00
         0.00000E+00
         0.00000E+00
         0.00000E+00
         0.00000E+00
         0.00000E+00
         0.00000E+00
         0.00000E+00
         0.00000E+00
         0.00000E+00
         0.00000E+00
         0.00000E+00
         0.00000E+00
         0.00000E+00
         0.00000E+00
         0.00000E+00
         0.00000E+00
         0.00000E+00
         0.00000E+00
         0.00000E+00
         0.00000E+00
         0.00000E+00
         0.00000E+00
         0.00000E+00
         0.00000E+00
         0.00000E+00
         0.00000E+00
         0.00000E+00
         0.00000E+00
         0.00000E+00
         0.00000E+00
         0.00000E+00
         0.00000E+00
         0.00000E+00
         0.00000E+00
         0.00000E+00
         0.00000E+00
         0.00000E+00
         0.00000E+00
         0.00000E+00
         0.00000E+00
         0.00000E+00
         0.00000E+00
         0.00000E+00
         0.00000E+00
         0.00000E+00
         0.00000E+00
         0.00000E+00
         0.00000E+00
         0.00000E+00
         0.00000E+00
         0.00000E+00
         0.00000E+00
         0.00000E+00
         0.00000E+00
         0.00000E+00
         0.00000E+00
         0.00000E+00
         0.00000E+00
         0.00000E+00
         0.00000E+00
         0.00000E+00
         0.00000E+00
         0.00000E+00
         0.00000E+00
         0.00000E+00
         0.00000E+00
         0.00000E+00
         0.00000E+00
         0.00000E+00
         0.00000E+00
         0.00000E+00
         0.00000E+00
         0.00000E+00
         0.00000E+00
         0.00000E+00
         0.00000E+00
         0.00000E+00
         0.00000E+00
         0.00000E+00
         0.00000E+00
         0.00000E+00
         0.00000E+00
         0.00000E+00
         0.00000E+00
         0.00000E+00
         0.00000E+00
         0.00000E+00
         0.00000E+00
         0.00000E+00
         0.00000E+00
         0.00000E+00
         0.00000E+00
         0.00000E+00
         0.00000E+00
         0.00000E+00
         0.00000E+00
         0.00000E+00
         0.00000E+00
         0.00000E+00
         0.00000E+00
         0.00000E+00
         0.00000E+00
         0.00000E+00
         0.00000E+00
         0.00000E+00
         0.00000E+00
         0.00000E+00
         0.00000E+00
         0.00000E+00
         0.00000E+00
         0.00000E+00
         0.00000E+00
         0.00000E+00
         0.00000E+00
         0.00000E+00
         0.00000E+00
         0.00000E+00
         0.00000E+00
         0.00000E+00
         0.00000E+00
         0.00000E+00
         0.00000E+00
         0.00000E+00
         0.00000E+00
         0.00000E+00
         0.00000E+00
         0.00000E+00
         0.00000E+00
         0.00000E+00
         0.00000E+00
         0.00000E+00
         0.00000E+00
         0.00000E+00
         0.00000E+00
         0.00000E+00
         0.00000E+00
         0.00000E+00
         0.00000E+00
         0.00000E+00
         0.00000E+00
         0.00000E+00
         0.00000E+00
         0.00000E+00
         0.00000E+00
         0.00000E+00
         0.00000E+00
         0.00000E+00
         0.00000E+00
         0.00000E+00
         0.00000E+00
         0.00000E+00
         0.00000E+00
         0.00000E+00
         0.00000E+00
         0.00000E+00
         0.00000E+00
         0.00000E+00
         0.00000E+00
         0.00000E+00
         0.00000E+00
         0.00000E+00
         0.00000E+00
         0.00000E+00
         0.00000E+00
         0.00000E+00
         0.00000E+00
         0.00000E+00
         0.00000E+00
         0.00000E+00
         0.00000E+00
         0.00000E+00
         0.00000E+00
         0.00000E+00
         0.00000E+00
         0.00000E+00
         0.00000E+00
         0.00000E+00
         0.00000E+00
         0.00000E+00
         0.00000E+00
         0.00000E+00
         0.00000E+00
         0.00000E+00
         0.00000E+00
         0.00000E+00
         0.00000E+00
         0.00000E+00
         0.00000E+00
         0.00000E+00
         0.00000E+00
         0.00000E+00
         0.00000E+00
         0.00000E+00
         0.00000E+00
         0.00000E+00
         0.00000E+00
         0.00000E+00
         0.00000E+00
         0.00000E+00
         0.00000E+00
         0.00000E+00
         0.00000E+00
         0.00000E+00
         0.00000E+00
         0.00000E+00
         0.00000E+00
         0.00000E+00
         0.00000E+00
         0.00000E+00
         0.00000E+00
         0.00000E+00
         0.00000E+00
         0.00000E+00
         0.00000E+00
         0.00000E+00
         0.00000E+00
         0.00000E+00
         0.00000E+00
         0.00000E+00
         0.00000E+00
         0.00000E+00
         0.00000E+00
         0.00000E+00
         0.00000E+00
         0.00000E+00
         0.00000E+00
         0.00000E+00
         0.00000E+00
         0.00000E+00
         0.00000E+00
         0.00000E+00
         0.00000E+00
         0.00000E+00
         0.00000E+00
         0.00000E+00
         0.00000E+00
         0.00000E+00
         0.00000E+00
         0.00000E+00
         0.00000E+00
         0.00000E+00
         0.00000E+00
         0.00000E+00
         0.00000E+00
         0.00000E+00
         0.00000E+00
         0.00000E+00
         0.00000E+00
         0.00000E+00
         0.00000E+00
         0.00000E+00
         0.00000E+00
         0.00000E+00
         0.00000E+00
         0.00000E+00
         0.00000E+00
         0.00000E+00
         0.00000E+00
         0.00000E+00
         0.00000E+00
         0.00000E+00
         0.00000E+00
         0.00000E+00
         0.00000E+00
         0.00000E+00
         0.00000E+00
         0.00000E+00
         0.00000E+00
         0.00000E+00
         0.00000E+00
         0.00000E+00
         0.00000E+00
         0.00000E+00
         0.00000E+00
         0.00000E+00
         0.00000E+00
         0.00000E+00
         0.00000E+00
         0.00000E+00
         0.00000E+00
         0.00000E+00
         0.00000E+00
         0.00000E+00
         0.00000E+00
         0.00000E+00
         0.00000E+00
         0.00000E+00
         0.00000E+00
         0.00000E+00
         0.00000E+00
         0.00000E+00
         0.00000E+00
         0.00000E+00
         0.00000E+00
         0.00000E+00
         0.00000E+00
         0.00000E+00
         0.00000E+00
         0.00000E+00
         0.00000E+00
         0.00000E+00
         0.00000E+00
         0.00000E+00
         0.00000E+00
         0.00000E+00
         0.00000E+00
         0.00000E+00
         0.00000E+00
         0.00000E+00
         0.00000E+00
         0.00000E+00
         0.00000E+00
         0.00000E+00
         0.00000E+00
         0.00000E+00
         0.00000E+00
         0.00000E+00
         0.00000E+00
         0.00000E+00
         0.00000E+00
         0.00000E+00
         0.00000E+00
         0.00000E+00
         0.00000E+00
         0.00000E+00
         0.00000E+00
         0.00000E+00
         0.00000E+00
         0.00000E+00
         0.00000E+00
         0.00000E+00
         0.00000E+00
         0.00000E+00
         0.00000E+00
         0.00000E+00
         0.00000E+00
         0.00000E+00
         0.00000E+00
         0.00000E+00
         0.00000E+00
         0.00000E+00
         0.00000E+00
         0.00000E+00
         0.00000E+00
         0.00000E+00
         0.00000E+00
         0.00000E+00
         0.00000E+00
         0.00000E+00
         0.00000E+00
         0.00000E+00
         0.00000E+00
         0.00000E+00
         0.00000E+00
  
SCALARS                         fint_z  double 1
LOOKUP_TABLE default
         0.00000E+00
         0.00000E+00
         0.00000E+00
         0.00000E+00
         0.00000E+00
         0.00000E+00
         0.00000E+00
         0.00000E+00
         0.00000E+00
         0.00000E+00
         0.00000E+00
         0.00000E+00
         0.00000E+00
         0.00000E+00
         0.00000E+00
         0.00000E+00
         0.00000E+00
         0.00000E+00
         0.00000E+00
         0.00000E+00
         0.00000E+00
         0.00000E+00
         0.00000E+00
         0.00000E+00
         0.00000E+00
         0.00000E+00
         0.00000E+00
         0.00000E+00
         0.00000E+00
         0.00000E+00
         0.00000E+00
         0.00000E+00
         0.00000E+00
         0.00000E+00
         0.00000E+00
         0.00000E+00
         0.00000E+00
         0.00000E+00
         0.00000E+00
         0.00000E+00
         0.00000E+00
         0.00000E+00
         0.00000E+00
         0.00000E+00
         0.00000E+00
         0.00000E+00
         0.00000E+00
         0.00000E+00
         0.00000E+00
         0.00000E+00
         0.00000E+00
         0.00000E+00
         0.00000E+00
         0.00000E+00
         0.00000E+00
         0.00000E+00
         0.00000E+00
         0.00000E+00
         0.00000E+00
         0.00000E+00
         0.00000E+00
         0.00000E+00
         0.00000E+00
         0.00000E+00
         0.00000E+00
         0.00000E+00
         0.00000E+00
         0.00000E+00
         0.00000E+00
         0.00000E+00
         0.00000E+00
         0.00000E+00
         0.00000E+00
         0.00000E+00
         0.00000E+00
         0.00000E+00
         0.00000E+00
         0.00000E+00
         0.00000E+00
         0.00000E+00
         0.00000E+00
         0.00000E+00
         0.00000E+00
         0.00000E+00
         0.00000E+00
         0.00000E+00
         0.00000E+00
         0.00000E+00
         0.00000E+00
         0.00000E+00
         0.00000E+00
         0.00000E+00
         0.00000E+00
         0.00000E+00
         0.00000E+00
         0.00000E+00
         0.00000E+00
         0.00000E+00
         0.00000E+00
         0.00000E+00
         0.00000E+00
         0.00000E+00
         0.00000E+00
         0.00000E+00
         0.00000E+00
         0.00000E+00
         0.00000E+00
         0.00000E+00
         0.00000E+00
         0.00000E+00
         0.00000E+00
         0.00000E+00
         0.00000E+00
         0.00000E+00
         0.00000E+00
         0.00000E+00
         0.00000E+00
         0.00000E+00
         0.00000E+00
         0.00000E+00
         0.00000E+00
         0.00000E+00
         0.00000E+00
         0.00000E+00
         0.00000E+00
         0.00000E+00
         0.00000E+00
         0.00000E+00
         0.00000E+00
         0.00000E+00
         0.00000E+00
         0.00000E+00
         0.00000E+00
         0.00000E+00
         0.00000E+00
         0.00000E+00
         0.00000E+00
         0.00000E+00
         0.00000E+00
         0.00000E+00
         0.00000E+00
         0.00000E+00
         0.00000E+00
         0.00000E+00
         0.00000E+00
         0.00000E+00
         0.00000E+00
         0.00000E+00
         0.00000E+00
         0.00000E+00
         0.00000E+00
         0.00000E+00
         0.00000E+00
         0.00000E+00
         0.00000E+00
         0.00000E+00
         0.00000E+00
         0.00000E+00
         0.00000E+00
         0.00000E+00
         0.00000E+00
         0.00000E+00
         0.00000E+00
         0.00000E+00
         0.00000E+00
         0.00000E+00
         0.00000E+00
         0.00000E+00
         0.00000E+00
         0.00000E+00
         0.00000E+00
         0.00000E+00
         0.00000E+00
         0.00000E+00
         0.00000E+00
         0.00000E+00
         0.00000E+00
         0.00000E+00
         0.00000E+00
         0.00000E+00
         0.00000E+00
         0.00000E+00
         0.00000E+00
         0.00000E+00
         0.00000E+00
         0.00000E+00
         0.00000E+00
         0.00000E+00
         0.00000E+00
         0.00000E+00
         0.00000E+00
         0.00000E+00
         0.00000E+00
         0.00000E+00
         0.00000E+00
         0.00000E+00
         0.00000E+00
         0.00000E+00
         0.00000E+00
         0.00000E+00
         0.00000E+00
         0.00000E+00
         0.00000E+00
         0.00000E+00
         0.00000E+00
         0.00000E+00
         0.00000E+00
         0.00000E+00
         0.00000E+00
         0.00000E+00
         0.00000E+00
         0.00000E+00
         0.00000E+00
         0.00000E+00
         0.00000E+00
         0.00000E+00
         0.00000E+00
         0.00000E+00
         0.00000E+00
         0.00000E+00
         0.00000E+00
         0.00000E+00
         0.00000E+00
         0.00000E+00
         0.00000E+00
         0.00000E+00
         0.00000E+00
         0.00000E+00
         0.00000E+00
         0.00000E+00
         0.00000E+00
         0.00000E+00
         0.00000E+00
         0.00000E+00
         0.00000E+00
         0.00000E+00
         0.00000E+00
         0.00000E+00
         0.00000E+00
         0.00000E+00
         0.00000E+00
         0.00000E+00
         0.00000E+00
         0.00000E+00
         0.00000E+00
         0.00000E+00
         0.00000E+00
         0.00000E+00
         0.00000E+00
         0.00000E+00
         0.00000E+00
         0.00000E+00
         0.00000E+00
         0.00000E+00
         0.00000E+00
         0.00000E+00
         0.00000E+00
         0.00000E+00
         0.00000E+00
         0.00000E+00
         0.00000E+00
         0.00000E+00
         0.00000E+00
         0.00000E+00
         0.00000E+00
         0.00000E+00
         0.00000E+00
         0.00000E+00
         0.00000E+00
         0.00000E+00
         0.00000E+00
         0.00000E+00
         0.00000E+00
         0.00000E+00
         0.00000E+00
         0.00000E+00
         0.00000E+00
         0.00000E+00
         0.00000E+00
         0.00000E+00
         0.00000E+00
         0.00000E+00
         0.00000E+00
         0.00000E+00
         0.00000E+00
         0.00000E+00
         0.00000E+00
         0.00000E+00
         0.00000E+00
         0.00000E+00
         0.00000E+00
         0.00000E+00
         0.00000E+00
         0.00000E+00
         0.00000E+00
         0.00000E+00
         0.00000E+00
         0.00000E+00
         0.00000E+00
         0.00000E+00
         0.00000E+00
         0.00000E+00
         0.00000E+00
         0.00000E+00
         0.00000E+00
         0.00000E+00
         0.00000E+00
         0.00000E+00
         0.00000E+00
         0.00000E+00
         0.00000E+00
         0.00000E+00
         0.00000E+00
         0.00000E+00
         0.00000E+00
         0.00000E+00
         0.00000E+00
         0.00000E+00
         0.00000E+00
         0.00000E+00
         0.00000E+00
         0.00000E+00
         0.00000E+00
         0.00000E+00
         0.00000E+00
         0.00000E+00
         0.00000E+00
         0.00000E+00
         0.00000E+00
         0.00000E+00
         0.00000E+00
         0.00000E+00
         0.00000E+00
         0.00000E+00
         0.00000E+00
         0.00000E+00
         0.00000E+00
         0.00000E+00
         0.00000E+00
         0.00000E+00
         0.00000E+00
         0.00000E+00
         0.00000E+00
         0.00000E+00
         0.00000E+00
         0.00000E+00
         0.00000E+00
         0.00000E+00
         0.00000E+00
         0.00000E+00
         0.00000E+00
         0.00000E+00
         0.00000E+00
         0.00000E+00
         0.00000E+00
         0.00000E+00
         0.00000E+00
         0.00000E+00
         0.00000E+00
         0.00000E+00
         0.00000E+00
         0.00000E+00
         0.00000E+00
         0.00000E+00
         0.00000E+00
         0.00000E+00
         0.00000E+00
         0.00000E+00
         0.00000E+00
         0.00000E+00
         0.00000E+00
         0.00000E+00
         0.00000E+00
         0.00000E+00
         0.00000E+00
         0.00000E+00
         0.00000E+00
         0.00000E+00
         0.00000E+00
         0.00000E+00
         0.00000E+00
         0.00000E+00
         0.00000E+00
         0.00000E+00
         0.00000E+00
         0.00000E+00
         0.00000E+00
         0.00000E+00
         0.00000E+00
         0.00000E+00
         0.00000E+00
         0.00000E+00
         0.00000E+00
         0.00000E+00
         0.00000E+00
         0.00000E+00
         0.00000E+00
         0.00000E+00
         0.00000E+00
         0.00000E+00
         0.00000E+00
         0.00000E+00
         0.00000E+00
         0.00000E+00
         0.00000E+00
         0.00000E+00
         0.00000E+00
         0.00000E+00
         0.00000E+00
         0.00000E+00
         0.00000E+00
         0.00000E+00
         0.00000E+00
         0.00000E+00
         0.00000E+00
         0.00000E+00
         0.00000E+00
         0.00000E+00
         0.00000E+00
         0.00000E+00
         0.00000E+00
         0.00000E+00
         0.00000E+00
         0.00000E+00
         0.00000E+00
         0.00000E+00
         0.00000E+00
         0.00000E+00
         0.00000E+00
         0.00000E+00
         0.00000E+00
         0.00000E+00
         0.00000E+00
         0.00000E+00
         0.00000E+00
         0.00000E+00
         0.00000E+00
         0.00000E+00
         0.00000E+00
         0.00000E+00
         0.00000E+00
         0.00000E+00
         0.00000E+00
         0.00000E+00
         0.00000E+00
         0.00000E+00
         0.00000E+00
         0.00000E+00
         0.00000E+00
         0.00000E+00
         0.00000E+00
         0.00000E+00
         0.00000E+00
         0.00000E+00
         0.00000E+00
         0.00000E+00
         0.00000E+00
         0.00000E+00
         0.00000E+00
         0.00000E+00
         0.00000E+00
         0.00000E+00
         0.00000E+00
         0.00000E+00
         0.00000E+00
         0.00000E+00
         0.00000E+00
         0.00000E+00
         0.00000E+00
         0.00000E+00
         0.00000E+00
         0.00000E+00
         0.00000E+00
         0.00000E+00
         0.00000E+00
         0.00000E+00
         0.00000E+00
         0.00000E+00
         0.00000E+00
         0.00000E+00
         0.00000E+00
         0.00000E+00
         0.00000E+00
         0.00000E+00
         0.00000E+00
         0.00000E+00
         0.00000E+00
         0.00000E+00
         0.00000E+00
         0.00000E+00
         0.00000E+00
         0.00000E+00
         0.00000E+00
         0.00000E+00
         0.00000E+00
         0.00000E+00
         0.00000E+00
         0.00000E+00
         0.00000E+00
         0.00000E+00
         0.00000E+00
         0.00000E+00
         0.00000E+00
         0.00000E+00
         0.00000E+00
         0.00000E+00
         0.00000E+00
         0.00000E+00
         0.00000E+00
         0.00000E+00
         0.00000E+00
         0.00000E+00
         0.00000E+00
         0.00000E+00
         0.00000E+00
         0.00000E+00
         0.00000E+00
         0.00000E+00
         0.00000E+00
         0.00000E+00
         0.00000E+00
         0.00000E+00
         0.00000E+00
         0.00000E+00
         0.00000E+00
         0.00000E+00
         0.00000E+00
         0.00000E+00
         0.00000E+00
         0.00000E+00
         0.00000E+00
         0.00000E+00
         0.00000E+00
         0.00000E+00
         0.00000E+00
         0.00000E+00
         0.00000E+00
         0.00000E+00
         0.00000E+00
         0.00000E+00
         0.00000E+00
         0.00000E+00
         0.00000E+00
         0.00000E+00
         0.00000E+00
         0.00000E+00
         0.00000E+00
         0.00000E+00
         0.00000E+00
         0.00000E+00
         0.00000E+00
         0.00000E+00
         0.00000E+00
         0.00000E+00
         0.00000E+00
         0.00000E+00
         0.00000E+00
         0.00000E+00
         0.00000E+00
         0.00000E+00
         0.00000E+00
         0.00000E+00
         0.00000E+00
         0.00000E+00
         0.00000E+00
         0.00000E+00
         0.00000E+00
         0.00000E+00
         0.00000E+00
         0.00000E+00
         0.00000E+00
         0.00000E+00
         0.00000E+00
         0.00000E+00
         0.00000E+00
         0.00000E+00
         0.00000E+00
         0.00000E+00
         0.00000E+00
         0.00000E+00
         0.00000E+00
         0.00000E+00
         0.00000E+00
         0.00000E+00
         0.00000E+00
         0.00000E+00
         0.00000E+00
         0.00000E+00
         0.00000E+00
         0.00000E+00
         0.00000E+00
         0.00000E+00
         0.00000E+00
         0.00000E+00
         0.00000E+00
         0.00000E+00
         0.00000E+00
         0.00000E+00
         0.00000E+00
         0.00000E+00
         0.00000E+00
         0.00000E+00
         0.00000E+00
         0.00000E+00
         0.00000E+00
         0.00000E+00
         0.00000E+00
         0.00000E+00
         0.00000E+00
         0.00000E+00
         0.00000E+00
         0.00000E+00
         0.00000E+00
         0.00000E+00
         0.00000E+00
         0.00000E+00
         0.00000E+00
         0.00000E+00
         0.00000E+00
         0.00000E+00
         0.00000E+00
         0.00000E+00
         0.00000E+00
         0.00000E+00
         0.00000E+00
         0.00000E+00
         0.00000E+00
         0.00000E+00
         0.00000E+00
         0.00000E+00
         0.00000E+00
         0.00000E+00
         0.00000E+00
         0.00000E+00
         0.00000E+00
         0.00000E+00
         0.00000E+00
         0.00000E+00
         0.00000E+00
         0.00000E+00
         0.00000E+00
         0.00000E+00
         0.00000E+00
         0.00000E+00
         0.00000E+00
         0.00000E+00
         0.00000E+00
         0.00000E+00
         0.00000E+00
         0.00000E+00
         0.00000E+00
         0.00000E+00
         0.00000E+00
         0.00000E+00
         0.00000E+00
         0.00000E+00
         0.00000E+00
         0.00000E+00
         0.00000E+00
         0.00000E+00
         0.00000E+00
         0.00000E+00
         0.00000E+00
         0.00000E+00
         0.00000E+00
         0.00000E+00
         0.00000E+00
         0.00000E+00
         0.00000E+00
         0.00000E+00
         0.00000E+00
         0.00000E+00
         0.00000E+00
         0.00000E+00
         0.00000E+00
         0.00000E+00
         0.00000E+00
         0.00000E+00
         0.00000E+00
         0.00000E+00
         0.00000E+00
         0.00000E+00
         0.00000E+00
         0.00000E+00
         0.00000E+00
         0.00000E+00
         0.00000E+00
         0.00000E+00
         0.00000E+00
         0.00000E+00
         0.00000E+00
         0.00000E+00
         0.00000E+00
         0.00000E+00
         0.00000E+00
         0.00000E+00
         0.00000E+00
         0.00000E+00
         0.00000E+00
         0.00000E+00
         0.00000E+00
         0.00000E+00
         0.00000E+00
         0.00000E+00
         0.00000E+00
         0.00000E+00
         0.00000E+00
         0.00000E+00
         0.00000E+00
         0.00000E+00
         0.00000E+00
         0.00000E+00
         0.00000E+00
         0.00000E+00
         0.00000E+00
         0.00000E+00
         0.00000E+00
         0.00000E+00
         0.00000E+00
         0.00000E+00
         0.00000E+00
         0.00000E+00
         0.00000E+00
         0.00000E+00
         0.00000E+00
         0.00000E+00
         0.00000E+00
         0.00000E+00
         0.00000E+00
         0.00000E+00
         0.00000E+00
         0.00000E+00
         0.00000E+00
         0.00000E+00
         0.00000E+00
         0.00000E+00
         0.00000E+00
         0.00000E+00
         0.00000E+00
         0.00000E+00
         0.00000E+00
         0.00000E+00
         0.00000E+00
         0.00000E+00
         0.00000E+00
         0.00000E+00
         0.00000E+00
         0.00000E+00
         0.00000E+00
         0.00000E+00
         0.00000E+00
         0.00000E+00
         0.00000E+00
         0.00000E+00
         0.00000E+00
         0.00000E+00
         0.00000E+00
         0.00000E+00
         0.00000E+00
         0.00000E+00
         0.00000E+00
         0.00000E+00
         0.00000E+00
         0.00000E+00
         0.00000E+00
         0.00000E+00
         0.00000E+00
         0.00000E+00
         0.00000E+00
         0.00000E+00
         0.00000E+00
         0.00000E+00
         0.00000E+00
         0.00000E+00
         0.00000E+00
         0.00000E+00
         0.00000E+00
         0.00000E+00
         0.00000E+00
         0.00000E+00
         0.00000E+00
         0.00000E+00
         0.00000E+00
         0.00000E+00
         0.00000E+00
         0.00000E+00
         0.00000E+00
         0.00000E+00
         0.00000E+00
         0.00000E+00
         0.00000E+00
         0.00000E+00
         0.00000E+00
         0.00000E+00
         0.00000E+00
         0.00000E+00
         0.00000E+00
         0.00000E+00
         0.00000E+00
         0.00000E+00
         0.00000E+00
         0.00000E+00
         0.00000E+00
         0.00000E+00
         0.00000E+00
         0.00000E+00
         0.00000E+00
         0.00000E+00
         0.00000E+00
         0.00000E+00
         0.00000E+00
         0.00000E+00
         0.00000E+00
         0.00000E+00
         0.00000E+00
         0.00000E+00
         0.00000E+00
         0.00000E+00
         0.00000E+00
         0.00000E+00
         0.00000E+00
         0.00000E+00
         0.00000E+00
         0.00000E+00
         0.00000E+00
         0.00000E+00
         0.00000E+00
         0.00000E+00
         0.00000E+00
         0.00000E+00
         0.00000E+00
         0.00000E+00
         0.00000E+00
         0.00000E+00
         0.00000E+00
         0.00000E+00
         0.00000E+00
         0.00000E+00
         0.00000E+00
         0.00000E+00
         0.00000E+00
         0.00000E+00
         0.00000E+00
         0.00000E+00
         0.00000E+00
         0.00000E+00
         0.00000E+00
         0.00000E+00
         0.00000E+00
         0.00000E+00
         0.00000E+00
         0.00000E+00
         0.00000E+00
         0.00000E+00
         0.00000E+00
         0.00000E+00
         0.00000E+00
         0.00000E+00
         0.00000E+00
         0.00000E+00
         0.00000E+00
         0.00000E+00
         0.00000E+00
         0.00000E+00
         0.00000E+00
         0.00000E+00
         0.00000E+00
         0.00000E+00
         0.00000E+00
         0.00000E+00
         0.00000E+00
         0.00000E+00
         0.00000E+00
         0.00000E+00
         0.00000E+00
         0.00000E+00
         0.00000E+00
         0.00000E+00
         0.00000E+00
         0.00000E+00
         0.00000E+00
         0.00000E+00
         0.00000E+00
         0.00000E+00
         0.00000E+00
         0.00000E+00
         0.00000E+00
         0.00000E+00
         0.00000E+00
         0.00000E+00
         0.00000E+00
         0.00000E+00
         0.00000E+00
         0.00000E+00
         0.00000E+00
         0.00000E+00
         0.00000E+00
         0.00000E+00
         0.00000E+00
         0.00000E+00
         0.00000E+00
         0.00000E+00
         0.00000E+00
         0.00000E+00
         0.00000E+00
         0.00000E+00
         0.00000E+00
         0.00000E+00
         0.00000E+00
         0.00000E+00
         0.00000E+00
         0.00000E+00
         0.00000E+00
         0.00000E+00
         0.00000E+00
         0.00000E+00
         0.00000E+00
         0.00000E+00
         0.00000E+00
         0.00000E+00
         0.00000E+00
         0.00000E+00
         0.00000E+00
         0.00000E+00
         0.00000E+00
         0.00000E+00
         0.00000E+00
         0.00000E+00
         0.00000E+00
         0.00000E+00
         0.00000E+00
         0.00000E+00
         0.00000E+00
         0.00000E+00
         0.00000E+00
         0.00000E+00
         0.00000E+00
         0.00000E+00
         0.00000E+00
         0.00000E+00
         0.00000E+00
         0.00000E+00
         0.00000E+00
         0.00000E+00
         0.00000E+00
         0.00000E+00
         0.00000E+00
         0.00000E+00
         0.00000E+00
         0.00000E+00
         0.00000E+00
         0.00000E+00
         0.00000E+00
         0.00000E+00
         0.00000E+00
         0.00000E+00
         0.00000E+00
         0.00000E+00
         0.00000E+00
         0.00000E+00
         0.00000E+00
         0.00000E+00
         0.00000E+00
         0.00000E+00
         0.00000E+00
         0.00000E+00
         0.00000E+00
         0.00000E+00
         0.00000E+00
         0.00000E+00
         0.00000E+00
         0.00000E+00
         0.00000E+00
         0.00000E+00
         0.00000E+00
         0.00000E+00
         0.00000E+00
         0.00000E+00
         0.00000E+00
         0.00000E+00
         0.00000E+00
         0.00000E+00
         0.00000E+00
         0.00000E+00
         0.00000E+00
         0.00000E+00
         0.00000E+00
         0.00000E+00
         0.00000E+00
         0.00000E+00
         0.00000E+00
         0.00000E+00
         0.00000E+00
         0.00000E+00
         0.00000E+00
         0.00000E+00
         0.00000E+00
         0.00000E+00
         0.00000E+00
         0.00000E+00
         0.00000E+00
         0.00000E+00
         0.00000E+00
         0.00000E+00
         0.00000E+00
         0.00000E+00
         0.00000E+00
         0.00000E+00
         0.00000E+00
         0.00000E+00
         0.00000E+00
         0.00000E+00
         0.00000E+00
         0.00000E+00
         0.00000E+00
         0.00000E+00
         0.00000E+00
         0.00000E+00
         0.00000E+00
         0.00000E+00
         0.00000E+00
         0.00000E+00
         0.00000E+00
         0.00000E+00
         0.00000E+00
         0.00000E+00
         0.00000E+00
         0.00000E+00
         0.00000E+00
         0.00000E+00
         0.00000E+00
         0.00000E+00
         0.00000E+00
         0.00000E+00
         0.00000E+00
         0.00000E+00
         0.00000E+00
         0.00000E+00
         0.00000E+00
         0.00000E+00
         0.00000E+00
         0.00000E+00
         0.00000E+00
         0.00000E+00
         0.00000E+00
         0.00000E+00
         0.00000E+00
         0.00000E+00
         0.00000E+00
         0.00000E+00
         0.00000E+00
         0.00000E+00
         0.00000E+00
         0.00000E+00
         0.00000E+00
         0.00000E+00
         0.00000E+00
         0.00000E+00
         0.00000E+00
         0.00000E+00
         0.00000E+00
         0.00000E+00
         0.00000E+00
         0.00000E+00
         0.00000E+00
         0.00000E+00
         0.00000E+00
         0.00000E+00
         0.00000E+00
         0.00000E+00
         0.00000E+00
         0.00000E+00
         0.00000E+00
         0.00000E+00
         0.00000E+00
         0.00000E+00
         0.00000E+00
         0.00000E+00
         0.00000E+00
         0.00000E+00
         0.00000E+00
         0.00000E+00
         0.00000E+00
         0.00000E+00
         0.00000E+00
         0.00000E+00
         0.00000E+00
         0.00000E+00
         0.00000E+00
         0.00000E+00
         0.00000E+00
         0.00000E+00
         0.00000E+00
         0.00000E+00
         0.00000E+00
         0.00000E+00
         0.00000E+00
         0.00000E+00
         0.00000E+00
         0.00000E+00
         0.00000E+00
         0.00000E+00
         0.00000E+00
         0.00000E+00
         0.00000E+00
         0.00000E+00
         0.00000E+00
         0.00000E+00
         0.00000E+00
         0.00000E+00
         0.00000E+00
         0.00000E+00
         0.00000E+00
         0.00000E+00
         0.00000E+00
         0.00000E+00
         0.00000E+00
         0.00000E+00
         0.00000E+00
         0.00000E+00
         0.00000E+00
         0.00000E+00
         0.00000E+00
         0.00000E+00
         0.00000E+00
         0.00000E+00
         0.00000E+00
         0.00000E+00
         0.00000E+00
         0.00000E+00
         0.00000E+00
         0.00000E+00
         0.00000E+00
         0.00000E+00
         0.00000E+00
         0.00000E+00
         0.00000E+00
         0.00000E+00
         0.00000E+00
         0.00000E+00
         0.00000E+00
         0.00000E+00
         0.00000E+00
         0.00000E+00
         0.00000E+00
         0.00000E+00
         0.00000E+00
         0.00000E+00
         0.00000E+00
         0.00000E+00
         0.00000E+00
         0.00000E+00
         0.00000E+00
         0.00000E+00
         0.00000E+00
         0.00000E+00
         0.00000E+00
         0.00000E+00
         0.00000E+00
         0.00000E+00
         0.00000E+00
         0.00000E+00
         0.00000E+00
         0.00000E+00
         0.00000E+00
         0.00000E+00
         0.00000E+00
         0.00000E+00
         0.00000E+00
         0.00000E+00
         0.00000E+00
         0.00000E+00
         0.00000E+00
         0.00000E+00
         0.00000E+00
         0.00000E+00
         0.00000E+00
         0.00000E+00
         0.00000E+00
         0.00000E+00
         0.00000E+00
         0.00000E+00
         0.00000E+00
         0.00000E+00
         0.00000E+00
         0.00000E+00
         0.00000E+00
         0.00000E+00
         0.00000E+00
         0.00000E+00
         0.00000E+00
         0.00000E+00
         0.00000E+00
         0.00000E+00
         0.00000E+00
         0.00000E+00
         0.00000E+00
         0.00000E+00
         0.00000E+00
         0.00000E+00
         0.00000E+00
         0.00000E+00
         0.00000E+00
         0.00000E+00
         0.00000E+00
         0.00000E+00
         0.00000E+00
         0.00000E+00
         0.00000E+00
         0.00000E+00
         0.00000E+00
         0.00000E+00
         0.00000E+00
         0.00000E+00
         0.00000E+00
         0.00000E+00
         0.00000E+00
         0.00000E+00
         0.00000E+00
         0.00000E+00
         0.00000E+00
         0.00000E+00
         0.00000E+00
         0.00000E+00
         0.00000E+00
         0.00000E+00
         0.00000E+00
         0.00000E+00
         0.00000E+00
         0.00000E+00
         0.00000E+00
         0.00000E+00
         0.00000E+00
         0.00000E+00
         0.00000E+00
         0.00000E+00
         0.00000E+00
         0.00000E+00
         0.00000E+00
         0.00000E+00
         0.00000E+00
         0.00000E+00
         0.00000E+00
         0.00000E+00
         0.00000E+00
         0.00000E+00
         0.00000E+00
         0.00000E+00
         0.00000E+00
         0.00000E+00
         0.00000E+00
         0.00000E+00
         0.00000E+00
         0.00000E+00
         0.00000E+00
         0.00000E+00
         0.00000E+00
         0.00000E+00
         0.00000E+00
         0.00000E+00
         0.00000E+00
         0.00000E+00
         0.00000E+00
         0.00000E+00
         0.00000E+00
         0.00000E+00
         0.00000E+00
         0.00000E+00
         0.00000E+00
         0.00000E+00
         0.00000E+00
         0.00000E+00
         0.00000E+00
         0.00000E+00
         0.00000E+00
         0.00000E+00
         0.00000E+00
         0.00000E+00
         0.00000E+00
         0.00000E+00
         0.00000E+00
         0.00000E+00
         0.00000E+00
         0.00000E+00
         0.00000E+00
         0.00000E+00
         0.00000E+00
         0.00000E+00
         0.00000E+00
         0.00000E+00
         0.00000E+00
         0.00000E+00
         0.00000E+00
         0.00000E+00
         0.00000E+00
         0.00000E+00
         0.00000E+00
         0.00000E+00
         0.00000E+00
         0.00000E+00
         0.00000E+00
         0.00000E+00
         0.00000E+00
         0.00000E+00
         0.00000E+00
         0.00000E+00
         0.00000E+00
         0.00000E+00
         0.00000E+00
         0.00000E+00
         0.00000E+00
         0.00000E+00
         0.00000E+00
         0.00000E+00
         0.00000E+00
         0.00000E+00
         0.00000E+00
         0.00000E+00
         0.00000E+00
         0.00000E+00
         0.00000E+00
         0.00000E+00
         0.00000E+00
         0.00000E+00
         0.00000E+00
         0.00000E+00
         0.00000E+00
         0.00000E+00
         0.00000E+00
         0.00000E+00
         0.00000E+00
         0.00000E+00
         0.00000E+00
         0.00000E+00
         0.00000E+00
         0.00000E+00
         0.00000E+00
         0.00000E+00
         0.00000E+00
         0.00000E+00
         0.00000E+00
         0.00000E+00
         0.00000E+00
         0.00000E+00
         0.00000E+00
         0.00000E+00
         0.00000E+00
         0.00000E+00
         0.00000E+00
         0.00000E+00
         0.00000E+00
         0.00000E+00
         0.00000E+00
         0.00000E+00
         0.00000E+00
         0.00000E+00
         0.00000E+00
         0.00000E+00
         0.00000E+00
         0.00000E+00
         0.00000E+00
         0.00000E+00
         0.00000E+00
         0.00000E+00
         0.00000E+00
         0.00000E+00
         0.00000E+00
         0.00000E+00
         0.00000E+00
         0.00000E+00
         0.00000E+00
         0.00000E+00
         0.00000E+00
         0.00000E+00
         0.00000E+00
         0.00000E+00
         0.00000E+00
         0.00000E+00
         0.00000E+00
         0.00000E+00
         0.00000E+00
         0.00000E+00
         0.00000E+00
         0.00000E+00
         0.00000E+00
         0.00000E+00
         0.00000E+00
         0.00000E+00
         0.00000E+00
         0.00000E+00
         0.00000E+00
         0.00000E+00
         0.00000E+00
         0.00000E+00
         0.00000E+00
         0.00000E+00
         0.00000E+00
         0.00000E+00
         0.00000E+00
         0.00000E+00
         0.00000E+00
         0.00000E+00
         0.00000E+00
         0.00000E+00
         0.00000E+00
         0.00000E+00
         0.00000E+00
         0.00000E+00
         0.00000E+00
         0.00000E+00
         0.00000E+00
         0.00000E+00
         0.00000E+00
         0.00000E+00
         0.00000E+00
         0.00000E+00
         0.00000E+00
         0.00000E+00
         0.00000E+00
         0.00000E+00
         0.00000E+00
         0.00000E+00
         0.00000E+00
         0.00000E+00
         0.00000E+00
         0.00000E+00
         0.00000E+00
         0.00000E+00
         0.00000E+00
         0.00000E+00
         0.00000E+00
         0.00000E+00
         0.00000E+00
         0.00000E+00
         0.00000E+00
         0.00000E+00
         0.00000E+00
         0.00000E+00
         0.00000E+00
         0.00000E+00
         0.00000E+00
         0.00000E+00
         0.00000E+00
         0.00000E+00
         0.00000E+00
         0.00000E+00
         0.00000E+00
         0.00000E+00
         0.00000E+00
         0.00000E+00
         0.00000E+00
         0.00000E+00
         0.00000E+00
         0.00000E+00
         0.00000E+00
         0.00000E+00
         0.00000E+00
         0.00000E+00
         0.00000E+00
         0.00000E+00
         0.00000E+00
         0.00000E+00
         0.00000E+00
         0.00000E+00
         0.00000E+00
         0.00000E+00
         0.00000E+00
         0.00000E+00
         0.00000E+00
         0.00000E+00
         0.00000E+00
         0.00000E+00
         0.00000E+00
         0.00000E+00
         0.00000E+00
         0.00000E+00
         0.00000E+00
         0.00000E+00
         0.00000E+00
         0.00000E+00
         0.00000E+00
         0.00000E+00
         0.00000E+00
         0.00000E+00
         0.00000E+00
         0.00000E+00
         0.00000E+00
         0.00000E+00
         0.00000E+00
         0.00000E+00
         0.00000E+00
         0.00000E+00
         0.00000E+00
         0.00000E+00
         0.00000E+00
         0.00000E+00
         0.00000E+00
         0.00000E+00
         0.00000E+00
         0.00000E+00
         0.00000E+00
         0.00000E+00
         0.00000E+00
         0.00000E+00
         0.00000E+00
         0.00000E+00
         0.00000E+00
         0.00000E+00
         0.00000E+00
         0.00000E+00
         0.00000E+00
         0.00000E+00
         0.00000E+00
         0.00000E+00
         0.00000E+00
         0.00000E+00
         0.00000E+00
         0.00000E+00
         0.00000E+00
         0.00000E+00
         0.00000E+00
         0.00000E+00
         0.00000E+00
         0.00000E+00
         0.00000E+00
         0.00000E+00
         0.00000E+00
         0.00000E+00
         0.00000E+00
         0.00000E+00
         0.00000E+00
         0.00000E+00
         0.00000E+00
         0.00000E+00
         0.00000E+00
         0.00000E+00
         0.00000E+00
         0.00000E+00
         0.00000E+00
         0.00000E+00
         0.00000E+00
         0.00000E+00
         0.00000E+00
         0.00000E+00
         0.00000E+00
         0.00000E+00
         0.00000E+00
         0.00000E+00
         0.00000E+00
         0.00000E+00
         0.00000E+00
         0.00000E+00
         0.00000E+00
         0.00000E+00
         0.00000E+00
         0.00000E+00
         0.00000E+00
         0.00000E+00
         0.00000E+00
         0.00000E+00
         0.00000E+00
         0.00000E+00
         0.00000E+00
         0.00000E+00
         0.00000E+00
         0.00000E+00
         0.00000E+00
         0.00000E+00
         0.00000E+00
         0.00000E+00
         0.00000E+00
         0.00000E+00
         0.00000E+00
         0.00000E+00
         0.00000E+00
         0.00000E+00
         0.00000E+00
         0.00000E+00
         0.00000E+00
         0.00000E+00
         0.00000E+00
         0.00000E+00
         0.00000E+00
         0.00000E+00
         0.00000E+00
         0.00000E+00
         0.00000E+00
         0.00000E+00
         0.00000E+00
         0.00000E+00
         0.00000E+00
         0.00000E+00
         0.00000E+00
         0.00000E+00
         0.00000E+00
         0.00000E+00
         0.00000E+00
         0.00000E+00
         0.00000E+00
         0.00000E+00
         0.00000E+00
         0.00000E+00
         0.00000E+00
         0.00000E+00
         0.00000E+00
         0.00000E+00
         0.00000E+00
         0.00000E+00
         0.00000E+00
         0.00000E+00
         0.00000E+00
         0.00000E+00
         0.00000E+00
         0.00000E+00
         0.00000E+00
         0.00000E+00
         0.00000E+00
         0.00000E+00
         0.00000E+00
         0.00000E+00
         0.00000E+00
         0.00000E+00
         0.00000E+00
         0.00000E+00
         0.00000E+00
         0.00000E+00
         0.00000E+00
         0.00000E+00
         0.00000E+00
         0.00000E+00
         0.00000E+00
         0.00000E+00
         0.00000E+00
         0.00000E+00
         0.00000E+00
         0.00000E+00
         0.00000E+00
         0.00000E+00
         0.00000E+00
         0.00000E+00
         0.00000E+00
         0.00000E+00
         0.00000E+00
         0.00000E+00
         0.00000E+00
         0.00000E+00
         0.00000E+00
         0.00000E+00
         0.00000E+00
         0.00000E+00
         0.00000E+00
         0.00000E+00
         0.00000E+00
         0.00000E+00
         0.00000E+00
         0.00000E+00
         0.00000E+00
         0.00000E+00
         0.00000E+00
         0.00000E+00
         0.00000E+00
         0.00000E+00
         0.00000E+00
         0.00000E+00
         0.00000E+00
         0.00000E+00
         0.00000E+00
         0.00000E+00
         0.00000E+00
         0.00000E+00
         0.00000E+00
         0.00000E+00
         0.00000E+00
         0.00000E+00
         0.00000E+00
         0.00000E+00
         0.00000E+00
         0.00000E+00
         0.00000E+00
         0.00000E+00
         0.00000E+00
         0.00000E+00
         0.00000E+00
         0.00000E+00
         0.00000E+00
         0.00000E+00
         0.00000E+00
         0.00000E+00
         0.00000E+00
         0.00000E+00
         0.00000E+00
         0.00000E+00
         0.00000E+00
         0.00000E+00
         0.00000E+00
         0.00000E+00
         0.00000E+00
         0.00000E+00
         0.00000E+00
         0.00000E+00
         0.00000E+00
         0.00000E+00
         0.00000E+00
         0.00000E+00
         0.00000E+00
         0.00000E+00
         0.00000E+00
         0.00000E+00
         0.00000E+00
         0.00000E+00
         0.00000E+00
         0.00000E+00
         0.00000E+00
         0.00000E+00
         0.00000E+00
         0.00000E+00
         0.00000E+00
         0.00000E+00
         0.00000E+00
         0.00000E+00
         0.00000E+00
         0.00000E+00
         0.00000E+00
         0.00000E+00
         0.00000E+00
         0.00000E+00
         0.00000E+00
         0.00000E+00
         0.00000E+00
         0.00000E+00
         0.00000E+00
         0.00000E+00
         0.00000E+00
         0.00000E+00
         0.00000E+00
         0.00000E+00
         0.00000E+00
         0.00000E+00
         0.00000E+00
         0.00000E+00
         0.00000E+00
         0.00000E+00
         0.00000E+00
         0.00000E+00
         0.00000E+00
         0.00000E+00
         0.00000E+00
         0.00000E+00
         0.00000E+00
         0.00000E+00
         0.00000E+00
         0.00000E+00
         0.00000E+00
         0.00000E+00
         0.00000E+00
         0.00000E+00
         0.00000E+00
         0.00000E+00
         0.00000E+00
         0.00000E+00
         0.00000E+00
         0.00000E+00
         0.00000E+00
         0.00000E+00
         0.00000E+00
         0.00000E+00
         0.00000E+00
         0.00000E+00
         0.00000E+00
         0.00000E+00
         0.00000E+00
         0.00000E+00
         0.00000E+00
         0.00000E+00
         0.00000E+00
         0.00000E+00
         0.00000E+00
         0.00000E+00
         0.00000E+00
         0.00000E+00
         0.00000E+00
         0.00000E+00
         0.00000E+00
         0.00000E+00
         0.00000E+00
         0.00000E+00
         0.00000E+00
         0.00000E+00
         0.00000E+00
         0.00000E+00
         0.00000E+00
         0.00000E+00
         0.00000E+00
         0.00000E+00
         0.00000E+00
         0.00000E+00
         0.00000E+00
         0.00000E+00
         0.00000E+00
         0.00000E+00
         0.00000E+00
         0.00000E+00
         0.00000E+00
         0.00000E+00
         0.00000E+00
         0.00000E+00
         0.00000E+00
         0.00000E+00
         0.00000E+00
         0.00000E+00
         0.00000E+00
         0.00000E+00
         0.00000E+00
         0.00000E+00
         0.00000E+00
         0.00000E+00
         0.00000E+00
         0.00000E+00
         0.00000E+00
         0.00000E+00
         0.00000E+00
         0.00000E+00
         0.00000E+00
         0.00000E+00
         0.00000E+00
         0.00000E+00
         0.00000E+00
         0.00000E+00
         0.00000E+00
         0.00000E+00
         0.00000E+00
         0.00000E+00
         0.00000E+00
         0.00000E+00
         0.00000E+00
         0.00000E+00
         0.00000E+00
         0.00000E+00
         0.00000E+00
         0.00000E+00
         0.00000E+00
         0.00000E+00
         0.00000E+00
         0.00000E+00
         0.00000E+00
         0.00000E+00
         0.00000E+00
         0.00000E+00
         0.00000E+00
         0.00000E+00
         0.00000E+00
         0.00000E+00
         0.00000E+00
         0.00000E+00
         0.00000E+00
         0.00000E+00
         0.00000E+00
         0.00000E+00
         0.00000E+00
         0.00000E+00
         0.00000E+00
         0.00000E+00
         0.00000E+00
         0.00000E+00
         0.00000E+00
         0.00000E+00
         0.00000E+00
         0.00000E+00
         0.00000E+00
         0.00000E+00
         0.00000E+00
         0.00000E+00
         0.00000E+00
         0.00000E+00
         0.00000E+00
         0.00000E+00
         0.00000E+00
         0.00000E+00
         0.00000E+00
         0.00000E+00
         0.00000E+00
         0.00000E+00
         0.00000E+00
         0.00000E+00
         0.00000E+00
         0.00000E+00
         0.00000E+00
         0.00000E+00
         0.00000E+00
         0.00000E+00
         0.00000E+00
         0.00000E+00
         0.00000E+00
         0.00000E+00
         0.00000E+00
         0.00000E+00
         0.00000E+00
         0.00000E+00
         0.00000E+00
         0.00000E+00
         0.00000E+00
         0.00000E+00
         0.00000E+00
         0.00000E+00
         0.00000E+00
         0.00000E+00
         0.00000E+00
         0.00000E+00
         0.00000E+00
         0.00000E+00
         0.00000E+00
         0.00000E+00
         0.00000E+00
         0.00000E+00
         0.00000E+00
         0.00000E+00
         0.00000E+00
         0.00000E+00
         0.00000E+00
         0.00000E+00
         0.00000E+00
         0.00000E+00
         0.00000E+00
         0.00000E+00
         0.00000E+00
         0.00000E+00
         0.00000E+00
         0.00000E+00
         0.00000E+00
         0.00000E+00
         0.00000E+00
         0.00000E+00
         0.00000E+00
         0.00000E+00
         0.00000E+00
         0.00000E+00
         0.00000E+00
         0.00000E+00
         0.00000E+00
         0.00000E+00
         0.00000E+00
         0.00000E+00
         0.00000E+00
         0.00000E+00
         0.00000E+00
         0.00000E+00
         0.00000E+00
         0.00000E+00
         0.00000E+00
         0.00000E+00
  
SCALARS        characteristic_distance  double 1
LOOKUP_TABLE default
         0.00000E+00
         0.00000E+00
         0.00000E+00
         0.00000E+00
         0.00000E+00
         0.00000E+00
         0.00000E+00
         0.00000E+00
         0.00000E+00
         0.00000E+00
         0.00000E+00
         0.00000E+00
         0.00000E+00
         0.00000E+00
         0.00000E+00
         0.00000E+00
         0.00000E+00
         0.00000E+00
         0.00000E+00
         0.00000E+00
         0.00000E+00
         0.00000E+00
         0.00000E+00
         0.00000E+00
         0.00000E+00
         0.00000E+00
         0.00000E+00
         0.00000E+00
         0.00000E+00
         0.00000E+00
         0.00000E+00
         0.00000E+00
         0.00000E+00
         0.00000E+00
         0.00000E+00
         0.00000E+00
         0.00000E+00
         0.00000E+00
         0.00000E+00
         0.00000E+00
         0.00000E+00
         0.00000E+00
         0.00000E+00
         0.00000E+00
         0.00000E+00
         0.00000E+00
         0.00000E+00
         0.00000E+00
         0.00000E+00
         0.00000E+00
         0.00000E+00
         0.00000E+00
         0.00000E+00
         0.00000E+00
         0.00000E+00
         0.00000E+00
         0.00000E+00
         0.00000E+00
         0.00000E+00
         0.00000E+00
         0.00000E+00
         0.00000E+00
         0.00000E+00
         0.00000E+00
         0.00000E+00
         0.00000E+00
         0.00000E+00
         0.00000E+00
         0.00000E+00
         0.00000E+00
         0.00000E+00
         0.00000E+00
         0.00000E+00
         0.00000E+00
         0.00000E+00
         0.00000E+00
         0.00000E+00
         0.00000E+00
         0.00000E+00
         0.00000E+00
         0.00000E+00
         0.00000E+00
         0.00000E+00
         0.00000E+00
         0.00000E+00
         0.00000E+00
         0.00000E+00
         0.00000E+00
         0.00000E+00
         0.00000E+00
         0.00000E+00
         0.00000E+00
         0.00000E+00
         0.00000E+00
         0.00000E+00
         0.00000E+00
         0.00000E+00
         0.00000E+00
         0.00000E+00
         0.00000E+00
         0.00000E+00
         0.00000E+00
         0.00000E+00
         0.00000E+00
         0.00000E+00
         0.00000E+00
         0.00000E+00
         0.00000E+00
         0.00000E+00
         0.00000E+00
         0.00000E+00
         0.00000E+00
         0.00000E+00
         0.00000E+00
         0.00000E+00
         0.00000E+00
         0.00000E+00
         0.00000E+00
         0.00000E+00
         0.00000E+00
         0.00000E+00
         0.00000E+00
         0.00000E+00
         0.00000E+00
         0.00000E+00
         0.00000E+00
         0.00000E+00
         0.00000E+00
         0.00000E+00
         0.00000E+00
         0.00000E+00
         0.00000E+00
         0.00000E+00
         0.00000E+00
         0.00000E+00
         0.00000E+00
         0.00000E+00
         0.00000E+00
         0.00000E+00
         0.00000E+00
         0.00000E+00
         0.00000E+00
         0.00000E+00
         0.00000E+00
         0.00000E+00
         0.00000E+00
         0.00000E+00
         0.00000E+00
         0.00000E+00
         0.00000E+00
         0.00000E+00
         0.00000E+00
         0.00000E+00
         0.00000E+00
         0.00000E+00
         0.00000E+00
         0.00000E+00
         0.00000E+00
         0.00000E+00
         0.00000E+00
         0.00000E+00
         0.00000E+00
         0.00000E+00
         0.00000E+00
         0.00000E+00
         0.00000E+00
         0.00000E+00
         0.00000E+00
         0.00000E+00
         0.00000E+00
         0.00000E+00
         0.00000E+00
         0.00000E+00
         0.00000E+00
         0.00000E+00
         0.00000E+00
         0.00000E+00
         0.00000E+00
         0.00000E+00
         0.00000E+00
         0.00000E+00
         0.00000E+00
         0.00000E+00
         0.00000E+00
         0.00000E+00
         0.00000E+00
         0.00000E+00
         0.00000E+00
         0.00000E+00
         0.00000E+00
         0.00000E+00
         0.00000E+00
         0.00000E+00
         0.00000E+00
         0.00000E+00
         0.00000E+00
         0.00000E+00
         0.00000E+00
         0.00000E+00
         0.00000E+00
         0.00000E+00
         0.00000E+00
         0.00000E+00
         0.00000E+00
         0.00000E+00
         0.00000E+00
         0.00000E+00
         0.00000E+00
         0.00000E+00
         0.00000E+00
         0.00000E+00
         0.00000E+00
         0.00000E+00
         0.00000E+00
         0.00000E+00
         0.00000E+00
         0.00000E+00
         0.00000E+00
         0.00000E+00
         0.00000E+00
         0.00000E+00
         0.00000E+00
         0.00000E+00
         0.00000E+00
         0.00000E+00
         0.00000E+00
         0.00000E+00
         0.00000E+00
         0.00000E+00
         0.00000E+00
         0.00000E+00
         0.00000E+00
         0.00000E+00
         0.00000E+00
         0.00000E+00
         0.00000E+00
         0.00000E+00
         0.00000E+00
         0.00000E+00
         0.00000E+00
         0.00000E+00
         0.00000E+00
         0.00000E+00
         0.00000E+00
         0.00000E+00
         0.00000E+00
         0.00000E+00
         0.00000E+00
         0.00000E+00
         0.00000E+00
         0.00000E+00
         0.00000E+00
         0.00000E+00
         0.00000E+00
         0.00000E+00
         0.00000E+00
         0.00000E+00
         0.00000E+00
         0.00000E+00
         0.00000E+00
         0.00000E+00
         0.00000E+00
         0.00000E+00
         0.00000E+00
         0.00000E+00
         0.00000E+00
         0.00000E+00
         0.00000E+00
         0.00000E+00
         0.00000E+00
         0.00000E+00
         0.00000E+00
         0.00000E+00
         0.00000E+00
         0.00000E+00
         0.00000E+00
         0.00000E+00
         0.00000E+00
         0.00000E+00
         0.00000E+00
         0.00000E+00
         0.00000E+00
         0.00000E+00
         0.00000E+00
         0.00000E+00
         0.00000E+00
         0.00000E+00
         0.00000E+00
         0.00000E+00
         0.00000E+00
         0.00000E+00
         0.00000E+00
         0.00000E+00
         0.00000E+00
         0.00000E+00
         0.00000E+00
         0.00000E+00
         0.00000E+00
         0.00000E+00
         0.00000E+00
         0.00000E+00
         0.00000E+00
         0.00000E+00
         0.00000E+00
         0.00000E+00
         0.00000E+00
         0.00000E+00
         0.00000E+00
         0.00000E+00
         0.00000E+00
         0.00000E+00
         0.00000E+00
         0.00000E+00
         0.00000E+00
         0.00000E+00
         0.00000E+00
         0.00000E+00
         0.00000E+00
         0.00000E+00
         0.00000E+00
         0.00000E+00
         0.00000E+00
         0.00000E+00
         0.00000E+00
         0.00000E+00
         0.00000E+00
         0.00000E+00
         0.00000E+00
         0.00000E+00
         0.00000E+00
         0.00000E+00
         0.00000E+00
         0.00000E+00
         0.00000E+00
         0.00000E+00
         0.00000E+00
         0.00000E+00
         0.00000E+00
         0.00000E+00
         0.00000E+00
         0.00000E+00
         0.00000E+00
         0.00000E+00
         0.00000E+00
         0.00000E+00
         0.00000E+00
         0.00000E+00
         0.00000E+00
         0.00000E+00
         0.00000E+00
         0.00000E+00
         0.00000E+00
         0.00000E+00
         0.00000E+00
         0.00000E+00
         0.00000E+00
         0.00000E+00
         0.00000E+00
         0.00000E+00
         0.00000E+00
         0.00000E+00
         0.00000E+00
         0.00000E+00
         0.00000E+00
         0.00000E+00
         0.00000E+00
         0.00000E+00
         0.00000E+00
         0.00000E+00
         0.00000E+00
         0.00000E+00
         0.00000E+00
         0.00000E+00
         0.00000E+00
         0.00000E+00
         0.00000E+00
         0.00000E+00
         0.00000E+00
         0.00000E+00
         0.00000E+00
         0.00000E+00
         0.00000E+00
         0.00000E+00
         0.00000E+00
         0.00000E+00
         0.00000E+00
         0.00000E+00
         0.00000E+00
         0.00000E+00
         0.00000E+00
         0.00000E+00
         0.00000E+00
         0.00000E+00
         0.00000E+00
         0.00000E+00
         0.00000E+00
         0.00000E+00
         0.00000E+00
         0.00000E+00
         0.00000E+00
         0.00000E+00
         0.00000E+00
         0.00000E+00
         0.00000E+00
         0.00000E+00
         0.00000E+00
         0.00000E+00
         0.00000E+00
         0.00000E+00
         0.00000E+00
         0.00000E+00
         0.00000E+00
         0.00000E+00
         0.00000E+00
         0.00000E+00
         0.00000E+00
         0.00000E+00
         0.00000E+00
         0.00000E+00
         0.00000E+00
         0.00000E+00
         0.00000E+00
         0.00000E+00
         0.00000E+00
         0.00000E+00
         0.00000E+00
         0.00000E+00
         0.00000E+00
         0.00000E+00
         0.00000E+00
         0.00000E+00
         0.00000E+00
         0.00000E+00
         0.00000E+00
         0.00000E+00
         0.00000E+00
         0.00000E+00
         0.00000E+00
         0.00000E+00
         0.00000E+00
         0.00000E+00
         0.00000E+00
         0.00000E+00
         0.00000E+00
         0.00000E+00
         0.00000E+00
         0.00000E+00
         0.00000E+00
         0.00000E+00
         0.00000E+00
         0.00000E+00
         0.00000E+00
         0.00000E+00
         0.00000E+00
         0.00000E+00
         0.00000E+00
         0.00000E+00
         0.00000E+00
         0.00000E+00
         0.00000E+00
         0.00000E+00
         0.00000E+00
         0.00000E+00
         0.00000E+00
         0.00000E+00
         0.00000E+00
         0.00000E+00
         0.00000E+00
         0.00000E+00
         0.00000E+00
         0.00000E+00
         0.00000E+00
         0.00000E+00
         0.00000E+00
         0.00000E+00
         0.00000E+00
         0.00000E+00
         0.00000E+00
         0.00000E+00
         0.00000E+00
         0.00000E+00
         0.00000E+00
         0.00000E+00
         0.00000E+00
         0.00000E+00
         0.00000E+00
         0.00000E+00
         0.00000E+00
         0.00000E+00
         0.00000E+00
         0.00000E+00
         0.00000E+00
         0.00000E+00
         0.00000E+00
         0.00000E+00
         0.00000E+00
         0.00000E+00
         0.00000E+00
         0.00000E+00
         0.00000E+00
         0.00000E+00
         0.00000E+00
         0.00000E+00
         0.00000E+00
         0.00000E+00
         0.00000E+00
         0.00000E+00
         0.00000E+00
         0.00000E+00
         0.00000E+00
         0.00000E+00
         0.00000E+00
         0.00000E+00
         0.00000E+00
         0.00000E+00
         0.00000E+00
         0.00000E+00
         0.00000E+00
         0.00000E+00
         0.00000E+00
         0.00000E+00
         0.00000E+00
         0.00000E+00
         0.00000E+00
         0.00000E+00
         0.00000E+00
         0.00000E+00
         0.00000E+00
         0.00000E+00
         0.00000E+00
         0.00000E+00
         0.00000E+00
         0.00000E+00
         0.00000E+00
         0.00000E+00
         0.00000E+00
         0.00000E+00
         0.00000E+00
         0.00000E+00
         0.00000E+00
         0.00000E+00
         0.00000E+00
         0.00000E+00
         0.00000E+00
         0.00000E+00
         0.00000E+00
         0.00000E+00
         0.00000E+00
         0.00000E+00
         0.00000E+00
         0.00000E+00
         0.00000E+00
         0.00000E+00
         0.00000E+00
         0.00000E+00
         0.00000E+00
         0.00000E+00
         0.00000E+00
         0.00000E+00
         0.00000E+00
         0.00000E+00
         0.00000E+00
         0.00000E+00
         0.00000E+00
         0.00000E+00
         0.00000E+00
         0.00000E+00
         0.00000E+00
         0.00000E+00
         0.00000E+00
         0.00000E+00
         0.00000E+00
         0.00000E+00
         0.00000E+00
         0.00000E+00
         0.00000E+00
         0.00000E+00
         0.00000E+00
         0.00000E+00
         0.00000E+00
         0.00000E+00
         0.00000E+00
         0.00000E+00
         0.00000E+00
         0.00000E+00
         0.00000E+00
         0.00000E+00
         0.00000E+00
         0.00000E+00
         0.00000E+00
         0.00000E+00
         0.00000E+00
         0.00000E+00
         0.00000E+00
         0.00000E+00
         0.00000E+00
         0.00000E+00
         0.00000E+00
         0.00000E+00
         0.00000E+00
         0.00000E+00
         0.00000E+00
         0.00000E+00
         0.00000E+00
         0.00000E+00
         0.00000E+00
         0.00000E+00
         0.00000E+00
         0.00000E+00
         0.00000E+00
         0.00000E+00
         0.00000E+00
         0.00000E+00
         0.00000E+00
         0.00000E+00
         0.00000E+00
         0.00000E+00
         0.00000E+00
         0.00000E+00
         0.00000E+00
         0.00000E+00
         0.00000E+00
         0.00000E+00
         0.00000E+00
         0.00000E+00
         0.00000E+00
         0.00000E+00
         0.00000E+00
         0.00000E+00
         0.00000E+00
         0.00000E+00
         0.00000E+00
         0.00000E+00
         0.00000E+00
         0.00000E+00
         0.00000E+00
         0.00000E+00
         0.00000E+00
         0.00000E+00
         0.00000E+00
         0.00000E+00
         0.00000E+00
         0.00000E+00
         0.00000E+00
         0.00000E+00
         0.00000E+00
         0.00000E+00
         0.00000E+00
         0.00000E+00
         0.00000E+00
         0.00000E+00
         0.00000E+00
         0.00000E+00
         0.00000E+00
         0.00000E+00
         0.00000E+00
         0.00000E+00
         0.00000E+00
         0.00000E+00
         0.00000E+00
         0.00000E+00
         0.00000E+00
         0.00000E+00
         0.00000E+00
         0.00000E+00
         0.00000E+00
         0.00000E+00
         0.00000E+00
         0.00000E+00
         0.00000E+00
         0.00000E+00
         0.00000E+00
         0.00000E+00
         0.00000E+00
         0.00000E+00
         0.00000E+00
         0.00000E+00
         0.00000E+00
         0.00000E+00
         0.00000E+00
         0.00000E+00
         0.00000E+00
         0.00000E+00
         0.00000E+00
         0.00000E+00
         0.00000E+00
         0.00000E+00
         0.00000E+00
         0.00000E+00
         0.00000E+00
         0.00000E+00
         0.00000E+00
         0.00000E+00
         0.00000E+00
         0.00000E+00
         0.00000E+00
         0.00000E+00
         0.00000E+00
         0.00000E+00
         0.00000E+00
         0.00000E+00
         0.00000E+00
         0.00000E+00
         0.00000E+00
         0.00000E+00
         0.00000E+00
         0.00000E+00
         0.00000E+00
         0.00000E+00
         0.00000E+00
         0.00000E+00
         0.00000E+00
         0.00000E+00
         0.00000E+00
         0.00000E+00
         0.00000E+00
         0.00000E+00
         0.00000E+00
         0.00000E+00
         0.00000E+00
         0.00000E+00
         0.00000E+00
         0.00000E+00
         0.00000E+00
         0.00000E+00
         0.00000E+00
         0.00000E+00
         0.00000E+00
         0.00000E+00
         0.00000E+00
         0.00000E+00
         0.00000E+00
         0.00000E+00
         0.00000E+00
         0.00000E+00
         0.00000E+00
         0.00000E+00
         0.00000E+00
         0.00000E+00
         0.00000E+00
         0.00000E+00
         0.00000E+00
         0.00000E+00
         0.00000E+00
         0.00000E+00
         0.00000E+00
         0.00000E+00
         0.00000E+00
         0.00000E+00
         0.00000E+00
         0.00000E+00
         0.00000E+00
         0.00000E+00
         0.00000E+00
         0.00000E+00
         0.00000E+00
         0.00000E+00
         0.00000E+00
         0.00000E+00
         0.00000E+00
         0.00000E+00
         0.00000E+00
         0.00000E+00
         0.00000E+00
         0.00000E+00
         0.00000E+00
         0.00000E+00
         0.00000E+00
         0.00000E+00
         0.00000E+00
         0.00000E+00
         0.00000E+00
         0.00000E+00
         0.00000E+00
         0.00000E+00
         0.00000E+00
         0.00000E+00
         0.00000E+00
         0.00000E+00
         0.00000E+00
         0.00000E+00
         0.00000E+00
         0.00000E+00
         0.00000E+00
         0.00000E+00
         0.00000E+00
         0.00000E+00
         0.00000E+00
         0.00000E+00
         0.00000E+00
         0.00000E+00
         0.00000E+00
         0.00000E+00
         0.00000E+00
         0.00000E+00
         0.00000E+00
         0.00000E+00
         0.00000E+00
         0.00000E+00
         0.00000E+00
         0.00000E+00
         0.00000E+00
         0.00000E+00
         0.00000E+00
         0.00000E+00
         0.00000E+00
         0.00000E+00
         0.00000E+00
         0.00000E+00
         0.00000E+00
         0.00000E+00
         0.00000E+00
         0.00000E+00
         0.00000E+00
         0.00000E+00
         0.00000E+00
         0.00000E+00
         0.00000E+00
         0.00000E+00
         0.00000E+00
         0.00000E+00
         0.00000E+00
         0.00000E+00
         0.00000E+00
         0.00000E+00
         0.00000E+00
         0.00000E+00
         0.00000E+00
         0.00000E+00
         0.00000E+00
         0.00000E+00
         0.00000E+00
         0.00000E+00
         0.00000E+00
         0.00000E+00
         0.00000E+00
         0.00000E+00
         0.00000E+00
         0.00000E+00
         0.00000E+00
         0.00000E+00
         0.00000E+00
         0.00000E+00
         0.00000E+00
         0.00000E+00
         0.00000E+00
         0.00000E+00
         0.00000E+00
         0.00000E+00
         0.00000E+00
         0.00000E+00
         0.00000E+00
         0.00000E+00
         0.00000E+00
         0.00000E+00
         0.00000E+00
         0.00000E+00
         0.00000E+00
         0.00000E+00
         0.00000E+00
         0.00000E+00
         0.00000E+00
         0.00000E+00
         0.00000E+00
         0.00000E+00
         0.00000E+00
         0.00000E+00
         0.00000E+00
         0.00000E+00
         0.00000E+00
         0.00000E+00
         0.00000E+00
         0.00000E+00
         0.00000E+00
         0.00000E+00
         0.00000E+00
         0.00000E+00
         0.00000E+00
         0.00000E+00
         0.00000E+00
         0.00000E+00
         0.00000E+00
         0.00000E+00
         0.00000E+00
         0.00000E+00
         0.00000E+00
         0.00000E+00
         0.00000E+00
         0.00000E+00
         0.00000E+00
         0.00000E+00
         0.00000E+00
         0.00000E+00
         0.00000E+00
         0.00000E+00
         0.00000E+00
         0.00000E+00
         0.00000E+00
         0.00000E+00
         0.00000E+00
         0.00000E+00
         0.00000E+00
         0.00000E+00
         0.00000E+00
         0.00000E+00
         0.00000E+00
         0.00000E+00
         0.00000E+00
         0.00000E+00
         0.00000E+00
         0.00000E+00
         0.00000E+00
         0.00000E+00
         0.00000E+00
         0.00000E+00
         0.00000E+00
         0.00000E+00
         0.00000E+00
         0.00000E+00
         0.00000E+00
         0.00000E+00
         0.00000E+00
         0.00000E+00
         0.00000E+00
         0.00000E+00
         0.00000E+00
         0.00000E+00
         0.00000E+00
         0.00000E+00
         0.00000E+00
         0.00000E+00
         0.00000E+00
         0.00000E+00
         0.00000E+00
         0.00000E+00
         0.00000E+00
         0.00000E+00
         0.00000E+00
         0.00000E+00
         0.00000E+00
         0.00000E+00
         0.00000E+00
         0.00000E+00
         0.00000E+00
         0.00000E+00
         0.00000E+00
         0.00000E+00
         0.00000E+00
         0.00000E+00
         0.00000E+00
         0.00000E+00
         0.00000E+00
         0.00000E+00
         0.00000E+00
         0.00000E+00
         0.00000E+00
         0.00000E+00
         0.00000E+00
         0.00000E+00
         0.00000E+00
         0.00000E+00
         0.00000E+00
         0.00000E+00
         0.00000E+00
         0.00000E+00
         0.00000E+00
         0.00000E+00
         0.00000E+00
         0.00000E+00
         0.00000E+00
         0.00000E+00
         0.00000E+00
         0.00000E+00
         0.00000E+00
         0.00000E+00
         0.00000E+00
         0.00000E+00
         0.00000E+00
         0.00000E+00
         0.00000E+00
         0.00000E+00
         0.00000E+00
         0.00000E+00
         0.00000E+00
         0.00000E+00
         0.00000E+00
         0.00000E+00
         0.00000E+00
         0.00000E+00
         0.00000E+00
         0.00000E+00
         0.00000E+00
         0.00000E+00
         0.00000E+00
         0.00000E+00
         0.00000E+00
         0.00000E+00
         0.00000E+00
         0.00000E+00
         0.00000E+00
         0.00000E+00
         0.00000E+00
         0.00000E+00
         0.00000E+00
         0.00000E+00
         0.00000E+00
         0.00000E+00
         0.00000E+00
         0.00000E+00
         0.00000E+00
         0.00000E+00
         0.00000E+00
         0.00000E+00
         0.00000E+00
         0.00000E+00
         0.00000E+00
         0.00000E+00
         0.00000E+00
         0.00000E+00
         0.00000E+00
         0.00000E+00
         0.00000E+00
         0.00000E+00
         0.00000E+00
         0.00000E+00
         0.00000E+00
         0.00000E+00
         0.00000E+00
         0.00000E+00
         0.00000E+00
         0.00000E+00
         0.00000E+00
         0.00000E+00
         0.00000E+00
         0.00000E+00
         0.00000E+00
         0.00000E+00
         0.00000E+00
         0.00000E+00
         0.00000E+00
         0.00000E+00
         0.00000E+00
         0.00000E+00
         0.00000E+00
         0.00000E+00
         0.00000E+00
         0.00000E+00
         0.00000E+00
         0.00000E+00
         0.00000E+00
         0.00000E+00
         0.00000E+00
         0.00000E+00
         0.00000E+00
         0.00000E+00
         0.00000E+00
         0.00000E+00
         0.00000E+00
         0.00000E+00
         0.00000E+00
         0.00000E+00
         0.00000E+00
         0.00000E+00
         0.00000E+00
         0.00000E+00
         0.00000E+00
         0.00000E+00
         0.00000E+00
         0.00000E+00
         0.00000E+00
         0.00000E+00
         0.00000E+00
         0.00000E+00
         0.00000E+00
         0.00000E+00
         0.00000E+00
         0.00000E+00
         0.00000E+00
         0.00000E+00
         0.00000E+00
         0.00000E+00
         0.00000E+00
         0.00000E+00
         0.00000E+00
         0.00000E+00
         0.00000E+00
         0.00000E+00
         0.00000E+00
         0.00000E+00
         0.00000E+00
         0.00000E+00
         0.00000E+00
         0.00000E+00
         0.00000E+00
         0.00000E+00
         0.00000E+00
         0.00000E+00
         0.00000E+00
         0.00000E+00
         0.00000E+00
         0.00000E+00
         0.00000E+00
         0.00000E+00
         0.00000E+00
         0.00000E+00
         0.00000E+00
         0.00000E+00
         0.00000E+00
         0.00000E+00
         0.00000E+00
         0.00000E+00
         0.00000E+00
         0.00000E+00
         0.00000E+00
         0.00000E+00
         0.00000E+00
         0.00000E+00
         0.00000E+00
         0.00000E+00
         0.00000E+00
         0.00000E+00
         0.00000E+00
         0.00000E+00
         0.00000E+00
         0.00000E+00
         0.00000E+00
         0.00000E+00
         0.00000E+00
         0.00000E+00
         0.00000E+00
         0.00000E+00
         0.00000E+00
         0.00000E+00
         0.00000E+00
         0.00000E+00
         0.00000E+00
         0.00000E+00
         0.00000E+00
         0.00000E+00
         0.00000E+00
         0.00000E+00
         0.00000E+00
         0.00000E+00
         0.00000E+00
         0.00000E+00
         0.00000E+00
         0.00000E+00
         0.00000E+00
         0.00000E+00
         0.00000E+00
         0.00000E+00
         0.00000E+00
         0.00000E+00
         0.00000E+00
         0.00000E+00
         0.00000E+00
         0.00000E+00
         0.00000E+00
         0.00000E+00
         0.00000E+00
         0.00000E+00
         0.00000E+00
         0.00000E+00
         0.00000E+00
         0.00000E+00
         0.00000E+00
         0.00000E+00
         0.00000E+00
         0.00000E+00
         0.00000E+00
         0.00000E+00
         0.00000E+00
         0.00000E+00
         0.00000E+00
         0.00000E+00
         0.00000E+00
         0.00000E+00
         0.00000E+00
         0.00000E+00
         0.00000E+00
         0.00000E+00
         0.00000E+00
         0.00000E+00
         0.00000E+00
         0.00000E+00
         0.00000E+00
         0.00000E+00
         0.00000E+00
         0.00000E+00
         0.00000E+00
         0.00000E+00
         0.00000E+00
         0.00000E+00
         0.00000E+00
         0.00000E+00
         0.00000E+00
         0.00000E+00
         0.00000E+00
         0.00000E+00
         0.00000E+00
         0.00000E+00
         0.00000E+00
         0.00000E+00
         0.00000E+00
         0.00000E+00
         0.00000E+00
         0.00000E+00
         0.00000E+00
         0.00000E+00
         0.00000E+00
         0.00000E+00
         0.00000E+00
         0.00000E+00
         0.00000E+00
         0.00000E+00
         0.00000E+00
         0.00000E+00
         0.00000E+00
         0.00000E+00
         0.00000E+00
         0.00000E+00
         0.00000E+00
         0.00000E+00
         0.00000E+00
         0.00000E+00
         0.00000E+00
         0.00000E+00
         0.00000E+00
         0.00000E+00
         0.00000E+00
         0.00000E+00
         0.00000E+00
         0.00000E+00
         0.00000E+00
         0.00000E+00
         0.00000E+00
         0.00000E+00
         0.00000E+00
         0.00000E+00
         0.00000E+00
         0.00000E+00
         0.00000E+00
         0.00000E+00
         0.00000E+00
         0.00000E+00
         0.00000E+00
         0.00000E+00
         0.00000E+00
         0.00000E+00
         0.00000E+00
         0.00000E+00
         0.00000E+00
         0.00000E+00
         0.00000E+00
         0.00000E+00
         0.00000E+00
         0.00000E+00
         0.00000E+00
         0.00000E+00
         0.00000E+00
         0.00000E+00
         0.00000E+00
         0.00000E+00
         0.00000E+00
         0.00000E+00
         0.00000E+00
         0.00000E+00
         0.00000E+00
         0.00000E+00
         0.00000E+00
         0.00000E+00
         0.00000E+00
         0.00000E+00
         0.00000E+00
         0.00000E+00
         0.00000E+00
         0.00000E+00
         0.00000E+00
         0.00000E+00
         0.00000E+00
         0.00000E+00
         0.00000E+00
         0.00000E+00
         0.00000E+00
         0.00000E+00
         0.00000E+00
         0.00000E+00
         0.00000E+00
         0.00000E+00
         0.00000E+00
         0.00000E+00
         0.00000E+00
         0.00000E+00
         0.00000E+00
         0.00000E+00
         0.00000E+00
         0.00000E+00
         0.00000E+00
         0.00000E+00
         0.00000E+00
         0.00000E+00
         0.00000E+00
         0.00000E+00
         0.00000E+00
         0.00000E+00
         0.00000E+00
         0.00000E+00
         0.00000E+00
         0.00000E+00
         0.00000E+00
         0.00000E+00
         0.00000E+00
         0.00000E+00
         0.00000E+00
         0.00000E+00
         0.00000E+00
         0.00000E+00
         0.00000E+00
         0.00000E+00
         0.00000E+00
         0.00000E+00
         0.00000E+00
         0.00000E+00
         0.00000E+00
         0.00000E+00
         0.00000E+00
         0.00000E+00
         0.00000E+00
         0.00000E+00
         0.00000E+00
         0.00000E+00
         0.00000E+00
         0.00000E+00
         0.00000E+00
         0.00000E+00
         0.00000E+00
         0.00000E+00
         0.00000E+00
         0.00000E+00
         0.00000E+00
         0.00000E+00
         0.00000E+00
         0.00000E+00
         0.00000E+00
         0.00000E+00
         0.00000E+00
         0.00000E+00
         0.00000E+00
         0.00000E+00
         0.00000E+00
         0.00000E+00
         0.00000E+00
         0.00000E+00
         0.00000E+00
         0.00000E+00
         0.00000E+00
         0.00000E+00
         0.00000E+00
         0.00000E+00
         0.00000E+00
         0.00000E+00
         0.00000E+00
         0.00000E+00
         0.00000E+00
         0.00000E+00
         0.00000E+00
         0.00000E+00
         0.00000E+00
         0.00000E+00
         0.00000E+00
         0.00000E+00
         0.00000E+00
         0.00000E+00
         0.00000E+00
         0.00000E+00
         0.00000E+00
         0.00000E+00
         0.00000E+00
         0.00000E+00
         0.00000E+00
         0.00000E+00
         0.00000E+00
         0.00000E+00
         0.00000E+00
         0.00000E+00
         0.00000E+00
         0.00000E+00
         0.00000E+00
         0.00000E+00
         0.00000E+00
         0.00000E+00
         0.00000E+00
         0.00000E+00
         0.00000E+00
         0.00000E+00
         0.00000E+00
         0.00000E+00
         0.00000E+00
         0.00000E+00
         0.00000E+00
         0.00000E+00
         0.00000E+00
         0.00000E+00
         0.00000E+00
         0.00000E+00
         0.00000E+00
         0.00000E+00
         0.00000E+00
         0.00000E+00
         0.00000E+00
         0.00000E+00
         0.00000E+00
         0.00000E+00
         0.00000E+00
         0.00000E+00
         0.00000E+00
         0.00000E+00
         0.00000E+00
         0.00000E+00
         0.00000E+00
         0.00000E+00
         0.00000E+00
         0.00000E+00
         0.00000E+00
         0.00000E+00
         0.00000E+00
         0.00000E+00
         0.00000E+00
         0.00000E+00
         0.00000E+00
         0.00000E+00
         0.00000E+00
         0.00000E+00
         0.00000E+00
         0.00000E+00
         0.00000E+00
         0.00000E+00
         0.00000E+00
         0.00000E+00
         0.00000E+00
         0.00000E+00
         0.00000E+00
         0.00000E+00
         0.00000E+00
         0.00000E+00
         0.00000E+00
         0.00000E+00
         0.00000E+00
         0.00000E+00
         0.00000E+00
         0.00000E+00
         0.00000E+00
         0.00000E+00
         0.00000E+00
         0.00000E+00
         0.00000E+00
         0.00000E+00
         0.00000E+00
         0.00000E+00
         0.00000E+00
         0.00000E+00
         0.00000E+00
         0.00000E+00
         0.00000E+00
         0.00000E+00
         0.00000E+00
         0.00000E+00
         0.00000E+00
         0.00000E+00
         0.00000E+00
         0.00000E+00
         0.00000E+00
         0.00000E+00
         0.00000E+00
         0.00000E+00
         0.00000E+00
         0.00000E+00
         0.00000E+00
         0.00000E+00
         0.00000E+00
         0.00000E+00
         0.00000E+00
         0.00000E+00
         0.00000E+00
         0.00000E+00
         0.00000E+00
         0.00000E+00
         0.00000E+00
         0.00000E+00
         0.00000E+00
         0.00000E+00
         0.00000E+00
         0.00000E+00
         0.00000E+00
         0.00000E+00
         0.00000E+00
         0.00000E+00
         0.00000E+00
         0.00000E+00
         0.00000E+00
         0.00000E+00
         0.00000E+00
         0.00000E+00
         0.00000E+00
         0.00000E+00
         0.00000E+00
         0.00000E+00
         0.00000E+00
         0.00000E+00
         0.00000E+00
         0.00000E+00
         0.00000E+00
         0.00000E+00
         0.00000E+00
         0.00000E+00
         0.00000E+00
         0.00000E+00
         0.00000E+00
         0.00000E+00
         0.00000E+00
         0.00000E+00
         0.00000E+00
         0.00000E+00
         0.00000E+00
         0.00000E+00
         0.00000E+00
         0.00000E+00
         0.00000E+00
         0.00000E+00
         0.00000E+00
         0.00000E+00
         0.00000E+00
         0.00000E+00
         0.00000E+00
         0.00000E+00
         0.00000E+00
         0.00000E+00
         0.00000E+00
         0.00000E+00
         0.00000E+00
         0.00000E+00
         0.00000E+00
         0.00000E+00
         0.00000E+00
         0.00000E+00
         0.00000E+00
         0.00000E+00
         0.00000E+00
         0.00000E+00
         0.00000E+00
         0.00000E+00
         0.00000E+00
         0.00000E+00
         0.00000E+00
         0.00000E+00
         0.00000E+00
         0.00000E+00
         0.00000E+00
         0.00000E+00
         0.00000E+00
         0.00000E+00
         0.00000E+00
         0.00000E+00
         0.00000E+00
         0.00000E+00
         0.00000E+00
         0.00000E+00
         0.00000E+00
         0.00000E+00
         0.00000E+00
         0.00000E+00
         0.00000E+00
         0.00000E+00
         0.00000E+00
         0.00000E+00
         0.00000E+00
         0.00000E+00
         0.00000E+00
         0.00000E+00
         0.00000E+00
         0.00000E+00
         0.00000E+00
         0.00000E+00
         0.00000E+00
         0.00000E+00
         0.00000E+00
         0.00000E+00
         0.00000E+00
         0.00000E+00
         0.00000E+00
         0.00000E+00
         0.00000E+00
         0.00000E+00
         0.00000E+00
         0.00000E+00
         0.00000E+00
         0.00000E+00
         0.00000E+00
         0.00000E+00
         0.00000E+00
         0.00000E+00
         0.00000E+00
         0.00000E+00
         0.00000E+00
         0.00000E+00
         0.00000E+00
         0.00000E+00
         0.00000E+00
         0.00000E+00
         0.00000E+00
         0.00000E+00
         0.00000E+00
         0.00000E+00
         0.00000E+00
         0.00000E+00
         0.00000E+00
         0.00000E+00
         0.00000E+00
         0.00000E+00
         0.00000E+00
         0.00000E+00
         0.00000E+00
         0.00000E+00
         0.00000E+00
         0.00000E+00
         0.00000E+00
         0.00000E+00
         0.00000E+00
         0.00000E+00
         0.00000E+00
         0.00000E+00
         0.00000E+00
         0.00000E+00
         0.00000E+00
         0.00000E+00
         0.00000E+00
         0.00000E+00
         0.00000E+00
         0.00000E+00
         0.00000E+00
         0.00000E+00
         0.00000E+00
         0.00000E+00
         0.00000E+00
         0.00000E+00
         0.00000E+00
         0.00000E+00
         0.00000E+00
         0.00000E+00
         0.00000E+00
         0.00000E+00
         0.00000E+00
         0.00000E+00
         0.00000E+00
         0.00000E+00
         0.00000E+00
         0.00000E+00
         0.00000E+00
         0.00000E+00
         0.00000E+00
         0.00000E+00
         0.00000E+00
         0.00000E+00
         0.00000E+00
         0.00000E+00
         0.00000E+00
         0.00000E+00
         0.00000E+00
         0.00000E+00
         0.00000E+00
         0.00000E+00
         0.00000E+00
         0.00000E+00
         0.00000E+00
         0.00000E+00
         0.00000E+00
         0.00000E+00
         0.00000E+00
         0.00000E+00
         0.00000E+00
         0.00000E+00
         0.00000E+00
         0.00000E+00
         0.00000E+00
         0.00000E+00
         0.00000E+00
         0.00000E+00
         0.00000E+00
         0.00000E+00
         0.00000E+00
         0.00000E+00
         0.00000E+00
         0.00000E+00
         0.00000E+00
         0.00000E+00
         0.00000E+00
         0.00000E+00
         0.00000E+00
         0.00000E+00
         0.00000E+00
         0.00000E+00
         0.00000E+00
         0.00000E+00
         0.00000E+00
         0.00000E+00
         0.00000E+00
         0.00000E+00
         0.00000E+00
         0.00000E+00
         0.00000E+00
         0.00000E+00
         0.00000E+00
         0.00000E+00
         0.00000E+00
         0.00000E+00
         0.00000E+00
         0.00000E+00
         0.00000E+00
         0.00000E+00
         0.00000E+00
         0.00000E+00
         0.00000E+00
         0.00000E+00
         0.00000E+00
         0.00000E+00
         0.00000E+00
         0.00000E+00
         0.00000E+00
         0.00000E+00
         0.00000E+00
         0.00000E+00
         0.00000E+00
         0.00000E+00
         0.00000E+00
         0.00000E+00
         0.00000E+00
         0.00000E+00
         0.00000E+00
         0.00000E+00
         0.00000E+00
         0.00000E+00
         0.00000E+00
         0.00000E+00
         0.00000E+00
         0.00000E+00
         0.00000E+00
         0.00000E+00
         0.00000E+00
         0.00000E+00
         0.00000E+00
         0.00000E+00
         0.00000E+00
         0.00000E+00
         0.00000E+00
         0.00000E+00
         0.00000E+00
         0.00000E+00
         0.00000E+00
         0.00000E+00
         0.00000E+00
         0.00000E+00
         0.00000E+00
         0.00000E+00
         0.00000E+00
         0.00000E+00
         0.00000E+00
         0.00000E+00
         0.00000E+00
         0.00000E+00
         0.00000E+00
         0.00000E+00
         0.00000E+00
         0.00000E+00
         0.00000E+00
         0.00000E+00
         0.00000E+00
         0.00000E+00
         0.00000E+00
         0.00000E+00
         0.00000E+00
         0.00000E+00
         0.00000E+00
         0.00000E+00
         0.00000E+00
         0.00000E+00
         0.00000E+00
         0.00000E+00
         0.00000E+00
         0.00000E+00
         0.00000E+00
         0.00000E+00
         0.00000E+00
         0.00000E+00
         0.00000E+00
         0.00000E+00
         0.00000E+00
         0.00000E+00
         0.00000E+00
         0.00000E+00
         0.00000E+00
         0.00000E+00
         0.00000E+00
         0.00000E+00
         0.00000E+00
         0.00000E+00
         0.00000E+00
         0.00000E+00
         0.00000E+00
         0.00000E+00
         0.00000E+00
         0.00000E+00
         0.00000E+00
         0.00000E+00
         0.00000E+00
         0.00000E+00
         0.00000E+00
         0.00000E+00
         0.00000E+00
         0.00000E+00
         0.00000E+00
         0.00000E+00
         0.00000E+00
         0.00000E+00
         0.00000E+00
         0.00000E+00
         0.00000E+00
         0.00000E+00
         0.00000E+00
         0.00000E+00
         0.00000E+00
         0.00000E+00
         0.00000E+00
         0.00000E+00
         0.00000E+00
         0.00000E+00
         0.00000E+00
         0.00000E+00
         0.00000E+00
         0.00000E+00
         0.00000E+00
         0.00000E+00
         0.00000E+00
         0.00000E+00
         0.00000E+00
         0.00000E+00
         0.00000E+00
         0.00000E+00
         0.00000E+00
         0.00000E+00
         0.00000E+00
         0.00000E+00
         0.00000E+00
         0.00000E+00
         0.00000E+00
         0.00000E+00
         0.00000E+00
         0.00000E+00
         0.00000E+00
         0.00000E+00
         0.00000E+00
         0.00000E+00
         0.00000E+00
         0.00000E+00
         0.00000E+00
         0.00000E+00
         0.00000E+00
         0.00000E+00
         0.00000E+00
         0.00000E+00
         0.00000E+00
         0.00000E+00
         0.00000E+00
         0.00000E+00
         0.00000E+00
         0.00000E+00
         0.00000E+00
         0.00000E+00
         0.00000E+00
         0.00000E+00
         0.00000E+00
         0.00000E+00
         0.00000E+00
         0.00000E+00
         0.00000E+00
         0.00000E+00
         0.00000E+00
         0.00000E+00
         0.00000E+00
         0.00000E+00
         0.00000E+00
         0.00000E+00
         0.00000E+00
         0.00000E+00
         0.00000E+00
         0.00000E+00
         0.00000E+00
         0.00000E+00
         0.00000E+00
         0.00000E+00
         0.00000E+00
         0.00000E+00
         0.00000E+00
         0.00000E+00
         0.00000E+00
         0.00000E+00
         0.00000E+00
         0.00000E+00
         0.00000E+00
         0.00000E+00
         0.00000E+00
         0.00000E+00
         0.00000E+00
         0.00000E+00
         0.00000E+00
         0.00000E+00
         0.00000E+00
         0.00000E+00
         0.00000E+00
         0.00000E+00
         0.00000E+00
         0.00000E+00
         0.00000E+00
         0.00000E+00
         0.00000E+00
         0.00000E+00
         0.00000E+00
         0.00000E+00
         0.00000E+00
         0.00000E+00
         0.00000E+00
         0.00000E+00
         0.00000E+00
         0.00000E+00
         0.00000E+00
         0.00000E+00
         0.00000E+00
         0.00000E+00
         0.00000E+00
         0.00000E+00
         0.00000E+00
         0.00000E+00
         0.00000E+00
         0.00000E+00
         0.00000E+00
         0.00000E+00
         0.00000E+00
         0.00000E+00
         0.00000E+00
         0.00000E+00
         0.00000E+00
  
SCALARS                   max_wave_vel  double 1
LOOKUP_TABLE default
         0.00000E+00
         0.00000E+00
         0.00000E+00
         0.00000E+00
         0.00000E+00
         0.00000E+00
         0.00000E+00
         0.00000E+00
         0.00000E+00
         0.00000E+00
         0.00000E+00
         0.00000E+00
         0.00000E+00
         0.00000E+00
         0.00000E+00
         0.00000E+00
         0.00000E+00
         0.00000E+00
         0.00000E+00
         0.00000E+00
         0.00000E+00
         0.00000E+00
         0.00000E+00
         0.00000E+00
         0.00000E+00
         0.00000E+00
         0.00000E+00
         0.00000E+00
         0.00000E+00
         0.00000E+00
         0.00000E+00
         0.00000E+00
         0.00000E+00
         0.00000E+00
         0.00000E+00
         0.00000E+00
         0.00000E+00
         0.00000E+00
         0.00000E+00
         0.00000E+00
         0.00000E+00
         0.00000E+00
         0.00000E+00
         0.00000E+00
         0.00000E+00
         0.00000E+00
         0.00000E+00
         0.00000E+00
         0.00000E+00
         0.00000E+00
         0.00000E+00
         0.00000E+00
         0.00000E+00
         0.00000E+00
         0.00000E+00
         0.00000E+00
         0.00000E+00
         0.00000E+00
         0.00000E+00
         0.00000E+00
         0.00000E+00
         0.00000E+00
         0.00000E+00
         0.00000E+00
         0.00000E+00
         0.00000E+00
         0.00000E+00
         0.00000E+00
         0.00000E+00
         0.00000E+00
         0.00000E+00
         0.00000E+00
         0.00000E+00
         0.00000E+00
         0.00000E+00
         0.00000E+00
         0.00000E+00
         0.00000E+00
         0.00000E+00
         0.00000E+00
         0.00000E+00
         0.00000E+00
         0.00000E+00
         0.00000E+00
         0.00000E+00
         0.00000E+00
         0.00000E+00
         0.00000E+00
         0.00000E+00
         0.00000E+00
         0.00000E+00
         0.00000E+00
         0.00000E+00
         0.00000E+00
         0.00000E+00
         0.00000E+00
         0.00000E+00
         0.00000E+00
         0.00000E+00
         0.00000E+00
         0.00000E+00
         0.00000E+00
         0.00000E+00
         0.00000E+00
         0.00000E+00
         0.00000E+00
         0.00000E+00
         0.00000E+00
         0.00000E+00
         0.00000E+00
         0.00000E+00
         0.00000E+00
         0.00000E+00
         0.00000E+00
         0.00000E+00
         0.00000E+00
         0.00000E+00
         0.00000E+00
         0.00000E+00
         0.00000E+00
         0.00000E+00
         0.00000E+00
         0.00000E+00
         0.00000E+00
         0.00000E+00
         0.00000E+00
         0.00000E+00
         0.00000E+00
         0.00000E+00
         0.00000E+00
         0.00000E+00
         0.00000E+00
         0.00000E+00
         0.00000E+00
         0.00000E+00
         0.00000E+00
         0.00000E+00
         0.00000E+00
         0.00000E+00
         0.00000E+00
         0.00000E+00
         0.00000E+00
         0.00000E+00
         0.00000E+00
         0.00000E+00
         0.00000E+00
         0.00000E+00
         0.00000E+00
         0.00000E+00
         0.00000E+00
         0.00000E+00
         0.00000E+00
         0.00000E+00
         0.00000E+00
         0.00000E+00
         0.00000E+00
         0.00000E+00
         0.00000E+00
         0.00000E+00
         0.00000E+00
         0.00000E+00
         0.00000E+00
         0.00000E+00
         0.00000E+00
         0.00000E+00
         0.00000E+00
         0.00000E+00
         0.00000E+00
         0.00000E+00
         0.00000E+00
         0.00000E+00
         0.00000E+00
         0.00000E+00
         0.00000E+00
         0.00000E+00
         0.00000E+00
         0.00000E+00
         0.00000E+00
         0.00000E+00
         0.00000E+00
         0.00000E+00
         0.00000E+00
         0.00000E+00
         0.00000E+00
         0.00000E+00
         0.00000E+00
         0.00000E+00
         0.00000E+00
         0.00000E+00
         0.00000E+00
         0.00000E+00
         0.00000E+00
         0.00000E+00
         0.00000E+00
         0.00000E+00
         0.00000E+00
         0.00000E+00
         0.00000E+00
         0.00000E+00
         0.00000E+00
         0.00000E+00
         0.00000E+00
         0.00000E+00
         0.00000E+00
         0.00000E+00
         0.00000E+00
         0.00000E+00
         0.00000E+00
         0.00000E+00
         0.00000E+00
         0.00000E+00
         0.00000E+00
         0.00000E+00
         0.00000E+00
         0.00000E+00
         0.00000E+00
         0.00000E+00
         0.00000E+00
         0.00000E+00
         0.00000E+00
         0.00000E+00
         0.00000E+00
         0.00000E+00
         0.00000E+00
         0.00000E+00
         0.00000E+00
         0.00000E+00
         0.00000E+00
         0.00000E+00
         0.00000E+00
         0.00000E+00
         0.00000E+00
         0.00000E+00
         0.00000E+00
         0.00000E+00
         0.00000E+00
         0.00000E+00
         0.00000E+00
         0.00000E+00
         0.00000E+00
         0.00000E+00
         0.00000E+00
         0.00000E+00
         0.00000E+00
         0.00000E+00
         0.00000E+00
         0.00000E+00
         0.00000E+00
         0.00000E+00
         0.00000E+00
         0.00000E+00
         0.00000E+00
         0.00000E+00
         0.00000E+00
         0.00000E+00
         0.00000E+00
         0.00000E+00
         0.00000E+00
         0.00000E+00
         0.00000E+00
         0.00000E+00
         0.00000E+00
         0.00000E+00
         0.00000E+00
         0.00000E+00
         0.00000E+00
         0.00000E+00
         0.00000E+00
         0.00000E+00
         0.00000E+00
         0.00000E+00
         0.00000E+00
         0.00000E+00
         0.00000E+00
         0.00000E+00
         0.00000E+00
         0.00000E+00
         0.00000E+00
         0.00000E+00
         0.00000E+00
         0.00000E+00
         0.00000E+00
         0.00000E+00
         0.00000E+00
         0.00000E+00
         0.00000E+00
         0.00000E+00
         0.00000E+00
         0.00000E+00
         0.00000E+00
         0.00000E+00
         0.00000E+00
         0.00000E+00
         0.00000E+00
         0.00000E+00
         0.00000E+00
         0.00000E+00
         0.00000E+00
         0.00000E+00
         0.00000E+00
         0.00000E+00
         0.00000E+00
         0.00000E+00
         0.00000E+00
         0.00000E+00
         0.00000E+00
         0.00000E+00
         0.00000E+00
         0.00000E+00
         0.00000E+00
         0.00000E+00
         0.00000E+00
         0.00000E+00
         0.00000E+00
         0.00000E+00
         0.00000E+00
         0.00000E+00
         0.00000E+00
         0.00000E+00
         0.00000E+00
         0.00000E+00
         0.00000E+00
         0.00000E+00
         0.00000E+00
         0.00000E+00
         0.00000E+00
         0.00000E+00
         0.00000E+00
         0.00000E+00
         0.00000E+00
         0.00000E+00
         0.00000E+00
         0.00000E+00
         0.00000E+00
         0.00000E+00
         0.00000E+00
         0.00000E+00
         0.00000E+00
         0.00000E+00
         0.00000E+00
         0.00000E+00
         0.00000E+00
         0.00000E+00
         0.00000E+00
         0.00000E+00
         0.00000E+00
         0.00000E+00
         0.00000E+00
         0.00000E+00
         0.00000E+00
         0.00000E+00
         0.00000E+00
         0.00000E+00
         0.00000E+00
         0.00000E+00
         0.00000E+00
         0.00000E+00
         0.00000E+00
         0.00000E+00
         0.00000E+00
         0.00000E+00
         0.00000E+00
         0.00000E+00
         0.00000E+00
         0.00000E+00
         0.00000E+00
         0.00000E+00
         0.00000E+00
         0.00000E+00
         0.00000E+00
         0.00000E+00
         0.00000E+00
         0.00000E+00
         0.00000E+00
         0.00000E+00
         0.00000E+00
         0.00000E+00
         0.00000E+00
         0.00000E+00
         0.00000E+00
         0.00000E+00
         0.00000E+00
         0.00000E+00
         0.00000E+00
         0.00000E+00
         0.00000E+00
         0.00000E+00
         0.00000E+00
         0.00000E+00
         0.00000E+00
         0.00000E+00
         0.00000E+00
         0.00000E+00
         0.00000E+00
         0.00000E+00
         0.00000E+00
         0.00000E+00
         0.00000E+00
         0.00000E+00
         0.00000E+00
         0.00000E+00
         0.00000E+00
         0.00000E+00
         0.00000E+00
         0.00000E+00
         0.00000E+00
         0.00000E+00
         0.00000E+00
         0.00000E+00
         0.00000E+00
         0.00000E+00
         0.00000E+00
         0.00000E+00
         0.00000E+00
         0.00000E+00
         0.00000E+00
         0.00000E+00
         0.00000E+00
         0.00000E+00
         0.00000E+00
         0.00000E+00
         0.00000E+00
         0.00000E+00
         0.00000E+00
         0.00000E+00
         0.00000E+00
         0.00000E+00
         0.00000E+00
         0.00000E+00
         0.00000E+00
         0.00000E+00
         0.00000E+00
         0.00000E+00
         0.00000E+00
         0.00000E+00
         0.00000E+00
         0.00000E+00
         0.00000E+00
         0.00000E+00
         0.00000E+00
         0.00000E+00
         0.00000E+00
         0.00000E+00
         0.00000E+00
         0.00000E+00
         0.00000E+00
         0.00000E+00
         0.00000E+00
         0.00000E+00
         0.00000E+00
         0.00000E+00
         0.00000E+00
         0.00000E+00
         0.00000E+00
         0.00000E+00
         0.00000E+00
         0.00000E+00
         0.00000E+00
         0.00000E+00
         0.00000E+00
         0.00000E+00
         0.00000E+00
         0.00000E+00
         0.00000E+00
         0.00000E+00
         0.00000E+00
         0.00000E+00
         0.00000E+00
         0.00000E+00
         0.00000E+00
         0.00000E+00
         0.00000E+00
         0.00000E+00
         0.00000E+00
         0.00000E+00
         0.00000E+00
         0.00000E+00
         0.00000E+00
         0.00000E+00
         0.00000E+00
         0.00000E+00
         0.00000E+00
         0.00000E+00
         0.00000E+00
         0.00000E+00
         0.00000E+00
         0.00000E+00
         0.00000E+00
         0.00000E+00
         0.00000E+00
         0.00000E+00
         0.00000E+00
         0.00000E+00
         0.00000E+00
         0.00000E+00
         0.00000E+00
         0.00000E+00
         0.00000E+00
         0.00000E+00
         0.00000E+00
         0.00000E+00
         0.00000E+00
         0.00000E+00
         0.00000E+00
         0.00000E+00
         0.00000E+00
         0.00000E+00
         0.00000E+00
         0.00000E+00
         0.00000E+00
         0.00000E+00
         0.00000E+00
         0.00000E+00
         0.00000E+00
         0.00000E+00
         0.00000E+00
         0.00000E+00
         0.00000E+00
         0.00000E+00
         0.00000E+00
         0.00000E+00
         0.00000E+00
         0.00000E+00
         0.00000E+00
         0.00000E+00
         0.00000E+00
         0.00000E+00
         0.00000E+00
         0.00000E+00
         0.00000E+00
         0.00000E+00
         0.00000E+00
         0.00000E+00
         0.00000E+00
         0.00000E+00
         0.00000E+00
         0.00000E+00
         0.00000E+00
         0.00000E+00
         0.00000E+00
         0.00000E+00
         0.00000E+00
         0.00000E+00
         0.00000E+00
         0.00000E+00
         0.00000E+00
         0.00000E+00
         0.00000E+00
         0.00000E+00
         0.00000E+00
         0.00000E+00
         0.00000E+00
         0.00000E+00
         0.00000E+00
         0.00000E+00
         0.00000E+00
         0.00000E+00
         0.00000E+00
         0.00000E+00
         0.00000E+00
         0.00000E+00
         0.00000E+00
         0.00000E+00
         0.00000E+00
         0.00000E+00
         0.00000E+00
         0.00000E+00
         0.00000E+00
         0.00000E+00
         0.00000E+00
         0.00000E+00
         0.00000E+00
         0.00000E+00
         0.00000E+00
         0.00000E+00
         0.00000E+00
         0.00000E+00
         0.00000E+00
         0.00000E+00
         0.00000E+00
         0.00000E+00
         0.00000E+00
         0.00000E+00
         0.00000E+00
         0.00000E+00
         0.00000E+00
         0.00000E+00
         0.00000E+00
         0.00000E+00
         0.00000E+00
         0.00000E+00
         0.00000E+00
         0.00000E+00
         0.00000E+00
         0.00000E+00
         0.00000E+00
         0.00000E+00
         0.00000E+00
         0.00000E+00
         0.00000E+00
         0.00000E+00
         0.00000E+00
         0.00000E+00
         0.00000E+00
         0.00000E+00
         0.00000E+00
         0.00000E+00
         0.00000E+00
         0.00000E+00
         0.00000E+00
         0.00000E+00
         0.00000E+00
         0.00000E+00
         0.00000E+00
         0.00000E+00
         0.00000E+00
         0.00000E+00
         0.00000E+00
         0.00000E+00
         0.00000E+00
         0.00000E+00
         0.00000E+00
         0.00000E+00
         0.00000E+00
         0.00000E+00
         0.00000E+00
         0.00000E+00
         0.00000E+00
         0.00000E+00
         0.00000E+00
         0.00000E+00
         0.00000E+00
         0.00000E+00
         0.00000E+00
         0.00000E+00
         0.00000E+00
         0.00000E+00
         0.00000E+00
         0.00000E+00
         0.00000E+00
         0.00000E+00
         0.00000E+00
         0.00000E+00
         0.00000E+00
         0.00000E+00
         0.00000E+00
         0.00000E+00
         0.00000E+00
         0.00000E+00
         0.00000E+00
         0.00000E+00
         0.00000E+00
         0.00000E+00
         0.00000E+00
         0.00000E+00
         0.00000E+00
         0.00000E+00
         0.00000E+00
         0.00000E+00
         0.00000E+00
         0.00000E+00
         0.00000E+00
         0.00000E+00
         0.00000E+00
         0.00000E+00
         0.00000E+00
         0.00000E+00
         0.00000E+00
         0.00000E+00
         0.00000E+00
         0.00000E+00
         0.00000E+00
         0.00000E+00
         0.00000E+00
         0.00000E+00
         0.00000E+00
         0.00000E+00
         0.00000E+00
         0.00000E+00
         0.00000E+00
         0.00000E+00
         0.00000E+00
         0.00000E+00
         0.00000E+00
         0.00000E+00
         0.00000E+00
         0.00000E+00
         0.00000E+00
         0.00000E+00
         0.00000E+00
         0.00000E+00
         0.00000E+00
         0.00000E+00
         0.00000E+00
         0.00000E+00
         0.00000E+00
         0.00000E+00
         0.00000E+00
         0.00000E+00
         0.00000E+00
         0.00000E+00
         0.00000E+00
         0.00000E+00
         0.00000E+00
         0.00000E+00
         0.00000E+00
         0.00000E+00
         0.00000E+00
         0.00000E+00
         0.00000E+00
         0.00000E+00
         0.00000E+00
         0.00000E+00
         0.00000E+00
         0.00000E+00
         0.00000E+00
         0.00000E+00
         0.00000E+00
         0.00000E+00
         0.00000E+00
         0.00000E+00
         0.00000E+00
         0.00000E+00
         0.00000E+00
         0.00000E+00
         0.00000E+00
         0.00000E+00
         0.00000E+00
         0.00000E+00
         0.00000E+00
         0.00000E+00
         0.00000E+00
         0.00000E+00
         0.00000E+00
         0.00000E+00
         0.00000E+00
         0.00000E+00
         0.00000E+00
         0.00000E+00
         0.00000E+00
         0.00000E+00
         0.00000E+00
         0.00000E+00
         0.00000E+00
         0.00000E+00
         0.00000E+00
         0.00000E+00
         0.00000E+00
         0.00000E+00
         0.00000E+00
         0.00000E+00
         0.00000E+00
         0.00000E+00
         0.00000E+00
         0.00000E+00
         0.00000E+00
         0.00000E+00
         0.00000E+00
         0.00000E+00
         0.00000E+00
         0.00000E+00
         0.00000E+00
         0.00000E+00
         0.00000E+00
         0.00000E+00
         0.00000E+00
         0.00000E+00
         0.00000E+00
         0.00000E+00
         0.00000E+00
         0.00000E+00
         0.00000E+00
         0.00000E+00
         0.00000E+00
         0.00000E+00
         0.00000E+00
         0.00000E+00
         0.00000E+00
         0.00000E+00
         0.00000E+00
         0.00000E+00
         0.00000E+00
         0.00000E+00
         0.00000E+00
         0.00000E+00
         0.00000E+00
         0.00000E+00
         0.00000E+00
         0.00000E+00
         0.00000E+00
         0.00000E+00
         0.00000E+00
         0.00000E+00
         0.00000E+00
         0.00000E+00
         0.00000E+00
         0.00000E+00
         0.00000E+00
         0.00000E+00
         0.00000E+00
         0.00000E+00
         0.00000E+00
         0.00000E+00
         0.00000E+00
         0.00000E+00
         0.00000E+00
         0.00000E+00
         0.00000E+00
         0.00000E+00
         0.00000E+00
         0.00000E+00
         0.00000E+00
         0.00000E+00
         0.00000E+00
         0.00000E+00
         0.00000E+00
         0.00000E+00
         0.00000E+00
         0.00000E+00
         0.00000E+00
         0.00000E+00
         0.00000E+00
         0.00000E+00
         0.00000E+00
         0.00000E+00
         0.00000E+00
         0.00000E+00
         0.00000E+00
         0.00000E+00
         0.00000E+00
         0.00000E+00
         0.00000E+00
         0.00000E+00
         0.00000E+00
         0.00000E+00
         0.00000E+00
         0.00000E+00
         0.00000E+00
         0.00000E+00
         0.00000E+00
         0.00000E+00
         0.00000E+00
         0.00000E+00
         0.00000E+00
         0.00000E+00
         0.00000E+00
         0.00000E+00
         0.00000E+00
         0.00000E+00
         0.00000E+00
         0.00000E+00
         0.00000E+00
         0.00000E+00
         0.00000E+00
         0.00000E+00
         0.00000E+00
         0.00000E+00
         0.00000E+00
         0.00000E+00
         0.00000E+00
         0.00000E+00
         0.00000E+00
         0.00000E+00
         0.00000E+00
         0.00000E+00
         0.00000E+00
         0.00000E+00
         0.00000E+00
         0.00000E+00
         0.00000E+00
         0.00000E+00
         0.00000E+00
         0.00000E+00
         0.00000E+00
         0.00000E+00
         0.00000E+00
         0.00000E+00
         0.00000E+00
         0.00000E+00
         0.00000E+00
         0.00000E+00
         0.00000E+00
         0.00000E+00
         0.00000E+00
         0.00000E+00
         0.00000E+00
         0.00000E+00
         0.00000E+00
         0.00000E+00
         0.00000E+00
         0.00000E+00
         0.00000E+00
         0.00000E+00
         0.00000E+00
         0.00000E+00
         0.00000E+00
         0.00000E+00
         0.00000E+00
         0.00000E+00
         0.00000E+00
         0.00000E+00
         0.00000E+00
         0.00000E+00
         0.00000E+00
         0.00000E+00
         0.00000E+00
         0.00000E+00
         0.00000E+00
         0.00000E+00
         0.00000E+00
         0.00000E+00
         0.00000E+00
         0.00000E+00
         0.00000E+00
         0.00000E+00
         0.00000E+00
         0.00000E+00
         0.00000E+00
         0.00000E+00
         0.00000E+00
         0.00000E+00
         0.00000E+00
         0.00000E+00
         0.00000E+00
         0.00000E+00
         0.00000E+00
         0.00000E+00
         0.00000E+00
         0.00000E+00
         0.00000E+00
         0.00000E+00
         0.00000E+00
         0.00000E+00
         0.00000E+00
         0.00000E+00
         0.00000E+00
         0.00000E+00
         0.00000E+00
         0.00000E+00
         0.00000E+00
         0.00000E+00
         0.00000E+00
         0.00000E+00
         0.00000E+00
         0.00000E+00
         0.00000E+00
         0.00000E+00
         0.00000E+00
         0.00000E+00
         0.00000E+00
         0.00000E+00
         0.00000E+00
         0.00000E+00
         0.00000E+00
         0.00000E+00
         0.00000E+00
         0.00000E+00
         0.00000E+00
         0.00000E+00
         0.00000E+00
         0.00000E+00
         0.00000E+00
         0.00000E+00
         0.00000E+00
         0.00000E+00
         0.00000E+00
         0.00000E+00
         0.00000E+00
         0.00000E+00
         0.00000E+00
         0.00000E+00
         0.00000E+00
         0.00000E+00
         0.00000E+00
         0.00000E+00
         0.00000E+00
         0.00000E+00
         0.00000E+00
         0.00000E+00
         0.00000E+00
         0.00000E+00
         0.00000E+00
         0.00000E+00
         0.00000E+00
         0.00000E+00
         0.00000E+00
         0.00000E+00
         0.00000E+00
         0.00000E+00
         0.00000E+00
         0.00000E+00
         0.00000E+00
         0.00000E+00
         0.00000E+00
         0.00000E+00
         0.00000E+00
         0.00000E+00
         0.00000E+00
         0.00000E+00
         0.00000E+00
         0.00000E+00
         0.00000E+00
         0.00000E+00
         0.00000E+00
         0.00000E+00
         0.00000E+00
         0.00000E+00
         0.00000E+00
         0.00000E+00
         0.00000E+00
         0.00000E+00
         0.00000E+00
         0.00000E+00
         0.00000E+00
         0.00000E+00
         0.00000E+00
         0.00000E+00
         0.00000E+00
         0.00000E+00
         0.00000E+00
         0.00000E+00
         0.00000E+00
         0.00000E+00
         0.00000E+00
         0.00000E+00
         0.00000E+00
         0.00000E+00
         0.00000E+00
         0.00000E+00
         0.00000E+00
         0.00000E+00
         0.00000E+00
         0.00000E+00
         0.00000E+00
         0.00000E+00
         0.00000E+00
         0.00000E+00
         0.00000E+00
         0.00000E+00
         0.00000E+00
         0.00000E+00
         0.00000E+00
         0.00000E+00
         0.00000E+00
         0.00000E+00
         0.00000E+00
         0.00000E+00
         0.00000E+00
         0.00000E+00
         0.00000E+00
         0.00000E+00
         0.00000E+00
         0.00000E+00
         0.00000E+00
         0.00000E+00
         0.00000E+00
         0.00000E+00
         0.00000E+00
         0.00000E+00
         0.00000E+00
         0.00000E+00
         0.00000E+00
         0.00000E+00
         0.00000E+00
         0.00000E+00
         0.00000E+00
         0.00000E+00
         0.00000E+00
         0.00000E+00
         0.00000E+00
         0.00000E+00
         0.00000E+00
         0.00000E+00
         0.00000E+00
         0.00000E+00
         0.00000E+00
         0.00000E+00
         0.00000E+00
         0.00000E+00
         0.00000E+00
         0.00000E+00
         0.00000E+00
         0.00000E+00
         0.00000E+00
         0.00000E+00
         0.00000E+00
         0.00000E+00
         0.00000E+00
         0.00000E+00
         0.00000E+00
         0.00000E+00
         0.00000E+00
         0.00000E+00
         0.00000E+00
         0.00000E+00
         0.00000E+00
         0.00000E+00
         0.00000E+00
         0.00000E+00
         0.00000E+00
         0.00000E+00
         0.00000E+00
         0.00000E+00
         0.00000E+00
         0.00000E+00
         0.00000E+00
         0.00000E+00
         0.00000E+00
         0.00000E+00
         0.00000E+00
         0.00000E+00
         0.00000E+00
         0.00000E+00
         0.00000E+00
         0.00000E+00
         0.00000E+00
         0.00000E+00
         0.00000E+00
         0.00000E+00
         0.00000E+00
         0.00000E+00
         0.00000E+00
         0.00000E+00
         0.00000E+00
         0.00000E+00
         0.00000E+00
         0.00000E+00
         0.00000E+00
         0.00000E+00
         0.00000E+00
         0.00000E+00
         0.00000E+00
         0.00000E+00
         0.00000E+00
         0.00000E+00
         0.00000E+00
         0.00000E+00
         0.00000E+00
         0.00000E+00
         0.00000E+00
         0.00000E+00
         0.00000E+00
         0.00000E+00
         0.00000E+00
         0.00000E+00
         0.00000E+00
         0.00000E+00
         0.00000E+00
         0.00000E+00
         0.00000E+00
         0.00000E+00
         0.00000E+00
         0.00000E+00
         0.00000E+00
         0.00000E+00
         0.00000E+00
         0.00000E+00
         0.00000E+00
         0.00000E+00
         0.00000E+00
         0.00000E+00
         0.00000E+00
         0.00000E+00
         0.00000E+00
         0.00000E+00
         0.00000E+00
         0.00000E+00
         0.00000E+00
         0.00000E+00
         0.00000E+00
         0.00000E+00
         0.00000E+00
         0.00000E+00
         0.00000E+00
         0.00000E+00
         0.00000E+00
         0.00000E+00
         0.00000E+00
         0.00000E+00
         0.00000E+00
         0.00000E+00
         0.00000E+00
         0.00000E+00
         0.00000E+00
         0.00000E+00
         0.00000E+00
         0.00000E+00
         0.00000E+00
         0.00000E+00
         0.00000E+00
         0.00000E+00
         0.00000E+00
         0.00000E+00
         0.00000E+00
         0.00000E+00
         0.00000E+00
         0.00000E+00
         0.00000E+00
         0.00000E+00
         0.00000E+00
         0.00000E+00
         0.00000E+00
         0.00000E+00
         0.00000E+00
         0.00000E+00
         0.00000E+00
         0.00000E+00
         0.00000E+00
         0.00000E+00
         0.00000E+00
         0.00000E+00
         0.00000E+00
         0.00000E+00
         0.00000E+00
         0.00000E+00
         0.00000E+00
         0.00000E+00
         0.00000E+00
         0.00000E+00
         0.00000E+00
         0.00000E+00
         0.00000E+00
         0.00000E+00
         0.00000E+00
         0.00000E+00
         0.00000E+00
         0.00000E+00
         0.00000E+00
         0.00000E+00
         0.00000E+00
         0.00000E+00
         0.00000E+00
         0.00000E+00
         0.00000E+00
         0.00000E+00
         0.00000E+00
         0.00000E+00
         0.00000E+00
         0.00000E+00
         0.00000E+00
         0.00000E+00
         0.00000E+00
         0.00000E+00
         0.00000E+00
         0.00000E+00
         0.00000E+00
         0.00000E+00
         0.00000E+00
         0.00000E+00
         0.00000E+00
         0.00000E+00
         0.00000E+00
         0.00000E+00
         0.00000E+00
         0.00000E+00
         0.00000E+00
         0.00000E+00
         0.00000E+00
         0.00000E+00
         0.00000E+00
         0.00000E+00
         0.00000E+00
         0.00000E+00
         0.00000E+00
         0.00000E+00
         0.00000E+00
         0.00000E+00
         0.00000E+00
         0.00000E+00
         0.00000E+00
         0.00000E+00
         0.00000E+00
         0.00000E+00
         0.00000E+00
         0.00000E+00
         0.00000E+00
         0.00000E+00
         0.00000E+00
         0.00000E+00
         0.00000E+00
         0.00000E+00
         0.00000E+00
         0.00000E+00
         0.00000E+00
         0.00000E+00
         0.00000E+00
         0.00000E+00
         0.00000E+00
         0.00000E+00
         0.00000E+00
         0.00000E+00
         0.00000E+00
         0.00000E+00
         0.00000E+00
         0.00000E+00
         0.00000E+00
         0.00000E+00
         0.00000E+00
         0.00000E+00
         0.00000E+00
         0.00000E+00
         0.00000E+00
         0.00000E+00
         0.00000E+00
         0.00000E+00
         0.00000E+00
         0.00000E+00
         0.00000E+00
         0.00000E+00
         0.00000E+00
         0.00000E+00
         0.00000E+00
         0.00000E+00
         0.00000E+00
         0.00000E+00
         0.00000E+00
         0.00000E+00
         0.00000E+00
         0.00000E+00
         0.00000E+00
         0.00000E+00
         0.00000E+00
         0.00000E+00
         0.00000E+00
         0.00000E+00
         0.00000E+00
         0.00000E+00
         0.00000E+00
         0.00000E+00
         0.00000E+00
         0.00000E+00
         0.00000E+00
         0.00000E+00
         0.00000E+00
         0.00000E+00
         0.00000E+00
         0.00000E+00
         0.00000E+00
         0.00000E+00
         0.00000E+00
         0.00000E+00
         0.00000E+00
         0.00000E+00
         0.00000E+00
         0.00000E+00
         0.00000E+00
         0.00000E+00
         0.00000E+00
         0.00000E+00
         0.00000E+00
         0.00000E+00
         0.00000E+00
         0.00000E+00
         0.00000E+00
         0.00000E+00
         0.00000E+00
         0.00000E+00
         0.00000E+00
         0.00000E+00
         0.00000E+00
         0.00000E+00
         0.00000E+00
         0.00000E+00
         0.00000E+00
         0.00000E+00
         0.00000E+00
         0.00000E+00
         0.00000E+00
         0.00000E+00
         0.00000E+00
         0.00000E+00
         0.00000E+00
         0.00000E+00
         0.00000E+00
         0.00000E+00
         0.00000E+00
         0.00000E+00
         0.00000E+00
         0.00000E+00
         0.00000E+00
         0.00000E+00
         0.00000E+00
         0.00000E+00
         0.00000E+00
         0.00000E+00
         0.00000E+00
         0.00000E+00
         0.00000E+00
         0.00000E+00
         0.00000E+00
         0.00000E+00
         0.00000E+00
         0.00000E+00
         0.00000E+00
         0.00000E+00
         0.00000E+00
         0.00000E+00
         0.00000E+00
         0.00000E+00
         0.00000E+00
         0.00000E+00
         0.00000E+00
         0.00000E+00
         0.00000E+00
         0.00000E+00
         0.00000E+00
         0.00000E+00
         0.00000E+00
         0.00000E+00
         0.00000E+00
         0.00000E+00
         0.00000E+00
         0.00000E+00
         0.00000E+00
         0.00000E+00
         0.00000E+00
         0.00000E+00
         0.00000E+00
         0.00000E+00
         0.00000E+00
         0.00000E+00
         0.00000E+00
         0.00000E+00
         0.00000E+00
         0.00000E+00
         0.00000E+00
         0.00000E+00
         0.00000E+00
         0.00000E+00
         0.00000E+00
         0.00000E+00
         0.00000E+00
         0.00000E+00
         0.00000E+00
         0.00000E+00
         0.00000E+00
         0.00000E+00
         0.00000E+00
         0.00000E+00
         0.00000E+00
         0.00000E+00
         0.00000E+00
         0.00000E+00
         0.00000E+00
         0.00000E+00
         0.00000E+00
         0.00000E+00
         0.00000E+00
         0.00000E+00
         0.00000E+00
         0.00000E+00
         0.00000E+00
         0.00000E+00
         0.00000E+00
         0.00000E+00
         0.00000E+00
         0.00000E+00
         0.00000E+00
         0.00000E+00
         0.00000E+00
         0.00000E+00
         0.00000E+00
         0.00000E+00
         0.00000E+00
         0.00000E+00
         0.00000E+00
         0.00000E+00
         0.00000E+00
         0.00000E+00
         0.00000E+00
         0.00000E+00
         0.00000E+00
         0.00000E+00
         0.00000E+00
         0.00000E+00
         0.00000E+00
         0.00000E+00
         0.00000E+00
         0.00000E+00
         0.00000E+00
         0.00000E+00
         0.00000E+00
         0.00000E+00
         0.00000E+00
         0.00000E+00
         0.00000E+00
         0.00000E+00
         0.00000E+00
         0.00000E+00
         0.00000E+00
         0.00000E+00
         0.00000E+00
         0.00000E+00
         0.00000E+00
         0.00000E+00
         0.00000E+00
         0.00000E+00
         0.00000E+00
         0.00000E+00
         0.00000E+00
         0.00000E+00
         0.00000E+00
         0.00000E+00
         0.00000E+00
         0.00000E+00
         0.00000E+00
         0.00000E+00
         0.00000E+00
         0.00000E+00
         0.00000E+00
         0.00000E+00
         0.00000E+00
         0.00000E+00
         0.00000E+00
         0.00000E+00
         0.00000E+00
         0.00000E+00
         0.00000E+00
         0.00000E+00
         0.00000E+00
         0.00000E+00
         0.00000E+00
         0.00000E+00
         0.00000E+00
         0.00000E+00
         0.00000E+00
         0.00000E+00
         0.00000E+00
         0.00000E+00
         0.00000E+00
         0.00000E+00
         0.00000E+00
         0.00000E+00
         0.00000E+00
         0.00000E+00
         0.00000E+00
         0.00000E+00
         0.00000E+00
         0.00000E+00
         0.00000E+00
         0.00000E+00
         0.00000E+00
         0.00000E+00
         0.00000E+00
         0.00000E+00
         0.00000E+00
         0.00000E+00
         0.00000E+00
         0.00000E+00
         0.00000E+00
         0.00000E+00
         0.00000E+00
         0.00000E+00
         0.00000E+00
         0.00000E+00
         0.00000E+00
         0.00000E+00
         0.00000E+00
         0.00000E+00
         0.00000E+00
         0.00000E+00
         0.00000E+00
         0.00000E+00
         0.00000E+00
         0.00000E+00
         0.00000E+00
         0.00000E+00
         0.00000E+00
         0.00000E+00
         0.00000E+00
         0.00000E+00
         0.00000E+00
         0.00000E+00
         0.00000E+00
         0.00000E+00
         0.00000E+00
         0.00000E+00
         0.00000E+00
         0.00000E+00
         0.00000E+00
         0.00000E+00
         0.00000E+00
         0.00000E+00
         0.00000E+00
         0.00000E+00
         0.00000E+00
         0.00000E+00
         0.00000E+00
         0.00000E+00
         0.00000E+00
         0.00000E+00
         0.00000E+00
         0.00000E+00
         0.00000E+00
         0.00000E+00
         0.00000E+00
         0.00000E+00
         0.00000E+00
         0.00000E+00
         0.00000E+00
         0.00000E+00
         0.00000E+00
         0.00000E+00
         0.00000E+00
         0.00000E+00
         0.00000E+00
         0.00000E+00
         0.00000E+00
         0.00000E+00
         0.00000E+00
         0.00000E+00
         0.00000E+00
         0.00000E+00
         0.00000E+00
         0.00000E+00
         0.00000E+00
         0.00000E+00
         0.00000E+00
         0.00000E+00
         0.00000E+00
         0.00000E+00
         0.00000E+00
         0.00000E+00
         0.00000E+00
         0.00000E+00
         0.00000E+00
         0.00000E+00
         0.00000E+00
         0.00000E+00
         0.00000E+00
         0.00000E+00
         0.00000E+00
         0.00000E+00
         0.00000E+00
         0.00000E+00
         0.00000E+00
         0.00000E+00
         0.00000E+00
         0.00000E+00
         0.00000E+00
         0.00000E+00
         0.00000E+00
         0.00000E+00
         0.00000E+00
         0.00000E+00
         0.00000E+00
         0.00000E+00
         0.00000E+00
         0.00000E+00
         0.00000E+00
         0.00000E+00
         0.00000E+00
         0.00000E+00
         0.00000E+00
         0.00000E+00
         0.00000E+00
         0.00000E+00
         0.00000E+00
         0.00000E+00
         0.00000E+00
         0.00000E+00
         0.00000E+00
         0.00000E+00
         0.00000E+00
         0.00000E+00
         0.00000E+00
         0.00000E+00
         0.00000E+00
         0.00000E+00
         0.00000E+00
         0.00000E+00
         0.00000E+00
         0.00000E+00
         0.00000E+00
         0.00000E+00
         0.00000E+00
         0.00000E+00
         0.00000E+00
         0.00000E+00
         0.00000E+00
         0.00000E+00
         0.00000E+00
         0.00000E+00
         0.00000E+00
         0.00000E+00
         0.00000E+00
         0.00000E+00
         0.00000E+00
         0.00000E+00
         0.00000E+00
         0.00000E+00
         0.00000E+00
         0.00000E+00
         0.00000E+00
         0.00000E+00
         0.00000E+00
         0.00000E+00
         0.00000E+00
         0.00000E+00
         0.00000E+00
         0.00000E+00
         0.00000E+00
         0.00000E+00
         0.00000E+00
         0.00000E+00
         0.00000E+00
         0.00000E+00
         0.00000E+00
         0.00000E+00
         0.00000E+00
         0.00000E+00
         0.00000E+00
         0.00000E+00
         0.00000E+00
         0.00000E+00
         0.00000E+00
         0.00000E+00
         0.00000E+00
         0.00000E+00
         0.00000E+00
         0.00000E+00
         0.00000E+00
         0.00000E+00
         0.00000E+00
         0.00000E+00
         0.00000E+00
         0.00000E+00
         0.00000E+00
         0.00000E+00
         0.00000E+00
         0.00000E+00
         0.00000E+00
         0.00000E+00
         0.00000E+00
         0.00000E+00
         0.00000E+00
         0.00000E+00
         0.00000E+00
         0.00000E+00
         0.00000E+00
         0.00000E+00
         0.00000E+00
         0.00000E+00
         0.00000E+00
         0.00000E+00
         0.00000E+00
         0.00000E+00
         0.00000E+00
         0.00000E+00
         0.00000E+00
         0.00000E+00
         0.00000E+00
         0.00000E+00
         0.00000E+00
         0.00000E+00
         0.00000E+00
         0.00000E+00
         0.00000E+00
         0.00000E+00
         0.00000E+00
         0.00000E+00
         0.00000E+00
         0.00000E+00
         0.00000E+00
         0.00000E+00
         0.00000E+00
         0.00000E+00
         0.00000E+00
         0.00000E+00
         0.00000E+00
         0.00000E+00
         0.00000E+00
         0.00000E+00
         0.00000E+00
         0.00000E+00
         0.00000E+00
         0.00000E+00
         0.00000E+00
         0.00000E+00
         0.00000E+00
         0.00000E+00
         0.00000E+00
         0.00000E+00
         0.00000E+00
         0.00000E+00
         0.00000E+00
         0.00000E+00
         0.00000E+00
         0.00000E+00
         0.00000E+00
         0.00000E+00
         0.00000E+00
         0.00000E+00
         0.00000E+00
         0.00000E+00
         0.00000E+00
         0.00000E+00
         0.00000E+00
         0.00000E+00
         0.00000E+00
         0.00000E+00
         0.00000E+00
         0.00000E+00
         0.00000E+00
         0.00000E+00
         0.00000E+00
         0.00000E+00
         0.00000E+00
         0.00000E+00
         0.00000E+00
         0.00000E+00
         0.00000E+00
         0.00000E+00
         0.00000E+00
         0.00000E+00
         0.00000E+00
         0.00000E+00
         0.00000E+00
         0.00000E+00
         0.00000E+00
         0.00000E+00
         0.00000E+00
         0.00000E+00
         0.00000E+00
         0.00000E+00
         0.00000E+00
         0.00000E+00
         0.00000E+00
         0.00000E+00
         0.00000E+00
         0.00000E+00
         0.00000E+00
         0.00000E+00
         0.00000E+00
         0.00000E+00
         0.00000E+00
         0.00000E+00
         0.00000E+00
         0.00000E+00
         0.00000E+00
         0.00000E+00
         0.00000E+00
         0.00000E+00
         0.00000E+00
         0.00000E+00
         0.00000E+00
         0.00000E+00
         0.00000E+00
         0.00000E+00
         0.00000E+00
         0.00000E+00
         0.00000E+00
         0.00000E+00
         0.00000E+00
         0.00000E+00
         0.00000E+00
         0.00000E+00
         0.00000E+00
         0.00000E+00
         0.00000E+00
         0.00000E+00
         0.00000E+00
         0.00000E+00
         0.00000E+00
         0.00000E+00
         0.00000E+00
         0.00000E+00
         0.00000E+00
         0.00000E+00
         0.00000E+00
         0.00000E+00
         0.00000E+00
         0.00000E+00
         0.00000E+00
         0.00000E+00
         0.00000E+00
         0.00000E+00
         0.00000E+00
         0.00000E+00
         0.00000E+00
         0.00000E+00
         0.00000E+00
         0.00000E+00
         0.00000E+00
         0.00000E+00
         0.00000E+00
         0.00000E+00
         0.00000E+00
         0.00000E+00
         0.00000E+00
         0.00000E+00
         0.00000E+00
         0.00000E+00
         0.00000E+00
         0.00000E+00
         0.00000E+00
         0.00000E+00
         0.00000E+00
         0.00000E+00
         0.00000E+00
         0.00000E+00
         0.00000E+00
         0.00000E+00
         0.00000E+00
         0.00000E+00
         0.00000E+00
         0.00000E+00
         0.00000E+00
         0.00000E+00
         0.00000E+00
         0.00000E+00
         0.00000E+00
         0.00000E+00
         0.00000E+00
         0.00000E+00
         0.00000E+00
         0.00000E+00
         0.00000E+00
         0.00000E+00
         0.00000E+00
         0.00000E+00
         0.00000E+00
         0.00000E+00
         0.00000E+00
         0.00000E+00
         0.00000E+00
         0.00000E+00
         0.00000E+00
         0.00000E+00
         0.00000E+00
         0.00000E+00
         0.00000E+00
         0.00000E+00
         0.00000E+00
         0.00000E+00
         0.00000E+00
         0.00000E+00
         0.00000E+00
         0.00000E+00
         0.00000E+00
         0.00000E+00
         0.00000E+00
         0.00000E+00
         0.00000E+00
         0.00000E+00
         0.00000E+00
         0.00000E+00
         0.00000E+00
         0.00000E+00
         0.00000E+00
  
SCALARS                      eps_shear  double 1
LOOKUP_TABLE default
         0.00000E+00
         0.00000E+00
         0.00000E+00
         0.00000E+00
         0.00000E+00
         0.00000E+00
         0.00000E+00
         0.00000E+00
         0.00000E+00
         0.00000E+00
         0.00000E+00
         0.00000E+00
         0.00000E+00
         0.00000E+00
         0.00000E+00
         0.00000E+00
         0.00000E+00
         0.00000E+00
         0.00000E+00
         0.00000E+00
         0.00000E+00
         0.00000E+00
         0.00000E+00
         0.00000E+00
         0.00000E+00
         0.00000E+00
         0.00000E+00
         0.00000E+00
         0.00000E+00
         0.00000E+00
         0.00000E+00
         0.00000E+00
         0.00000E+00
         0.00000E+00
         0.00000E+00
         0.00000E+00
         0.00000E+00
         0.00000E+00
         0.00000E+00
         0.00000E+00
         0.00000E+00
         0.00000E+00
         0.00000E+00
         0.00000E+00
         0.00000E+00
         0.00000E+00
         0.00000E+00
         0.00000E+00
         0.00000E+00
         0.00000E+00
         0.00000E+00
         0.00000E+00
         0.00000E+00
         0.00000E+00
         0.00000E+00
         0.00000E+00
         0.00000E+00
         0.00000E+00
         0.00000E+00
         0.00000E+00
         0.00000E+00
         0.00000E+00
         0.00000E+00
         0.00000E+00
         0.00000E+00
         0.00000E+00
         0.00000E+00
         0.00000E+00
         0.00000E+00
         0.00000E+00
         0.00000E+00
         0.00000E+00
         0.00000E+00
         0.00000E+00
         0.00000E+00
         0.00000E+00
         0.00000E+00
         0.00000E+00
         0.00000E+00
         0.00000E+00
         0.00000E+00
         0.00000E+00
         0.00000E+00
         0.00000E+00
         0.00000E+00
         0.00000E+00
         0.00000E+00
         0.00000E+00
         0.00000E+00
         0.00000E+00
         0.00000E+00
         0.00000E+00
         0.00000E+00
         0.00000E+00
         0.00000E+00
         0.00000E+00
         0.00000E+00
         0.00000E+00
         0.00000E+00
         0.00000E+00
         0.00000E+00
         0.00000E+00
         0.00000E+00
         0.00000E+00
         0.00000E+00
         0.00000E+00
         0.00000E+00
         0.00000E+00
         0.00000E+00
         0.00000E+00
         0.00000E+00
         0.00000E+00
         0.00000E+00
         0.00000E+00
         0.00000E+00
         0.00000E+00
         0.00000E+00
         0.00000E+00
         0.00000E+00
         0.00000E+00
         0.00000E+00
         0.00000E+00
         0.00000E+00
         0.00000E+00
         0.00000E+00
         0.00000E+00
         0.00000E+00
         0.00000E+00
         0.00000E+00
         0.00000E+00
         0.00000E+00
         0.00000E+00
         0.00000E+00
         0.00000E+00
         0.00000E+00
         0.00000E+00
         0.00000E+00
         0.00000E+00
         0.00000E+00
         0.00000E+00
         0.00000E+00
         0.00000E+00
         0.00000E+00
         0.00000E+00
         0.00000E+00
         0.00000E+00
         0.00000E+00
         0.00000E+00
         0.00000E+00
         0.00000E+00
         0.00000E+00
         0.00000E+00
         0.00000E+00
         0.00000E+00
         0.00000E+00
         0.00000E+00
         0.00000E+00
         0.00000E+00
         0.00000E+00
         0.00000E+00
         0.00000E+00
         0.00000E+00
         0.00000E+00
         0.00000E+00
         0.00000E+00
         0.00000E+00
         0.00000E+00
         0.00000E+00
         0.00000E+00
         0.00000E+00
         0.00000E+00
         0.00000E+00
         0.00000E+00
         0.00000E+00
         0.00000E+00
         0.00000E+00
         0.00000E+00
         0.00000E+00
         0.00000E+00
         0.00000E+00
         0.00000E+00
         0.00000E+00
         0.00000E+00
         0.00000E+00
         0.00000E+00
         0.00000E+00
         0.00000E+00
         0.00000E+00
         0.00000E+00
         0.00000E+00
         0.00000E+00
         0.00000E+00
         0.00000E+00
         0.00000E+00
         0.00000E+00
         0.00000E+00
         0.00000E+00
         0.00000E+00
         0.00000E+00
         0.00000E+00
         0.00000E+00
         0.00000E+00
         0.00000E+00
         0.00000E+00
         0.00000E+00
         0.00000E+00
         0.00000E+00
         0.00000E+00
         0.00000E+00
         0.00000E+00
         0.00000E+00
         0.00000E+00
         0.00000E+00
         0.00000E+00
         0.00000E+00
         0.00000E+00
         0.00000E+00
         0.00000E+00
         0.00000E+00
         0.00000E+00
         0.00000E+00
         0.00000E+00
         0.00000E+00
         0.00000E+00
         0.00000E+00
         0.00000E+00
         0.00000E+00
         0.00000E+00
         0.00000E+00
         0.00000E+00
         0.00000E+00
         0.00000E+00
         0.00000E+00
         0.00000E+00
         0.00000E+00
         0.00000E+00
         0.00000E+00
         0.00000E+00
         0.00000E+00
         0.00000E+00
         0.00000E+00
         0.00000E+00
         0.00000E+00
         0.00000E+00
         0.00000E+00
         0.00000E+00
         0.00000E+00
         0.00000E+00
         0.00000E+00
         0.00000E+00
         0.00000E+00
         0.00000E+00
         0.00000E+00
         0.00000E+00
         0.00000E+00
         0.00000E+00
         0.00000E+00
         0.00000E+00
         0.00000E+00
         0.00000E+00
         0.00000E+00
         0.00000E+00
         0.00000E+00
         0.00000E+00
         0.00000E+00
         0.00000E+00
         0.00000E+00
         0.00000E+00
         0.00000E+00
         0.00000E+00
         0.00000E+00
         0.00000E+00
         0.00000E+00
         0.00000E+00
         0.00000E+00
         0.00000E+00
         0.00000E+00
         0.00000E+00
         0.00000E+00
         0.00000E+00
         0.00000E+00
         0.00000E+00
         0.00000E+00
         0.00000E+00
         0.00000E+00
         0.00000E+00
         0.00000E+00
         0.00000E+00
         0.00000E+00
         0.00000E+00
         0.00000E+00
         0.00000E+00
         0.00000E+00
         0.00000E+00
         0.00000E+00
         0.00000E+00
         0.00000E+00
         0.00000E+00
         0.00000E+00
         0.00000E+00
         0.00000E+00
         0.00000E+00
         0.00000E+00
         0.00000E+00
         0.00000E+00
         0.00000E+00
         0.00000E+00
         0.00000E+00
         0.00000E+00
         0.00000E+00
         0.00000E+00
         0.00000E+00
         0.00000E+00
         0.00000E+00
         0.00000E+00
         0.00000E+00
         0.00000E+00
         0.00000E+00
         0.00000E+00
         0.00000E+00
         0.00000E+00
         0.00000E+00
         0.00000E+00
         0.00000E+00
         0.00000E+00
         0.00000E+00
         0.00000E+00
         0.00000E+00
         0.00000E+00
         0.00000E+00
         0.00000E+00
         0.00000E+00
         0.00000E+00
         0.00000E+00
         0.00000E+00
         0.00000E+00
         0.00000E+00
         0.00000E+00
         0.00000E+00
         0.00000E+00
         0.00000E+00
         0.00000E+00
         0.00000E+00
         0.00000E+00
         0.00000E+00
         0.00000E+00
         0.00000E+00
         0.00000E+00
         0.00000E+00
         0.00000E+00
         0.00000E+00
         0.00000E+00
         0.00000E+00
         0.00000E+00
         0.00000E+00
         0.00000E+00
         0.00000E+00
         0.00000E+00
         0.00000E+00
         0.00000E+00
         0.00000E+00
         0.00000E+00
         0.00000E+00
         0.00000E+00
         0.00000E+00
         0.00000E+00
         0.00000E+00
         0.00000E+00
         0.00000E+00
         0.00000E+00
         0.00000E+00
         0.00000E+00
         0.00000E+00
         0.00000E+00
         0.00000E+00
         0.00000E+00
         0.00000E+00
         0.00000E+00
         0.00000E+00
         0.00000E+00
         0.00000E+00
         0.00000E+00
         0.00000E+00
         0.00000E+00
         0.00000E+00
         0.00000E+00
         0.00000E+00
         0.00000E+00
         0.00000E+00
         0.00000E+00
         0.00000E+00
         0.00000E+00
         0.00000E+00
         0.00000E+00
         0.00000E+00
         0.00000E+00
         0.00000E+00
         0.00000E+00
         0.00000E+00
         0.00000E+00
         0.00000E+00
         0.00000E+00
         0.00000E+00
         0.00000E+00
         0.00000E+00
         0.00000E+00
         0.00000E+00
         0.00000E+00
         0.00000E+00
         0.00000E+00
         0.00000E+00
         0.00000E+00
         0.00000E+00
         0.00000E+00
         0.00000E+00
         0.00000E+00
         0.00000E+00
         0.00000E+00
         0.00000E+00
         0.00000E+00
         0.00000E+00
         0.00000E+00
         0.00000E+00
         0.00000E+00
         0.00000E+00
         0.00000E+00
         0.00000E+00
         0.00000E+00
         0.00000E+00
         0.00000E+00
         0.00000E+00
         0.00000E+00
         0.00000E+00
         0.00000E+00
         0.00000E+00
         0.00000E+00
         0.00000E+00
         0.00000E+00
         0.00000E+00
         0.00000E+00
         0.00000E+00
         0.00000E+00
         0.00000E+00
         0.00000E+00
         0.00000E+00
         0.00000E+00
         0.00000E+00
         0.00000E+00
         0.00000E+00
         0.00000E+00
         0.00000E+00
         0.00000E+00
         0.00000E+00
         0.00000E+00
         0.00000E+00
         0.00000E+00
         0.00000E+00
         0.00000E+00
         0.00000E+00
         0.00000E+00
         0.00000E+00
         0.00000E+00
         0.00000E+00
         0.00000E+00
         0.00000E+00
         0.00000E+00
         0.00000E+00
         0.00000E+00
         0.00000E+00
         0.00000E+00
         0.00000E+00
         0.00000E+00
         0.00000E+00
         0.00000E+00
         0.00000E+00
         0.00000E+00
         0.00000E+00
         0.00000E+00
         0.00000E+00
         0.00000E+00
         0.00000E+00
         0.00000E+00
         0.00000E+00
         0.00000E+00
         0.00000E+00
         0.00000E+00
         0.00000E+00
         0.00000E+00
         0.00000E+00
         0.00000E+00
         0.00000E+00
         0.00000E+00
         0.00000E+00
         0.00000E+00
         0.00000E+00
         0.00000E+00
         0.00000E+00
         0.00000E+00
         0.00000E+00
         0.00000E+00
         0.00000E+00
         0.00000E+00
         0.00000E+00
         0.00000E+00
         0.00000E+00
         0.00000E+00
         0.00000E+00
         0.00000E+00
         0.00000E+00
         0.00000E+00
         0.00000E+00
         0.00000E+00
         0.00000E+00
         0.00000E+00
         0.00000E+00
         0.00000E+00
         0.00000E+00
         0.00000E+00
         0.00000E+00
         0.00000E+00
         0.00000E+00
         0.00000E+00
         0.00000E+00
         0.00000E+00
         0.00000E+00
         0.00000E+00
         0.00000E+00
         0.00000E+00
         0.00000E+00
         0.00000E+00
         0.00000E+00
         0.00000E+00
         0.00000E+00
         0.00000E+00
         0.00000E+00
         0.00000E+00
         0.00000E+00
         0.00000E+00
         0.00000E+00
         0.00000E+00
         0.00000E+00
         0.00000E+00
         0.00000E+00
         0.00000E+00
         0.00000E+00
         0.00000E+00
         0.00000E+00
         0.00000E+00
         0.00000E+00
         0.00000E+00
         0.00000E+00
         0.00000E+00
         0.00000E+00
         0.00000E+00
         0.00000E+00
         0.00000E+00
         0.00000E+00
         0.00000E+00
         0.00000E+00
         0.00000E+00
         0.00000E+00
         0.00000E+00
         0.00000E+00
         0.00000E+00
         0.00000E+00
         0.00000E+00
         0.00000E+00
         0.00000E+00
         0.00000E+00
         0.00000E+00
         0.00000E+00
         0.00000E+00
         0.00000E+00
         0.00000E+00
         0.00000E+00
         0.00000E+00
         0.00000E+00
         0.00000E+00
         0.00000E+00
         0.00000E+00
         0.00000E+00
         0.00000E+00
         0.00000E+00
         0.00000E+00
         0.00000E+00
         0.00000E+00
         0.00000E+00
         0.00000E+00
         0.00000E+00
         0.00000E+00
         0.00000E+00
         0.00000E+00
         0.00000E+00
         0.00000E+00
         0.00000E+00
         0.00000E+00
         0.00000E+00
         0.00000E+00
         0.00000E+00
         0.00000E+00
         0.00000E+00
         0.00000E+00
         0.00000E+00
         0.00000E+00
         0.00000E+00
         0.00000E+00
         0.00000E+00
         0.00000E+00
         0.00000E+00
         0.00000E+00
         0.00000E+00
         0.00000E+00
         0.00000E+00
         0.00000E+00
         0.00000E+00
         0.00000E+00
         0.00000E+00
         0.00000E+00
         0.00000E+00
         0.00000E+00
         0.00000E+00
         0.00000E+00
         0.00000E+00
         0.00000E+00
         0.00000E+00
         0.00000E+00
         0.00000E+00
         0.00000E+00
         0.00000E+00
         0.00000E+00
         0.00000E+00
         0.00000E+00
         0.00000E+00
         0.00000E+00
         0.00000E+00
         0.00000E+00
         0.00000E+00
         0.00000E+00
         0.00000E+00
         0.00000E+00
         0.00000E+00
         0.00000E+00
         0.00000E+00
         0.00000E+00
         0.00000E+00
         0.00000E+00
         0.00000E+00
         0.00000E+00
         0.00000E+00
         0.00000E+00
         0.00000E+00
         0.00000E+00
         0.00000E+00
         0.00000E+00
         0.00000E+00
         0.00000E+00
         0.00000E+00
         0.00000E+00
         0.00000E+00
         0.00000E+00
         0.00000E+00
         0.00000E+00
         0.00000E+00
         0.00000E+00
         0.00000E+00
         0.00000E+00
         0.00000E+00
         0.00000E+00
         0.00000E+00
         0.00000E+00
         0.00000E+00
         0.00000E+00
         0.00000E+00
         0.00000E+00
         0.00000E+00
         0.00000E+00
         0.00000E+00
         0.00000E+00
         0.00000E+00
         0.00000E+00
         0.00000E+00
         0.00000E+00
         0.00000E+00
         0.00000E+00
         0.00000E+00
         0.00000E+00
         0.00000E+00
         0.00000E+00
         0.00000E+00
         0.00000E+00
         0.00000E+00
         0.00000E+00
         0.00000E+00
         0.00000E+00
         0.00000E+00
         0.00000E+00
         0.00000E+00
         0.00000E+00
         0.00000E+00
         0.00000E+00
         0.00000E+00
         0.00000E+00
         0.00000E+00
         0.00000E+00
         0.00000E+00
         0.00000E+00
         0.00000E+00
         0.00000E+00
         0.00000E+00
         0.00000E+00
         0.00000E+00
         0.00000E+00
         0.00000E+00
         0.00000E+00
         0.00000E+00
         0.00000E+00
         0.00000E+00
         0.00000E+00
         0.00000E+00
         0.00000E+00
         0.00000E+00
         0.00000E+00
         0.00000E+00
         0.00000E+00
         0.00000E+00
         0.00000E+00
         0.00000E+00
         0.00000E+00
         0.00000E+00
         0.00000E+00
         0.00000E+00
         0.00000E+00
         0.00000E+00
         0.00000E+00
         0.00000E+00
         0.00000E+00
         0.00000E+00
         0.00000E+00
         0.00000E+00
         0.00000E+00
         0.00000E+00
         0.00000E+00
         0.00000E+00
         0.00000E+00
         0.00000E+00
         0.00000E+00
         0.00000E+00
         0.00000E+00
         0.00000E+00
         0.00000E+00
         0.00000E+00
         0.00000E+00
         0.00000E+00
         0.00000E+00
         0.00000E+00
         0.00000E+00
         0.00000E+00
         0.00000E+00
         0.00000E+00
         0.00000E+00
         0.00000E+00
         0.00000E+00
         0.00000E+00
         0.00000E+00
         0.00000E+00
         0.00000E+00
         0.00000E+00
         0.00000E+00
         0.00000E+00
         0.00000E+00
         0.00000E+00
         0.00000E+00
         0.00000E+00
         0.00000E+00
         0.00000E+00
         0.00000E+00
         0.00000E+00
         0.00000E+00
         0.00000E+00
         0.00000E+00
         0.00000E+00
         0.00000E+00
         0.00000E+00
         0.00000E+00
         0.00000E+00
         0.00000E+00
         0.00000E+00
         0.00000E+00
         0.00000E+00
         0.00000E+00
         0.00000E+00
         0.00000E+00
         0.00000E+00
         0.00000E+00
         0.00000E+00
         0.00000E+00
         0.00000E+00
         0.00000E+00
         0.00000E+00
         0.00000E+00
         0.00000E+00
         0.00000E+00
         0.00000E+00
         0.00000E+00
         0.00000E+00
         0.00000E+00
         0.00000E+00
         0.00000E+00
         0.00000E+00
         0.00000E+00
         0.00000E+00
         0.00000E+00
         0.00000E+00
         0.00000E+00
         0.00000E+00
         0.00000E+00
         0.00000E+00
         0.00000E+00
         0.00000E+00
         0.00000E+00
         0.00000E+00
         0.00000E+00
         0.00000E+00
         0.00000E+00
         0.00000E+00
         0.00000E+00
         0.00000E+00
         0.00000E+00
         0.00000E+00
         0.00000E+00
         0.00000E+00
         0.00000E+00
         0.00000E+00
         0.00000E+00
         0.00000E+00
         0.00000E+00
         0.00000E+00
         0.00000E+00
         0.00000E+00
         0.00000E+00
         0.00000E+00
         0.00000E+00
         0.00000E+00
         0.00000E+00
         0.00000E+00
         0.00000E+00
         0.00000E+00
         0.00000E+00
         0.00000E+00
         0.00000E+00
         0.00000E+00
         0.00000E+00
         0.00000E+00
         0.00000E+00
         0.00000E+00
         0.00000E+00
         0.00000E+00
         0.00000E+00
         0.00000E+00
         0.00000E+00
         0.00000E+00
         0.00000E+00
         0.00000E+00
         0.00000E+00
         0.00000E+00
         0.00000E+00
         0.00000E+00
         0.00000E+00
         0.00000E+00
         0.00000E+00
         0.00000E+00
         0.00000E+00
         0.00000E+00
         0.00000E+00
         0.00000E+00
         0.00000E+00
         0.00000E+00
         0.00000E+00
         0.00000E+00
         0.00000E+00
         0.00000E+00
         0.00000E+00
         0.00000E+00
         0.00000E+00
         0.00000E+00
         0.00000E+00
         0.00000E+00
         0.00000E+00
         0.00000E+00
         0.00000E+00
         0.00000E+00
         0.00000E+00
         0.00000E+00
         0.00000E+00
         0.00000E+00
         0.00000E+00
         0.00000E+00
         0.00000E+00
         0.00000E+00
         0.00000E+00
         0.00000E+00
         0.00000E+00
         0.00000E+00
         0.00000E+00
         0.00000E+00
         0.00000E+00
         0.00000E+00
         0.00000E+00
         0.00000E+00
         0.00000E+00
         0.00000E+00
         0.00000E+00
         0.00000E+00
         0.00000E+00
         0.00000E+00
         0.00000E+00
         0.00000E+00
         0.00000E+00
         0.00000E+00
         0.00000E+00
         0.00000E+00
         0.00000E+00
         0.00000E+00
         0.00000E+00
         0.00000E+00
         0.00000E+00
         0.00000E+00
         0.00000E+00
         0.00000E+00
         0.00000E+00
         0.00000E+00
         0.00000E+00
         0.00000E+00
         0.00000E+00
         0.00000E+00
         0.00000E+00
         0.00000E+00
         0.00000E+00
         0.00000E+00
         0.00000E+00
         0.00000E+00
         0.00000E+00
         0.00000E+00
         0.00000E+00
         0.00000E+00
         0.00000E+00
         0.00000E+00
         0.00000E+00
         0.00000E+00
         0.00000E+00
         0.00000E+00
         0.00000E+00
         0.00000E+00
         0.00000E+00
         0.00000E+00
         0.00000E+00
         0.00000E+00
         0.00000E+00
         0.00000E+00
         0.00000E+00
         0.00000E+00
         0.00000E+00
         0.00000E+00
         0.00000E+00
         0.00000E+00
         0.00000E+00
         0.00000E+00
         0.00000E+00
         0.00000E+00
         0.00000E+00
         0.00000E+00
         0.00000E+00
         0.00000E+00
         0.00000E+00
         0.00000E+00
         0.00000E+00
         0.00000E+00
         0.00000E+00
         0.00000E+00
         0.00000E+00
         0.00000E+00
         0.00000E+00
         0.00000E+00
         0.00000E+00
         0.00000E+00
         0.00000E+00
         0.00000E+00
         0.00000E+00
         0.00000E+00
         0.00000E+00
         0.00000E+00
         0.00000E+00
         0.00000E+00
         0.00000E+00
         0.00000E+00
         0.00000E+00
         0.00000E+00
         0.00000E+00
         0.00000E+00
         0.00000E+00
         0.00000E+00
         0.00000E+00
         0.00000E+00
         0.00000E+00
         0.00000E+00
         0.00000E+00
         0.00000E+00
         0.00000E+00
         0.00000E+00
         0.00000E+00
         0.00000E+00
         0.00000E+00
         0.00000E+00
         0.00000E+00
         0.00000E+00
         0.00000E+00
         0.00000E+00
         0.00000E+00
         0.00000E+00
         0.00000E+00
         0.00000E+00
         0.00000E+00
         0.00000E+00
         0.00000E+00
         0.00000E+00
         0.00000E+00
         0.00000E+00
         0.00000E+00
         0.00000E+00
         0.00000E+00
         0.00000E+00
         0.00000E+00
         0.00000E+00
         0.00000E+00
         0.00000E+00
         0.00000E+00
         0.00000E+00
         0.00000E+00
         0.00000E+00
         0.00000E+00
         0.00000E+00
         0.00000E+00
         0.00000E+00
         0.00000E+00
         0.00000E+00
         0.00000E+00
         0.00000E+00
         0.00000E+00
         0.00000E+00
         0.00000E+00
         0.00000E+00
         0.00000E+00
         0.00000E+00
         0.00000E+00
         0.00000E+00
         0.00000E+00
         0.00000E+00
         0.00000E+00
         0.00000E+00
         0.00000E+00
         0.00000E+00
         0.00000E+00
         0.00000E+00
         0.00000E+00
         0.00000E+00
         0.00000E+00
         0.00000E+00
         0.00000E+00
         0.00000E+00
         0.00000E+00
         0.00000E+00
         0.00000E+00
         0.00000E+00
         0.00000E+00
         0.00000E+00
         0.00000E+00
         0.00000E+00
         0.00000E+00
         0.00000E+00
         0.00000E+00
         0.00000E+00
         0.00000E+00
         0.00000E+00
         0.00000E+00
         0.00000E+00
         0.00000E+00
         0.00000E+00
         0.00000E+00
         0.00000E+00
         0.00000E+00
         0.00000E+00
         0.00000E+00
         0.00000E+00
         0.00000E+00
         0.00000E+00
         0.00000E+00
         0.00000E+00
         0.00000E+00
         0.00000E+00
         0.00000E+00
         0.00000E+00
         0.00000E+00
         0.00000E+00
         0.00000E+00
         0.00000E+00
         0.00000E+00
         0.00000E+00
         0.00000E+00
         0.00000E+00
         0.00000E+00
         0.00000E+00
         0.00000E+00
         0.00000E+00
         0.00000E+00
         0.00000E+00
         0.00000E+00
         0.00000E+00
         0.00000E+00
         0.00000E+00
         0.00000E+00
         0.00000E+00
         0.00000E+00
         0.00000E+00
         0.00000E+00
         0.00000E+00
         0.00000E+00
         0.00000E+00
         0.00000E+00
         0.00000E+00
         0.00000E+00
         0.00000E+00
         0.00000E+00
         0.00000E+00
         0.00000E+00
         0.00000E+00
         0.00000E+00
         0.00000E+00
         0.00000E+00
         0.00000E+00
         0.00000E+00
         0.00000E+00
         0.00000E+00
         0.00000E+00
         0.00000E+00
         0.00000E+00
         0.00000E+00
         0.00000E+00
         0.00000E+00
         0.00000E+00
         0.00000E+00
         0.00000E+00
         0.00000E+00
         0.00000E+00
         0.00000E+00
         0.00000E+00
         0.00000E+00
         0.00000E+00
         0.00000E+00
         0.00000E+00
         0.00000E+00
         0.00000E+00
         0.00000E+00
         0.00000E+00
         0.00000E+00
         0.00000E+00
         0.00000E+00
         0.00000E+00
         0.00000E+00
         0.00000E+00
         0.00000E+00
         0.00000E+00
         0.00000E+00
         0.00000E+00
         0.00000E+00
         0.00000E+00
         0.00000E+00
         0.00000E+00
         0.00000E+00
         0.00000E+00
         0.00000E+00
         0.00000E+00
         0.00000E+00
         0.00000E+00
         0.00000E+00
         0.00000E+00
         0.00000E+00
         0.00000E+00
         0.00000E+00
         0.00000E+00
         0.00000E+00
         0.00000E+00
         0.00000E+00
         0.00000E+00
         0.00000E+00
         0.00000E+00
         0.00000E+00
         0.00000E+00
         0.00000E+00
         0.00000E+00
         0.00000E+00
         0.00000E+00
         0.00000E+00
         0.00000E+00
         0.00000E+00
         0.00000E+00
         0.00000E+00
         0.00000E+00
         0.00000E+00
         0.00000E+00
         0.00000E+00
         0.00000E+00
         0.00000E+00
         0.00000E+00
         0.00000E+00
         0.00000E+00
         0.00000E+00
         0.00000E+00
         0.00000E+00
         0.00000E+00
         0.00000E+00
         0.00000E+00
         0.00000E+00
         0.00000E+00
         0.00000E+00
         0.00000E+00
         0.00000E+00
         0.00000E+00
         0.00000E+00
         0.00000E+00
         0.00000E+00
         0.00000E+00
         0.00000E+00
         0.00000E+00
         0.00000E+00
         0.00000E+00
         0.00000E+00
         0.00000E+00
         0.00000E+00
         0.00000E+00
         0.00000E+00
         0.00000E+00
         0.00000E+00
         0.00000E+00
         0.00000E+00
         0.00000E+00
         0.00000E+00
         0.00000E+00
         0.00000E+00
         0.00000E+00
         0.00000E+00
         0.00000E+00
         0.00000E+00
         0.00000E+00
         0.00000E+00
         0.00000E+00
         0.00000E+00
         0.00000E+00
         0.00000E+00
         0.00000E+00
         0.00000E+00
         0.00000E+00
         0.00000E+00
         0.00000E+00
         0.00000E+00
         0.00000E+00
         0.00000E+00
         0.00000E+00
         0.00000E+00
         0.00000E+00
         0.00000E+00
         0.00000E+00
         0.00000E+00
         0.00000E+00
         0.00000E+00
         0.00000E+00
         0.00000E+00
         0.00000E+00
         0.00000E+00
         0.00000E+00
         0.00000E+00
         0.00000E+00
         0.00000E+00
         0.00000E+00
         0.00000E+00
         0.00000E+00
         0.00000E+00
         0.00000E+00
         0.00000E+00
         0.00000E+00
         0.00000E+00
         0.00000E+00
         0.00000E+00
         0.00000E+00
         0.00000E+00
         0.00000E+00
         0.00000E+00
         0.00000E+00
         0.00000E+00
         0.00000E+00
         0.00000E+00
         0.00000E+00
         0.00000E+00
         0.00000E+00
         0.00000E+00
         0.00000E+00
         0.00000E+00
         0.00000E+00
         0.00000E+00
         0.00000E+00
         0.00000E+00
         0.00000E+00
         0.00000E+00
         0.00000E+00
         0.00000E+00
         0.00000E+00
         0.00000E+00
         0.00000E+00
         0.00000E+00
         0.00000E+00
         0.00000E+00
         0.00000E+00
         0.00000E+00
         0.00000E+00
         0.00000E+00
         0.00000E+00
         0.00000E+00
         0.00000E+00
         0.00000E+00
         0.00000E+00
         0.00000E+00
         0.00000E+00
         0.00000E+00
         0.00000E+00
         0.00000E+00
         0.00000E+00
         0.00000E+00
         0.00000E+00
         0.00000E+00
         0.00000E+00
         0.00000E+00
         0.00000E+00
         0.00000E+00
         0.00000E+00
         0.00000E+00
         0.00000E+00
         0.00000E+00
         0.00000E+00
         0.00000E+00
         0.00000E+00
         0.00000E+00
         0.00000E+00
         0.00000E+00
         0.00000E+00
         0.00000E+00
         0.00000E+00
         0.00000E+00
         0.00000E+00
         0.00000E+00
         0.00000E+00
         0.00000E+00
         0.00000E+00
         0.00000E+00
         0.00000E+00
         0.00000E+00
         0.00000E+00
         0.00000E+00
         0.00000E+00
         0.00000E+00
         0.00000E+00
         0.00000E+00
         0.00000E+00
         0.00000E+00
         0.00000E+00
         0.00000E+00
         0.00000E+00
         0.00000E+00
         0.00000E+00
         0.00000E+00
         0.00000E+00
         0.00000E+00
         0.00000E+00
         0.00000E+00
         0.00000E+00
         0.00000E+00
         0.00000E+00
         0.00000E+00
         0.00000E+00
         0.00000E+00
         0.00000E+00
         0.00000E+00
         0.00000E+00
         0.00000E+00
         0.00000E+00
         0.00000E+00
         0.00000E+00
         0.00000E+00
         0.00000E+00
         0.00000E+00
         0.00000E+00
         0.00000E+00
         0.00000E+00
         0.00000E+00
         0.00000E+00
         0.00000E+00
         0.00000E+00
         0.00000E+00
         0.00000E+00
         0.00000E+00
         0.00000E+00
         0.00000E+00
         0.00000E+00
         0.00000E+00
         0.00000E+00
         0.00000E+00
         0.00000E+00
         0.00000E+00
         0.00000E+00
         0.00000E+00
         0.00000E+00
         0.00000E+00
         0.00000E+00
         0.00000E+00
         0.00000E+00
         0.00000E+00
         0.00000E+00
         0.00000E+00
         0.00000E+00
         0.00000E+00
         0.00000E+00
         0.00000E+00
         0.00000E+00
         0.00000E+00
         0.00000E+00
         0.00000E+00
         0.00000E+00
         0.00000E+00
         0.00000E+00
         0.00000E+00
         0.00000E+00
         0.00000E+00
         0.00000E+00
         0.00000E+00
         0.00000E+00
         0.00000E+00
         0.00000E+00
         0.00000E+00
         0.00000E+00
         0.00000E+00
         0.00000E+00
         0.00000E+00
         0.00000E+00
         0.00000E+00
         0.00000E+00
         0.00000E+00
         0.00000E+00
         0.00000E+00
         0.00000E+00
         0.00000E+00
         0.00000E+00
         0.00000E+00
         0.00000E+00
         0.00000E+00
         0.00000E+00
         0.00000E+00
         0.00000E+00
         0.00000E+00
         0.00000E+00
         0.00000E+00
         0.00000E+00
         0.00000E+00
         0.00000E+00
         0.00000E+00
         0.00000E+00
         0.00000E+00
         0.00000E+00
         0.00000E+00
         0.00000E+00
         0.00000E+00
         0.00000E+00
         0.00000E+00
         0.00000E+00
         0.00000E+00
         0.00000E+00
         0.00000E+00
         0.00000E+00
         0.00000E+00
         0.00000E+00
         0.00000E+00
         0.00000E+00
         0.00000E+00
         0.00000E+00
         0.00000E+00
         0.00000E+00
         0.00000E+00
         0.00000E+00
         0.00000E+00
         0.00000E+00
         0.00000E+00
         0.00000E+00
         0.00000E+00
         0.00000E+00
         0.00000E+00
         0.00000E+00
         0.00000E+00
         0.00000E+00
         0.00000E+00
         0.00000E+00
         0.00000E+00
         0.00000E+00
         0.00000E+00
         0.00000E+00
         0.00000E+00
         0.00000E+00
         0.00000E+00
         0.00000E+00
         0.00000E+00
         0.00000E+00
         0.00000E+00
         0.00000E+00
         0.00000E+00
         0.00000E+00
         0.00000E+00
         0.00000E+00
         0.00000E+00
         0.00000E+00
         0.00000E+00
         0.00000E+00
         0.00000E+00
         0.00000E+00
         0.00000E+00
         0.00000E+00
         0.00000E+00
         0.00000E+00
         0.00000E+00
         0.00000E+00
         0.00000E+00
         0.00000E+00
         0.00000E+00
         0.00000E+00
         0.00000E+00
         0.00000E+00
         0.00000E+00
         0.00000E+00
         0.00000E+00
         0.00000E+00
         0.00000E+00
         0.00000E+00
         0.00000E+00
         0.00000E+00
         0.00000E+00
         0.00000E+00
         0.00000E+00
         0.00000E+00
         0.00000E+00
         0.00000E+00
         0.00000E+00
         0.00000E+00
         0.00000E+00
         0.00000E+00
         0.00000E+00
         0.00000E+00
         0.00000E+00
         0.00000E+00
         0.00000E+00
         0.00000E+00
         0.00000E+00
         0.00000E+00
         0.00000E+00
         0.00000E+00
         0.00000E+00
         0.00000E+00
         0.00000E+00
         0.00000E+00
         0.00000E+00
         0.00000E+00
         0.00000E+00
         0.00000E+00
         0.00000E+00
         0.00000E+00
         0.00000E+00
         0.00000E+00
         0.00000E+00
         0.00000E+00
         0.00000E+00
         0.00000E+00
         0.00000E+00
         0.00000E+00
         0.00000E+00
         0.00000E+00
         0.00000E+00
         0.00000E+00
         0.00000E+00
         0.00000E+00
         0.00000E+00
         0.00000E+00
         0.00000E+00
         0.00000E+00
         0.00000E+00
         0.00000E+00
         0.00000E+00
         0.00000E+00
         0.00000E+00
         0.00000E+00
         0.00000E+00
         0.00000E+00
         0.00000E+00
         0.00000E+00
         0.00000E+00
         0.00000E+00
         0.00000E+00
         0.00000E+00
         0.00000E+00
         0.00000E+00
         0.00000E+00
         0.00000E+00
         0.00000E+00
         0.00000E+00
         0.00000E+00
         0.00000E+00
         0.00000E+00
         0.00000E+00
         0.00000E+00
         0.00000E+00
         0.00000E+00
         0.00000E+00
         0.00000E+00
         0.00000E+00
         0.00000E+00
         0.00000E+00
         0.00000E+00
         0.00000E+00
         0.00000E+00
         0.00000E+00
         0.00000E+00
         0.00000E+00
         0.00000E+00
         0.00000E+00
         0.00000E+00
         0.00000E+00
         0.00000E+00
         0.00000E+00
         0.00000E+00
         0.00000E+00
         0.00000E+00
         0.00000E+00
         0.00000E+00
         0.00000E+00
         0.00000E+00
         0.00000E+00
         0.00000E+00
         0.00000E+00
         0.00000E+00
         0.00000E+00
         0.00000E+00
         0.00000E+00
         0.00000E+00
         0.00000E+00
         0.00000E+00
         0.00000E+00
         0.00000E+00
         0.00000E+00
         0.00000E+00
         0.00000E+00
         0.00000E+00
         0.00000E+00
         0.00000E+00
         0.00000E+00
         0.00000E+00
         0.00000E+00
         0.00000E+00
         0.00000E+00
         0.00000E+00
         0.00000E+00
         0.00000E+00
         0.00000E+00
         0.00000E+00
         0.00000E+00
         0.00000E+00
         0.00000E+00
         0.00000E+00
         0.00000E+00
         0.00000E+00
         0.00000E+00
         0.00000E+00
         0.00000E+00
         0.00000E+00
         0.00000E+00
         0.00000E+00
         0.00000E+00
         0.00000E+00
         0.00000E+00
         0.00000E+00
         0.00000E+00
         0.00000E+00
         0.00000E+00
         0.00000E+00
         0.00000E+00
         0.00000E+00
         0.00000E+00
         0.00000E+00
         0.00000E+00
         0.00000E+00
         0.00000E+00
         0.00000E+00
         0.00000E+00
         0.00000E+00
         0.00000E+00
         0.00000E+00
         0.00000E+00
         0.00000E+00
         0.00000E+00
         0.00000E+00
         0.00000E+00
         0.00000E+00
         0.00000E+00
         0.00000E+00
         0.00000E+00
         0.00000E+00
         0.00000E+00
         0.00000E+00
         0.00000E+00
         0.00000E+00
         0.00000E+00
         0.00000E+00
         0.00000E+00
         0.00000E+00
         0.00000E+00
         0.00000E+00
         0.00000E+00
         0.00000E+00
         0.00000E+00
         0.00000E+00
         0.00000E+00
         0.00000E+00
         0.00000E+00
         0.00000E+00
         0.00000E+00
         0.00000E+00
         0.00000E+00
         0.00000E+00
         0.00000E+00
         0.00000E+00
         0.00000E+00
         0.00000E+00
         0.00000E+00
         0.00000E+00
         0.00000E+00
         0.00000E+00
         0.00000E+00
         0.00000E+00
         0.00000E+00
         0.00000E+00
         0.00000E+00
         0.00000E+00
         0.00000E+00
         0.00000E+00
         0.00000E+00
         0.00000E+00
         0.00000E+00
         0.00000E+00
         0.00000E+00
         0.00000E+00
         0.00000E+00
         0.00000E+00
         0.00000E+00
         0.00000E+00
         0.00000E+00
         0.00000E+00
         0.00000E+00
         0.00000E+00
         0.00000E+00
         0.00000E+00
         0.00000E+00
         0.00000E+00
         0.00000E+00
         0.00000E+00
         0.00000E+00
         0.00000E+00
         0.00000E+00
         0.00000E+00
         0.00000E+00
         0.00000E+00
         0.00000E+00
         0.00000E+00
         0.00000E+00
         0.00000E+00
         0.00000E+00
         0.00000E+00
         0.00000E+00
         0.00000E+00
         0.00000E+00
         0.00000E+00
         0.00000E+00
         0.00000E+00
         0.00000E+00
         0.00000E+00
         0.00000E+00
         0.00000E+00
         0.00000E+00
         0.00000E+00
         0.00000E+00
         0.00000E+00
         0.00000E+00
         0.00000E+00
         0.00000E+00
         0.00000E+00
         0.00000E+00
         0.00000E+00
         0.00000E+00
         0.00000E+00
         0.00000E+00
         0.00000E+00
         0.00000E+00
         0.00000E+00
         0.00000E+00
         0.00000E+00
         0.00000E+00
         0.00000E+00
         0.00000E+00
         0.00000E+00
         0.00000E+00
         0.00000E+00
         0.00000E+00
         0.00000E+00
         0.00000E+00
         0.00000E+00
         0.00000E+00
         0.00000E+00
         0.00000E+00
         0.00000E+00
         0.00000E+00
         0.00000E+00
         0.00000E+00
         0.00000E+00
         0.00000E+00
         0.00000E+00
         0.00000E+00
         0.00000E+00
         0.00000E+00
         0.00000E+00
         0.00000E+00
         0.00000E+00
         0.00000E+00
         0.00000E+00
         0.00000E+00
         0.00000E+00
         0.00000E+00
         0.00000E+00
         0.00000E+00
         0.00000E+00
         0.00000E+00
         0.00000E+00
         0.00000E+00
         0.00000E+00
         0.00000E+00
         0.00000E+00
         0.00000E+00
         0.00000E+00
         0.00000E+00
         0.00000E+00
         0.00000E+00
         0.00000E+00
         0.00000E+00
         0.00000E+00
         0.00000E+00
         0.00000E+00
         0.00000E+00
         0.00000E+00
         0.00000E+00
         0.00000E+00
         0.00000E+00
         0.00000E+00
         0.00000E+00
         0.00000E+00
         0.00000E+00
         0.00000E+00
         0.00000E+00
         0.00000E+00
         0.00000E+00
         0.00000E+00
         0.00000E+00
         0.00000E+00
         0.00000E+00
         0.00000E+00
         0.00000E+00
         0.00000E+00
         0.00000E+00
         0.00000E+00
         0.00000E+00
         0.00000E+00
         0.00000E+00
         0.00000E+00
         0.00000E+00
         0.00000E+00
         0.00000E+00
         0.00000E+00
         0.00000E+00
         0.00000E+00
         0.00000E+00
         0.00000E+00
         0.00000E+00
         0.00000E+00
         0.00000E+00
         0.00000E+00
         0.00000E+00
         0.00000E+00
         0.00000E+00
         0.00000E+00
         0.00000E+00
         0.00000E+00
         0.00000E+00
         0.00000E+00
         0.00000E+00
         0.00000E+00
         0.00000E+00
         0.00000E+00
         0.00000E+00
         0.00000E+00
         0.00000E+00
         0.00000E+00
         0.00000E+00
         0.00000E+00
         0.00000E+00
         0.00000E+00
         0.00000E+00
         0.00000E+00
         0.00000E+00
         0.00000E+00
         0.00000E+00
         0.00000E+00
         0.00000E+00
         0.00000E+00
         0.00000E+00
         0.00000E+00
         0.00000E+00
         0.00000E+00
         0.00000E+00
         0.00000E+00
         0.00000E+00
         0.00000E+00
         0.00000E+00
         0.00000E+00
         0.00000E+00
         0.00000E+00
         0.00000E+00
         0.00000E+00
         0.00000E+00
         0.00000E+00
         0.00000E+00
         0.00000E+00
  
SCALARS                        eps_vol  double 1
LOOKUP_TABLE default
         0.00000E+00
         0.00000E+00
         0.00000E+00
         0.00000E+00
         0.00000E+00
         0.00000E+00
         0.00000E+00
         0.00000E+00
         0.00000E+00
         0.00000E+00
         0.00000E+00
         0.00000E+00
         0.00000E+00
         0.00000E+00
         0.00000E+00
         0.00000E+00
         0.00000E+00
         0.00000E+00
         0.00000E+00
         0.00000E+00
         0.00000E+00
         0.00000E+00
         0.00000E+00
         0.00000E+00
         0.00000E+00
         0.00000E+00
         0.00000E+00
         0.00000E+00
         0.00000E+00
         0.00000E+00
         0.00000E+00
         0.00000E+00
         0.00000E+00
         0.00000E+00
         0.00000E+00
         0.00000E+00
         0.00000E+00
         0.00000E+00
         0.00000E+00
         0.00000E+00
         0.00000E+00
         0.00000E+00
         0.00000E+00
         0.00000E+00
         0.00000E+00
         0.00000E+00
         0.00000E+00
         0.00000E+00
         0.00000E+00
         0.00000E+00
         0.00000E+00
         0.00000E+00
         0.00000E+00
         0.00000E+00
         0.00000E+00
         0.00000E+00
         0.00000E+00
         0.00000E+00
         0.00000E+00
         0.00000E+00
         0.00000E+00
         0.00000E+00
         0.00000E+00
         0.00000E+00
         0.00000E+00
         0.00000E+00
         0.00000E+00
         0.00000E+00
         0.00000E+00
         0.00000E+00
         0.00000E+00
         0.00000E+00
         0.00000E+00
         0.00000E+00
         0.00000E+00
         0.00000E+00
         0.00000E+00
         0.00000E+00
         0.00000E+00
         0.00000E+00
         0.00000E+00
         0.00000E+00
         0.00000E+00
         0.00000E+00
         0.00000E+00
         0.00000E+00
         0.00000E+00
         0.00000E+00
         0.00000E+00
         0.00000E+00
         0.00000E+00
         0.00000E+00
         0.00000E+00
         0.00000E+00
         0.00000E+00
         0.00000E+00
         0.00000E+00
         0.00000E+00
         0.00000E+00
         0.00000E+00
         0.00000E+00
         0.00000E+00
         0.00000E+00
         0.00000E+00
         0.00000E+00
         0.00000E+00
         0.00000E+00
         0.00000E+00
         0.00000E+00
         0.00000E+00
         0.00000E+00
         0.00000E+00
         0.00000E+00
         0.00000E+00
         0.00000E+00
         0.00000E+00
         0.00000E+00
         0.00000E+00
         0.00000E+00
         0.00000E+00
         0.00000E+00
         0.00000E+00
         0.00000E+00
         0.00000E+00
         0.00000E+00
         0.00000E+00
         0.00000E+00
         0.00000E+00
         0.00000E+00
         0.00000E+00
         0.00000E+00
         0.00000E+00
         0.00000E+00
         0.00000E+00
         0.00000E+00
         0.00000E+00
         0.00000E+00
         0.00000E+00
         0.00000E+00
         0.00000E+00
         0.00000E+00
         0.00000E+00
         0.00000E+00
         0.00000E+00
         0.00000E+00
         0.00000E+00
         0.00000E+00
         0.00000E+00
         0.00000E+00
         0.00000E+00
         0.00000E+00
         0.00000E+00
         0.00000E+00
         0.00000E+00
         0.00000E+00
         0.00000E+00
         0.00000E+00
         0.00000E+00
         0.00000E+00
         0.00000E+00
         0.00000E+00
         0.00000E+00
         0.00000E+00
         0.00000E+00
         0.00000E+00
         0.00000E+00
         0.00000E+00
         0.00000E+00
         0.00000E+00
         0.00000E+00
         0.00000E+00
         0.00000E+00
         0.00000E+00
         0.00000E+00
         0.00000E+00
         0.00000E+00
         0.00000E+00
         0.00000E+00
         0.00000E+00
         0.00000E+00
         0.00000E+00
         0.00000E+00
         0.00000E+00
         0.00000E+00
         0.00000E+00
         0.00000E+00
         0.00000E+00
         0.00000E+00
         0.00000E+00
         0.00000E+00
         0.00000E+00
         0.00000E+00
         0.00000E+00
         0.00000E+00
         0.00000E+00
         0.00000E+00
         0.00000E+00
         0.00000E+00
         0.00000E+00
         0.00000E+00
         0.00000E+00
         0.00000E+00
         0.00000E+00
         0.00000E+00
         0.00000E+00
         0.00000E+00
         0.00000E+00
         0.00000E+00
         0.00000E+00
         0.00000E+00
         0.00000E+00
         0.00000E+00
         0.00000E+00
         0.00000E+00
         0.00000E+00
         0.00000E+00
         0.00000E+00
         0.00000E+00
         0.00000E+00
         0.00000E+00
         0.00000E+00
         0.00000E+00
         0.00000E+00
         0.00000E+00
         0.00000E+00
         0.00000E+00
         0.00000E+00
         0.00000E+00
         0.00000E+00
         0.00000E+00
         0.00000E+00
         0.00000E+00
         0.00000E+00
         0.00000E+00
         0.00000E+00
         0.00000E+00
         0.00000E+00
         0.00000E+00
         0.00000E+00
         0.00000E+00
         0.00000E+00
         0.00000E+00
         0.00000E+00
         0.00000E+00
         0.00000E+00
         0.00000E+00
         0.00000E+00
         0.00000E+00
         0.00000E+00
         0.00000E+00
         0.00000E+00
         0.00000E+00
         0.00000E+00
         0.00000E+00
         0.00000E+00
         0.00000E+00
         0.00000E+00
         0.00000E+00
         0.00000E+00
         0.00000E+00
         0.00000E+00
         0.00000E+00
         0.00000E+00
         0.00000E+00
         0.00000E+00
         0.00000E+00
         0.00000E+00
         0.00000E+00
         0.00000E+00
         0.00000E+00
         0.00000E+00
         0.00000E+00
         0.00000E+00
         0.00000E+00
         0.00000E+00
         0.00000E+00
         0.00000E+00
         0.00000E+00
         0.00000E+00
         0.00000E+00
         0.00000E+00
         0.00000E+00
         0.00000E+00
         0.00000E+00
         0.00000E+00
         0.00000E+00
         0.00000E+00
         0.00000E+00
         0.00000E+00
         0.00000E+00
         0.00000E+00
         0.00000E+00
         0.00000E+00
         0.00000E+00
         0.00000E+00
         0.00000E+00
         0.00000E+00
         0.00000E+00
         0.00000E+00
         0.00000E+00
         0.00000E+00
         0.00000E+00
         0.00000E+00
         0.00000E+00
         0.00000E+00
         0.00000E+00
         0.00000E+00
         0.00000E+00
         0.00000E+00
         0.00000E+00
         0.00000E+00
         0.00000E+00
         0.00000E+00
         0.00000E+00
         0.00000E+00
         0.00000E+00
         0.00000E+00
         0.00000E+00
         0.00000E+00
         0.00000E+00
         0.00000E+00
         0.00000E+00
         0.00000E+00
         0.00000E+00
         0.00000E+00
         0.00000E+00
         0.00000E+00
         0.00000E+00
         0.00000E+00
         0.00000E+00
         0.00000E+00
         0.00000E+00
         0.00000E+00
         0.00000E+00
         0.00000E+00
         0.00000E+00
         0.00000E+00
         0.00000E+00
         0.00000E+00
         0.00000E+00
         0.00000E+00
         0.00000E+00
         0.00000E+00
         0.00000E+00
         0.00000E+00
         0.00000E+00
         0.00000E+00
         0.00000E+00
         0.00000E+00
         0.00000E+00
         0.00000E+00
         0.00000E+00
         0.00000E+00
         0.00000E+00
         0.00000E+00
         0.00000E+00
         0.00000E+00
         0.00000E+00
         0.00000E+00
         0.00000E+00
         0.00000E+00
         0.00000E+00
         0.00000E+00
         0.00000E+00
         0.00000E+00
         0.00000E+00
         0.00000E+00
         0.00000E+00
         0.00000E+00
         0.00000E+00
         0.00000E+00
         0.00000E+00
         0.00000E+00
         0.00000E+00
         0.00000E+00
         0.00000E+00
         0.00000E+00
         0.00000E+00
         0.00000E+00
         0.00000E+00
         0.00000E+00
         0.00000E+00
         0.00000E+00
         0.00000E+00
         0.00000E+00
         0.00000E+00
         0.00000E+00
         0.00000E+00
         0.00000E+00
         0.00000E+00
         0.00000E+00
         0.00000E+00
         0.00000E+00
         0.00000E+00
         0.00000E+00
         0.00000E+00
         0.00000E+00
         0.00000E+00
         0.00000E+00
         0.00000E+00
         0.00000E+00
         0.00000E+00
         0.00000E+00
         0.00000E+00
         0.00000E+00
         0.00000E+00
         0.00000E+00
         0.00000E+00
         0.00000E+00
         0.00000E+00
         0.00000E+00
         0.00000E+00
         0.00000E+00
         0.00000E+00
         0.00000E+00
         0.00000E+00
         0.00000E+00
         0.00000E+00
         0.00000E+00
         0.00000E+00
         0.00000E+00
         0.00000E+00
         0.00000E+00
         0.00000E+00
         0.00000E+00
         0.00000E+00
         0.00000E+00
         0.00000E+00
         0.00000E+00
         0.00000E+00
         0.00000E+00
         0.00000E+00
         0.00000E+00
         0.00000E+00
         0.00000E+00
         0.00000E+00
         0.00000E+00
         0.00000E+00
         0.00000E+00
         0.00000E+00
         0.00000E+00
         0.00000E+00
         0.00000E+00
         0.00000E+00
         0.00000E+00
         0.00000E+00
         0.00000E+00
         0.00000E+00
         0.00000E+00
         0.00000E+00
         0.00000E+00
         0.00000E+00
         0.00000E+00
         0.00000E+00
         0.00000E+00
         0.00000E+00
         0.00000E+00
         0.00000E+00
         0.00000E+00
         0.00000E+00
         0.00000E+00
         0.00000E+00
         0.00000E+00
         0.00000E+00
         0.00000E+00
         0.00000E+00
         0.00000E+00
         0.00000E+00
         0.00000E+00
         0.00000E+00
         0.00000E+00
         0.00000E+00
         0.00000E+00
         0.00000E+00
         0.00000E+00
         0.00000E+00
         0.00000E+00
         0.00000E+00
         0.00000E+00
         0.00000E+00
         0.00000E+00
         0.00000E+00
         0.00000E+00
         0.00000E+00
         0.00000E+00
         0.00000E+00
         0.00000E+00
         0.00000E+00
         0.00000E+00
         0.00000E+00
         0.00000E+00
         0.00000E+00
         0.00000E+00
         0.00000E+00
         0.00000E+00
         0.00000E+00
         0.00000E+00
         0.00000E+00
         0.00000E+00
         0.00000E+00
         0.00000E+00
         0.00000E+00
         0.00000E+00
         0.00000E+00
         0.00000E+00
         0.00000E+00
         0.00000E+00
         0.00000E+00
         0.00000E+00
         0.00000E+00
         0.00000E+00
         0.00000E+00
         0.00000E+00
         0.00000E+00
         0.00000E+00
         0.00000E+00
         0.00000E+00
         0.00000E+00
         0.00000E+00
         0.00000E+00
         0.00000E+00
         0.00000E+00
         0.00000E+00
         0.00000E+00
         0.00000E+00
         0.00000E+00
         0.00000E+00
         0.00000E+00
         0.00000E+00
         0.00000E+00
         0.00000E+00
         0.00000E+00
         0.00000E+00
         0.00000E+00
         0.00000E+00
         0.00000E+00
         0.00000E+00
         0.00000E+00
         0.00000E+00
         0.00000E+00
         0.00000E+00
         0.00000E+00
         0.00000E+00
         0.00000E+00
         0.00000E+00
         0.00000E+00
         0.00000E+00
         0.00000E+00
         0.00000E+00
         0.00000E+00
         0.00000E+00
         0.00000E+00
         0.00000E+00
         0.00000E+00
         0.00000E+00
         0.00000E+00
         0.00000E+00
         0.00000E+00
         0.00000E+00
         0.00000E+00
         0.00000E+00
         0.00000E+00
         0.00000E+00
         0.00000E+00
         0.00000E+00
         0.00000E+00
         0.00000E+00
         0.00000E+00
         0.00000E+00
         0.00000E+00
         0.00000E+00
         0.00000E+00
         0.00000E+00
         0.00000E+00
         0.00000E+00
         0.00000E+00
         0.00000E+00
         0.00000E+00
         0.00000E+00
         0.00000E+00
         0.00000E+00
         0.00000E+00
         0.00000E+00
         0.00000E+00
         0.00000E+00
         0.00000E+00
         0.00000E+00
         0.00000E+00
         0.00000E+00
         0.00000E+00
         0.00000E+00
         0.00000E+00
         0.00000E+00
         0.00000E+00
         0.00000E+00
         0.00000E+00
         0.00000E+00
         0.00000E+00
         0.00000E+00
         0.00000E+00
         0.00000E+00
         0.00000E+00
         0.00000E+00
         0.00000E+00
         0.00000E+00
         0.00000E+00
         0.00000E+00
         0.00000E+00
         0.00000E+00
         0.00000E+00
         0.00000E+00
         0.00000E+00
         0.00000E+00
         0.00000E+00
         0.00000E+00
         0.00000E+00
         0.00000E+00
         0.00000E+00
         0.00000E+00
         0.00000E+00
         0.00000E+00
         0.00000E+00
         0.00000E+00
         0.00000E+00
         0.00000E+00
         0.00000E+00
         0.00000E+00
         0.00000E+00
         0.00000E+00
         0.00000E+00
         0.00000E+00
         0.00000E+00
         0.00000E+00
         0.00000E+00
         0.00000E+00
         0.00000E+00
         0.00000E+00
         0.00000E+00
         0.00000E+00
         0.00000E+00
         0.00000E+00
         0.00000E+00
         0.00000E+00
         0.00000E+00
         0.00000E+00
         0.00000E+00
         0.00000E+00
         0.00000E+00
         0.00000E+00
         0.00000E+00
         0.00000E+00
         0.00000E+00
         0.00000E+00
         0.00000E+00
         0.00000E+00
         0.00000E+00
         0.00000E+00
         0.00000E+00
         0.00000E+00
         0.00000E+00
         0.00000E+00
         0.00000E+00
         0.00000E+00
         0.00000E+00
         0.00000E+00
         0.00000E+00
         0.00000E+00
         0.00000E+00
         0.00000E+00
         0.00000E+00
         0.00000E+00
         0.00000E+00
         0.00000E+00
         0.00000E+00
         0.00000E+00
         0.00000E+00
         0.00000E+00
         0.00000E+00
         0.00000E+00
         0.00000E+00
         0.00000E+00
         0.00000E+00
         0.00000E+00
         0.00000E+00
         0.00000E+00
         0.00000E+00
         0.00000E+00
         0.00000E+00
         0.00000E+00
         0.00000E+00
         0.00000E+00
         0.00000E+00
         0.00000E+00
         0.00000E+00
         0.00000E+00
         0.00000E+00
         0.00000E+00
         0.00000E+00
         0.00000E+00
         0.00000E+00
         0.00000E+00
         0.00000E+00
         0.00000E+00
         0.00000E+00
         0.00000E+00
         0.00000E+00
         0.00000E+00
         0.00000E+00
         0.00000E+00
         0.00000E+00
         0.00000E+00
         0.00000E+00
         0.00000E+00
         0.00000E+00
         0.00000E+00
         0.00000E+00
         0.00000E+00
         0.00000E+00
         0.00000E+00
         0.00000E+00
         0.00000E+00
         0.00000E+00
         0.00000E+00
         0.00000E+00
         0.00000E+00
         0.00000E+00
         0.00000E+00
         0.00000E+00
         0.00000E+00
         0.00000E+00
         0.00000E+00
         0.00000E+00
         0.00000E+00
         0.00000E+00
         0.00000E+00
         0.00000E+00
         0.00000E+00
         0.00000E+00
         0.00000E+00
         0.00000E+00
         0.00000E+00
         0.00000E+00
         0.00000E+00
         0.00000E+00
         0.00000E+00
         0.00000E+00
         0.00000E+00
         0.00000E+00
         0.00000E+00
         0.00000E+00
         0.00000E+00
         0.00000E+00
         0.00000E+00
         0.00000E+00
         0.00000E+00
         0.00000E+00
         0.00000E+00
         0.00000E+00
         0.00000E+00
         0.00000E+00
         0.00000E+00
         0.00000E+00
         0.00000E+00
         0.00000E+00
         0.00000E+00
         0.00000E+00
         0.00000E+00
         0.00000E+00
         0.00000E+00
         0.00000E+00
         0.00000E+00
         0.00000E+00
         0.00000E+00
         0.00000E+00
         0.00000E+00
         0.00000E+00
         0.00000E+00
         0.00000E+00
         0.00000E+00
         0.00000E+00
         0.00000E+00
         0.00000E+00
         0.00000E+00
         0.00000E+00
         0.00000E+00
         0.00000E+00
         0.00000E+00
         0.00000E+00
         0.00000E+00
         0.00000E+00
         0.00000E+00
         0.00000E+00
         0.00000E+00
         0.00000E+00
         0.00000E+00
         0.00000E+00
         0.00000E+00
         0.00000E+00
         0.00000E+00
         0.00000E+00
         0.00000E+00
         0.00000E+00
         0.00000E+00
         0.00000E+00
         0.00000E+00
         0.00000E+00
         0.00000E+00
         0.00000E+00
         0.00000E+00
         0.00000E+00
         0.00000E+00
         0.00000E+00
         0.00000E+00
         0.00000E+00
         0.00000E+00
         0.00000E+00
         0.00000E+00
         0.00000E+00
         0.00000E+00
         0.00000E+00
         0.00000E+00
         0.00000E+00
         0.00000E+00
         0.00000E+00
         0.00000E+00
         0.00000E+00
         0.00000E+00
         0.00000E+00
         0.00000E+00
         0.00000E+00
         0.00000E+00
         0.00000E+00
         0.00000E+00
         0.00000E+00
         0.00000E+00
         0.00000E+00
         0.00000E+00
         0.00000E+00
         0.00000E+00
         0.00000E+00
         0.00000E+00
         0.00000E+00
         0.00000E+00
         0.00000E+00
         0.00000E+00
         0.00000E+00
         0.00000E+00
         0.00000E+00
         0.00000E+00
         0.00000E+00
         0.00000E+00
         0.00000E+00
         0.00000E+00
         0.00000E+00
         0.00000E+00
         0.00000E+00
         0.00000E+00
         0.00000E+00
         0.00000E+00
         0.00000E+00
         0.00000E+00
         0.00000E+00
         0.00000E+00
         0.00000E+00
         0.00000E+00
         0.00000E+00
         0.00000E+00
         0.00000E+00
         0.00000E+00
         0.00000E+00
         0.00000E+00
         0.00000E+00
         0.00000E+00
         0.00000E+00
         0.00000E+00
         0.00000E+00
         0.00000E+00
         0.00000E+00
         0.00000E+00
         0.00000E+00
         0.00000E+00
         0.00000E+00
         0.00000E+00
         0.00000E+00
         0.00000E+00
         0.00000E+00
         0.00000E+00
         0.00000E+00
         0.00000E+00
         0.00000E+00
         0.00000E+00
         0.00000E+00
         0.00000E+00
         0.00000E+00
         0.00000E+00
         0.00000E+00
         0.00000E+00
         0.00000E+00
         0.00000E+00
         0.00000E+00
         0.00000E+00
         0.00000E+00
         0.00000E+00
         0.00000E+00
         0.00000E+00
         0.00000E+00
         0.00000E+00
         0.00000E+00
         0.00000E+00
         0.00000E+00
         0.00000E+00
         0.00000E+00
         0.00000E+00
         0.00000E+00
         0.00000E+00
         0.00000E+00
         0.00000E+00
         0.00000E+00
         0.00000E+00
         0.00000E+00
         0.00000E+00
         0.00000E+00
         0.00000E+00
         0.00000E+00
         0.00000E+00
         0.00000E+00
         0.00000E+00
         0.00000E+00
         0.00000E+00
         0.00000E+00
         0.00000E+00
         0.00000E+00
         0.00000E+00
         0.00000E+00
         0.00000E+00
         0.00000E+00
         0.00000E+00
         0.00000E+00
         0.00000E+00
         0.00000E+00
         0.00000E+00
         0.00000E+00
         0.00000E+00
         0.00000E+00
         0.00000E+00
         0.00000E+00
         0.00000E+00
         0.00000E+00
         0.00000E+00
         0.00000E+00
         0.00000E+00
         0.00000E+00
         0.00000E+00
         0.00000E+00
         0.00000E+00
         0.00000E+00
         0.00000E+00
         0.00000E+00
         0.00000E+00
         0.00000E+00
         0.00000E+00
         0.00000E+00
         0.00000E+00
         0.00000E+00
         0.00000E+00
         0.00000E+00
         0.00000E+00
         0.00000E+00
         0.00000E+00
         0.00000E+00
         0.00000E+00
         0.00000E+00
         0.00000E+00
         0.00000E+00
         0.00000E+00
         0.00000E+00
         0.00000E+00
         0.00000E+00
         0.00000E+00
         0.00000E+00
         0.00000E+00
         0.00000E+00
         0.00000E+00
         0.00000E+00
         0.00000E+00
         0.00000E+00
         0.00000E+00
         0.00000E+00
         0.00000E+00
         0.00000E+00
         0.00000E+00
         0.00000E+00
         0.00000E+00
         0.00000E+00
         0.00000E+00
         0.00000E+00
         0.00000E+00
         0.00000E+00
         0.00000E+00
         0.00000E+00
         0.00000E+00
         0.00000E+00
         0.00000E+00
         0.00000E+00
         0.00000E+00
         0.00000E+00
         0.00000E+00
         0.00000E+00
         0.00000E+00
         0.00000E+00
         0.00000E+00
         0.00000E+00
         0.00000E+00
         0.00000E+00
         0.00000E+00
         0.00000E+00
         0.00000E+00
         0.00000E+00
         0.00000E+00
         0.00000E+00
         0.00000E+00
         0.00000E+00
         0.00000E+00
         0.00000E+00
         0.00000E+00
         0.00000E+00
         0.00000E+00
         0.00000E+00
         0.00000E+00
         0.00000E+00
         0.00000E+00
         0.00000E+00
         0.00000E+00
         0.00000E+00
         0.00000E+00
         0.00000E+00
         0.00000E+00
         0.00000E+00
         0.00000E+00
         0.00000E+00
         0.00000E+00
         0.00000E+00
         0.00000E+00
         0.00000E+00
         0.00000E+00
         0.00000E+00
         0.00000E+00
         0.00000E+00
         0.00000E+00
         0.00000E+00
         0.00000E+00
         0.00000E+00
         0.00000E+00
         0.00000E+00
         0.00000E+00
         0.00000E+00
         0.00000E+00
         0.00000E+00
         0.00000E+00
         0.00000E+00
         0.00000E+00
         0.00000E+00
         0.00000E+00
         0.00000E+00
         0.00000E+00
         0.00000E+00
         0.00000E+00
         0.00000E+00
         0.00000E+00
         0.00000E+00
         0.00000E+00
         0.00000E+00
         0.00000E+00
         0.00000E+00
         0.00000E+00
         0.00000E+00
         0.00000E+00
         0.00000E+00
         0.00000E+00
         0.00000E+00
         0.00000E+00
         0.00000E+00
         0.00000E+00
         0.00000E+00
         0.00000E+00
         0.00000E+00
         0.00000E+00
         0.00000E+00
         0.00000E+00
         0.00000E+00
         0.00000E+00
         0.00000E+00
         0.00000E+00
         0.00000E+00
         0.00000E+00
         0.00000E+00
         0.00000E+00
         0.00000E+00
         0.00000E+00
         0.00000E+00
         0.00000E+00
         0.00000E+00
         0.00000E+00
         0.00000E+00
         0.00000E+00
         0.00000E+00
         0.00000E+00
         0.00000E+00
         0.00000E+00
         0.00000E+00
         0.00000E+00
         0.00000E+00
         0.00000E+00
         0.00000E+00
         0.00000E+00
         0.00000E+00
         0.00000E+00
         0.00000E+00
         0.00000E+00
         0.00000E+00
         0.00000E+00
         0.00000E+00
         0.00000E+00
         0.00000E+00
         0.00000E+00
         0.00000E+00
         0.00000E+00
         0.00000E+00
         0.00000E+00
         0.00000E+00
         0.00000E+00
         0.00000E+00
         0.00000E+00
         0.00000E+00
         0.00000E+00
         0.00000E+00
         0.00000E+00
         0.00000E+00
         0.00000E+00
         0.00000E+00
         0.00000E+00
         0.00000E+00
         0.00000E+00
         0.00000E+00
         0.00000E+00
         0.00000E+00
         0.00000E+00
         0.00000E+00
         0.00000E+00
         0.00000E+00
         0.00000E+00
         0.00000E+00
         0.00000E+00
         0.00000E+00
         0.00000E+00
         0.00000E+00
         0.00000E+00
         0.00000E+00
         0.00000E+00
         0.00000E+00
         0.00000E+00
         0.00000E+00
         0.00000E+00
         0.00000E+00
         0.00000E+00
         0.00000E+00
         0.00000E+00
         0.00000E+00
         0.00000E+00
         0.00000E+00
         0.00000E+00
         0.00000E+00
         0.00000E+00
         0.00000E+00
         0.00000E+00
         0.00000E+00
         0.00000E+00
         0.00000E+00
         0.00000E+00
         0.00000E+00
         0.00000E+00
         0.00000E+00
         0.00000E+00
         0.00000E+00
         0.00000E+00
         0.00000E+00
         0.00000E+00
         0.00000E+00
         0.00000E+00
         0.00000E+00
         0.00000E+00
         0.00000E+00
         0.00000E+00
         0.00000E+00
         0.00000E+00
         0.00000E+00
         0.00000E+00
         0.00000E+00
         0.00000E+00
         0.00000E+00
         0.00000E+00
         0.00000E+00
         0.00000E+00
         0.00000E+00
         0.00000E+00
         0.00000E+00
         0.00000E+00
         0.00000E+00
         0.00000E+00
         0.00000E+00
         0.00000E+00
         0.00000E+00
         0.00000E+00
         0.00000E+00
         0.00000E+00
         0.00000E+00
         0.00000E+00
         0.00000E+00
         0.00000E+00
         0.00000E+00
         0.00000E+00
         0.00000E+00
         0.00000E+00
         0.00000E+00
         0.00000E+00
         0.00000E+00
         0.00000E+00
         0.00000E+00
         0.00000E+00
         0.00000E+00
         0.00000E+00
         0.00000E+00
         0.00000E+00
         0.00000E+00
         0.00000E+00
         0.00000E+00
         0.00000E+00
         0.00000E+00
         0.00000E+00
         0.00000E+00
         0.00000E+00
         0.00000E+00
         0.00000E+00
         0.00000E+00
         0.00000E+00
         0.00000E+00
         0.00000E+00
         0.00000E+00
         0.00000E+00
         0.00000E+00
         0.00000E+00
         0.00000E+00
         0.00000E+00
         0.00000E+00
         0.00000E+00
         0.00000E+00
         0.00000E+00
         0.00000E+00
         0.00000E+00
         0.00000E+00
         0.00000E+00
         0.00000E+00
         0.00000E+00
         0.00000E+00
         0.00000E+00
         0.00000E+00
         0.00000E+00
         0.00000E+00
         0.00000E+00
         0.00000E+00
         0.00000E+00
         0.00000E+00
         0.00000E+00
         0.00000E+00
         0.00000E+00
         0.00000E+00
         0.00000E+00
         0.00000E+00
         0.00000E+00
         0.00000E+00
         0.00000E+00
         0.00000E+00
         0.00000E+00
         0.00000E+00
         0.00000E+00
         0.00000E+00
         0.00000E+00
         0.00000E+00
         0.00000E+00
         0.00000E+00
         0.00000E+00
         0.00000E+00
         0.00000E+00
         0.00000E+00
         0.00000E+00
         0.00000E+00
         0.00000E+00
         0.00000E+00
         0.00000E+00
         0.00000E+00
         0.00000E+00
         0.00000E+00
         0.00000E+00
         0.00000E+00
         0.00000E+00
         0.00000E+00
         0.00000E+00
         0.00000E+00
         0.00000E+00
         0.00000E+00
         0.00000E+00
         0.00000E+00
         0.00000E+00
         0.00000E+00
         0.00000E+00
         0.00000E+00
         0.00000E+00
         0.00000E+00
         0.00000E+00
         0.00000E+00
         0.00000E+00
         0.00000E+00
         0.00000E+00
         0.00000E+00
         0.00000E+00
         0.00000E+00
         0.00000E+00
         0.00000E+00
         0.00000E+00
         0.00000E+00
         0.00000E+00
         0.00000E+00
         0.00000E+00
         0.00000E+00
         0.00000E+00
         0.00000E+00
         0.00000E+00
         0.00000E+00
         0.00000E+00
         0.00000E+00
         0.00000E+00
         0.00000E+00
         0.00000E+00
         0.00000E+00
         0.00000E+00
         0.00000E+00
         0.00000E+00
         0.00000E+00
         0.00000E+00
         0.00000E+00
         0.00000E+00
         0.00000E+00
         0.00000E+00
         0.00000E+00
         0.00000E+00
         0.00000E+00
         0.00000E+00
         0.00000E+00
         0.00000E+00
         0.00000E+00
         0.00000E+00
         0.00000E+00
         0.00000E+00
         0.00000E+00
         0.00000E+00
         0.00000E+00
         0.00000E+00
         0.00000E+00
         0.00000E+00
         0.00000E+00
         0.00000E+00
         0.00000E+00
         0.00000E+00
         0.00000E+00
         0.00000E+00
         0.00000E+00
         0.00000E+00
         0.00000E+00
         0.00000E+00
         0.00000E+00
         0.00000E+00
         0.00000E+00
         0.00000E+00
         0.00000E+00
         0.00000E+00
         0.00000E+00
         0.00000E+00
         0.00000E+00
         0.00000E+00
         0.00000E+00
         0.00000E+00
         0.00000E+00
         0.00000E+00
         0.00000E+00
         0.00000E+00
         0.00000E+00
         0.00000E+00
         0.00000E+00
         0.00000E+00
         0.00000E+00
         0.00000E+00
         0.00000E+00
         0.00000E+00
         0.00000E+00
         0.00000E+00
         0.00000E+00
         0.00000E+00
         0.00000E+00
         0.00000E+00
         0.00000E+00
         0.00000E+00
         0.00000E+00
         0.00000E+00
         0.00000E+00
         0.00000E+00
         0.00000E+00
         0.00000E+00
         0.00000E+00
         0.00000E+00
         0.00000E+00
         0.00000E+00
         0.00000E+00
         0.00000E+00
         0.00000E+00
         0.00000E+00
         0.00000E+00
         0.00000E+00
         0.00000E+00
         0.00000E+00
         0.00000E+00
         0.00000E+00
         0.00000E+00
         0.00000E+00
         0.00000E+00
         0.00000E+00
         0.00000E+00
         0.00000E+00
         0.00000E+00
         0.00000E+00
         0.00000E+00
         0.00000E+00
         0.00000E+00
         0.00000E+00
         0.00000E+00
         0.00000E+00
         0.00000E+00
         0.00000E+00
         0.00000E+00
         0.00000E+00
         0.00000E+00
         0.00000E+00
         0.00000E+00
         0.00000E+00
         0.00000E+00
         0.00000E+00
         0.00000E+00
         0.00000E+00
         0.00000E+00
         0.00000E+00
         0.00000E+00
         0.00000E+00
         0.00000E+00
         0.00000E+00
         0.00000E+00
         0.00000E+00
         0.00000E+00
         0.00000E+00
         0.00000E+00
         0.00000E+00
         0.00000E+00
         0.00000E+00
         0.00000E+00
         0.00000E+00
         0.00000E+00
         0.00000E+00
         0.00000E+00
         0.00000E+00
         0.00000E+00
         0.00000E+00
         0.00000E+00
         0.00000E+00
         0.00000E+00
         0.00000E+00
         0.00000E+00
         0.00000E+00
         0.00000E+00
         0.00000E+00
         0.00000E+00
         0.00000E+00
         0.00000E+00
         0.00000E+00
         0.00000E+00
         0.00000E+00
         0.00000E+00
         0.00000E+00
         0.00000E+00
         0.00000E+00
         0.00000E+00
         0.00000E+00
         0.00000E+00
         0.00000E+00
         0.00000E+00
         0.00000E+00
         0.00000E+00
         0.00000E+00
         0.00000E+00
         0.00000E+00
         0.00000E+00
         0.00000E+00
         0.00000E+00
         0.00000E+00
         0.00000E+00
         0.00000E+00
         0.00000E+00
         0.00000E+00
         0.00000E+00
         0.00000E+00
         0.00000E+00
         0.00000E+00
         0.00000E+00
         0.00000E+00
         0.00000E+00
         0.00000E+00
         0.00000E+00
         0.00000E+00
         0.00000E+00
         0.00000E+00
         0.00000E+00
         0.00000E+00
         0.00000E+00
         0.00000E+00
         0.00000E+00
         0.00000E+00
         0.00000E+00
         0.00000E+00
         0.00000E+00
         0.00000E+00
         0.00000E+00
         0.00000E+00
         0.00000E+00
         0.00000E+00
         0.00000E+00
         0.00000E+00
         0.00000E+00
         0.00000E+00
         0.00000E+00
         0.00000E+00
         0.00000E+00
         0.00000E+00
         0.00000E+00
         0.00000E+00
         0.00000E+00
         0.00000E+00
         0.00000E+00
         0.00000E+00
         0.00000E+00
         0.00000E+00
         0.00000E+00
         0.00000E+00
         0.00000E+00
         0.00000E+00
         0.00000E+00
         0.00000E+00
         0.00000E+00
         0.00000E+00
         0.00000E+00
         0.00000E+00
         0.00000E+00
         0.00000E+00
         0.00000E+00
         0.00000E+00
         0.00000E+00
         0.00000E+00
         0.00000E+00
         0.00000E+00
         0.00000E+00
         0.00000E+00
         0.00000E+00
         0.00000E+00
         0.00000E+00
         0.00000E+00
         0.00000E+00
         0.00000E+00
         0.00000E+00
         0.00000E+00
         0.00000E+00
         0.00000E+00
         0.00000E+00
         0.00000E+00
         0.00000E+00
         0.00000E+00
         0.00000E+00
         0.00000E+00
         0.00000E+00
         0.00000E+00
         0.00000E+00
         0.00000E+00
         0.00000E+00
         0.00000E+00
         0.00000E+00
         0.00000E+00
         0.00000E+00
         0.00000E+00
         0.00000E+00
         0.00000E+00
         0.00000E+00
         0.00000E+00
         0.00000E+00
         0.00000E+00
         0.00000E+00
         0.00000E+00
         0.00000E+00
         0.00000E+00
         0.00000E+00
         0.00000E+00
         0.00000E+00
         0.00000E+00
         0.00000E+00
         0.00000E+00
         0.00000E+00
         0.00000E+00
         0.00000E+00
         0.00000E+00
         0.00000E+00
         0.00000E+00
         0.00000E+00
         0.00000E+00
         0.00000E+00
         0.00000E+00
         0.00000E+00
         0.00000E+00
         0.00000E+00
         0.00000E+00
         0.00000E+00
         0.00000E+00
         0.00000E+00
         0.00000E+00
         0.00000E+00
         0.00000E+00
         0.00000E+00
         0.00000E+00
         0.00000E+00
         0.00000E+00
         0.00000E+00
         0.00000E+00
         0.00000E+00
         0.00000E+00
         0.00000E+00
         0.00000E+00
         0.00000E+00
         0.00000E+00
         0.00000E+00
         0.00000E+00
         0.00000E+00
         0.00000E+00
         0.00000E+00
         0.00000E+00
         0.00000E+00
         0.00000E+00
         0.00000E+00
         0.00000E+00
         0.00000E+00
         0.00000E+00
         0.00000E+00
         0.00000E+00
         0.00000E+00
         0.00000E+00
         0.00000E+00
         0.00000E+00
         0.00000E+00
         0.00000E+00
         0.00000E+00
         0.00000E+00
         0.00000E+00
         0.00000E+00
         0.00000E+00
         0.00000E+00
         0.00000E+00
         0.00000E+00
         0.00000E+00
         0.00000E+00
         0.00000E+00
         0.00000E+00
         0.00000E+00
         0.00000E+00
         0.00000E+00
         0.00000E+00
         0.00000E+00
         0.00000E+00
         0.00000E+00
         0.00000E+00
         0.00000E+00
         0.00000E+00
         0.00000E+00
         0.00000E+00
         0.00000E+00
         0.00000E+00
         0.00000E+00
         0.00000E+00
         0.00000E+00
         0.00000E+00
         0.00000E+00
         0.00000E+00
         0.00000E+00
         0.00000E+00
         0.00000E+00
         0.00000E+00
         0.00000E+00
         0.00000E+00
         0.00000E+00
         0.00000E+00
         0.00000E+00
         0.00000E+00
         0.00000E+00
         0.00000E+00
         0.00000E+00
         0.00000E+00
         0.00000E+00
         0.00000E+00
         0.00000E+00
         0.00000E+00
         0.00000E+00
         0.00000E+00
         0.00000E+00
         0.00000E+00
         0.00000E+00
         0.00000E+00
         0.00000E+00
         0.00000E+00
         0.00000E+00
         0.00000E+00
         0.00000E+00
         0.00000E+00
         0.00000E+00
         0.00000E+00
         0.00000E+00
         0.00000E+00
         0.00000E+00
         0.00000E+00
         0.00000E+00
         0.00000E+00
         0.00000E+00
         0.00000E+00
         0.00000E+00
         0.00000E+00
         0.00000E+00
         0.00000E+00
         0.00000E+00
         0.00000E+00
         0.00000E+00
         0.00000E+00
         0.00000E+00
         0.00000E+00
         0.00000E+00
         0.00000E+00
         0.00000E+00
         0.00000E+00
         0.00000E+00
         0.00000E+00
         0.00000E+00
         0.00000E+00
         0.00000E+00
         0.00000E+00
         0.00000E+00
         0.00000E+00
         0.00000E+00
         0.00000E+00
         0.00000E+00
         0.00000E+00
         0.00000E+00
         0.00000E+00
         0.00000E+00
         0.00000E+00
         0.00000E+00
         0.00000E+00
         0.00000E+00
         0.00000E+00
         0.00000E+00
         0.00000E+00
         0.00000E+00
         0.00000E+00
         0.00000E+00
         0.00000E+00
         0.00000E+00
         0.00000E+00
         0.00000E+00
         0.00000E+00
         0.00000E+00
         0.00000E+00
         0.00000E+00
         0.00000E+00
         0.00000E+00
         0.00000E+00
         0.00000E+00
         0.00000E+00
         0.00000E+00
         0.00000E+00
         0.00000E+00
         0.00000E+00
         0.00000E+00
         0.00000E+00
         0.00000E+00
         0.00000E+00
         0.00000E+00
         0.00000E+00
         0.00000E+00
         0.00000E+00
         0.00000E+00
         0.00000E+00
         0.00000E+00
         0.00000E+00
         0.00000E+00
         0.00000E+00
         0.00000E+00
         0.00000E+00
         0.00000E+00
         0.00000E+00
         0.00000E+00
         0.00000E+00
         0.00000E+00
         0.00000E+00
         0.00000E+00
         0.00000E+00
         0.00000E+00
         0.00000E+00
         0.00000E+00
         0.00000E+00
         0.00000E+00
         0.00000E+00
         0.00000E+00
         0.00000E+00
         0.00000E+00
         0.00000E+00
         0.00000E+00
         0.00000E+00
         0.00000E+00
         0.00000E+00
         0.00000E+00
         0.00000E+00
         0.00000E+00
         0.00000E+00
         0.00000E+00
         0.00000E+00
         0.00000E+00
         0.00000E+00
         0.00000E+00
         0.00000E+00
         0.00000E+00
         0.00000E+00
         0.00000E+00
         0.00000E+00
         0.00000E+00
         0.00000E+00
         0.00000E+00
         0.00000E+00
         0.00000E+00
         0.00000E+00
         0.00000E+00
         0.00000E+00
         0.00000E+00
         0.00000E+00
         0.00000E+00
         0.00000E+00
         0.00000E+00
         0.00000E+00
         0.00000E+00
         0.00000E+00
         0.00000E+00
         0.00000E+00
         0.00000E+00
         0.00000E+00
         0.00000E+00
         0.00000E+00
         0.00000E+00
         0.00000E+00
         0.00000E+00
         0.00000E+00
         0.00000E+00
         0.00000E+00
         0.00000E+00
         0.00000E+00
         0.00000E+00
         0.00000E+00
         0.00000E+00
         0.00000E+00
         0.00000E+00
         0.00000E+00
         0.00000E+00
         0.00000E+00
         0.00000E+00
         0.00000E+00
         0.00000E+00
         0.00000E+00
         0.00000E+00
         0.00000E+00
         0.00000E+00
         0.00000E+00
         0.00000E+00
         0.00000E+00
         0.00000E+00
         0.00000E+00
         0.00000E+00
         0.00000E+00
         0.00000E+00
         0.00000E+00
         0.00000E+00
         0.00000E+00
         0.00000E+00
         0.00000E+00
         0.00000E+00
         0.00000E+00
         0.00000E+00
         0.00000E+00
         0.00000E+00
         0.00000E+00
         0.00000E+00
         0.00000E+00
         0.00000E+00
         0.00000E+00
         0.00000E+00
         0.00000E+00
         0.00000E+00
         0.00000E+00
         0.00000E+00
         0.00000E+00
         0.00000E+00
         0.00000E+00
         0.00000E+00
         0.00000E+00
         0.00000E+00
         0.00000E+00
         0.00000E+00
         0.00000E+00
         0.00000E+00
         0.00000E+00
         0.00000E+00
         0.00000E+00
         0.00000E+00
         0.00000E+00
         0.00000E+00
         0.00000E+00
         0.00000E+00
         0.00000E+00
         0.00000E+00
         0.00000E+00
         0.00000E+00
         0.00000E+00
         0.00000E+00
         0.00000E+00
         0.00000E+00
  
SCALARS                            eps  double 1
LOOKUP_TABLE default
         0.63206E+01
         0.62416E+01
         0.62918E+01
         0.63815E+01
         0.00000E+00
         0.00000E+00
         0.00000E+00
         0.00000E+00
         0.62394E+01
         0.62658E+01
         0.00000E+00
         0.00000E+00
         0.61272E+01
         0.61229E+01
         0.00000E+00
         0.00000E+00
         0.63684E+01
         0.61292E+01
         0.00000E+00
         0.00000E+00
         0.60412E+01
         0.59730E+01
         0.60818E+01
         0.00000E+00
         0.00000E+00
         0.00000E+00
         0.59755E+01
         0.58757E+01
         0.00000E+00
         0.00000E+00
         0.63640E+01
         0.62600E+01
         0.64648E+01
         0.00000E+00
         0.00000E+00
         0.00000E+00
         0.63039E+01
         0.61713E+01
         0.00000E+00
         0.00000E+00
         0.62515E+01
         0.61492E+01
         0.00000E+00
         0.00000E+00
         0.63381E+01
         0.63764E+01
         0.00000E+00
         0.00000E+00
         0.60669E+01
         0.00000E+00
         0.63689E+01
         0.00000E+00
         0.59466E+01
         0.00000E+00
         0.59152E+01
         0.00000E+00
         0.59159E+01
         0.60273E+01
         0.00000E+00
         0.00000E+00
         0.63619E+01
         0.63220E+01
         0.00000E+00
         0.00000E+00
         0.63869E+01
         0.00000E+00
         0.63394E+01
         0.00000E+00
         0.62151E+01
         0.62022E+01
         0.00000E+00
         0.00000E+00
         0.61737E+01
         0.00000E+00
         0.58403E+01
         0.00000E+00
         0.58229E+01
         0.00000E+00
         0.58318E+01
         0.00000E+00
         0.58806E+01
         0.59304E+01
         0.00000E+00
         0.00000E+00
         0.60312E+01
         0.00000E+00
         0.63362E+01
         0.00000E+00
         0.62889E+01
         0.00000E+00
         0.62504E+01
         0.62284E+01
         0.00000E+00
         0.00000E+00
         0.62545E+01
         0.00000E+00
         0.62733E+01
         0.00000E+00
         0.62565E+01
         0.00000E+00
         0.62510E+01
         0.62678E+01
         0.00000E+00
         0.00000E+00
         0.61589E+01
         0.62046E+01
         0.00000E+00
         0.00000E+00
         0.61510E+01
         0.00000E+00
         0.62037E+01
         0.00000E+00
         0.61521E+01
         0.00000E+00
         0.60386E+01
         0.00000E+00
         0.59289E+01
         0.00000E+00
         0.58628E+01
         0.00000E+00
         0.58560E+01
         0.00000E+00
         0.58580E+01
         0.00000E+00
         0.59295E+01
         0.00000E+00
         0.60642E+01
         0.00000E+00
         0.62115E+01
         0.00000E+00
         0.62970E+01
         0.00000E+00
         0.63816E+01
         0.00000E+00
         0.64376E+01
         0.00000E+00
         0.64358E+01
         0.00000E+00
         0.62987E+01
         0.00000E+00
         0.62028E+01
         0.00000E+00
         0.61711E+01
         0.00000E+00
         0.62227E+01
         0.00000E+00
         0.62490E+01
         0.00000E+00
         0.62035E+01
         0.00000E+00
         0.62034E+01
         0.00000E+00
         0.62378E+01
         0.00000E+00
         0.62823E+01
         0.00000E+00
         0.32733E+00
         0.32742E+00
         0.32741E+00
         0.32719E+00
         0.32744E+00
         0.32744E+00
         0.32738E+00
         0.32741E+00
         0.32726E+00
         0.32743E+00
         0.32736E+00
         0.32747E+00
         0.32745E+00
         0.32737E+00
         0.32748E+00
         0.32721E+00
         0.32728E+00
         0.32704E+00
         0.32741E+00
         0.32741E+00
         0.32748E+00
         0.32749E+00
         0.32747E+00
         0.32741E+00
         0.32742E+00
         0.32741E+00
         0.32739E+00
         0.32739E+00
         0.32738E+00
         0.32741E+00
         0.32725E+00
         0.32741E+00
         0.32725E+00
         0.32740E+00
         0.32746E+00
         0.32742E+00
         0.32744E+00
         0.32748E+00
         0.32745E+00
         0.32743E+00
         0.32749E+00
         0.32747E+00
         0.32750E+00
         0.32746E+00
         0.32745E+00
         0.32747E+00
         0.32742E+00
         0.32744E+00
         0.32743E+00
         0.32742E+00
         0.32746E+00
         0.32744E+00
         0.32825E+00
         0.32839E+00
         0.32846E+00
         0.32854E+00
         0.32867E+00
         0.32883E+00
         0.32874E+00
         0.32852E+00
         0.32846E+00
         0.32854E+00
         0.32846E+00
         0.32856E+00
         0.32832E+00
         0.32824E+00
         0.32836E+00
         0.32847E+00
         0.32855E+00
         0.32860E+00
         0.32837E+00
         0.32850E+00
         0.32844E+00
         0.32834E+00
         0.32835E+00
         0.32825E+00
         0.32838E+00
         0.32845E+00
         0.53766E-02
         0.19777E-02
         0.16887E-02
         0.18326E-03
         0.57055E-02
         0.29727E-02
         0.00000E+00
         0.52357E-02
         0.21069E-02
         0.47510E-02
         0.71661E-03
         0.13509E-01
         0.94770E-02
         0.31553E-02
         0.14303E-01
         0.30458E-02
         0.10285E-04
         0.00000E+00
         0.10327E-02
         0.00000E+00
         0.99292E-02
         0.91161E-02
         0.87936E-02
         0.00000E+00
         0.19541E-02
         0.00000E+00
         0.27999E-02
         0.00000E+00
         0.00000E+00
         0.23838E-02
         0.21463E-02
         0.00000E+00
         0.29633E-03
         0.00000E+00
         0.83085E-02
         0.36987E-02
         0.57171E-02
         0.11063E-01
         0.77669E-02
         0.70078E-02
         0.11304E-01
         0.99449E-02
         0.10033E-01
         0.70419E-02
         0.59481E-02
         0.93130E-02
         0.50072E-02
         0.37857E-02
         0.25720E-02
         0.36041E-02
         0.79046E-02
         0.44318E-02
         0.45943E-01
         0.47127E-01
         0.49424E-01
         0.49039E-01
         0.52513E-01
         0.56650E-01
         0.54214E-01
         0.47808E-01
         0.46498E-01
         0.50015E-01
         0.48946E-01
         0.48231E-01
         0.39256E-01
         0.37144E-01
         0.41152E-01
         0.44330E-01
         0.46138E-01
         0.50715E-01
         0.48646E-01
         0.50060E-01
         0.44721E-01
         0.42282E-01
         0.45328E-01
         0.44232E-01
         0.45620E-01
         0.45206E-01
         0.53830E-02
         0.19789E-02
         0.16914E-02
         0.18795E-03
         0.57015E-02
         0.29691E-02
         0.00000E+00
         0.52438E-02
         0.21160E-02
         0.47743E-02
         0.71652E-03
         0.13508E-01
         0.94819E-02
         0.31406E-02
         0.14322E-01
         0.30507E-02
         0.18967E-04
         0.00000E+00
         0.10351E-02
         0.00000E+00
         0.99303E-02
         0.91152E-02
         0.87928E-02
         0.00000E+00
         0.19759E-02
         0.00000E+00
         0.28018E-02
         0.00000E+00
         0.00000E+00
         0.23935E-02
         0.21513E-02
         0.00000E+00
         0.29060E-03
         0.00000E+00
         0.83136E-02
         0.36967E-02
         0.57151E-02
         0.11085E-01
         0.77915E-02
         0.70219E-02
         0.11314E-01
         0.99517E-02
         0.10034E-01
         0.70417E-02
         0.59463E-02
         0.93123E-02
         0.50073E-02
         0.37853E-02
         0.25639E-02
         0.35949E-02
         0.78984E-02
         0.44201E-02
         0.45925E-01
         0.47115E-01
         0.49424E-01
         0.49040E-01
         0.52504E-01
         0.56630E-01
         0.54190E-01
         0.47794E-01
         0.46485E-01
         0.49999E-01
         0.48937E-01
         0.48232E-01
         0.39252E-01
         0.37143E-01
         0.41157E-01
         0.44342E-01
         0.46151E-01
         0.50726E-01
         0.48643E-01
         0.50057E-01
         0.44715E-01
         0.42280E-01
         0.45311E-01
         0.44201E-01
         0.45593E-01
         0.45180E-01
         0.53895E-02
         0.19801E-02
         0.16941E-02
         0.19267E-03
         0.56974E-02
         0.29658E-02
         0.00000E+00
         0.52519E-02
         0.21250E-02
         0.47974E-02
         0.71648E-03
         0.13508E-01
         0.94869E-02
         0.31258E-02
         0.14340E-01
         0.30558E-02
         0.27801E-04
         0.00000E+00
         0.10376E-02
         0.00000E+00
         0.99315E-02
         0.91144E-02
         0.87922E-02
         0.00000E+00
         0.19976E-02
         0.00000E+00
         0.28037E-02
         0.00000E+00
         0.00000E+00
         0.24028E-02
         0.21565E-02
         0.00000E+00
         0.28487E-03
         0.00000E+00
         0.83188E-02
         0.36950E-02
         0.57129E-02
         0.11108E-01
         0.78162E-02
         0.70361E-02
         0.11324E-01
         0.99587E-02
         0.10036E-01
         0.70419E-02
         0.59448E-02
         0.93120E-02
         0.50074E-02
         0.37848E-02
         0.25558E-02
         0.35856E-02
         0.78924E-02
         0.44085E-02
         0.45907E-01
         0.47103E-01
         0.49423E-01
         0.49040E-01
         0.52495E-01
         0.56610E-01
         0.54166E-01
         0.47781E-01
         0.46473E-01
         0.49983E-01
         0.48928E-01
         0.48234E-01
         0.39248E-01
         0.37141E-01
         0.41162E-01
         0.44354E-01
         0.46164E-01
         0.50738E-01
         0.48640E-01
         0.50054E-01
         0.44710E-01
         0.42277E-01
         0.45294E-01
         0.44170E-01
         0.45565E-01
         0.45154E-01
         0.53960E-02
         0.19812E-02
         0.16969E-02
         0.19740E-03
         0.56933E-02
         0.29623E-02
         0.00000E+00
         0.52599E-02
         0.21341E-02
         0.48200E-02
         0.71650E-03
         0.13507E-01
         0.94921E-02
         0.31111E-02
         0.14358E-01
         0.30614E-02
         0.36976E-04
         0.00000E+00
         0.10402E-02
         0.00000E+00
         0.99332E-02
         0.91139E-02
         0.87924E-02
         0.00000E+00
         0.20188E-02
         0.00000E+00
         0.28054E-02
         0.00000E+00
         0.00000E+00
         0.24114E-02
         0.21618E-02
         0.00000E+00
         0.27910E-03
         0.00000E+00
         0.83238E-02
         0.36931E-02
         0.57108E-02
         0.11130E-01
         0.78413E-02
         0.70512E-02
         0.11334E-01
         0.99660E-02
         0.10038E-01
         0.70431E-02
         0.59438E-02
         0.93118E-02
         0.50080E-02
         0.37844E-02
         0.25478E-02
         0.35763E-02
         0.78860E-02
         0.43967E-02
         0.45889E-01
         0.47091E-01
         0.49423E-01
         0.49041E-01
         0.52486E-01
         0.56589E-01
         0.54142E-01
         0.47767E-01
         0.46460E-01
         0.49966E-01
         0.48919E-01
         0.48237E-01
         0.39245E-01
         0.37140E-01
         0.41168E-01
         0.44367E-01
         0.46179E-01
         0.50751E-01
         0.48637E-01
         0.50051E-01
         0.44705E-01
         0.42274E-01
         0.45278E-01
         0.44138E-01
         0.45537E-01
         0.45128E-01
         0.54024E-02
         0.19824E-02
         0.16996E-02
         0.20211E-03
         0.56894E-02
         0.29588E-02
         0.00000E+00
         0.52679E-02
         0.21430E-02
         0.48422E-02
         0.71659E-03
         0.13507E-01
         0.94972E-02
         0.30964E-02
         0.14376E-01
         0.30673E-02
         0.46489E-04
         0.00000E+00
         0.10429E-02
         0.00000E+00
         0.99352E-02
         0.91136E-02
         0.87931E-02
         0.00000E+00
         0.20395E-02
         0.00000E+00
         0.28068E-02
         0.00000E+00
         0.00000E+00
         0.24190E-02
         0.21674E-02
         0.00000E+00
         0.27332E-03
         0.00000E+00
         0.83290E-02
         0.36912E-02
         0.57089E-02
         0.11153E-01
         0.78669E-02
         0.70668E-02
         0.11345E-01
         0.99736E-02
         0.10041E-01
         0.70452E-02
         0.59434E-02
         0.93123E-02
         0.50090E-02
         0.37843E-02
         0.25398E-02
         0.35669E-02
         0.78801E-02
         0.43851E-02
         0.45871E-01
         0.47079E-01
         0.49423E-01
         0.49041E-01
         0.52477E-01
         0.56569E-01
         0.54117E-01
         0.47753E-01
         0.46447E-01
         0.49950E-01
         0.48911E-01
         0.48240E-01
         0.39243E-01
         0.37139E-01
         0.41175E-01
         0.44382E-01
         0.46195E-01
         0.50764E-01
         0.48635E-01
         0.50048E-01
         0.44700E-01
         0.42271E-01
         0.45261E-01
         0.44107E-01
         0.45510E-01
         0.45102E-01
         0.54085E-02
         0.19832E-02
         0.17023E-02
         0.20683E-03
         0.56854E-02
         0.29553E-02
         0.00000E+00
         0.52752E-02
         0.21520E-02
         0.48637E-02
         0.71701E-03
         0.13506E-01
         0.95023E-02
         0.30817E-02
         0.14394E-01
         0.30734E-02
         0.56062E-04
         0.00000E+00
         0.10457E-02
         0.00000E+00
         0.99375E-02
         0.91136E-02
         0.87943E-02
         0.00000E+00
         0.20597E-02
         0.00000E+00
         0.28082E-02
         0.00000E+00
         0.00000E+00
         0.24264E-02
         0.21728E-02
         0.00000E+00
         0.26756E-03
         0.00000E+00
         0.83343E-02
         0.36896E-02
         0.57071E-02
         0.11175E-01
         0.78928E-02
         0.70830E-02
         0.11357E-01
         0.99814E-02
         0.10045E-01
         0.70477E-02
         0.59436E-02
         0.93135E-02
         0.50101E-02
         0.37845E-02
         0.25322E-02
         0.35578E-02
         0.78741E-02
         0.43737E-02
         0.45853E-01
         0.47067E-01
         0.49423E-01
         0.49041E-01
         0.52467E-01
         0.56549E-01
         0.54093E-01
         0.47740E-01
         0.46435E-01
         0.49934E-01
         0.48902E-01
         0.48244E-01
         0.39242E-01
         0.37138E-01
         0.41182E-01
         0.44398E-01
         0.46212E-01
         0.50777E-01
         0.48632E-01
         0.50045E-01
         0.44695E-01
         0.42268E-01
         0.45244E-01
         0.44076E-01
         0.45482E-01
         0.45076E-01
         0.54141E-02
         0.19834E-02
         0.17048E-02
         0.21160E-03
         0.56815E-02
         0.29520E-02
         0.00000E+00
         0.52816E-02
         0.21612E-02
         0.48843E-02
         0.71799E-03
         0.13506E-01
         0.95080E-02
         0.30672E-02
         0.14413E-01
         0.30796E-02
         0.65455E-04
         0.00000E+00
         0.10485E-02
         0.00000E+00
         0.99398E-02
         0.91136E-02
         0.87957E-02
         0.00000E+00
         0.20793E-02
         0.00000E+00
         0.28097E-02
         0.00000E+00
         0.00000E+00
         0.24338E-02
         0.21779E-02
         0.00000E+00
         0.26174E-03
         0.00000E+00
         0.83396E-02
         0.36883E-02
         0.57056E-02
         0.11198E-01
         0.79189E-02
         0.70991E-02
         0.11368E-01
         0.99893E-02
         0.10048E-01
         0.70503E-02
         0.59443E-02
         0.93151E-02
         0.50119E-02
         0.37853E-02
         0.25257E-02
         0.35491E-02
         0.78686E-02
         0.43623E-02
         0.45835E-01
         0.47055E-01
         0.49422E-01
         0.49041E-01
         0.52458E-01
         0.56528E-01
         0.54069E-01
         0.47726E-01
         0.46422E-01
         0.49918E-01
         0.48894E-01
         0.48247E-01
         0.39240E-01
         0.37137E-01
         0.41188E-01
         0.44414E-01
         0.46229E-01
         0.50790E-01
         0.48629E-01
         0.50041E-01
         0.44690E-01
         0.42266E-01
         0.45227E-01
         0.44045E-01
         0.45455E-01
         0.45051E-01
         0.54194E-02
         0.19834E-02
         0.17073E-02
         0.21635E-03
         0.56779E-02
         0.29485E-02
         0.00000E+00
         0.52873E-02
         0.21705E-02
         0.49044E-02
         0.71931E-03
         0.13506E-01
         0.95137E-02
         0.30527E-02
         0.14431E-01
         0.30858E-02
         0.74761E-04
         0.00000E+00
         0.10512E-02
         0.00000E+00
         0.99420E-02
         0.91136E-02
         0.87969E-02
         0.00000E+00
         0.20987E-02
         0.00000E+00
         0.28113E-02
         0.00000E+00
         0.00000E+00
         0.24412E-02
         0.21827E-02
         0.00000E+00
         0.25590E-03
         0.00000E+00
         0.83453E-02
         0.36873E-02
         0.57044E-02
         0.11221E-01
         0.79450E-02
         0.71154E-02
         0.11380E-01
         0.99975E-02
         0.10052E-01
         0.70532E-02
         0.59451E-02
         0.93172E-02
         0.50139E-02
         0.37863E-02
         0.25197E-02
         0.35407E-02
         0.78633E-02
         0.43512E-02
         0.45817E-01
         0.47043E-01
         0.49421E-01
         0.49042E-01
         0.52449E-01
         0.56508E-01
         0.54044E-01
         0.47712E-01
         0.46410E-01
         0.49901E-01
         0.48885E-01
         0.48251E-01
         0.39239E-01
         0.37137E-01
         0.41195E-01
         0.44430E-01
         0.46246E-01
         0.50802E-01
         0.48625E-01
         0.50038E-01
         0.44686E-01
         0.42264E-01
         0.45211E-01
         0.44014E-01
         0.45427E-01
         0.45025E-01
         0.54248E-02
         0.19834E-02
         0.17097E-02
         0.22113E-03
         0.56741E-02
         0.29450E-02
         0.00000E+00
         0.52931E-02
         0.21799E-02
         0.49246E-02
         0.72052E-03
         0.13506E-01
         0.95194E-02
         0.30383E-02
         0.14450E-01
         0.30919E-02
         0.84093E-04
         0.00000E+00
         0.10540E-02
         0.00000E+00
         0.99442E-02
         0.91137E-02
         0.87983E-02
         0.00000E+00
         0.21180E-02
         0.00000E+00
         0.28130E-02
         0.00000E+00
         0.00000E+00
         0.24486E-02
         0.21876E-02
         0.00000E+00
         0.25012E-03
         0.00000E+00
         0.83510E-02
         0.36861E-02
         0.57032E-02
         0.11244E-01
         0.79714E-02
         0.71315E-02
         0.11392E-01
         0.10005E-01
         0.10055E-01
         0.70562E-02
         0.59461E-02
         0.93192E-02
         0.50158E-02
         0.37874E-02
         0.25137E-02
         0.35323E-02
         0.78582E-02
         0.43399E-02
         0.45799E-01
         0.47031E-01
         0.49421E-01
         0.49042E-01
         0.52440E-01
         0.56487E-01
         0.54020E-01
         0.47698E-01
         0.46397E-01
         0.49885E-01
         0.48877E-01
         0.48254E-01
         0.39237E-01
         0.37136E-01
         0.41202E-01
         0.44446E-01
         0.46264E-01
         0.50815E-01
         0.48621E-01
         0.50035E-01
         0.44681E-01
         0.42262E-01
         0.45194E-01
         0.43983E-01
         0.45400E-01
         0.44999E-01
         0.54301E-02
         0.19833E-02
         0.17121E-02
         0.22595E-03
         0.56703E-02
         0.29415E-02
         0.00000E+00
         0.52989E-02
         0.21892E-02
         0.49447E-02
         0.72196E-03
         0.13507E-01
         0.95254E-02
         0.30240E-02
         0.14468E-01
         0.30981E-02
         0.93453E-04
         0.00000E+00
         0.10567E-02
         0.00000E+00
         0.99466E-02
         0.91136E-02
         0.87994E-02
         0.00000E+00
         0.21372E-02
         0.00000E+00
         0.28147E-02
         0.00000E+00
         0.00000E+00
         0.24559E-02
         0.21924E-02
         0.00000E+00
         0.24435E-03
         0.00000E+00
         0.83565E-02
         0.36851E-02
         0.57020E-02
         0.11267E-01
         0.79976E-02
         0.71478E-02
         0.11403E-01
         0.10013E-01
         0.10058E-01
         0.70591E-02
         0.59470E-02
         0.93211E-02
         0.50179E-02
         0.37886E-02
         0.25077E-02
         0.35237E-02
         0.78528E-02
         0.43286E-02
         0.45781E-01
         0.47019E-01
         0.49420E-01
         0.49042E-01
         0.52430E-01
         0.56467E-01
         0.53995E-01
         0.47684E-01
         0.46385E-01
         0.49868E-01
         0.48868E-01
         0.48257E-01
         0.39235E-01
         0.37135E-01
         0.41209E-01
         0.44462E-01
         0.46281E-01
         0.50828E-01
         0.48618E-01
         0.50031E-01
         0.44677E-01
         0.42260E-01
         0.45177E-01
         0.43952E-01
         0.45373E-01
         0.44973E-01
         0.54353E-02
         0.19833E-02
         0.17146E-02
         0.23071E-03
         0.56666E-02
         0.29381E-02
         0.00000E+00
         0.53046E-02
         0.21986E-02
         0.49648E-02
         0.72342E-03
         0.13507E-01
         0.95311E-02
         0.30096E-02
         0.14487E-01
         0.31042E-02
         0.10282E-03
         0.00000E+00
         0.10594E-02
         0.00000E+00
         0.99488E-02
         0.91136E-02
         0.88008E-02
         0.00000E+00
         0.21564E-02
         0.00000E+00
         0.28165E-02
         0.00000E+00
         0.00000E+00
         0.24633E-02
         0.21973E-02
         0.00000E+00
         0.23864E-03
         0.00000E+00
         0.83622E-02
         0.36840E-02
         0.57009E-02
         0.11290E-01
         0.80240E-02
         0.71639E-02
         0.11415E-01
         0.10021E-01
         0.10062E-01
         0.70618E-02
         0.59479E-02
         0.93232E-02
         0.50199E-02
         0.37897E-02
         0.25017E-02
         0.35153E-02
         0.78478E-02
         0.43175E-02
         0.45763E-01
         0.47007E-01
         0.49419E-01
         0.49042E-01
         0.52421E-01
         0.56446E-01
         0.53971E-01
         0.47671E-01
         0.46372E-01
         0.49851E-01
         0.48859E-01
         0.48261E-01
         0.39234E-01
         0.37134E-01
         0.41216E-01
         0.44478E-01
         0.46298E-01
         0.50840E-01
         0.48614E-01
         0.50028E-01
         0.44673E-01
         0.42257E-01
         0.45160E-01
         0.43921E-01
         0.45345E-01
         0.44947E-01
         0.54406E-02
         0.19832E-02
         0.17170E-02
         0.23554E-03
         0.56628E-02
         0.29347E-02
         0.00000E+00
         0.53104E-02
         0.22079E-02
         0.49849E-02
         0.72495E-03
         0.13507E-01
         0.95368E-02
         0.29953E-02
         0.14505E-01
         0.31104E-02
         0.11220E-03
         0.00000E+00
         0.10622E-02
         0.00000E+00
         0.99510E-02
         0.91136E-02
         0.88021E-02
         0.00000E+00
         0.21756E-02
         0.00000E+00
         0.28182E-02
         0.00000E+00
         0.00000E+00
         0.24707E-02
         0.22021E-02
         0.00000E+00
         0.23290E-03
         0.00000E+00
         0.83680E-02
         0.36829E-02
         0.56996E-02
         0.11313E-01
         0.80503E-02
         0.71801E-02
         0.11426E-01
         0.10029E-01
         0.10065E-01
         0.70647E-02
         0.59488E-02
         0.93253E-02
         0.50218E-02
         0.37909E-02
         0.24958E-02
         0.35069E-02
         0.78425E-02
         0.43062E-02
         0.45745E-01
         0.46995E-01
         0.49419E-01
         0.49043E-01
         0.52412E-01
         0.56426E-01
         0.53946E-01
         0.47657E-01
         0.46360E-01
         0.49835E-01
         0.48851E-01
         0.48264E-01
         0.39232E-01
         0.37134E-01
         0.41222E-01
         0.44494E-01
         0.46315E-01
         0.50853E-01
         0.48611E-01
         0.50025E-01
         0.44668E-01
         0.42255E-01
         0.45143E-01
         0.43890E-01
         0.45318E-01
         0.44922E-01
         0.54459E-02
         0.19832E-02
         0.17195E-02
         0.24037E-03
         0.56591E-02
         0.29312E-02
         0.00000E+00
         0.53162E-02
         0.22173E-02
         0.50049E-02
         0.72653E-03
         0.13507E-01
         0.95427E-02
         0.29810E-02
         0.14524E-01
         0.31165E-02
         0.12158E-03
         0.00000E+00
         0.10649E-02
         0.00000E+00
         0.99532E-02
         0.91136E-02
         0.88033E-02
         0.00000E+00
         0.21948E-02
         0.00000E+00
         0.28199E-02
         0.00000E+00
         0.00000E+00
         0.24780E-02
         0.22070E-02
         0.00000E+00
         0.22718E-03
         0.00000E+00
         0.83736E-02
         0.36820E-02
         0.56984E-02
         0.11336E-01
         0.80767E-02
         0.71963E-02
         0.11438E-01
         0.10037E-01
         0.10069E-01
         0.70677E-02
         0.59499E-02
         0.93270E-02
         0.50239E-02
         0.37920E-02
         0.24899E-02
         0.34984E-02
         0.78370E-02
         0.42949E-02
         0.45727E-01
         0.46983E-01
         0.49418E-01
         0.49043E-01
         0.52403E-01
         0.56405E-01
         0.53921E-01
         0.47643E-01
         0.46347E-01
         0.49818E-01
         0.48842E-01
         0.48267E-01
         0.39230E-01
         0.37133E-01
         0.41229E-01
         0.44510E-01
         0.46332E-01
         0.50866E-01
         0.48607E-01
         0.50022E-01
         0.44664E-01
         0.42253E-01
         0.45126E-01
         0.43859E-01
         0.45291E-01
         0.44896E-01
         0.54512E-02
         0.19832E-02
         0.17219E-02
         0.24520E-03
         0.56555E-02
         0.29277E-02
         0.00000E+00
         0.53219E-02
         0.22266E-02
         0.50250E-02
         0.72817E-03
         0.13507E-01
         0.95484E-02
         0.29667E-02
         0.14542E-01
         0.31227E-02
         0.13100E-03
         0.00000E+00
         0.10677E-02
         0.00000E+00
         0.99554E-02
         0.91135E-02
         0.88047E-02
         0.00000E+00
         0.22139E-02
         0.00000E+00
         0.28216E-02
         0.00000E+00
         0.00000E+00
         0.24853E-02
         0.22118E-02
         0.00000E+00
         0.22152E-03
         0.00000E+00
         0.83794E-02
         0.36809E-02
         0.56972E-02
         0.11359E-01
         0.81032E-02
         0.72123E-02
         0.11450E-01
         0.10045E-01
         0.10072E-01
         0.70706E-02
         0.59508E-02
         0.93291E-02
         0.50260E-02
         0.37931E-02
         0.24838E-02
         0.34900E-02
         0.78319E-02
         0.42838E-02
         0.45709E-01
         0.46971E-01
         0.49417E-01
         0.49043E-01
         0.52393E-01
         0.56385E-01
         0.53897E-01
         0.47629E-01
         0.46335E-01
         0.49801E-01
         0.48834E-01
         0.48271E-01
         0.39229E-01
         0.37132E-01
         0.41236E-01
         0.44526E-01
         0.46349E-01
         0.50878E-01
         0.48604E-01
         0.50018E-01
         0.44660E-01
         0.42251E-01
         0.45109E-01
         0.43828E-01
         0.45264E-01
         0.44870E-01
         0.54564E-02
         0.19832E-02
         0.17243E-02
         0.25007E-03
         0.56517E-02
         0.29243E-02
         0.00000E+00
         0.53276E-02
         0.22360E-02
         0.50450E-02
         0.72986E-03
         0.13507E-01
         0.95541E-02
         0.29524E-02
         0.14561E-01
         0.31288E-02
         0.14043E-03
         0.00000E+00
         0.10704E-02
         0.00000E+00
         0.99578E-02
         0.91135E-02
         0.88058E-02
         0.00000E+00
         0.22331E-02
         0.00000E+00
         0.28232E-02
         0.00000E+00
         0.00000E+00
         0.24926E-02
         0.22166E-02
         0.00000E+00
         0.21587E-03
         0.00000E+00
         0.83849E-02
         0.36800E-02
         0.56960E-02
         0.11382E-01
         0.81296E-02
         0.72285E-02
         0.11461E-01
         0.10053E-01
         0.10076E-01
         0.70735E-02
         0.59517E-02
         0.93312E-02
         0.50278E-02
         0.37944E-02
         0.24779E-02
         0.34814E-02
         0.78266E-02
         0.42726E-02
         0.45691E-01
         0.46959E-01
         0.49416E-01
         0.49043E-01
         0.52384E-01
         0.56364E-01
         0.53872E-01
         0.47615E-01
         0.46322E-01
         0.49784E-01
         0.48825E-01
         0.48274E-01
         0.39227E-01
         0.37131E-01
         0.41243E-01
         0.44542E-01
         0.46367E-01
         0.50891E-01
         0.48601E-01
         0.50015E-01
         0.44656E-01
         0.42249E-01
         0.45092E-01
         0.43796E-01
         0.45237E-01
         0.44844E-01
         0.54616E-02
         0.19830E-02
         0.17267E-02
         0.25490E-03
         0.56480E-02
         0.29209E-02
         0.00000E+00
         0.53334E-02
         0.22455E-02
         0.50650E-02
         0.73159E-03
         0.13507E-01
         0.95600E-02
         0.29382E-02
         0.14579E-01
         0.31349E-02
         0.14990E-03
         0.00000E+00
         0.10731E-02
         0.00000E+00
         0.99600E-02
         0.91135E-02
         0.88072E-02
         0.00000E+00
         0.22522E-02
         0.00000E+00
         0.28249E-02
         0.00000E+00
         0.00000E+00
         0.24999E-02
         0.22215E-02
         0.00000E+00
         0.21028E-03
         0.00000E+00
         0.83908E-02
         0.36789E-02
         0.56949E-02
         0.11405E-01
         0.81560E-02
         0.72443E-02
         0.11473E-01
         0.10061E-01
         0.10079E-01
         0.70761E-02
         0.59528E-02
         0.93332E-02
         0.50299E-02
         0.37955E-02
         0.24720E-02
         0.34730E-02
         0.78214E-02
         0.42613E-02
         0.45673E-01
         0.46948E-01
         0.49415E-01
         0.49044E-01
         0.52375E-01
         0.56343E-01
         0.53847E-01
         0.47601E-01
         0.46310E-01
         0.49767E-01
         0.48817E-01
         0.48278E-01
         0.39225E-01
         0.37130E-01
         0.41250E-01
         0.44558E-01
         0.46384E-01
         0.50903E-01
         0.48597E-01
         0.50012E-01
         0.44651E-01
         0.42247E-01
         0.45075E-01
         0.43765E-01
         0.45210E-01
         0.44818E-01
         0.54668E-02
         0.19830E-02
         0.17292E-02
         0.25977E-03
         0.56444E-02
         0.29175E-02
         0.00000E+00
         0.53391E-02
         0.22549E-02
         0.50850E-02
         0.73339E-03
         0.13507E-01
         0.95658E-02
         0.29238E-02
         0.14598E-01
         0.31411E-02
         0.15940E-03
         0.00000E+00
         0.10759E-02
         0.00000E+00
         0.99623E-02
         0.91134E-02
         0.88084E-02
         0.00000E+00
         0.22713E-02
         0.00000E+00
         0.28264E-02
         0.00000E+00
         0.00000E+00
         0.25070E-02
         0.22263E-02
         0.00000E+00
         0.20473E-03
         0.00000E+00
         0.83966E-02
         0.36779E-02
         0.56936E-02
         0.11429E-01
         0.81825E-02
         0.72603E-02
         0.11484E-01
         0.10069E-01
         0.10082E-01
         0.70792E-02
         0.59538E-02
         0.93353E-02
         0.50320E-02
         0.37967E-02
         0.24661E-02
         0.34646E-02
         0.78161E-02
         0.42502E-02
         0.45655E-01
         0.46936E-01
         0.49415E-01
         0.49044E-01
         0.52366E-01
         0.56322E-01
         0.53822E-01
         0.47587E-01
         0.46297E-01
         0.49750E-01
         0.48808E-01
         0.48282E-01
         0.39224E-01
         0.37130E-01
         0.41256E-01
         0.44574E-01
         0.46401E-01
         0.50916E-01
         0.48594E-01
         0.50008E-01
         0.44647E-01
         0.42245E-01
         0.45058E-01
         0.43734E-01
         0.45182E-01
         0.44793E-01
         0.54720E-02
         0.19829E-02
         0.17316E-02
         0.26466E-03
         0.56407E-02
         0.29140E-02
         0.00000E+00
         0.53447E-02
         0.22644E-02
         0.51048E-02
         0.73522E-03
         0.13507E-01
         0.95715E-02
         0.29095E-02
         0.14616E-01
         0.31472E-02
         0.16889E-03
         0.00000E+00
         0.10787E-02
         0.00000E+00
         0.99645E-02
         0.91133E-02
         0.88098E-02
         0.00000E+00
         0.22903E-02
         0.00000E+00
         0.28275E-02
         0.00000E+00
         0.00000E+00
         0.25138E-02
         0.22312E-02
         0.00000E+00
         0.19916E-03
         0.00000E+00
         0.84022E-02
         0.36770E-02
         0.56925E-02
         0.11452E-01
         0.82089E-02
         0.72755E-02
         0.11495E-01
         0.10076E-01
         0.10085E-01
         0.70821E-02
         0.59548E-02
         0.93373E-02
         0.50339E-02
         0.37979E-02
         0.24601E-02
         0.34561E-02
         0.78111E-02
         0.42390E-02
         0.45637E-01
         0.46924E-01
         0.49414E-01
         0.49044E-01
         0.52356E-01
         0.56302E-01
         0.53797E-01
         0.47573E-01
         0.46285E-01
         0.49732E-01
         0.48800E-01
         0.48287E-01
         0.39223E-01
         0.37129E-01
         0.41263E-01
         0.44590E-01
         0.46418E-01
         0.50928E-01
         0.48590E-01
         0.50005E-01
         0.44643E-01
         0.42243E-01
         0.45041E-01
         0.43703E-01
         0.45155E-01
         0.44767E-01
         0.54772E-02
         0.19829E-02
         0.17340E-02
         0.26955E-03
         0.56369E-02
         0.29105E-02
         0.00000E+00
         0.53503E-02
         0.22739E-02
         0.51244E-02
         0.73709E-03
         0.13508E-01
         0.95774E-02
         0.28950E-02
         0.14635E-01
         0.31533E-02
         0.17838E-03
         0.00000E+00
         0.10814E-02
         0.00000E+00
         0.99669E-02
         0.91129E-02
         0.88112E-02
         0.00000E+00
         0.23092E-02
         0.00000E+00
         0.28281E-02
         0.00000E+00
         0.00000E+00
         0.25203E-02
         0.22360E-02
         0.00000E+00
         0.19361E-03
         0.00000E+00
         0.84081E-02
         0.36759E-02
         0.56913E-02
         0.11475E-01
         0.82351E-02
         0.72905E-02
         0.11505E-01
         0.10083E-01
         0.10088E-01
         0.70849E-02
         0.59559E-02
         0.93395E-02
         0.50360E-02
         0.37990E-02
         0.24542E-02
         0.34476E-02
         0.78056E-02
         0.42277E-02
         0.45619E-01
         0.46912E-01
         0.49413E-01
         0.49044E-01
         0.52347E-01
         0.56281E-01
         0.53772E-01
         0.47559E-01
         0.46272E-01
         0.49713E-01
         0.48792E-01
         0.48293E-01
         0.39224E-01
         0.37129E-01
         0.41270E-01
         0.44606E-01
         0.46435E-01
         0.50941E-01
         0.48587E-01
         0.50001E-01
         0.44639E-01
         0.42240E-01
         0.45023E-01
         0.43672E-01
         0.45128E-01
         0.44741E-01
         0.54825E-02
         0.19829E-02
         0.17366E-02
         0.27448E-03
         0.56334E-02
         0.29073E-02
         0.00000E+00
         0.53560E-02
         0.22835E-02
         0.51440E-02
         0.73905E-03
         0.13508E-01
         0.95831E-02
         0.28806E-02
         0.14653E-01
         0.31595E-02
         0.18793E-03
         0.00000E+00
         0.10842E-02
         0.00000E+00
         0.99691E-02
         0.91127E-02
         0.88123E-02
         0.00000E+00
         0.23281E-02
         0.00000E+00
         0.28287E-02
         0.00000E+00
         0.00000E+00
         0.25266E-02
         0.22409E-02
         0.00000E+00
         0.18820E-03
         0.00000E+00
         0.84140E-02
         0.36750E-02
         0.56900E-02
         0.11498E-01
         0.82613E-02
         0.73048E-02
         0.11515E-01
         0.10089E-01
         0.10091E-01
         0.70878E-02
         0.59567E-02
         0.93415E-02
         0.50381E-02
         0.38003E-02
         0.24484E-02
         0.34391E-02
         0.78007E-02
         0.42167E-02
         0.45601E-01
         0.46900E-01
         0.49412E-01
         0.49044E-01
         0.52338E-01
         0.56261E-01
         0.53746E-01
         0.47545E-01
         0.46259E-01
         0.49693E-01
         0.48783E-01
         0.48300E-01
         0.39224E-01
         0.37128E-01
         0.41276E-01
         0.44621E-01
         0.46452E-01
         0.50953E-01
         0.48584E-01
         0.49998E-01
         0.44634E-01
         0.42238E-01
         0.45006E-01
         0.43642E-01
         0.45101E-01
         0.44716E-01
         0.58819E-02
         0.26226E-02
         0.23963E-02
         0.10218E-02
         0.61653E-02
         0.35416E-02
         0.87388E-03
         0.58615E-02
         0.28430E-02
         0.56734E-02
         0.18422E-02
         0.13983E-01
         0.10059E-01
         0.36910E-02
         0.15150E-01
         0.36296E-02
         0.10812E-02
         0.00000E+00
         0.18750E-02
         0.41140E-03
         0.10368E-01
         0.95357E-02
         0.92047E-02
         0.89120E-03
         0.30605E-02
         0.00000E+00
         0.36379E-02
         0.52418E-04
         0.76428E-03
         0.32744E-02
         0.27830E-02
         0.64245E-03
         0.94997E-03
         0.78257E-03
         0.89421E-02
         0.43206E-02
         0.62169E-02
         0.12014E-01
         0.88368E-02
         0.78922E-02
         0.12000E-01
         0.10556E-01
         0.10514E-01
         0.75045E-02
         0.64465E-02
         0.98397E-02
         0.56136E-02
         0.43770E-02
         0.31012E-02
         0.40522E-02
         0.82982E-02
         0.47845E-02
         0.46220E-01
         0.47504E-01
         0.50041E-01
         0.49648E-01
         0.52959E-01
         0.56913E-01
         0.54402E-01
         0.48205E-01
         0.46930E-01
         0.50379E-01
         0.49451E-01
         0.48928E-01
         0.39763E-01
         0.37628E-01
         0.41784E-01
         0.45147E-01
         0.46986E-01
         0.51545E-01
         0.49220E-01
         0.50638E-01
         0.45206E-01
         0.42787E-01
         0.45565E-01
         0.44183E-01
         0.45638E-01
         0.45254E-01
         0.26976E-01
         0.26314E-01
         0.25820E-01
         0.22991E-01
         0.30751E-01
         0.27685E-01
         0.27845E-01
         0.30327E-01
         0.24657E-01
         0.30189E-01
         0.30978E-01
         0.41426E-01
         0.35717E-01
         0.32577E-01
         0.43509E-01
         0.24591E-01
         0.25251E-01
         0.21501E-01
         0.26378E-01
         0.27338E-01
         0.33526E-01
         0.33595E-01
         0.31627E-01
         0.25008E-01
         0.29205E-01
         0.23782E-01
         0.32463E-01
         0.30771E-01
         0.31090E-01
         0.30321E-01
         0.24407E-01
         0.24821E-01
         0.23157E-01
         0.24212E-01
         0.34952E-01
         0.29940E-01
         0.31053E-01
         0.40330E-01
         0.37393E-01
         0.36425E-01
         0.39719E-01
         0.37141E-01
         0.35501E-01
         0.29864E-01
         0.30216E-01
         0.35473E-01
         0.30782E-01
         0.28464E-01
         0.27322E-01
         0.28745E-01
         0.33365E-01
         0.29172E-01
         0.79363E-01
         0.79640E-01
         0.82877E-01
         0.81591E-01
         0.85859E-01
         0.91727E-01
         0.90368E-01
         0.84484E-01
         0.83395E-01
         0.87353E-01
         0.85397E-01
         0.82602E-01
         0.70382E-01
         0.66672E-01
         0.70372E-01
         0.73611E-01
         0.75611E-01
         0.82339E-01
         0.82193E-01
         0.83797E-01
         0.76364E-01
         0.73178E-01
         0.76794E-01
         0.75351E-01
         0.76298E-01
         0.75647E-01
  
SCALARS                            dam  double 1
LOOKUP_TABLE default
         0.00000E+00
         0.00000E+00
         0.00000E+00
         0.00000E+00
         0.00000E+00
         0.00000E+00
         0.00000E+00
         0.00000E+00
         0.00000E+00
         0.00000E+00
         0.00000E+00
         0.00000E+00
         0.00000E+00
         0.00000E+00
         0.00000E+00
         0.00000E+00
         0.00000E+00
         0.00000E+00
         0.00000E+00
         0.00000E+00
         0.00000E+00
         0.00000E+00
         0.00000E+00
         0.00000E+00
         0.00000E+00
         0.00000E+00
         0.00000E+00
         0.00000E+00
         0.00000E+00
         0.00000E+00
         0.00000E+00
         0.00000E+00
         0.00000E+00
         0.00000E+00
         0.00000E+00
         0.00000E+00
         0.00000E+00
         0.00000E+00
         0.00000E+00
         0.00000E+00
         0.00000E+00
         0.00000E+00
         0.00000E+00
         0.00000E+00
         0.00000E+00
         0.00000E+00
         0.00000E+00
         0.00000E+00
         0.00000E+00
         0.00000E+00
         0.00000E+00
         0.00000E+00
         0.00000E+00
         0.00000E+00
         0.00000E+00
         0.00000E+00
         0.00000E+00
         0.00000E+00
         0.00000E+00
         0.00000E+00
         0.00000E+00
         0.00000E+00
         0.00000E+00
         0.00000E+00
         0.00000E+00
         0.00000E+00
         0.00000E+00
         0.00000E+00
         0.00000E+00
         0.00000E+00
         0.00000E+00
         0.00000E+00
         0.00000E+00
         0.00000E+00
         0.00000E+00
         0.00000E+00
         0.00000E+00
         0.00000E+00
         0.00000E+00
         0.00000E+00
         0.00000E+00
         0.00000E+00
         0.00000E+00
         0.00000E+00
         0.00000E+00
         0.00000E+00
         0.00000E+00
         0.00000E+00
         0.00000E+00
         0.00000E+00
         0.00000E+00
         0.00000E+00
         0.00000E+00
         0.00000E+00
         0.00000E+00
         0.00000E+00
         0.00000E+00
         0.00000E+00
         0.00000E+00
         0.00000E+00
         0.00000E+00
         0.00000E+00
         0.00000E+00
         0.00000E+00
         0.00000E+00
         0.00000E+00
         0.00000E+00
         0.00000E+00
         0.00000E+00
         0.00000E+00
         0.00000E+00
         0.00000E+00
         0.00000E+00
         0.00000E+00
         0.00000E+00
         0.00000E+00
         0.00000E+00
         0.00000E+00
         0.00000E+00
         0.00000E+00
         0.00000E+00
         0.00000E+00
         0.00000E+00
         0.00000E+00
         0.00000E+00
         0.00000E+00
         0.00000E+00
         0.00000E+00
         0.00000E+00
         0.00000E+00
         0.00000E+00
         0.00000E+00
         0.00000E+00
         0.00000E+00
         0.00000E+00
         0.00000E+00
         0.00000E+00
         0.00000E+00
         0.00000E+00
         0.00000E+00
         0.00000E+00
         0.00000E+00
         0.00000E+00
         0.00000E+00
         0.00000E+00
         0.00000E+00
         0.00000E+00
         0.00000E+00
         0.00000E+00
         0.00000E+00
         0.00000E+00
         0.00000E+00
         0.00000E+00
         0.00000E+00
         0.00000E+00
         0.00000E+00
         0.00000E+00
         0.00000E+00
         0.00000E+00
         0.00000E+00
         0.00000E+00
         0.00000E+00
         0.00000E+00
         0.00000E+00
         0.00000E+00
         0.00000E+00
         0.00000E+00
         0.00000E+00
         0.00000E+00
         0.00000E+00
         0.00000E+00
         0.00000E+00
         0.00000E+00
         0.00000E+00
         0.00000E+00
         0.00000E+00
         0.00000E+00
         0.00000E+00
         0.00000E+00
         0.00000E+00
         0.00000E+00
         0.00000E+00
         0.00000E+00
         0.00000E+00
         0.00000E+00
         0.00000E+00
         0.00000E+00
         0.00000E+00
         0.00000E+00
         0.00000E+00
         0.00000E+00
         0.00000E+00
         0.00000E+00
         0.00000E+00
         0.00000E+00
         0.00000E+00
         0.00000E+00
         0.00000E+00
         0.00000E+00
         0.00000E+00
         0.00000E+00
         0.00000E+00
         0.00000E+00
         0.00000E+00
         0.00000E+00
         0.00000E+00
         0.00000E+00
         0.00000E+00
         0.00000E+00
         0.00000E+00
         0.00000E+00
         0.00000E+00
         0.00000E+00
         0.00000E+00
         0.00000E+00
         0.00000E+00
         0.00000E+00
         0.00000E+00
         0.00000E+00
         0.00000E+00
         0.00000E+00
         0.00000E+00
         0.00000E+00
         0.00000E+00
         0.00000E+00
         0.00000E+00
         0.00000E+00
         0.00000E+00
         0.00000E+00
         0.00000E+00
         0.00000E+00
         0.00000E+00
         0.00000E+00
         0.00000E+00
         0.00000E+00
         0.00000E+00
         0.00000E+00
         0.00000E+00
         0.00000E+00
         0.00000E+00
         0.00000E+00
         0.00000E+00
         0.00000E+00
         0.00000E+00
         0.00000E+00
         0.00000E+00
         0.00000E+00
         0.00000E+00
         0.00000E+00
         0.00000E+00
         0.00000E+00
         0.00000E+00
         0.00000E+00
         0.00000E+00
         0.00000E+00
         0.00000E+00
         0.00000E+00
         0.00000E+00
         0.00000E+00
         0.00000E+00
         0.00000E+00
         0.00000E+00
         0.00000E+00
         0.00000E+00
         0.00000E+00
         0.00000E+00
         0.00000E+00
         0.00000E+00
         0.00000E+00
         0.00000E+00
         0.00000E+00
         0.00000E+00
         0.00000E+00
         0.00000E+00
         0.00000E+00
         0.00000E+00
         0.00000E+00
         0.00000E+00
         0.00000E+00
         0.00000E+00
         0.00000E+00
         0.00000E+00
         0.00000E+00
         0.00000E+00
         0.00000E+00
         0.00000E+00
         0.00000E+00
         0.00000E+00
         0.00000E+00
         0.00000E+00
         0.00000E+00
         0.00000E+00
         0.00000E+00
         0.00000E+00
         0.00000E+00
         0.00000E+00
         0.00000E+00
         0.00000E+00
         0.00000E+00
         0.00000E+00
         0.00000E+00
         0.00000E+00
         0.00000E+00
         0.00000E+00
         0.00000E+00
         0.00000E+00
         0.00000E+00
         0.00000E+00
         0.00000E+00
         0.00000E+00
         0.00000E+00
         0.00000E+00
         0.00000E+00
         0.00000E+00
         0.00000E+00
         0.00000E+00
         0.00000E+00
         0.00000E+00
         0.00000E+00
         0.00000E+00
         0.00000E+00
         0.00000E+00
         0.00000E+00
         0.00000E+00
         0.00000E+00
         0.00000E+00
         0.00000E+00
         0.00000E+00
         0.00000E+00
         0.00000E+00
         0.00000E+00
         0.00000E+00
         0.00000E+00
         0.00000E+00
         0.00000E+00
         0.00000E+00
         0.00000E+00
         0.00000E+00
         0.00000E+00
         0.00000E+00
         0.00000E+00
         0.00000E+00
         0.00000E+00
         0.00000E+00
         0.00000E+00
         0.00000E+00
         0.00000E+00
         0.00000E+00
         0.00000E+00
         0.00000E+00
         0.00000E+00
         0.00000E+00
         0.00000E+00
         0.00000E+00
         0.00000E+00
         0.00000E+00
         0.00000E+00
         0.00000E+00
         0.00000E+00
         0.00000E+00
         0.00000E+00
         0.00000E+00
         0.00000E+00
         0.00000E+00
         0.00000E+00
         0.00000E+00
         0.00000E+00
         0.00000E+00
         0.00000E+00
         0.00000E+00
         0.00000E+00
         0.00000E+00
         0.00000E+00
         0.00000E+00
         0.00000E+00
         0.00000E+00
         0.00000E+00
         0.00000E+00
         0.00000E+00
         0.00000E+00
         0.00000E+00
         0.00000E+00
         0.00000E+00
         0.00000E+00
         0.00000E+00
         0.00000E+00
         0.00000E+00
         0.00000E+00
         0.00000E+00
         0.00000E+00
         0.00000E+00
         0.00000E+00
         0.00000E+00
         0.00000E+00
         0.00000E+00
         0.00000E+00
         0.00000E+00
         0.00000E+00
         0.00000E+00
         0.00000E+00
         0.00000E+00
         0.00000E+00
         0.00000E+00
         0.00000E+00
         0.00000E+00
         0.00000E+00
         0.00000E+00
         0.00000E+00
         0.00000E+00
         0.00000E+00
         0.00000E+00
         0.00000E+00
         0.00000E+00
         0.00000E+00
         0.00000E+00
         0.00000E+00
         0.00000E+00
         0.00000E+00
         0.00000E+00
         0.00000E+00
         0.00000E+00
         0.00000E+00
         0.00000E+00
         0.00000E+00
         0.00000E+00
         0.00000E+00
         0.00000E+00
         0.00000E+00
         0.00000E+00
         0.00000E+00
         0.00000E+00
         0.00000E+00
         0.00000E+00
         0.00000E+00
         0.00000E+00
         0.00000E+00
         0.00000E+00
         0.00000E+00
         0.00000E+00
         0.00000E+00
         0.00000E+00
         0.00000E+00
         0.00000E+00
         0.00000E+00
         0.00000E+00
         0.00000E+00
         0.00000E+00
         0.00000E+00
         0.00000E+00
         0.00000E+00
         0.00000E+00
         0.00000E+00
         0.00000E+00
         0.00000E+00
         0.00000E+00
         0.00000E+00
         0.00000E+00
         0.00000E+00
         0.00000E+00
         0.00000E+00
         0.00000E+00
         0.00000E+00
         0.00000E+00
         0.00000E+00
         0.00000E+00
         0.00000E+00
         0.00000E+00
         0.00000E+00
         0.00000E+00
         0.00000E+00
         0.00000E+00
         0.00000E+00
         0.00000E+00
         0.00000E+00
         0.00000E+00
         0.00000E+00
         0.00000E+00
         0.00000E+00
         0.00000E+00
         0.00000E+00
         0.00000E+00
         0.00000E+00
         0.00000E+00
         0.00000E+00
         0.00000E+00
         0.00000E+00
         0.00000E+00
         0.00000E+00
         0.00000E+00
         0.00000E+00
         0.00000E+00
         0.00000E+00
         0.00000E+00
         0.00000E+00
         0.00000E+00
         0.00000E+00
         0.00000E+00
         0.00000E+00
         0.00000E+00
         0.00000E+00
         0.00000E+00
         0.00000E+00
         0.00000E+00
         0.00000E+00
         0.00000E+00
         0.00000E+00
         0.00000E+00
         0.00000E+00
         0.00000E+00
         0.00000E+00
         0.00000E+00
         0.00000E+00
         0.00000E+00
         0.00000E+00
         0.00000E+00
         0.00000E+00
         0.00000E+00
         0.00000E+00
         0.00000E+00
         0.00000E+00
         0.00000E+00
         0.00000E+00
         0.00000E+00
         0.00000E+00
         0.00000E+00
         0.00000E+00
         0.00000E+00
         0.00000E+00
         0.00000E+00
         0.00000E+00
         0.00000E+00
         0.00000E+00
         0.00000E+00
         0.00000E+00
         0.00000E+00
         0.00000E+00
         0.00000E+00
         0.00000E+00
         0.00000E+00
         0.00000E+00
         0.00000E+00
         0.00000E+00
         0.00000E+00
         0.00000E+00
         0.00000E+00
         0.00000E+00
         0.00000E+00
         0.00000E+00
         0.00000E+00
         0.00000E+00
         0.00000E+00
         0.00000E+00
         0.00000E+00
         0.00000E+00
         0.00000E+00
         0.00000E+00
         0.00000E+00
         0.00000E+00
         0.00000E+00
         0.00000E+00
         0.00000E+00
         0.00000E+00
         0.00000E+00
         0.00000E+00
         0.00000E+00
         0.00000E+00
         0.00000E+00
         0.00000E+00
         0.00000E+00
         0.00000E+00
         0.00000E+00
         0.00000E+00
         0.00000E+00
         0.00000E+00
         0.00000E+00
         0.00000E+00
         0.00000E+00
         0.00000E+00
         0.00000E+00
         0.00000E+00
         0.00000E+00
         0.00000E+00
         0.00000E+00
         0.00000E+00
         0.00000E+00
         0.00000E+00
         0.00000E+00
         0.00000E+00
         0.00000E+00
         0.00000E+00
         0.00000E+00
         0.00000E+00
         0.00000E+00
         0.00000E+00
         0.00000E+00
         0.00000E+00
         0.00000E+00
         0.00000E+00
         0.00000E+00
         0.00000E+00
         0.00000E+00
         0.00000E+00
         0.00000E+00
         0.00000E+00
         0.00000E+00
         0.00000E+00
         0.00000E+00
         0.00000E+00
         0.00000E+00
         0.00000E+00
         0.00000E+00
         0.00000E+00
         0.00000E+00
         0.00000E+00
         0.00000E+00
         0.00000E+00
         0.00000E+00
         0.00000E+00
         0.00000E+00
         0.00000E+00
         0.00000E+00
         0.00000E+00
         0.00000E+00
         0.00000E+00
         0.00000E+00
         0.00000E+00
         0.00000E+00
         0.00000E+00
         0.00000E+00
         0.00000E+00
         0.00000E+00
         0.00000E+00
         0.00000E+00
         0.00000E+00
         0.00000E+00
         0.00000E+00
         0.00000E+00
         0.00000E+00
         0.00000E+00
         0.00000E+00
         0.00000E+00
         0.00000E+00
         0.00000E+00
         0.00000E+00
         0.00000E+00
         0.00000E+00
         0.00000E+00
         0.00000E+00
         0.00000E+00
         0.00000E+00
         0.00000E+00
         0.00000E+00
         0.00000E+00
         0.00000E+00
         0.00000E+00
         0.00000E+00
         0.00000E+00
         0.00000E+00
         0.00000E+00
         0.00000E+00
         0.00000E+00
         0.00000E+00
         0.00000E+00
         0.00000E+00
         0.00000E+00
         0.00000E+00
         0.00000E+00
         0.00000E+00
         0.00000E+00
         0.00000E+00
         0.00000E+00
         0.00000E+00
         0.00000E+00
         0.00000E+00
         0.00000E+00
         0.00000E+00
         0.00000E+00
         0.00000E+00
         0.00000E+00
         0.00000E+00
         0.00000E+00
         0.00000E+00
         0.00000E+00
         0.00000E+00
         0.00000E+00
         0.00000E+00
         0.00000E+00
         0.00000E+00
         0.00000E+00
         0.00000E+00
         0.00000E+00
         0.00000E+00
         0.00000E+00
         0.00000E+00
         0.00000E+00
         0.00000E+00
         0.00000E+00
         0.00000E+00
         0.00000E+00
         0.00000E+00
         0.00000E+00
         0.00000E+00
         0.00000E+00
         0.00000E+00
         0.00000E+00
         0.00000E+00
         0.00000E+00
         0.00000E+00
         0.00000E+00
         0.00000E+00
         0.00000E+00
         0.00000E+00
         0.00000E+00
         0.00000E+00
         0.00000E+00
         0.00000E+00
         0.00000E+00
         0.00000E+00
         0.00000E+00
         0.00000E+00
         0.00000E+00
         0.00000E+00
         0.00000E+00
         0.00000E+00
         0.00000E+00
         0.00000E+00
         0.00000E+00
         0.00000E+00
         0.00000E+00
         0.00000E+00
         0.00000E+00
         0.00000E+00
         0.00000E+00
         0.00000E+00
         0.00000E+00
         0.00000E+00
         0.00000E+00
         0.00000E+00
         0.00000E+00
         0.00000E+00
         0.00000E+00
         0.00000E+00
         0.00000E+00
         0.00000E+00
         0.00000E+00
         0.00000E+00
         0.00000E+00
         0.00000E+00
         0.00000E+00
         0.00000E+00
         0.00000E+00
         0.00000E+00
         0.00000E+00
         0.00000E+00
         0.00000E+00
         0.00000E+00
         0.00000E+00
         0.00000E+00
         0.00000E+00
         0.00000E+00
         0.00000E+00
         0.00000E+00
         0.00000E+00
         0.00000E+00
         0.00000E+00
         0.00000E+00
         0.00000E+00
         0.00000E+00
         0.00000E+00
         0.00000E+00
         0.00000E+00
         0.00000E+00
         0.00000E+00
         0.00000E+00
         0.00000E+00
         0.00000E+00
         0.00000E+00
         0.00000E+00
         0.00000E+00
         0.00000E+00
         0.00000E+00
         0.00000E+00
         0.00000E+00
         0.00000E+00
         0.00000E+00
         0.00000E+00
         0.00000E+00
         0.00000E+00
         0.00000E+00
         0.00000E+00
         0.00000E+00
         0.00000E+00
         0.00000E+00
         0.00000E+00
         0.00000E+00
         0.00000E+00
         0.00000E+00
         0.00000E+00
         0.00000E+00
         0.00000E+00
         0.00000E+00
         0.00000E+00
         0.00000E+00
         0.00000E+00
         0.00000E+00
         0.00000E+00
         0.00000E+00
         0.00000E+00
         0.00000E+00
         0.00000E+00
         0.00000E+00
         0.00000E+00
         0.00000E+00
         0.00000E+00
         0.00000E+00
         0.00000E+00
         0.00000E+00
         0.00000E+00
         0.00000E+00
         0.00000E+00
         0.00000E+00
         0.00000E+00
         0.00000E+00
         0.00000E+00
         0.00000E+00
         0.00000E+00
         0.00000E+00
         0.00000E+00
         0.00000E+00
         0.00000E+00
         0.00000E+00
         0.00000E+00
         0.00000E+00
         0.00000E+00
         0.00000E+00
         0.00000E+00
         0.00000E+00
         0.00000E+00
         0.00000E+00
         0.00000E+00
         0.00000E+00
         0.00000E+00
         0.00000E+00
         0.00000E+00
         0.00000E+00
         0.00000E+00
         0.00000E+00
         0.00000E+00
         0.00000E+00
         0.00000E+00
         0.00000E+00
         0.00000E+00
         0.00000E+00
         0.00000E+00
         0.00000E+00
         0.00000E+00
         0.00000E+00
         0.00000E+00
         0.00000E+00
         0.00000E+00
         0.00000E+00
         0.00000E+00
         0.00000E+00
         0.00000E+00
         0.00000E+00
         0.00000E+00
         0.00000E+00
         0.00000E+00
         0.00000E+00
         0.00000E+00
         0.00000E+00
         0.00000E+00
         0.00000E+00
         0.00000E+00
         0.00000E+00
         0.00000E+00
         0.00000E+00
         0.00000E+00
         0.00000E+00
         0.00000E+00
         0.00000E+00
         0.00000E+00
         0.00000E+00
         0.00000E+00
         0.00000E+00
         0.00000E+00
         0.00000E+00
         0.00000E+00
         0.00000E+00
         0.00000E+00
         0.00000E+00
         0.00000E+00
         0.00000E+00
         0.00000E+00
         0.00000E+00
         0.00000E+00
         0.00000E+00
         0.00000E+00
         0.00000E+00
         0.00000E+00
         0.00000E+00
         0.00000E+00
         0.00000E+00
         0.00000E+00
         0.00000E+00
         0.00000E+00
         0.00000E+00
         0.00000E+00
         0.00000E+00
         0.00000E+00
         0.00000E+00
         0.00000E+00
         0.00000E+00
         0.00000E+00
         0.00000E+00
         0.00000E+00
         0.00000E+00
         0.00000E+00
         0.00000E+00
         0.00000E+00
         0.00000E+00
         0.00000E+00
         0.00000E+00
         0.00000E+00
         0.00000E+00
         0.00000E+00
         0.00000E+00
         0.00000E+00
         0.00000E+00
         0.00000E+00
         0.00000E+00
         0.00000E+00
         0.00000E+00
         0.00000E+00
         0.00000E+00
         0.00000E+00
         0.00000E+00
         0.00000E+00
         0.00000E+00
         0.00000E+00
         0.00000E+00
         0.00000E+00
         0.00000E+00
         0.00000E+00
         0.00000E+00
         0.00000E+00
         0.00000E+00
         0.00000E+00
         0.00000E+00
         0.00000E+00
         0.00000E+00
         0.00000E+00
         0.00000E+00
         0.00000E+00
         0.00000E+00
         0.00000E+00
         0.00000E+00
         0.00000E+00
         0.00000E+00
         0.00000E+00
         0.00000E+00
         0.00000E+00
         0.00000E+00
         0.00000E+00
         0.00000E+00
         0.00000E+00
         0.00000E+00
         0.00000E+00
         0.00000E+00
         0.00000E+00
         0.00000E+00
         0.00000E+00
         0.00000E+00
         0.00000E+00
         0.00000E+00
         0.00000E+00
         0.00000E+00
         0.00000E+00
         0.00000E+00
         0.00000E+00
         0.00000E+00
         0.00000E+00
         0.00000E+00
         0.00000E+00
         0.00000E+00
         0.00000E+00
         0.00000E+00
         0.00000E+00
         0.00000E+00
         0.00000E+00
         0.00000E+00
         0.00000E+00
         0.00000E+00
         0.00000E+00
         0.00000E+00
         0.00000E+00
         0.00000E+00
         0.00000E+00
         0.00000E+00
         0.00000E+00
         0.00000E+00
         0.00000E+00
         0.00000E+00
         0.00000E+00
         0.00000E+00
         0.00000E+00
         0.00000E+00
         0.00000E+00
         0.00000E+00
         0.00000E+00
         0.00000E+00
         0.00000E+00
         0.00000E+00
         0.00000E+00
         0.00000E+00
         0.00000E+00
         0.00000E+00
         0.00000E+00
         0.00000E+00
         0.00000E+00
         0.00000E+00
         0.00000E+00
         0.00000E+00
         0.00000E+00
         0.00000E+00
         0.00000E+00
         0.00000E+00
         0.00000E+00
         0.00000E+00
         0.00000E+00
         0.00000E+00
         0.00000E+00
         0.00000E+00
         0.00000E+00
         0.00000E+00
         0.00000E+00
         0.00000E+00
         0.00000E+00
         0.00000E+00
         0.00000E+00
         0.00000E+00
         0.00000E+00
         0.00000E+00
         0.00000E+00
         0.00000E+00
         0.00000E+00
         0.00000E+00
         0.00000E+00
         0.00000E+00
         0.00000E+00
         0.00000E+00
         0.00000E+00
         0.00000E+00
         0.00000E+00
         0.00000E+00
         0.00000E+00
         0.00000E+00
         0.00000E+00
         0.00000E+00
         0.00000E+00
         0.00000E+00
         0.00000E+00
         0.00000E+00
         0.00000E+00
         0.00000E+00
         0.00000E+00
         0.00000E+00
         0.00000E+00
         0.00000E+00
         0.00000E+00
         0.00000E+00
         0.00000E+00
         0.00000E+00
         0.00000E+00
         0.00000E+00
         0.00000E+00
         0.00000E+00
         0.00000E+00
         0.00000E+00
         0.00000E+00
         0.00000E+00
         0.00000E+00
         0.00000E+00
         0.00000E+00
         0.00000E+00
         0.00000E+00
         0.00000E+00
         0.00000E+00
         0.00000E+00
         0.00000E+00
         0.00000E+00
         0.00000E+00
         0.00000E+00
         0.00000E+00
         0.00000E+00
         0.00000E+00
         0.00000E+00
         0.00000E+00
         0.00000E+00
         0.00000E+00
         0.00000E+00
         0.00000E+00
         0.00000E+00
         0.00000E+00
         0.00000E+00
         0.00000E+00
         0.00000E+00
         0.00000E+00
         0.00000E+00
         0.00000E+00
         0.00000E+00
         0.00000E+00
         0.00000E+00
         0.00000E+00
         0.00000E+00
         0.00000E+00
         0.00000E+00
         0.00000E+00
         0.00000E+00
         0.00000E+00
         0.00000E+00
         0.00000E+00
         0.00000E+00
         0.00000E+00
         0.00000E+00
         0.00000E+00
         0.00000E+00
         0.00000E+00
         0.00000E+00
         0.00000E+00
         0.00000E+00
         0.00000E+00
         0.00000E+00
         0.00000E+00
         0.00000E+00
         0.00000E+00
         0.00000E+00
         0.00000E+00
         0.00000E+00
         0.00000E+00
         0.00000E+00
         0.00000E+00
         0.00000E+00
         0.00000E+00
         0.00000E+00
         0.00000E+00
         0.00000E+00
         0.00000E+00
         0.00000E+00
         0.00000E+00
         0.00000E+00
         0.00000E+00
         0.00000E+00
         0.00000E+00
         0.00000E+00
         0.00000E+00
         0.00000E+00
         0.00000E+00
         0.00000E+00
         0.00000E+00
         0.00000E+00
         0.00000E+00
         0.00000E+00
         0.00000E+00
         0.00000E+00
         0.00000E+00
         0.00000E+00
         0.00000E+00
         0.00000E+00
         0.00000E+00
         0.00000E+00
         0.00000E+00
         0.00000E+00
         0.00000E+00
         0.00000E+00
         0.00000E+00
         0.00000E+00
         0.00000E+00
         0.00000E+00
         0.00000E+00
         0.00000E+00
         0.00000E+00
         0.00000E+00
         0.00000E+00
         0.00000E+00
         0.00000E+00
         0.00000E+00
         0.00000E+00
         0.00000E+00
         0.00000E+00
         0.00000E+00
         0.00000E+00
         0.00000E+00
         0.00000E+00
         0.00000E+00
         0.00000E+00
         0.00000E+00
         0.00000E+00
         0.00000E+00
         0.00000E+00
         0.00000E+00
         0.00000E+00
         0.00000E+00
         0.00000E+00
         0.00000E+00
         0.00000E+00
         0.00000E+00
         0.00000E+00
         0.00000E+00
         0.00000E+00
         0.00000E+00
         0.00000E+00
         0.00000E+00
         0.00000E+00
         0.00000E+00
         0.00000E+00
         0.00000E+00
         0.00000E+00
         0.00000E+00
         0.00000E+00
         0.00000E+00
         0.00000E+00
         0.00000E+00
         0.00000E+00
         0.00000E+00
         0.00000E+00
         0.00000E+00
         0.00000E+00
         0.00000E+00
         0.00000E+00
         0.00000E+00
         0.00000E+00
         0.00000E+00
         0.00000E+00
         0.00000E+00
         0.00000E+00
         0.00000E+00
         0.00000E+00
         0.00000E+00
         0.00000E+00
         0.00000E+00
         0.00000E+00
         0.00000E+00
         0.00000E+00
         0.00000E+00
         0.00000E+00
         0.00000E+00
         0.00000E+00
         0.00000E+00
         0.00000E+00
         0.00000E+00
         0.00000E+00
         0.00000E+00
         0.00000E+00
         0.00000E+00
         0.00000E+00
         0.00000E+00
         0.00000E+00
         0.00000E+00
         0.00000E+00
         0.00000E+00
         0.00000E+00
         0.00000E+00
         0.00000E+00
         0.00000E+00
         0.00000E+00
         0.00000E+00
         0.00000E+00
         0.00000E+00
         0.00000E+00
         0.00000E+00
         0.00000E+00
         0.00000E+00
         0.00000E+00
         0.00000E+00
         0.00000E+00
         0.00000E+00
         0.00000E+00
         0.00000E+00
         0.00000E+00
         0.00000E+00
         0.00000E+00
         0.00000E+00
         0.00000E+00
         0.00000E+00
         0.00000E+00
         0.00000E+00
         0.00000E+00
         0.00000E+00
         0.00000E+00
         0.00000E+00
         0.00000E+00
         0.00000E+00
         0.00000E+00
         0.00000E+00
         0.00000E+00
         0.00000E+00
         0.00000E+00
         0.00000E+00
         0.00000E+00
         0.00000E+00
         0.00000E+00
         0.00000E+00
         0.00000E+00
         0.00000E+00
         0.00000E+00
         0.00000E+00
         0.00000E+00
         0.00000E+00
         0.00000E+00
         0.00000E+00
         0.00000E+00
         0.00000E+00
         0.00000E+00
         0.00000E+00
         0.00000E+00
         0.00000E+00
         0.00000E+00
         0.00000E+00
         0.00000E+00
         0.00000E+00
         0.00000E+00
         0.00000E+00
         0.00000E+00
         0.00000E+00
         0.00000E+00
         0.00000E+00
         0.00000E+00
         0.00000E+00
         0.00000E+00
         0.00000E+00
         0.00000E+00
         0.00000E+00
         0.00000E+00
         0.00000E+00
         0.00000E+00
         0.00000E+00
         0.00000E+00
         0.00000E+00
         0.00000E+00
         0.00000E+00
         0.00000E+00
         0.00000E+00
         0.00000E+00
         0.00000E+00
         0.00000E+00
         0.00000E+00
         0.00000E+00
         0.00000E+00
         0.00000E+00
         0.00000E+00
         0.00000E+00
         0.00000E+00
         0.00000E+00
         0.00000E+00
         0.00000E+00
         0.00000E+00
         0.00000E+00
         0.00000E+00
         0.00000E+00
         0.00000E+00
         0.00000E+00
         0.00000E+00
         0.00000E+00
         0.00000E+00
         0.00000E+00
         0.00000E+00
         0.00000E+00
         0.00000E+00
         0.00000E+00
         0.00000E+00
         0.00000E+00
         0.00000E+00
         0.00000E+00
         0.00000E+00
         0.00000E+00
         0.00000E+00
         0.00000E+00
         0.00000E+00
         0.00000E+00
         0.00000E+00
         0.00000E+00
         0.00000E+00
         0.00000E+00
         0.00000E+00
         0.00000E+00
         0.00000E+00
         0.00000E+00
         0.00000E+00
         0.00000E+00
         0.00000E+00
         0.00000E+00
         0.00000E+00
         0.00000E+00
         0.00000E+00
         0.00000E+00
         0.00000E+00
         0.00000E+00
         0.00000E+00
         0.00000E+00
         0.00000E+00
         0.00000E+00
         0.00000E+00
         0.00000E+00
         0.00000E+00
         0.00000E+00
         0.00000E+00
         0.00000E+00
         0.00000E+00
         0.00000E+00
         0.00000E+00
         0.00000E+00
         0.00000E+00
         0.00000E+00
         0.00000E+00
         0.00000E+00
         0.00000E+00
         0.00000E+00
         0.00000E+00
         0.00000E+00
         0.00000E+00
         0.00000E+00
         0.00000E+00
         0.00000E+00
         0.00000E+00
         0.00000E+00
         0.00000E+00
         0.00000E+00
         0.00000E+00
         0.00000E+00
         0.00000E+00
         0.00000E+00
         0.00000E+00
         0.00000E+00
         0.00000E+00
         0.00000E+00
         0.00000E+00
         0.00000E+00
         0.00000E+00
         0.00000E+00
         0.00000E+00
         0.00000E+00
         0.00000E+00
         0.00000E+00
         0.00000E+00
         0.00000E+00
         0.00000E+00
         0.00000E+00
         0.00000E+00
         0.00000E+00
         0.00000E+00
         0.00000E+00
         0.00000E+00
         0.00000E+00
         0.00000E+00
         0.00000E+00
         0.00000E+00
         0.00000E+00
         0.00000E+00
         0.00000E+00
         0.00000E+00
         0.00000E+00
         0.00000E+00
         0.00000E+00
         0.00000E+00
         0.00000E+00
         0.00000E+00
         0.00000E+00
         0.00000E+00
         0.00000E+00
         0.00000E+00
         0.00000E+00
         0.00000E+00
         0.00000E+00
         0.00000E+00
         0.00000E+00
         0.00000E+00
         0.00000E+00
         0.00000E+00
         0.00000E+00
         0.00000E+00
         0.00000E+00
         0.00000E+00
         0.00000E+00
         0.00000E+00
         0.00000E+00
         0.00000E+00
         0.00000E+00
         0.00000E+00
         0.00000E+00
         0.00000E+00
         0.00000E+00
         0.00000E+00
         0.00000E+00
         0.00000E+00
         0.00000E+00
         0.00000E+00
         0.00000E+00
         0.00000E+00
         0.00000E+00
         0.00000E+00
         0.00000E+00
         0.00000E+00
         0.00000E+00
         0.00000E+00
         0.00000E+00
         0.00000E+00
         0.00000E+00
         0.00000E+00
         0.00000E+00
         0.00000E+00
         0.00000E+00
         0.00000E+00
         0.00000E+00
         0.00000E+00
         0.00000E+00
         0.00000E+00
         0.00000E+00
         0.00000E+00
         0.00000E+00
         0.00000E+00
         0.00000E+00
         0.00000E+00
         0.00000E+00
         0.00000E+00
         0.00000E+00
         0.00000E+00
         0.00000E+00
         0.00000E+00
         0.00000E+00
         0.00000E+00
         0.00000E+00
         0.00000E+00
         0.00000E+00
         0.00000E+00
         0.00000E+00
         0.00000E+00
         0.00000E+00
         0.00000E+00
         0.00000E+00
         0.00000E+00
         0.00000E+00
         0.00000E+00
         0.00000E+00
         0.00000E+00
         0.00000E+00
         0.00000E+00
         0.00000E+00
         0.00000E+00
         0.00000E+00
         0.00000E+00
         0.00000E+00
         0.00000E+00
         0.00000E+00
         0.00000E+00
         0.00000E+00
         0.00000E+00
         0.00000E+00
         0.00000E+00
         0.00000E+00
         0.00000E+00
         0.00000E+00
         0.00000E+00
         0.00000E+00
         0.00000E+00
         0.00000E+00
         0.00000E+00
         0.00000E+00
         0.00000E+00
         0.00000E+00
         0.00000E+00
         0.00000E+00
         0.00000E+00
         0.00000E+00
         0.00000E+00
         0.00000E+00
         0.00000E+00
         0.00000E+00
         0.00000E+00
         0.00000E+00
         0.00000E+00
         0.00000E+00
         0.00000E+00
         0.00000E+00
         0.00000E+00
         0.00000E+00
         0.00000E+00
         0.00000E+00
         0.00000E+00
         0.00000E+00
         0.00000E+00
         0.00000E+00
         0.00000E+00
         0.00000E+00
         0.00000E+00
         0.00000E+00
         0.00000E+00
         0.00000E+00
         0.00000E+00
         0.00000E+00
         0.00000E+00
         0.00000E+00
         0.00000E+00
         0.00000E+00
         0.00000E+00
         0.00000E+00
         0.00000E+00
         0.00000E+00
         0.00000E+00
         0.00000E+00
         0.00000E+00
         0.00000E+00
         0.00000E+00
         0.00000E+00
         0.00000E+00
         0.00000E+00
         0.00000E+00
         0.00000E+00
         0.00000E+00
         0.00000E+00
         0.00000E+00
         0.00000E+00
         0.00000E+00
         0.00000E+00
         0.00000E+00
         0.00000E+00
         0.00000E+00
         0.00000E+00
         0.00000E+00
         0.00000E+00
         0.00000E+00
         0.00000E+00
         0.00000E+00
         0.00000E+00
         0.00000E+00
         0.00000E+00
         0.00000E+00
         0.00000E+00
         0.00000E+00
         0.00000E+00
         0.00000E+00
         0.00000E+00
         0.00000E+00
         0.00000E+00
         0.00000E+00
         0.00000E+00
         0.00000E+00
         0.00000E+00
         0.00000E+00
         0.00000E+00
         0.00000E+00
         0.00000E+00
         0.00000E+00
         0.00000E+00
         0.00000E+00
         0.00000E+00
         0.00000E+00
         0.00000E+00
         0.00000E+00
         0.00000E+00
         0.00000E+00
         0.00000E+00
         0.00000E+00
         0.00000E+00
         0.00000E+00
         0.00000E+00
         0.00000E+00
         0.00000E+00
         0.00000E+00
         0.00000E+00
         0.00000E+00
         0.00000E+00
         0.00000E+00
         0.00000E+00
         0.00000E+00
         0.00000E+00
         0.00000E+00
         0.00000E+00
         0.00000E+00
         0.00000E+00
         0.00000E+00
         0.00000E+00
         0.00000E+00
         0.00000E+00
         0.00000E+00
         0.00000E+00
         0.00000E+00
         0.00000E+00
         0.00000E+00
         0.00000E+00
         0.00000E+00
         0.00000E+00
         0.00000E+00
         0.00000E+00
         0.00000E+00
         0.00000E+00
         0.00000E+00
         0.00000E+00
         0.00000E+00
         0.00000E+00
         0.00000E+00
         0.00000E+00
         0.00000E+00
         0.00000E+00
         0.00000E+00
         0.00000E+00
         0.00000E+00
         0.00000E+00
         0.00000E+00
         0.00000E+00
         0.00000E+00
         0.00000E+00
         0.00000E+00
         0.00000E+00
         0.00000E+00
         0.00000E+00
         0.00000E+00
         0.00000E+00
         0.00000E+00
         0.00000E+00
         0.00000E+00
         0.00000E+00
         0.00000E+00
         0.00000E+00
         0.00000E+00
         0.00000E+00
         0.00000E+00
         0.00000E+00
         0.00000E+00
         0.00000E+00
         0.00000E+00
         0.00000E+00
         0.00000E+00
         0.00000E+00
         0.00000E+00
         0.00000E+00
         0.00000E+00
         0.00000E+00
         0.00000E+00
         0.00000E+00
         0.00000E+00
         0.00000E+00
         0.00000E+00
         0.00000E+00
         0.00000E+00
         0.00000E+00
         0.00000E+00
         0.00000E+00
         0.00000E+00
         0.00000E+00
         0.00000E+00
         0.00000E+00
         0.00000E+00
         0.00000E+00
         0.00000E+00
         0.00000E+00
         0.00000E+00
         0.00000E+00
         0.00000E+00
         0.00000E+00
         0.00000E+00
         0.00000E+00
         0.00000E+00
         0.00000E+00
         0.00000E+00
         0.00000E+00
         0.00000E+00
         0.00000E+00
         0.00000E+00
         0.00000E+00
         0.00000E+00
         0.00000E+00
         0.00000E+00
         0.00000E+00
         0.00000E+00
         0.00000E+00
         0.00000E+00
         0.00000E+00
         0.00000E+00
         0.00000E+00
         0.00000E+00
         0.00000E+00
         0.00000E+00
         0.00000E+00
         0.00000E+00
         0.00000E+00
         0.00000E+00
         0.00000E+00
         0.00000E+00
         0.00000E+00
         0.00000E+00
         0.00000E+00
         0.00000E+00
         0.00000E+00
         0.00000E+00
         0.00000E+00
         0.00000E+00
         0.00000E+00
         0.00000E+00
         0.00000E+00
         0.00000E+00
         0.00000E+00
         0.00000E+00
         0.00000E+00
         0.00000E+00
         0.00000E+00
         0.00000E+00
         0.00000E+00
         0.00000E+00
         0.00000E+00
         0.00000E+00
         0.00000E+00
         0.00000E+00
         0.00000E+00
         0.00000E+00
         0.00000E+00
         0.00000E+00
         0.00000E+00
         0.00000E+00
         0.00000E+00
         0.00000E+00
         0.00000E+00
         0.00000E+00
         0.00000E+00
         0.00000E+00
         0.00000E+00
         0.00000E+00
         0.00000E+00
         0.00000E+00
         0.00000E+00
         0.00000E+00
         0.00000E+00
         0.00000E+00
         0.00000E+00
         0.00000E+00
         0.00000E+00
         0.00000E+00
         0.00000E+00
         0.00000E+00
         0.00000E+00
         0.00000E+00
         0.00000E+00
         0.00000E+00
         0.00000E+00
         0.00000E+00
         0.00000E+00
         0.00000E+00
         0.00000E+00
         0.00000E+00
         0.00000E+00
         0.00000E+00
         0.00000E+00
         0.00000E+00
         0.00000E+00
         0.00000E+00
         0.00000E+00
         0.00000E+00
         0.00000E+00
         0.00000E+00
         0.00000E+00
         0.00000E+00
         0.00000E+00
         0.00000E+00
         0.00000E+00
         0.00000E+00
         0.00000E+00
         0.00000E+00
         0.00000E+00
         0.00000E+00
         0.00000E+00
         0.00000E+00
         0.00000E+00
         0.00000E+00
         0.00000E+00
         0.00000E+00
         0.00000E+00
         0.00000E+00
         0.00000E+00
         0.00000E+00
         0.00000E+00
         0.00000E+00
         0.00000E+00
         0.00000E+00
         0.00000E+00
         0.00000E+00
         0.00000E+00
         0.00000E+00
         0.00000E+00
         0.00000E+00
         0.00000E+00
         0.00000E+00
         0.00000E+00
         0.00000E+00
         0.00000E+00
         0.00000E+00
         0.00000E+00
         0.00000E+00
         0.00000E+00
         0.00000E+00
         0.00000E+00
         0.00000E+00
         0.00000E+00
         0.00000E+00
         0.00000E+00
         0.00000E+00
         0.00000E+00
         0.00000E+00
         0.00000E+00
         0.00000E+00
         0.00000E+00
         0.00000E+00
         0.00000E+00
         0.00000E+00
         0.00000E+00
         0.00000E+00
         0.00000E+00
         0.00000E+00
         0.00000E+00
         0.00000E+00
         0.00000E+00
         0.00000E+00
         0.00000E+00
         0.00000E+00
         0.00000E+00
         0.00000E+00
         0.00000E+00
         0.00000E+00
         0.00000E+00
         0.00000E+00
         0.00000E+00
         0.00000E+00
         0.00000E+00
         0.00000E+00
         0.00000E+00
         0.00000E+00
         0.00000E+00
         0.00000E+00
         0.00000E+00
         0.00000E+00
         0.00000E+00
         0.00000E+00
         0.00000E+00
         0.00000E+00
         0.00000E+00
         0.00000E+00
         0.00000E+00
         0.00000E+00
         0.00000E+00
         0.00000E+00
         0.00000E+00
  
SCALARS           initial_coordinate_x  double 1
LOOKUP_TABLE default
         0.10378E-02
         0.17452E-02
         0.23177E-02
         0.16698E-02
         0.10379E-02
         0.17453E-02
         0.23178E-02
         0.16700E-02
         0.30377E-02
         0.27791E-02
         0.30377E-02
         0.27788E-02
         0.12850E-02
         0.65139E-03
         0.12851E-02
         0.65164E-03
         0.12757E-03
        -0.12822E-03
         0.12783E-03
        -0.12804E-03
         0.94500E-03
         0.11327E-02
         0.17490E-02
         0.94533E-03
         0.11330E-02
         0.17494E-02
         0.40588E-03
         0.39779E-03
         0.40594E-03
         0.39781E-03
        -0.76303E-03
        -0.86604E-03
         0.46119E-03
        -0.76268E-03
        -0.86593E-03
         0.46164E-03
        -0.18300E-02
        -0.18440E-02
        -0.18297E-02
        -0.18441E-02
        -0.27238E-02
        -0.28028E-02
        -0.27238E-02
        -0.28031E-02
        -0.25365E-02
        -0.19287E-02
        -0.25363E-02
        -0.19283E-02
        -0.99363E-03
        -0.99377E-03
        -0.14380E-02
        -0.14377E-02
        -0.31574E-03
        -0.31594E-03
        -0.11068E-02
        -0.11071E-02
        -0.18845E-02
        -0.18713E-02
        -0.18846E-02
        -0.18714E-02
        -0.15871E-03
        -0.94089E-03
        -0.15844E-03
        -0.94029E-03
         0.78856E-03
         0.78922E-03
         0.17211E-02
         0.17211E-02
         0.32050E-02
         0.28046E-02
         0.32047E-02
         0.28047E-02
         0.23059E-02
         0.23060E-02
        -0.40614E-03
        -0.40627E-03
        -0.12092E-02
        -0.12092E-02
        -0.19448E-02
        -0.19448E-02
        -0.25029E-02
        -0.26371E-02
        -0.25029E-02
        -0.26372E-02
        -0.27671E-02
        -0.27674E-02
        -0.21123E-02
        -0.21122E-02
        -0.16087E-02
        -0.16087E-02
        -0.11939E-02
        -0.58641E-03
        -0.11937E-02
        -0.58606E-03
         0.20912E-03
         0.20952E-03
         0.10586E-02
         0.10589E-02
         0.18413E-02
         0.18413E-02
         0.24544E-02
         0.26022E-02
         0.24543E-02
         0.26021E-02
         0.37964E-02
         0.39100E-02
         0.37964E-02
         0.39100E-02
         0.34621E-02
         0.34621E-02
         0.29267E-02
         0.29267E-02
         0.22211E-02
         0.22211E-02
         0.13865E-02
         0.13865E-02
         0.47130E-03
         0.47130E-03
        -0.47130E-03
        -0.47130E-03
        -0.13865E-02
        -0.13865E-02
        -0.22211E-02
        -0.22211E-02
        -0.29267E-02
        -0.29267E-02
        -0.34621E-02
        -0.34621E-02
        -0.37964E-02
        -0.37964E-02
        -0.39100E-02
        -0.39100E-02
        -0.37964E-02
        -0.37964E-02
        -0.34621E-02
        -0.34621E-02
        -0.29267E-02
        -0.29267E-02
        -0.22211E-02
        -0.22211E-02
        -0.13865E-02
        -0.13865E-02
        -0.47130E-03
        -0.47130E-03
         0.47130E-03
         0.47130E-03
         0.13865E-02
         0.13865E-02
         0.22211E-02
         0.22211E-02
         0.29267E-02
         0.29267E-02
         0.34621E-02
         0.34621E-02
         0.37964E-02
         0.37964E-02
         0.10376E-02
         0.17450E-02
         0.23175E-02
         0.16696E-02
         0.30377E-02
         0.27795E-02
         0.12849E-02
         0.65115E-03
         0.12731E-03
        -0.12841E-03
         0.94467E-03
         0.11323E-02
         0.17487E-02
         0.40583E-03
         0.39777E-03
        -0.76338E-03
        -0.86615E-03
         0.46074E-03
        -0.18303E-02
        -0.18439E-02
        -0.27238E-02
        -0.28025E-02
        -0.25366E-02
        -0.19292E-02
        -0.99349E-03
        -0.14384E-02
        -0.31554E-03
        -0.11064E-02
        -0.18845E-02
        -0.18712E-02
        -0.15899E-03
        -0.94149E-03
         0.78790E-03
         0.17210E-02
         0.32053E-02
         0.28046E-02
         0.23058E-02
        -0.40600E-03
        -0.12092E-02
        -0.19447E-02
        -0.25028E-02
        -0.26370E-02
        -0.27668E-02
        -0.21125E-02
        -0.16088E-02
        -0.11940E-02
        -0.58676E-03
         0.20871E-03
         0.10583E-02
         0.18413E-02
         0.24545E-02
         0.26022E-02
         0.37964E-02
         0.39100E-02
         0.34621E-02
         0.29267E-02
         0.22211E-02
         0.13865E-02
         0.47130E-03
        -0.47130E-03
        -0.13865E-02
        -0.22211E-02
        -0.29267E-02
        -0.34621E-02
        -0.37964E-02
        -0.39100E-02
        -0.37964E-02
        -0.34621E-02
        -0.29267E-02
        -0.22211E-02
        -0.13865E-02
        -0.47130E-03
         0.47130E-03
         0.13865E-02
         0.22211E-02
         0.29267E-02
         0.34621E-02
         0.37964E-02
         0.10375E-02
         0.17448E-02
         0.23174E-02
         0.16694E-02
         0.30377E-02
         0.27798E-02
         0.12848E-02
         0.65090E-03
         0.12705E-03
        -0.12859E-03
         0.94434E-03
         0.11320E-02
         0.17483E-02
         0.40577E-03
         0.39776E-03
        -0.76374E-03
        -0.86626E-03
         0.46029E-03
        -0.18306E-02
        -0.18438E-02
        -0.27238E-02
        -0.28022E-02
        -0.25368E-02
        -0.19296E-02
        -0.99334E-03
        -0.14387E-02
        -0.31534E-03
        -0.11061E-02
        -0.18844E-02
        -0.18710E-02
        -0.15926E-03
        -0.94209E-03
         0.78724E-03
         0.17210E-02
         0.32056E-02
         0.28046E-02
         0.23057E-02
        -0.40586E-03
        -0.12092E-02
        -0.19447E-02
        -0.25028E-02
        -0.26369E-02
        -0.27665E-02
        -0.21126E-02
        -0.16088E-02
        -0.11941E-02
        -0.58711E-03
         0.20830E-03
         0.10580E-02
         0.18414E-02
         0.24546E-02
         0.26023E-02
         0.37964E-02
         0.39100E-02
         0.34621E-02
         0.29267E-02
         0.22211E-02
         0.13865E-02
         0.47130E-03
        -0.47130E-03
        -0.13865E-02
        -0.22211E-02
        -0.29267E-02
        -0.34621E-02
        -0.37964E-02
        -0.39100E-02
        -0.37964E-02
        -0.34621E-02
        -0.29267E-02
        -0.22211E-02
        -0.13865E-02
        -0.47130E-03
         0.47130E-03
         0.13865E-02
         0.22211E-02
         0.29267E-02
         0.34621E-02
         0.37964E-02
         0.10374E-02
         0.17446E-02
         0.23173E-02
         0.16692E-02
         0.30376E-02
         0.27801E-02
         0.12847E-02
         0.65065E-03
         0.12678E-03
        -0.12878E-03
         0.94401E-03
         0.11316E-02
         0.17479E-02
         0.40572E-03
         0.39774E-03
        -0.76409E-03
        -0.86637E-03
         0.45985E-03
        -0.18309E-02
        -0.18437E-02
        -0.27237E-02
        -0.28020E-02
        -0.25369E-02
        -0.19300E-02
        -0.99320E-03
        -0.14391E-02
        -0.31514E-03
        -0.11057E-02
        -0.18844E-02
        -0.18709E-02
        -0.15954E-03
        -0.94269E-03
         0.78658E-03
         0.17209E-02
         0.32060E-02
         0.28046E-02
         0.23056E-02
        -0.40572E-03
        -0.12092E-02
        -0.19446E-02
        -0.25028E-02
        -0.26368E-02
        -0.27662E-02
        -0.21128E-02
        -0.16088E-02
        -0.11942E-02
        -0.58746E-03
         0.20790E-03
         0.10577E-02
         0.18414E-02
         0.24548E-02
         0.26024E-02
         0.37964E-02
         0.39100E-02
         0.34621E-02
         0.29267E-02
         0.22211E-02
         0.13865E-02
         0.47130E-03
        -0.47130E-03
        -0.13865E-02
        -0.22211E-02
        -0.29267E-02
        -0.34621E-02
        -0.37964E-02
        -0.39100E-02
        -0.37964E-02
        -0.34621E-02
        -0.29267E-02
        -0.22211E-02
        -0.13865E-02
        -0.47130E-03
         0.47130E-03
         0.13865E-02
         0.22211E-02
         0.29267E-02
         0.34621E-02
         0.37964E-02
         0.10373E-02
         0.17445E-02
         0.23172E-02
         0.16689E-02
         0.30376E-02
         0.27805E-02
         0.12846E-02
         0.65041E-03
         0.12652E-03
        -0.12896E-03
         0.94367E-03
         0.11313E-02
         0.17475E-02
         0.40566E-03
         0.39772E-03
        -0.76444E-03
        -0.86648E-03
         0.45940E-03
        -0.18312E-02
        -0.18436E-02
        -0.27237E-02
        -0.28017E-02
        -0.25371E-02
        -0.19305E-02
        -0.99305E-03
        -0.14394E-02
        -0.31494E-03
        -0.11054E-02
        -0.18843E-02
        -0.18708E-02
        -0.15981E-03
        -0.94328E-03
         0.78592E-03
         0.17209E-02
         0.32063E-02
         0.28045E-02
         0.23055E-02
        -0.40558E-03
        -0.12092E-02
        -0.19446E-02
        -0.25027E-02
        -0.26367E-02
        -0.27658E-02
        -0.21129E-02
        -0.16089E-02
        -0.11943E-02
        -0.58781E-03
         0.20749E-03
         0.10574E-02
         0.18415E-02
         0.24549E-02
         0.26025E-02
         0.37964E-02
         0.39100E-02
         0.34621E-02
         0.29267E-02
         0.22211E-02
         0.13865E-02
         0.47130E-03
        -0.47130E-03
        -0.13865E-02
        -0.22211E-02
        -0.29267E-02
        -0.34621E-02
        -0.37964E-02
        -0.39100E-02
        -0.37964E-02
        -0.34621E-02
        -0.29267E-02
        -0.22211E-02
        -0.13865E-02
        -0.47130E-03
         0.47130E-03
         0.13865E-02
         0.22211E-02
         0.29267E-02
         0.34621E-02
         0.37964E-02
         0.10372E-02
         0.17443E-02
         0.23171E-02
         0.16687E-02
         0.30376E-02
         0.27808E-02
         0.12845E-02
         0.65016E-03
         0.12626E-03
        -0.12915E-03
         0.94334E-03
         0.11310E-02
         0.17471E-02
         0.40561E-03
         0.39770E-03
        -0.76480E-03
        -0.86659E-03
         0.45895E-03
        -0.18315E-02
        -0.18435E-02
        -0.27237E-02
        -0.28014E-02
        -0.25372E-02
        -0.19309E-02
        -0.99291E-03
        -0.14398E-02
        -0.31474E-03
        -0.11051E-02
        -0.18843E-02
        -0.18706E-02
        -0.16009E-03
        -0.94388E-03
         0.78526E-03
         0.17208E-02
         0.32066E-02
         0.28045E-02
         0.23053E-02
        -0.40545E-03
        -0.12092E-02
        -0.19446E-02
        -0.25027E-02
        -0.26366E-02
        -0.27655E-02
        -0.21130E-02
        -0.16089E-02
        -0.11944E-02
        -0.58816E-03
         0.20709E-03
         0.10571E-02
         0.18415E-02
         0.24550E-02
         0.26025E-02
         0.37964E-02
         0.39100E-02
         0.34621E-02
         0.29267E-02
         0.22211E-02
         0.13865E-02
         0.47130E-03
        -0.47130E-03
        -0.13865E-02
        -0.22211E-02
        -0.29267E-02
        -0.34621E-02
        -0.37964E-02
        -0.39100E-02
        -0.37964E-02
        -0.34621E-02
        -0.29267E-02
        -0.22211E-02
        -0.13865E-02
        -0.47130E-03
         0.47130E-03
         0.13865E-02
         0.22211E-02
         0.29267E-02
         0.34621E-02
         0.37964E-02
         0.10371E-02
         0.17441E-02
         0.23169E-02
         0.16685E-02
         0.30376E-02
         0.27812E-02
         0.12844E-02
         0.64992E-03
         0.12600E-03
        -0.12933E-03
         0.94301E-03
         0.11306E-02
         0.17467E-02
         0.40556E-03
         0.39769E-03
        -0.76515E-03
        -0.86670E-03
         0.45850E-03
        -0.18318E-02
        -0.18434E-02
        -0.27236E-02
        -0.28011E-02
        -0.25374E-02
        -0.19313E-02
        -0.99277E-03
        -0.14401E-02
        -0.31454E-03
        -0.11047E-02
        -0.18842E-02
        -0.18705E-02
        -0.16036E-03
        -0.94448E-03
         0.78460E-03
         0.17208E-02
         0.32070E-02
         0.28045E-02
         0.23052E-02
        -0.40531E-03
        -0.12092E-02
        -0.19445E-02
        -0.25027E-02
        -0.26366E-02
        -0.27652E-02
        -0.21132E-02
        -0.16090E-02
        -0.11946E-02
        -0.58851E-03
         0.20668E-03
         0.10567E-02
         0.18416E-02
         0.24551E-02
         0.26026E-02
         0.37964E-02
         0.39100E-02
         0.34621E-02
         0.29267E-02
         0.22211E-02
         0.13865E-02
         0.47130E-03
        -0.47130E-03
        -0.13865E-02
        -0.22211E-02
        -0.29267E-02
        -0.34621E-02
        -0.37964E-02
        -0.39100E-02
        -0.37964E-02
        -0.34621E-02
        -0.29267E-02
        -0.22211E-02
        -0.13865E-02
        -0.47130E-03
         0.47130E-03
         0.13865E-02
         0.22211E-02
         0.29267E-02
         0.34621E-02
         0.37964E-02
         0.10370E-02
         0.17439E-02
         0.23168E-02
         0.16683E-02
         0.30375E-02
         0.27815E-02
         0.12843E-02
         0.64967E-03
         0.12573E-03
        -0.12952E-03
         0.94268E-03
         0.11303E-02
         0.17463E-02
         0.40550E-03
         0.39767E-03
        -0.76551E-03
        -0.86680E-03
         0.45806E-03
        -0.18321E-02
        -0.18433E-02
        -0.27236E-02
        -0.28009E-02
        -0.25375E-02
        -0.19317E-02
        -0.99262E-03
        -0.14405E-02
        -0.31434E-03
        -0.11044E-02
        -0.18842E-02
        -0.18704E-02
        -0.16064E-03
        -0.94508E-03
         0.78394E-03
         0.17208E-02
         0.32073E-02
         0.28045E-02
         0.23051E-02
        -0.40517E-03
        -0.12092E-02
        -0.19445E-02
        -0.25026E-02
        -0.26365E-02
        -0.27649E-02
        -0.21133E-02
        -0.16090E-02
        -0.11947E-02
        -0.58886E-03
         0.20627E-03
         0.10564E-02
         0.18416E-02
         0.24553E-02
         0.26027E-02
         0.37964E-02
         0.39100E-02
         0.34621E-02
         0.29267E-02
         0.22211E-02
         0.13865E-02
         0.47130E-03
        -0.47130E-03
        -0.13865E-02
        -0.22211E-02
        -0.29267E-02
        -0.34621E-02
        -0.37964E-02
        -0.39100E-02
        -0.37964E-02
        -0.34621E-02
        -0.29267E-02
        -0.22211E-02
        -0.13865E-02
        -0.47130E-03
         0.47130E-03
         0.13865E-02
         0.22211E-02
         0.29267E-02
         0.34621E-02
         0.37964E-02
         0.10368E-02
         0.17438E-02
         0.23167E-02
         0.16681E-02
         0.30375E-02
         0.27819E-02
         0.12842E-02
         0.64943E-03
         0.12547E-03
        -0.12970E-03
         0.94235E-03
         0.11300E-02
         0.17459E-02
         0.40545E-03
         0.39766E-03
        -0.76586E-03
        -0.86691E-03
         0.45761E-03
        -0.18324E-02
        -0.18432E-02
        -0.27236E-02
        -0.28006E-02
        -0.25377E-02
        -0.19322E-02
        -0.99248E-03
        -0.14408E-02
        -0.31414E-03
        -0.11040E-02
        -0.18841E-02
        -0.18703E-02
        -0.16091E-03
        -0.94568E-03
         0.78328E-03
         0.17207E-02
         0.32076E-02
         0.28044E-02
         0.23050E-02
        -0.40503E-03
        -0.12092E-02
        -0.19445E-02
        -0.25026E-02
        -0.26364E-02
        -0.27646E-02
        -0.21134E-02
        -0.16091E-02
        -0.11948E-02
        -0.58921E-03
         0.20587E-03
         0.10561E-02
         0.18416E-02
         0.24554E-02
         0.26027E-02
         0.37964E-02
         0.39100E-02
         0.34621E-02
         0.29267E-02
         0.22211E-02
         0.13865E-02
         0.47130E-03
        -0.47130E-03
        -0.13865E-02
        -0.22211E-02
        -0.29267E-02
        -0.34621E-02
        -0.37964E-02
        -0.39100E-02
        -0.37964E-02
        -0.34621E-02
        -0.29267E-02
        -0.22211E-02
        -0.13865E-02
        -0.47130E-03
         0.47130E-03
         0.13865E-02
         0.22211E-02
         0.29267E-02
         0.34621E-02
         0.37964E-02
         0.10367E-02
         0.17436E-02
         0.23166E-02
         0.16679E-02
         0.30375E-02
         0.27822E-02
         0.12841E-02
         0.64918E-03
         0.12521E-03
        -0.12989E-03
         0.94202E-03
         0.11296E-02
         0.17455E-02
         0.40539E-03
         0.39764E-03
        -0.76621E-03
        -0.86702E-03
         0.45716E-03
        -0.18326E-02
        -0.18431E-02
        -0.27235E-02
        -0.28003E-02
        -0.25379E-02
        -0.19326E-02
        -0.99233E-03
        -0.14412E-02
        -0.31394E-03
        -0.11037E-02
        -0.18841E-02
        -0.18701E-02
        -0.16119E-03
        -0.94628E-03
         0.78262E-03
         0.17207E-02
         0.32079E-02
         0.28044E-02
         0.23049E-02
        -0.40490E-03
        -0.12093E-02
        -0.19444E-02
        -0.25026E-02
        -0.26363E-02
        -0.27643E-02
        -0.21136E-02
        -0.16091E-02
        -0.11949E-02
        -0.58956E-03
         0.20546E-03
         0.10558E-02
         0.18417E-02
         0.24555E-02
         0.26028E-02
         0.37964E-02
         0.39100E-02
         0.34621E-02
         0.29267E-02
         0.22211E-02
         0.13865E-02
         0.47130E-03
        -0.47130E-03
        -0.13865E-02
        -0.22211E-02
        -0.29267E-02
        -0.34621E-02
        -0.37964E-02
        -0.39100E-02
        -0.37964E-02
        -0.34621E-02
        -0.29267E-02
        -0.22211E-02
        -0.13865E-02
        -0.47130E-03
         0.47130E-03
         0.13865E-02
         0.22211E-02
         0.29267E-02
         0.34621E-02
         0.37964E-02
         0.10366E-02
         0.17434E-02
         0.23164E-02
         0.16677E-02
         0.30375E-02
         0.27825E-02
         0.12840E-02
         0.64894E-03
         0.12495E-03
        -0.13007E-03
         0.94169E-03
         0.11293E-02
         0.17451E-02
         0.40534E-03
         0.39762E-03
        -0.76657E-03
        -0.86713E-03
         0.45671E-03
        -0.18329E-02
        -0.18430E-02
        -0.27235E-02
        -0.28001E-02
        -0.25380E-02
        -0.19330E-02
        -0.99219E-03
        -0.14415E-02
        -0.31374E-03
        -0.11033E-02
        -0.18840E-02
        -0.18700E-02
        -0.16146E-03
        -0.94687E-03
         0.78195E-03
         0.17207E-02
         0.32083E-02
         0.28044E-02
         0.23048E-02
        -0.40476E-03
        -0.12093E-02
        -0.19444E-02
        -0.25026E-02
        -0.26362E-02
        -0.27640E-02
        -0.21137E-02
        -0.16091E-02
        -0.11950E-02
        -0.58991E-03
         0.20505E-03
         0.10555E-02
         0.18417E-02
         0.24556E-02
         0.26029E-02
         0.37964E-02
         0.39100E-02
         0.34621E-02
         0.29267E-02
         0.22211E-02
         0.13865E-02
         0.47130E-03
        -0.47130E-03
        -0.13865E-02
        -0.22211E-02
        -0.29267E-02
        -0.34621E-02
        -0.37964E-02
        -0.39100E-02
        -0.37964E-02
        -0.34621E-02
        -0.29267E-02
        -0.22211E-02
        -0.13865E-02
        -0.47130E-03
         0.47130E-03
         0.13865E-02
         0.22211E-02
         0.29267E-02
         0.34621E-02
         0.37964E-02
         0.10365E-02
         0.17432E-02
         0.23163E-02
         0.16675E-02
         0.30374E-02
         0.27829E-02
         0.12839E-02
         0.64869E-03
         0.12468E-03
        -0.13026E-03
         0.94135E-03
         0.11289E-02
         0.17447E-02
         0.40528E-03
         0.39760E-03
        -0.76692E-03
        -0.86724E-03
         0.45626E-03
        -0.18332E-02
        -0.18430E-02
        -0.27235E-02
        -0.27998E-02
        -0.25382E-02
        -0.19334E-02
        -0.99205E-03
        -0.14419E-02
        -0.31354E-03
        -0.11030E-02
        -0.18840E-02
        -0.18699E-02
        -0.16174E-03
        -0.94747E-03
         0.78129E-03
         0.17206E-02
         0.32086E-02
         0.28044E-02
         0.23047E-02
        -0.40462E-03
        -0.12093E-02
        -0.19444E-02
        -0.25025E-02
        -0.26361E-02
        -0.27637E-02
        -0.21139E-02
        -0.16092E-02
        -0.11951E-02
        -0.59025E-03
         0.20465E-03
         0.10552E-02
         0.18418E-02
         0.24558E-02
         0.26030E-02
         0.37964E-02
         0.39100E-02
         0.34621E-02
         0.29267E-02
         0.22211E-02
         0.13865E-02
         0.47130E-03
        -0.47130E-03
        -0.13865E-02
        -0.22211E-02
        -0.29267E-02
        -0.34621E-02
        -0.37964E-02
        -0.39100E-02
        -0.37964E-02
        -0.34621E-02
        -0.29267E-02
        -0.22211E-02
        -0.13865E-02
        -0.47130E-03
         0.47130E-03
         0.13865E-02
         0.22211E-02
         0.29267E-02
         0.34621E-02
         0.37964E-02
         0.10364E-02
         0.17430E-02
         0.23162E-02
         0.16672E-02
         0.30374E-02
         0.27832E-02
         0.12838E-02
         0.64845E-03
         0.12442E-03
        -0.13044E-03
         0.94102E-03
         0.11286E-02
         0.17443E-02
         0.40523E-03
         0.39759E-03
        -0.76727E-03
        -0.86735E-03
         0.45582E-03
        -0.18335E-02
        -0.18429E-02
        -0.27235E-02
        -0.27995E-02
        -0.25383E-02
        -0.19339E-02
        -0.99190E-03
        -0.14422E-02
        -0.31334E-03
        -0.11026E-02
        -0.18839E-02
        -0.18697E-02
        -0.16201E-03
        -0.94807E-03
         0.78063E-03
         0.17206E-02
         0.32089E-02
         0.28043E-02
         0.23046E-02
        -0.40448E-03
        -0.12093E-02
        -0.19443E-02
        -0.25025E-02
        -0.26360E-02
        -0.27633E-02
        -0.21140E-02
        -0.16092E-02
        -0.11953E-02
        -0.59060E-03
         0.20424E-03
         0.10549E-02
         0.18418E-02
         0.24559E-02
         0.26030E-02
         0.37964E-02
         0.39100E-02
         0.34621E-02
         0.29267E-02
         0.22211E-02
         0.13865E-02
         0.47130E-03
        -0.47130E-03
        -0.13865E-02
        -0.22211E-02
        -0.29267E-02
        -0.34621E-02
        -0.37964E-02
        -0.39100E-02
        -0.37964E-02
        -0.34621E-02
        -0.29267E-02
        -0.22211E-02
        -0.13865E-02
        -0.47130E-03
         0.47130E-03
         0.13865E-02
         0.22211E-02
         0.29267E-02
         0.34621E-02
         0.37964E-02
         0.10363E-02
         0.17429E-02
         0.23161E-02
         0.16670E-02
         0.30374E-02
         0.27836E-02
         0.12837E-02
         0.64820E-03
         0.12416E-03
        -0.13063E-03
         0.94069E-03
         0.11282E-02
         0.17439E-02
         0.40518E-03
         0.39757E-03
        -0.76763E-03
        -0.86746E-03
         0.45537E-03
        -0.18338E-02
        -0.18428E-02
        -0.27234E-02
        -0.27992E-02
        -0.25385E-02
        -0.19343E-02
        -0.99176E-03
        -0.14425E-02
        -0.31314E-03
        -0.11023E-02
        -0.18839E-02
        -0.18696E-02
        -0.16229E-03
        -0.94867E-03
         0.77997E-03
         0.17205E-02
         0.32092E-02
         0.28043E-02
         0.23044E-02
        -0.40434E-03
        -0.12093E-02
        -0.19443E-02
        -0.25025E-02
        -0.26359E-02
        -0.27630E-02
        -0.21141E-02
        -0.16093E-02
        -0.11954E-02
        -0.59095E-03
         0.20384E-03
         0.10546E-02
         0.18419E-02
         0.24560E-02
         0.26031E-02
         0.37964E-02
         0.39100E-02
         0.34621E-02
         0.29267E-02
         0.22211E-02
         0.13865E-02
         0.47130E-03
        -0.47130E-03
        -0.13865E-02
        -0.22211E-02
        -0.29267E-02
        -0.34621E-02
        -0.37964E-02
        -0.39100E-02
        -0.37964E-02
        -0.34621E-02
        -0.29267E-02
        -0.22211E-02
        -0.13865E-02
        -0.47130E-03
         0.47130E-03
         0.13865E-02
         0.22211E-02
         0.29267E-02
         0.34621E-02
         0.37964E-02
         0.10362E-02
         0.17427E-02
         0.23160E-02
         0.16668E-02
         0.30373E-02
         0.27839E-02
         0.12836E-02
         0.64796E-03
         0.12390E-03
        -0.13082E-03
         0.94036E-03
         0.11279E-02
         0.17435E-02
         0.40512E-03
         0.39755E-03
        -0.76798E-03
        -0.86756E-03
         0.45492E-03
        -0.18341E-02
        -0.18427E-02
        -0.27234E-02
        -0.27990E-02
        -0.25386E-02
        -0.19347E-02
        -0.99161E-03
        -0.14429E-02
        -0.31294E-03
        -0.11019E-02
        -0.18838E-02
        -0.18695E-02
        -0.16256E-03
        -0.94927E-03
         0.77931E-03
         0.17205E-02
         0.32096E-02
         0.28043E-02
         0.23043E-02
        -0.40420E-03
        -0.12093E-02
        -0.19443E-02
        -0.25024E-02
        -0.26358E-02
        -0.27627E-02
        -0.21143E-02
        -0.16093E-02
        -0.11955E-02
        -0.59130E-03
         0.20343E-03
         0.10543E-02
         0.18419E-02
         0.24561E-02
         0.26032E-02
         0.37964E-02
         0.39100E-02
         0.34621E-02
         0.29267E-02
         0.22211E-02
         0.13865E-02
         0.47130E-03
        -0.47130E-03
        -0.13865E-02
        -0.22211E-02
        -0.29267E-02
        -0.34621E-02
        -0.37964E-02
        -0.39100E-02
        -0.37964E-02
        -0.34621E-02
        -0.29267E-02
        -0.22211E-02
        -0.13865E-02
        -0.47130E-03
         0.47130E-03
         0.13865E-02
         0.22211E-02
         0.29267E-02
         0.34621E-02
         0.37964E-02
         0.10360E-02
         0.17425E-02
         0.23158E-02
         0.16666E-02
         0.30373E-02
         0.27842E-02
         0.12835E-02
         0.64771E-03
         0.12363E-03
        -0.13100E-03
         0.94003E-03
         0.11276E-02
         0.17432E-02
         0.40507E-03
         0.39754E-03
        -0.76834E-03
        -0.86767E-03
         0.45447E-03
        -0.18344E-02
        -0.18426E-02
        -0.27234E-02
        -0.27987E-02
        -0.25388E-02
        -0.19352E-02
        -0.99147E-03
        -0.14433E-02
        -0.31274E-03
        -0.11016E-02
        -0.18838E-02
        -0.18694E-02
        -0.16284E-03
        -0.94986E-03
         0.77865E-03
         0.17205E-02
         0.32099E-02
         0.28042E-02
         0.23042E-02
        -0.40407E-03
        -0.12093E-02
        -0.19442E-02
        -0.25024E-02
        -0.26358E-02
        -0.27624E-02
        -0.21144E-02
        -0.16094E-02
        -0.11956E-02
        -0.59165E-03
         0.20302E-03
         0.10540E-02
         0.18419E-02
         0.24563E-02
         0.26033E-02
         0.37964E-02
         0.39100E-02
         0.34621E-02
         0.29267E-02
         0.22211E-02
         0.13865E-02
         0.47130E-03
        -0.47130E-03
        -0.13865E-02
        -0.22211E-02
        -0.29267E-02
        -0.34621E-02
        -0.37964E-02
        -0.39100E-02
        -0.37964E-02
        -0.34621E-02
        -0.29267E-02
        -0.22211E-02
        -0.13865E-02
        -0.47130E-03
         0.47130E-03
         0.13865E-02
         0.22211E-02
         0.29267E-02
         0.34621E-02
         0.37964E-02
         0.10359E-02
         0.17423E-02
         0.23157E-02
         0.16664E-02
         0.30373E-02
         0.27846E-02
         0.12834E-02
         0.64747E-03
         0.12337E-03
        -0.13118E-03
         0.93970E-03
         0.11272E-02
         0.17428E-02
         0.40501E-03
         0.39752E-03
        -0.76869E-03
        -0.86778E-03
         0.45402E-03
        -0.18347E-02
        -0.18425E-02
        -0.27234E-02
        -0.27984E-02
        -0.25389E-02
        -0.19356E-02
        -0.99133E-03
        -0.14436E-02
        -0.31254E-03
        -0.11013E-02
        -0.18837E-02
        -0.18692E-02
        -0.16311E-03
        -0.95046E-03
         0.77799E-03
         0.17204E-02
         0.32102E-02
         0.28042E-02
         0.23041E-02
        -0.40393E-03
        -0.12093E-02
        -0.19442E-02
        -0.25024E-02
        -0.26357E-02
        -0.27621E-02
        -0.21146E-02
        -0.16094E-02
        -0.11957E-02
        -0.59200E-03
         0.20262E-03
         0.10536E-02
         0.18420E-02
         0.24564E-02
         0.26033E-02
         0.37964E-02
         0.39100E-02
         0.34621E-02
         0.29267E-02
         0.22211E-02
         0.13865E-02
         0.47130E-03
        -0.47130E-03
        -0.13865E-02
        -0.22211E-02
        -0.29267E-02
        -0.34621E-02
        -0.37964E-02
        -0.39100E-02
        -0.37964E-02
        -0.34621E-02
        -0.29267E-02
        -0.22211E-02
        -0.13865E-02
        -0.47130E-03
         0.47130E-03
         0.13865E-02
         0.22211E-02
         0.29267E-02
         0.34621E-02
         0.37964E-02
         0.10358E-02
         0.17422E-02
         0.23156E-02
         0.16662E-02
         0.30373E-02
         0.27849E-02
         0.12833E-02
         0.64722E-03
         0.12311E-03
        -0.13137E-03
         0.93937E-03
         0.11269E-02
         0.17424E-02
         0.40496E-03
         0.39750E-03
        -0.76904E-03
        -0.86789E-03
         0.45358E-03
        -0.18350E-02
        -0.18424E-02
        -0.27233E-02
        -0.27981E-02
        -0.25391E-02
        -0.19360E-02
        -0.99118E-03
        -0.14440E-02
        -0.31234E-03
        -0.11009E-02
        -0.18836E-02
        -0.18691E-02
        -0.16339E-03
        -0.95106E-03
         0.77733E-03
         0.17204E-02
         0.32105E-02
         0.28042E-02
         0.23040E-02
        -0.40379E-03
        -0.12093E-02
        -0.19441E-02
        -0.25023E-02
        -0.26356E-02
        -0.27618E-02
        -0.21147E-02
        -0.16094E-02
        -0.11958E-02
        -0.59235E-03
         0.20221E-03
         0.10533E-02
         0.18420E-02
         0.24565E-02
         0.26034E-02
         0.37964E-02
         0.39100E-02
         0.34621E-02
         0.29267E-02
         0.22211E-02
         0.13865E-02
         0.47130E-03
        -0.47130E-03
        -0.13865E-02
        -0.22211E-02
        -0.29267E-02
        -0.34621E-02
        -0.37964E-02
        -0.39100E-02
        -0.37964E-02
        -0.34621E-02
        -0.29267E-02
        -0.22211E-02
        -0.13865E-02
        -0.47130E-03
         0.47130E-03
         0.13865E-02
         0.22211E-02
         0.29267E-02
         0.34621E-02
         0.37964E-02
         0.10357E-02
         0.17420E-02
         0.23155E-02
         0.16660E-02
         0.30372E-02
         0.27853E-02
         0.12832E-02
         0.64698E-03
         0.12285E-03
        -0.13155E-03
         0.93903E-03
         0.11266E-02
         0.17420E-02
         0.40490E-03
         0.39749E-03
        -0.76940E-03
        -0.86800E-03
         0.45313E-03
        -0.18353E-02
        -0.18423E-02
        -0.27233E-02
        -0.27979E-02
        -0.25393E-02
        -0.19365E-02
        -0.99104E-03
        -0.14443E-02
        -0.31214E-03
        -0.11006E-02
        -0.18836E-02
        -0.18690E-02
        -0.16366E-03
        -0.95166E-03
         0.77667E-03
         0.17203E-02
         0.32109E-02
         0.28042E-02
         0.23039E-02
        -0.40365E-03
        -0.12093E-02
        -0.19441E-02
        -0.25023E-02
        -0.26355E-02
        -0.27615E-02
        -0.21148E-02
        -0.16095E-02
        -0.11960E-02
        -0.59270E-03
         0.20180E-03
         0.10530E-02
         0.18421E-02
         0.24566E-02
         0.26035E-02
         0.37964E-02
         0.39100E-02
         0.34621E-02
         0.29267E-02
         0.22211E-02
         0.13865E-02
         0.47130E-03
        -0.47130E-03
        -0.13865E-02
        -0.22211E-02
        -0.29267E-02
        -0.34621E-02
        -0.37964E-02
        -0.39100E-02
        -0.37964E-02
        -0.34621E-02
        -0.29267E-02
        -0.22211E-02
        -0.13865E-02
        -0.47130E-03
         0.47130E-03
         0.13865E-02
         0.22211E-02
         0.29267E-02
         0.34621E-02
         0.37964E-02
         0.10356E-02
         0.17418E-02
         0.23153E-02
         0.16657E-02
         0.30372E-02
         0.27856E-02
         0.12830E-02
         0.64673E-03
         0.12259E-03
        -0.13174E-03
         0.93870E-03
         0.11262E-02
         0.17416E-02
         0.40485E-03
         0.39747E-03
        -0.76975E-03
        -0.86811E-03
         0.45268E-03
        -0.18356E-02
        -0.18422E-02
        -0.27233E-02
        -0.27976E-02
        -0.25394E-02
        -0.19369E-02
        -0.99090E-03
        -0.14446E-02
        -0.31194E-03
        -0.11002E-02
        -0.18835E-02
        -0.18689E-02
        -0.16394E-03
        -0.95226E-03
         0.77601E-03
         0.17203E-02
         0.32112E-02
         0.28042E-02
         0.23038E-02
        -0.40352E-03
        -0.12093E-02
        -0.19441E-02
        -0.25023E-02
        -0.26354E-02
        -0.27612E-02
        -0.21150E-02
        -0.16095E-02
        -0.11961E-02
        -0.59305E-03
         0.20140E-03
         0.10527E-02
         0.18421E-02
         0.24568E-02
         0.26036E-02
         0.37964E-02
         0.39100E-02
         0.34621E-02
         0.29267E-02
         0.22211E-02
         0.13865E-02
         0.47130E-03
        -0.47130E-03
        -0.13865E-02
        -0.22211E-02
        -0.29267E-02
        -0.34621E-02
        -0.37964E-02
        -0.39100E-02
        -0.37964E-02
        -0.34621E-02
        -0.29267E-02
        -0.22211E-02
        -0.13865E-02
        -0.47130E-03
         0.47130E-03
         0.13865E-02
         0.22211E-02
         0.29267E-02
         0.34621E-02
         0.37964E-02
         0.10355E-02
         0.17416E-02
         0.23152E-02
         0.16655E-02
         0.30372E-02
         0.27860E-02
         0.12829E-02
         0.64649E-03
         0.12232E-03
        -0.13193E-03
         0.93837E-03
         0.11259E-02
         0.17412E-02
         0.40480E-03
         0.39745E-03
        -0.77011E-03
        -0.86822E-03
         0.45223E-03
        -0.18359E-02
        -0.18421E-02
        -0.27232E-02
        -0.27973E-02
        -0.25396E-02
        -0.19373E-02
        -0.99075E-03
        -0.14450E-02
        -0.31173E-03
        -0.10999E-02
        -0.18835E-02
        -0.18687E-02
        -0.16421E-03
        -0.95285E-03
         0.77535E-03
         0.17202E-02
         0.32115E-02
         0.28041E-02
         0.23037E-02
        -0.40338E-03
        -0.12093E-02
        -0.19440E-02
        -0.25023E-02
        -0.26353E-02
        -0.27609E-02
        -0.21151E-02
        -0.16096E-02
        -0.11962E-02
        -0.59340E-03
         0.20099E-03
         0.10524E-02
         0.18422E-02
         0.24569E-02
         0.26036E-02
         0.37964E-02
         0.39100E-02
         0.34621E-02
         0.29267E-02
         0.22211E-02
         0.13865E-02
         0.47130E-03
        -0.47130E-03
        -0.13865E-02
        -0.22211E-02
        -0.29267E-02
        -0.34621E-02
        -0.37964E-02
        -0.39100E-02
        -0.37964E-02
        -0.34621E-02
        -0.29267E-02
        -0.22211E-02
        -0.13865E-02
        -0.47130E-03
         0.47130E-03
         0.13865E-02
         0.22211E-02
         0.29267E-02
         0.34621E-02
         0.37964E-02
         0.10354E-02
         0.17414E-02
         0.23151E-02
         0.16653E-02
         0.30372E-02
         0.27863E-02
         0.12829E-02
         0.64624E-03
         0.12206E-03
        -0.13211E-03
         0.93804E-03
         0.11255E-02
         0.17408E-02
         0.40474E-03
         0.39744E-03
        -0.77046E-03
        -0.86832E-03
         0.45179E-03
        -0.18362E-02
        -0.18420E-02
        -0.27232E-02
        -0.27970E-02
        -0.25397E-02
        -0.19377E-02
        -0.99061E-03
        -0.14453E-02
        -0.31153E-03
        -0.10995E-02
        -0.18834E-02
        -0.18686E-02
        -0.16449E-03
        -0.95345E-03
         0.77469E-03
         0.17202E-02
         0.32119E-02
         0.28041E-02
         0.23036E-02
        -0.40324E-03
        -0.12093E-02
        -0.19440E-02
        -0.25022E-02
        -0.26352E-02
        -0.27606E-02
        -0.21152E-02
        -0.16096E-02
        -0.11963E-02
        -0.59375E-03
         0.20059E-03
         0.10521E-02
         0.18422E-02
         0.24570E-02
         0.26037E-02
         0.37964E-02
         0.39100E-02
         0.34621E-02
         0.29267E-02
         0.22211E-02
         0.13865E-02
         0.47130E-03
        -0.47130E-03
        -0.13865E-02
        -0.22211E-02
        -0.29267E-02
        -0.34621E-02
        -0.37964E-02
        -0.39100E-02
        -0.37964E-02
        -0.34621E-02
        -0.29267E-02
        -0.22211E-02
        -0.13865E-02
        -0.47130E-03
         0.47130E-03
         0.13865E-02
         0.22211E-02
         0.29267E-02
         0.34621E-02
         0.37964E-02
         0.10352E-02
         0.17413E-02
         0.23150E-02
         0.16651E-02
         0.30371E-02
         0.27866E-02
         0.12827E-02
         0.64600E-03
         0.12180E-03
        -0.13230E-03
         0.93771E-03
         0.11252E-02
         0.17404E-02
         0.40469E-03
         0.39742E-03
        -0.77081E-03
        -0.86843E-03
         0.45134E-03
        -0.18365E-02
        -0.18419E-02
        -0.27232E-02
        -0.27968E-02
        -0.25399E-02
        -0.19382E-02
        -0.99046E-03
        -0.14457E-02
        -0.31133E-03
        -0.10992E-02
        -0.18834E-02
        -0.18685E-02
        -0.16476E-03
        -0.95405E-03
         0.77402E-03
         0.17202E-02
         0.32122E-02
         0.28041E-02
         0.23034E-02
        -0.40310E-03
        -0.12093E-02
        -0.19440E-02
        -0.25022E-02
        -0.26351E-02
        -0.27602E-02
        -0.21154E-02
        -0.16097E-02
        -0.11964E-02
        -0.59409E-03
         0.20018E-03
         0.10518E-02
         0.18422E-02
         0.24571E-02
         0.26038E-02
         0.37964E-02
         0.39100E-02
         0.34621E-02
         0.29267E-02
         0.22211E-02
         0.13865E-02
         0.47130E-03
        -0.47130E-03
        -0.13865E-02
        -0.22211E-02
        -0.29267E-02
        -0.34621E-02
        -0.37964E-02
        -0.39100E-02
        -0.37964E-02
        -0.34621E-02
        -0.29267E-02
        -0.22211E-02
        -0.13865E-02
        -0.47130E-03
         0.47130E-03
         0.13865E-02
         0.22211E-02
         0.29267E-02
         0.34621E-02
         0.37964E-02
         0.10351E-02
         0.17411E-02
         0.23149E-02
         0.16649E-02
         0.30371E-02
         0.27870E-02
         0.12826E-02
         0.64575E-03
         0.12154E-03
        -0.13248E-03
         0.93738E-03
         0.11249E-02
         0.17400E-02
         0.40463E-03
         0.39740E-03
        -0.77117E-03
        -0.86854E-03
         0.45089E-03
        -0.18368E-02
        -0.18418E-02
        -0.27232E-02
        -0.27965E-02
        -0.25400E-02
        -0.19386E-02
        -0.99032E-03
        -0.14460E-02
        -0.31113E-03
        -0.10988E-02
        -0.18833E-02
        -0.18683E-02
        -0.16504E-03
        -0.95465E-03
         0.77336E-03
         0.17201E-02
         0.32125E-02
         0.28041E-02
         0.23033E-02
        -0.40296E-03
        -0.12093E-02
        -0.19439E-02
        -0.25022E-02
        -0.26350E-02
        -0.27599E-02
        -0.21155E-02
        -0.16097E-02
        -0.11965E-02
        -0.59444E-03
         0.19977E-03
         0.10515E-02
         0.18423E-02
         0.24573E-02
         0.26039E-02
         0.37964E-02
         0.39100E-02
         0.34621E-02
         0.29267E-02
         0.22211E-02
         0.13865E-02
         0.47130E-03
        -0.47130E-03
        -0.13865E-02
        -0.22211E-02
        -0.29267E-02
        -0.34621E-02
        -0.37964E-02
        -0.39100E-02
        -0.37964E-02
        -0.34621E-02
        -0.29267E-02
        -0.22211E-02
        -0.13865E-02
        -0.47130E-03
         0.47130E-03
         0.13865E-02
         0.22211E-02
         0.29267E-02
         0.34621E-02
         0.37964E-02
  
SCALARS           initial_coordinate_y  double 1
LOOKUP_TABLE default
         0.67292E-03
         0.12308E-02
         0.59151E-03
        -0.33775E-03
         0.67237E-03
         0.12301E-02
         0.59098E-03
        -0.33851E-03
         0.14882E-03
        -0.67643E-03
         0.14846E-03
        -0.67692E-03
         0.18412E-02
         0.14576E-02
         0.18410E-02
         0.14566E-02
         0.29933E-03
         0.11672E-02
         0.29819E-03
         0.11655E-02
         0.22748E-02
         0.28286E-02
         0.24238E-02
         0.22746E-02
         0.28291E-02
         0.24236E-02
         0.21685E-02
         0.29366E-02
         0.21684E-02
         0.29369E-02
        -0.10033E-02
         0.78969E-04
        -0.70318E-03
        -0.10032E-02
         0.78160E-04
        -0.70391E-03
        -0.71196E-03
         0.82749E-04
        -0.71210E-03
         0.82626E-04
        -0.77865E-03
         0.40713E-04
        -0.77882E-03
         0.40439E-04
        -0.15195E-02
        -0.13230E-02
        -0.15195E-02
        -0.13231E-02
         0.98847E-03
         0.98712E-03
        -0.17325E-02
        -0.17325E-02
         0.20220E-02
         0.20217E-02
         0.18615E-02
         0.18616E-02
         0.17175E-02
         0.90940E-03
         0.17175E-02
         0.90916E-03
        -0.19800E-02
        -0.23489E-02
        -0.19800E-02
        -0.23489E-02
        -0.17074E-02
        -0.17074E-02
        -0.14894E-02
        -0.14892E-02
         0.76036E-03
         0.12477E-02
         0.75936E-03
         0.12473E-02
         0.18665E-02
         0.18664E-02
         0.29038E-02
         0.29049E-02
         0.27207E-02
         0.27212E-02
         0.24642E-02
         0.24645E-02
         0.22359E-02
         0.16503E-02
         0.22359E-02
         0.16503E-02
         0.87493E-03
         0.87466E-03
        -0.21373E-02
        -0.21373E-02
        -0.26931E-02
        -0.26931E-02
        -0.31291E-02
        -0.30382E-02
        -0.31291E-02
        -0.30382E-02
        -0.28748E-02
        -0.28748E-02
        -0.26423E-02
        -0.26420E-02
        -0.23707E-02
        -0.23705E-02
        -0.21445E-02
        -0.15105E-02
        -0.21439E-02
        -0.15106E-02
         0.93572E-03
         0.00000E+00
         0.93572E-03
         0.00000E+00
         0.18171E-02
         0.18171E-02
         0.25928E-02
         0.25928E-02
         0.32179E-02
         0.32179E-02
         0.36559E-02
         0.36559E-02
         0.38815E-02
         0.38815E-02
         0.38815E-02
         0.38815E-02
         0.36559E-02
         0.36559E-02
         0.32179E-02
         0.32179E-02
         0.25928E-02
         0.25928E-02
         0.18171E-02
         0.18171E-02
         0.93572E-03
         0.93572E-03
         0.22152E-17
        -0.47884E-18
        -0.93572E-03
        -0.93572E-03
        -0.18171E-02
        -0.18171E-02
        -0.25928E-02
        -0.25928E-02
        -0.32179E-02
        -0.32179E-02
        -0.36559E-02
        -0.36559E-02
        -0.38815E-02
        -0.38815E-02
        -0.38815E-02
        -0.38815E-02
        -0.36559E-02
        -0.36559E-02
        -0.32179E-02
        -0.32179E-02
        -0.25928E-02
        -0.25928E-02
        -0.18171E-02
        -0.18171E-02
        -0.93572E-03
        -0.93572E-03
         0.67348E-03
         0.12314E-02
         0.59203E-03
        -0.33700E-03
         0.14918E-03
        -0.67594E-03
         0.18414E-02
         0.14586E-02
         0.30048E-03
         0.11690E-02
         0.22749E-02
         0.28282E-02
         0.24239E-02
         0.21685E-02
         0.29364E-02
        -0.10035E-02
         0.79778E-04
        -0.70245E-03
        -0.71182E-03
         0.82873E-04
        -0.77848E-03
         0.40986E-04
        -0.15194E-02
        -0.13228E-02
         0.98983E-03
        -0.17324E-02
         0.20223E-02
         0.18614E-02
         0.17175E-02
         0.90964E-03
        -0.19800E-02
        -0.23489E-02
        -0.17074E-02
        -0.14896E-02
         0.76137E-03
         0.12481E-02
         0.18665E-02
         0.29027E-02
         0.27202E-02
         0.24640E-02
         0.22359E-02
         0.16503E-02
         0.87519E-03
        -0.21373E-02
        -0.26932E-02
        -0.31291E-02
        -0.30382E-02
        -0.28748E-02
        -0.26426E-02
        -0.23709E-02
        -0.21450E-02
        -0.15104E-02
         0.93572E-03
         0.00000E+00
         0.18171E-02
         0.25928E-02
         0.32179E-02
         0.36559E-02
         0.38815E-02
         0.38815E-02
         0.36559E-02
         0.32179E-02
         0.25928E-02
         0.18171E-02
         0.93572E-03
        -0.47884E-18
        -0.93572E-03
        -0.18171E-02
        -0.25928E-02
        -0.32179E-02
        -0.36559E-02
        -0.38815E-02
        -0.38815E-02
        -0.36559E-02
        -0.32179E-02
        -0.25928E-02
        -0.18171E-02
        -0.93572E-03
         0.67403E-03
         0.12321E-02
         0.59255E-03
        -0.33624E-03
         0.14955E-03
        -0.67544E-03
         0.18415E-02
         0.14596E-02
         0.30163E-03
         0.11707E-02
         0.22750E-02
         0.28277E-02
         0.24241E-02
         0.21685E-02
         0.29361E-02
        -0.10036E-02
         0.80588E-04
        -0.70173E-03
        -0.71168E-03
         0.82996E-04
        -0.77831E-03
         0.41259E-04
        -0.15194E-02
        -0.13227E-02
         0.99119E-03
        -0.17324E-02
         0.20226E-02
         0.18613E-02
         0.17175E-02
         0.90988E-03
        -0.19801E-02
        -0.23490E-02
        -0.17074E-02
        -0.14899E-02
         0.76237E-03
         0.12485E-02
         0.18666E-02
         0.29017E-02
         0.27198E-02
         0.24638E-02
         0.22359E-02
         0.16503E-02
         0.87545E-03
        -0.21374E-02
        -0.26932E-02
        -0.31291E-02
        -0.30382E-02
        -0.28748E-02
        -0.26428E-02
        -0.23711E-02
        -0.21456E-02
        -0.15103E-02
         0.93572E-03
         0.00000E+00
         0.18171E-02
         0.25928E-02
         0.32179E-02
         0.36559E-02
         0.38815E-02
         0.38815E-02
         0.36559E-02
         0.32179E-02
         0.25928E-02
         0.18171E-02
         0.93572E-03
         0.39516E-17
        -0.93572E-03
        -0.18171E-02
        -0.25928E-02
        -0.32179E-02
        -0.36559E-02
        -0.38815E-02
        -0.38815E-02
        -0.36559E-02
        -0.32179E-02
        -0.25928E-02
        -0.18171E-02
        -0.93572E-03
         0.67459E-03
         0.12328E-02
         0.59308E-03
        -0.33549E-03
         0.14991E-03
        -0.67495E-03
         0.18417E-02
         0.14606E-02
         0.30278E-03
         0.11725E-02
         0.22752E-02
         0.28273E-02
         0.24242E-02
         0.21686E-02
         0.29359E-02
        -0.10038E-02
         0.81397E-04
        -0.70100E-03
        -0.71154E-03
         0.83120E-04
        -0.77814E-03
         0.41533E-04
        -0.15193E-02
        -0.13227E-02
         0.99254E-03
        -0.17324E-02
         0.20228E-02
         0.18611E-02
         0.17175E-02
         0.91012E-03
        -0.19801E-02
        -0.23490E-02
        -0.17074E-02
        -0.14901E-02
         0.76338E-03
         0.12490E-02
         0.18666E-02
         0.29006E-02
         0.27193E-02
         0.24636E-02
         0.22359E-02
         0.16503E-02
         0.87571E-03
        -0.21374E-02
        -0.26932E-02
        -0.31291E-02
        -0.30382E-02
        -0.28748E-02
        -0.26431E-02
        -0.23713E-02
        -0.21461E-02
        -0.15102E-02
         0.93572E-03
         0.00000E+00
         0.18171E-02
         0.25928E-02
         0.32179E-02
         0.36559E-02
         0.38815E-02
         0.38815E-02
         0.36559E-02
         0.32179E-02
         0.25928E-02
         0.18171E-02
         0.93572E-03
        -0.47884E-18
        -0.93572E-03
        -0.18171E-02
        -0.25928E-02
        -0.32179E-02
        -0.36559E-02
        -0.38815E-02
        -0.38815E-02
        -0.36559E-02
        -0.32179E-02
        -0.25928E-02
        -0.18171E-02
        -0.93572E-03
         0.67514E-03
         0.12334E-02
         0.59360E-03
        -0.33474E-03
         0.15027E-03
        -0.67446E-03
         0.18419E-02
         0.14616E-02
         0.30393E-03
         0.11742E-02
         0.22753E-02
         0.28269E-02
         0.24244E-02
         0.21686E-02
         0.29356E-02
        -0.10039E-02
         0.82206E-04
        -0.70028E-03
        -0.71140E-03
         0.83243E-04
        -0.77797E-03
         0.41806E-04
        -0.15193E-02
        -0.13226E-02
         0.99390E-03
        -0.17323E-02
         0.20231E-02
         0.18610E-02
         0.17175E-02
         0.91036E-03
        -0.19801E-02
        -0.23490E-02
        -0.17074E-02
        -0.14904E-02
         0.76439E-03
         0.12494E-02
         0.18666E-02
         0.28995E-02
         0.27188E-02
         0.24633E-02
         0.22359E-02
         0.16503E-02
         0.87597E-03
        -0.21374E-02
        -0.26932E-02
        -0.31291E-02
        -0.30382E-02
        -0.28748E-02
        -0.26434E-02
        -0.23715E-02
        -0.21467E-02
        -0.15101E-02
         0.93572E-03
         0.00000E+00
         0.18171E-02
         0.25928E-02
         0.32179E-02
         0.36559E-02
         0.38815E-02
         0.38815E-02
         0.36559E-02
         0.32179E-02
         0.25928E-02
         0.18171E-02
         0.93572E-03
        -0.47884E-18
        -0.93572E-03
        -0.18171E-02
        -0.25928E-02
        -0.32179E-02
        -0.36559E-02
        -0.38815E-02
        -0.38815E-02
        -0.36559E-02
        -0.32179E-02
        -0.25928E-02
        -0.18171E-02
        -0.93572E-03
         0.67570E-03
         0.12341E-02
         0.59412E-03
        -0.33398E-03
         0.15064E-03
        -0.67396E-03
         0.18421E-02
         0.14626E-02
         0.30507E-03
         0.11760E-02
         0.22754E-02
         0.28264E-02
         0.24245E-02
         0.21686E-02
         0.29353E-02
        -0.10040E-02
         0.83015E-04
        -0.69955E-03
        -0.71126E-03
         0.83367E-04
        -0.77780E-03
         0.42080E-04
        -0.15192E-02
        -0.13224E-02
         0.99526E-03
        -0.17323E-02
         0.20234E-02
         0.18609E-02
         0.17175E-02
         0.91060E-03
        -0.19801E-02
        -0.23490E-02
        -0.17074E-02
        -0.14906E-02
         0.76539E-03
         0.12498E-02
         0.18667E-02
         0.28984E-02
         0.27184E-02
         0.24631E-02
         0.22359E-02
         0.16503E-02
         0.87623E-03
        -0.21374E-02
        -0.26932E-02
        -0.31291E-02
        -0.30382E-02
        -0.28748E-02
        -0.26436E-02
        -0.23717E-02
        -0.21472E-02
        -0.15100E-02
         0.93572E-03
         0.00000E+00
         0.18171E-02
         0.25928E-02
         0.32179E-02
         0.36559E-02
         0.38815E-02
         0.38815E-02
         0.36559E-02
         0.32179E-02
         0.25928E-02
         0.18171E-02
         0.93572E-03
        -0.47884E-18
        -0.93572E-03
        -0.18171E-02
        -0.25928E-02
        -0.32179E-02
        -0.36559E-02
        -0.38815E-02
        -0.38815E-02
        -0.36559E-02
        -0.32179E-02
        -0.25928E-02
        -0.18171E-02
        -0.93572E-03
         0.67625E-03
         0.12348E-02
         0.59465E-03
        -0.33323E-03
         0.15100E-03
        -0.67347E-03
         0.18423E-02
         0.14636E-02
         0.30622E-03
         0.11777E-02
         0.22755E-02
         0.28260E-02
         0.24247E-02
         0.21687E-02
         0.29351E-02
        -0.10042E-02
         0.83825E-04
        -0.69882E-03
        -0.71112E-03
         0.83490E-04
        -0.77763E-03
         0.42353E-04
        -0.15192E-02
        -0.13223E-02
         0.99661E-03
        -0.17322E-02
         0.20237E-02
         0.18607E-02
         0.17175E-02
         0.91084E-03
        -0.19801E-02
        -0.23491E-02
        -0.17074E-02
        -0.14909E-02
         0.76640E-03
         0.12503E-02
         0.18667E-02
         0.28974E-02
         0.27179E-02
         0.24629E-02
         0.22359E-02
         0.16503E-02
         0.87650E-03
        -0.21374E-02
        -0.26933E-02
        -0.31291E-02
        -0.30382E-02
        -0.28749E-02
        -0.26439E-02
        -0.23719E-02
        -0.21478E-02
        -0.15099E-02
         0.93572E-03
         0.00000E+00
         0.18171E-02
         0.25928E-02
         0.32179E-02
         0.36559E-02
         0.38815E-02
         0.38815E-02
         0.36559E-02
         0.32179E-02
         0.25928E-02
         0.18171E-02
         0.93572E-03
        -0.47884E-18
        -0.93572E-03
        -0.18171E-02
        -0.25928E-02
        -0.32179E-02
        -0.36559E-02
        -0.38815E-02
        -0.38815E-02
        -0.36559E-02
        -0.32179E-02
        -0.25928E-02
        -0.18171E-02
        -0.93572E-03
         0.67680E-03
         0.12354E-02
         0.59517E-03
        -0.33247E-03
         0.15136E-03
        -0.67298E-03
         0.18425E-02
         0.14646E-02
         0.30737E-03
         0.11795E-02
         0.22757E-02
         0.28255E-02
         0.24248E-02
         0.21687E-02
         0.29348E-02
        -0.10043E-02
         0.84634E-04
        -0.69810E-03
        -0.71098E-03
         0.83614E-04
        -0.77746E-03
         0.42626E-04
        -0.15191E-02
        -0.13223E-02
         0.99797E-03
        -0.17322E-02
         0.20240E-02
         0.18606E-02
         0.17175E-02
         0.91108E-03
        -0.19802E-02
        -0.23491E-02
        -0.17074E-02
        -0.14911E-02
         0.76740E-03
         0.12507E-02
         0.18668E-02
         0.28963E-02
         0.27174E-02
         0.24627E-02
         0.22358E-02
         0.16503E-02
         0.87676E-03
        -0.21374E-02
        -0.26933E-02
        -0.31291E-02
        -0.30382E-02
        -0.28749E-02
        -0.26442E-02
        -0.23721E-02
        -0.21483E-02
        -0.15097E-02
         0.93572E-03
         0.00000E+00
         0.18171E-02
         0.25928E-02
         0.32179E-02
         0.36559E-02
         0.38815E-02
         0.38815E-02
         0.36559E-02
         0.32179E-02
         0.25928E-02
         0.18171E-02
         0.93572E-03
        -0.47884E-18
        -0.93572E-03
        -0.18171E-02
        -0.25928E-02
        -0.32179E-02
        -0.36559E-02
        -0.38815E-02
        -0.38815E-02
        -0.36559E-02
        -0.32179E-02
        -0.25928E-02
        -0.18171E-02
        -0.93572E-03
         0.67736E-03
         0.12361E-02
         0.59570E-03
        -0.33172E-03
         0.15173E-03
        -0.67248E-03
         0.18427E-02
         0.14656E-02
         0.30852E-03
         0.11812E-02
         0.22758E-02
         0.28251E-02
         0.24249E-02
         0.21688E-02
         0.29345E-02
        -0.10044E-02
         0.85443E-04
        -0.69737E-03
        -0.71084E-03
         0.83737E-04
        -0.77729E-03
         0.42899E-04
        -0.15191E-02
        -0.13222E-02
         0.99932E-03
        -0.17322E-02
         0.20243E-02
         0.18605E-02
         0.17175E-02
         0.91132E-03
        -0.19802E-02
        -0.23491E-02
        -0.17074E-02
        -0.14914E-02
         0.76841E-03
         0.12511E-02
         0.18668E-02
         0.28952E-02
         0.27170E-02
         0.24624E-02
         0.22358E-02
         0.16503E-02
         0.87702E-03
        -0.21374E-02
        -0.26933E-02
        -0.31291E-02
        -0.30382E-02
        -0.28749E-02
        -0.26444E-02
        -0.23723E-02
        -0.21489E-02
        -0.15096E-02
         0.93572E-03
         0.00000E+00
         0.18171E-02
         0.25928E-02
         0.32179E-02
         0.36559E-02
         0.38815E-02
         0.38815E-02
         0.36559E-02
         0.32179E-02
         0.25928E-02
         0.18171E-02
         0.93572E-03
        -0.47884E-18
        -0.93572E-03
        -0.18171E-02
        -0.25928E-02
        -0.32179E-02
        -0.36559E-02
        -0.38815E-02
        -0.38815E-02
        -0.36559E-02
        -0.32179E-02
        -0.25928E-02
        -0.18171E-02
        -0.93572E-03
         0.67791E-03
         0.12368E-02
         0.59622E-03
        -0.33096E-03
         0.15209E-03
        -0.67199E-03
         0.18429E-02
         0.14666E-02
         0.30967E-03
         0.11830E-02
         0.22759E-02
         0.28247E-02
         0.24251E-02
         0.21688E-02
         0.29343E-02
        -0.10046E-02
         0.86253E-04
        -0.69665E-03
        -0.71070E-03
         0.83861E-04
        -0.77712E-03
         0.43173E-04
        -0.15190E-02
        -0.13220E-02
         0.10007E-02
        -0.17321E-02
         0.20245E-02
         0.18603E-02
         0.17175E-02
         0.91156E-03
        -0.19802E-02
        -0.23491E-02
        -0.17074E-02
        -0.14916E-02
         0.76941E-03
         0.12515E-02
         0.18668E-02
         0.28942E-02
         0.27165E-02
         0.24622E-02
         0.22358E-02
         0.16503E-02
         0.87728E-03
        -0.21374E-02
        -0.26933E-02
        -0.31291E-02
        -0.30382E-02
        -0.28749E-02
        -0.26447E-02
        -0.23725E-02
        -0.21494E-02
        -0.15095E-02
         0.93572E-03
         0.00000E+00
         0.18171E-02
         0.25928E-02
         0.32179E-02
         0.36559E-02
         0.38815E-02
         0.38815E-02
         0.36559E-02
         0.32179E-02
         0.25928E-02
         0.18171E-02
         0.93572E-03
        -0.47884E-18
        -0.93572E-03
        -0.18171E-02
        -0.25928E-02
        -0.32179E-02
        -0.36559E-02
        -0.38815E-02
        -0.38815E-02
        -0.36559E-02
        -0.32179E-02
        -0.25928E-02
        -0.18171E-02
        -0.93572E-03
         0.67847E-03
         0.12374E-02
         0.59674E-03
        -0.33021E-03
         0.15245E-03
        -0.67150E-03
         0.18430E-02
         0.14676E-02
         0.31081E-03
         0.11847E-02
         0.22761E-02
         0.28242E-02
         0.24252E-02
         0.21688E-02
         0.29340E-02
        -0.10047E-02
         0.87062E-04
        -0.69592E-03
        -0.71056E-03
         0.83985E-04
        -0.77695E-03
         0.43446E-04
        -0.15190E-02
        -0.13219E-02
         0.10020E-02
        -0.17321E-02
         0.20248E-02
         0.18602E-02
         0.17175E-02
         0.91180E-03
        -0.19803E-02
        -0.23491E-02
        -0.17073E-02
        -0.14919E-02
         0.77042E-03
         0.12520E-02
         0.18669E-02
         0.28931E-02
         0.27160E-02
         0.24620E-02
         0.22358E-02
         0.16503E-02
         0.87754E-03
        -0.21374E-02
        -0.26933E-02
        -0.31291E-02
        -0.30382E-02
        -0.28749E-02
        -0.26450E-02
        -0.23727E-02
        -0.21500E-02
        -0.15094E-02
         0.93572E-03
         0.00000E+00
         0.18171E-02
         0.25928E-02
         0.32179E-02
         0.36559E-02
         0.38815E-02
         0.38815E-02
         0.36559E-02
         0.32179E-02
         0.25928E-02
         0.18171E-02
         0.93572E-03
         0.39516E-17
        -0.93572E-03
        -0.18171E-02
        -0.25928E-02
        -0.32179E-02
        -0.36559E-02
        -0.38815E-02
        -0.38815E-02
        -0.36559E-02
        -0.32179E-02
        -0.25928E-02
        -0.18171E-02
        -0.93572E-03
         0.67902E-03
         0.12381E-02
         0.59727E-03
        -0.32945E-03
         0.15282E-03
        -0.67100E-03
         0.18432E-02
         0.14686E-02
         0.31196E-03
         0.11865E-02
         0.22762E-02
         0.28238E-02
         0.24254E-02
         0.21688E-02
         0.29337E-02
        -0.10049E-02
         0.87871E-04
        -0.69519E-03
        -0.71042E-03
         0.84108E-04
        -0.77678E-03
         0.43720E-04
        -0.15189E-02
        -0.13219E-02
         0.10034E-02
        -0.17320E-02
         0.20251E-02
         0.18601E-02
         0.17175E-02
         0.91204E-03
        -0.19803E-02
        -0.23492E-02
        -0.17073E-02
        -0.14921E-02
         0.77142E-03
         0.12524E-02
         0.18669E-02
         0.28920E-02
         0.27155E-02
         0.24618E-02
         0.22358E-02
         0.16503E-02
         0.87781E-03
        -0.21374E-02
        -0.26934E-02
        -0.31291E-02
        -0.30382E-02
        -0.28749E-02
        -0.26452E-02
        -0.23729E-02
        -0.21505E-02
        -0.15093E-02
         0.93572E-03
         0.00000E+00
         0.18171E-02
         0.25928E-02
         0.32179E-02
         0.36559E-02
         0.38815E-02
         0.38815E-02
         0.36559E-02
         0.32179E-02
         0.25928E-02
         0.18171E-02
         0.93572E-03
        -0.47884E-18
        -0.93572E-03
        -0.18171E-02
        -0.25928E-02
        -0.32179E-02
        -0.36559E-02
        -0.38815E-02
        -0.38815E-02
        -0.36559E-02
        -0.32179E-02
        -0.25928E-02
        -0.18171E-02
        -0.93572E-03
         0.67958E-03
         0.12387E-02
         0.59779E-03
        -0.32870E-03
         0.15318E-03
        -0.67051E-03
         0.18434E-02
         0.14696E-02
         0.31311E-03
         0.11882E-02
         0.22763E-02
         0.28233E-02
         0.24255E-02
         0.21689E-02
         0.29335E-02
        -0.10050E-02
         0.88681E-04
        -0.69447E-03
        -0.71028E-03
         0.84232E-04
        -0.77661E-03
         0.43993E-04
        -0.15189E-02
        -0.13218E-02
         0.10048E-02
        -0.17320E-02
         0.20254E-02
         0.18599E-02
         0.17175E-02
         0.91228E-03
        -0.19803E-02
        -0.23492E-02
        -0.17073E-02
        -0.14923E-02
         0.77243E-03
         0.12528E-02
         0.18670E-02
         0.28910E-02
         0.27151E-02
         0.24615E-02
         0.22358E-02
         0.16503E-02
         0.87807E-03
        -0.21374E-02
        -0.26934E-02
        -0.31291E-02
        -0.30382E-02
        -0.28749E-02
        -0.26455E-02
        -0.23732E-02
        -0.21511E-02
        -0.15092E-02
         0.93572E-03
         0.00000E+00
         0.18171E-02
         0.25928E-02
         0.32179E-02
         0.36559E-02
         0.38815E-02
         0.38815E-02
         0.36559E-02
         0.32179E-02
         0.25928E-02
         0.18171E-02
         0.93572E-03
         0.22152E-17
        -0.93572E-03
        -0.18171E-02
        -0.25928E-02
        -0.32179E-02
        -0.36559E-02
        -0.38815E-02
        -0.38815E-02
        -0.36559E-02
        -0.32179E-02
        -0.25928E-02
        -0.18171E-02
        -0.93572E-03
         0.68013E-03
         0.12394E-02
         0.59831E-03
        -0.32794E-03
         0.15354E-03
        -0.67002E-03
         0.18436E-02
         0.14706E-02
         0.31426E-03
         0.11900E-02
         0.22765E-02
         0.28229E-02
         0.24257E-02
         0.21689E-02
         0.29332E-02
        -0.10051E-02
         0.89490E-04
        -0.69374E-03
        -0.71013E-03
         0.84355E-04
        -0.77644E-03
         0.44266E-04
        -0.15188E-02
        -0.13216E-02
         0.10061E-02
        -0.17320E-02
         0.20257E-02
         0.18598E-02
         0.17175E-02
         0.91252E-03
        -0.19803E-02
        -0.23492E-02
        -0.17073E-02
        -0.14926E-02
         0.77343E-03
         0.12533E-02
         0.18670E-02
         0.28899E-02
         0.27146E-02
         0.24613E-02
         0.22358E-02
         0.16503E-02
         0.87833E-03
        -0.21374E-02
        -0.26934E-02
        -0.31291E-02
        -0.30382E-02
        -0.28750E-02
        -0.26458E-02
        -0.23734E-02
        -0.21516E-02
        -0.15091E-02
         0.93572E-03
         0.00000E+00
         0.18171E-02
         0.25928E-02
         0.32179E-02
         0.36559E-02
         0.38815E-02
         0.38815E-02
         0.36559E-02
         0.32179E-02
         0.25928E-02
         0.18171E-02
         0.93572E-03
        -0.47884E-18
        -0.93572E-03
        -0.18171E-02
        -0.25928E-02
        -0.32179E-02
        -0.36559E-02
        -0.38815E-02
        -0.38815E-02
        -0.36559E-02
        -0.32179E-02
        -0.25928E-02
        -0.18171E-02
        -0.93572E-03
         0.68068E-03
         0.12401E-02
         0.59884E-03
        -0.32719E-03
         0.15391E-03
        -0.66953E-03
         0.18438E-02
         0.14716E-02
         0.31541E-03
         0.11917E-02
         0.22766E-02
         0.28225E-02
         0.24258E-02
         0.21690E-02
         0.29330E-02
        -0.10053E-02
         0.90299E-04
        -0.69302E-03
        -0.70999E-03
         0.84479E-04
        -0.77627E-03
         0.44540E-04
        -0.15188E-02
        -0.13215E-02
         0.10075E-02
        -0.17319E-02
         0.20260E-02
         0.18597E-02
         0.17175E-02
         0.91276E-03
        -0.19804E-02
        -0.23493E-02
        -0.17073E-02
        -0.14928E-02
         0.77444E-03
         0.12537E-02
         0.18670E-02
         0.28888E-02
         0.27141E-02
         0.24611E-02
         0.22358E-02
         0.16503E-02
         0.87859E-03
        -0.21374E-02
        -0.26934E-02
        -0.31291E-02
        -0.30382E-02
        -0.28750E-02
        -0.26460E-02
        -0.23736E-02
        -0.21521E-02
        -0.15090E-02
         0.93572E-03
         0.00000E+00
         0.18171E-02
         0.25928E-02
         0.32179E-02
         0.36559E-02
         0.38815E-02
         0.38815E-02
         0.36559E-02
         0.32179E-02
         0.25928E-02
         0.18171E-02
         0.93572E-03
         0.22152E-17
        -0.93572E-03
        -0.18171E-02
        -0.25928E-02
        -0.32179E-02
        -0.36559E-02
        -0.38815E-02
        -0.38815E-02
        -0.36559E-02
        -0.32179E-02
        -0.25928E-02
        -0.18171E-02
        -0.93572E-03
         0.68124E-03
         0.12407E-02
         0.59936E-03
        -0.32643E-03
         0.15427E-03
        -0.66903E-03
         0.18440E-02
         0.14727E-02
         0.31656E-03
         0.11935E-02
         0.22767E-02
         0.28220E-02
         0.24260E-02
         0.21690E-02
         0.29327E-02
        -0.10054E-02
         0.91108E-04
        -0.69229E-03
        -0.70985E-03
         0.84602E-04
        -0.77610E-03
         0.44813E-04
        -0.15187E-02
        -0.13215E-02
         0.10088E-02
        -0.17319E-02
         0.20262E-02
         0.18595E-02
         0.17175E-02
         0.91300E-03
        -0.19804E-02
        -0.23493E-02
        -0.17073E-02
        -0.14931E-02
         0.77544E-03
         0.12541E-02
         0.18671E-02
         0.28877E-02
         0.27137E-02
         0.24609E-02
         0.22358E-02
         0.16503E-02
         0.87885E-03
        -0.21374E-02
        -0.26934E-02
        -0.31291E-02
        -0.30382E-02
        -0.28750E-02
        -0.26463E-02
        -0.23738E-02
        -0.21527E-02
        -0.15088E-02
         0.93572E-03
         0.00000E+00
         0.18171E-02
         0.25928E-02
         0.32179E-02
         0.36559E-02
         0.38815E-02
         0.38815E-02
         0.36559E-02
         0.32179E-02
         0.25928E-02
         0.18171E-02
         0.93572E-03
        -0.47884E-18
        -0.93572E-03
        -0.18171E-02
        -0.25928E-02
        -0.32179E-02
        -0.36559E-02
        -0.38815E-02
        -0.38815E-02
        -0.36559E-02
        -0.32179E-02
        -0.25928E-02
        -0.18171E-02
        -0.93572E-03
         0.68179E-03
         0.12414E-02
         0.59988E-03
        -0.32568E-03
         0.15463E-03
        -0.66854E-03
         0.18442E-02
         0.14736E-02
         0.31770E-03
         0.11952E-02
         0.22768E-02
         0.28216E-02
         0.24261E-02
         0.21690E-02
         0.29324E-02
        -0.10056E-02
         0.91918E-04
        -0.69156E-03
        -0.70971E-03
         0.84726E-04
        -0.77593E-03
         0.45086E-04
        -0.15187E-02
        -0.13213E-02
         0.10102E-02
        -0.17318E-02
         0.20265E-02
         0.18594E-02
         0.17175E-02
         0.91324E-03
        -0.19804E-02
        -0.23493E-02
        -0.17073E-02
        -0.14933E-02
         0.77645E-03
         0.12545E-02
         0.18671E-02
         0.28867E-02
         0.27132E-02
         0.24606E-02
         0.22358E-02
         0.16503E-02
         0.87912E-03
        -0.21374E-02
        -0.26935E-02
        -0.31291E-02
        -0.30381E-02
        -0.28750E-02
        -0.26466E-02
        -0.23740E-02
        -0.21533E-02
        -0.15087E-02
         0.93572E-03
         0.00000E+00
         0.18171E-02
         0.25928E-02
         0.32179E-02
         0.36559E-02
         0.38815E-02
         0.38815E-02
         0.36559E-02
         0.32179E-02
         0.25928E-02
         0.18171E-02
         0.93572E-03
        -0.47884E-18
        -0.93572E-03
        -0.18171E-02
        -0.25928E-02
        -0.32179E-02
        -0.36559E-02
        -0.38815E-02
        -0.38815E-02
        -0.36559E-02
        -0.32179E-02
        -0.25928E-02
        -0.18171E-02
        -0.93572E-03
         0.68235E-03
         0.12421E-02
         0.60041E-03
        -0.32493E-03
         0.15500E-03
        -0.66805E-03
         0.18444E-02
         0.14747E-02
         0.31885E-03
         0.11970E-02
         0.22770E-02
         0.28211E-02
         0.24262E-02
         0.21691E-02
         0.29322E-02
        -0.10057E-02
         0.92727E-04
        -0.69084E-03
        -0.70957E-03
         0.84849E-04
        -0.77576E-03
         0.45359E-04
        -0.15186E-02
        -0.13212E-02
         0.10115E-02
        -0.17318E-02
         0.20268E-02
         0.18593E-02
         0.17175E-02
         0.91347E-03
        -0.19804E-02
        -0.23493E-02
        -0.17073E-02
        -0.14936E-02
         0.77745E-03
         0.12550E-02
         0.18671E-02
         0.28856E-02
         0.27127E-02
         0.24604E-02
         0.22358E-02
         0.16503E-02
         0.87938E-03
        -0.21374E-02
        -0.26935E-02
        -0.31291E-02
        -0.30381E-02
        -0.28750E-02
        -0.26468E-02
        -0.23742E-02
        -0.21538E-02
        -0.15086E-02
         0.93572E-03
         0.00000E+00
         0.18171E-02
         0.25928E-02
         0.32179E-02
         0.36559E-02
         0.38815E-02
         0.38815E-02
         0.36559E-02
         0.32179E-02
         0.25928E-02
         0.18171E-02
         0.93572E-03
        -0.47884E-18
        -0.93572E-03
        -0.18171E-02
        -0.25928E-02
        -0.32179E-02
        -0.36559E-02
        -0.38815E-02
        -0.38815E-02
        -0.36559E-02
        -0.32179E-02
        -0.25928E-02
        -0.18171E-02
        -0.93572E-03
         0.68290E-03
         0.12427E-02
         0.60093E-03
        -0.32417E-03
         0.15536E-03
        -0.66755E-03
         0.18445E-02
         0.14757E-02
         0.32000E-03
         0.11987E-02
         0.22771E-02
         0.28207E-02
         0.24264E-02
         0.21691E-02
         0.29319E-02
        -0.10058E-02
         0.93536E-04
        -0.69011E-03
        -0.70943E-03
         0.84973E-04
        -0.77559E-03
         0.45633E-04
        -0.15186E-02
        -0.13212E-02
         0.10129E-02
        -0.17318E-02
         0.20271E-02
         0.18592E-02
         0.17175E-02
         0.91371E-03
        -0.19805E-02
        -0.23493E-02
        -0.17073E-02
        -0.14938E-02
         0.77846E-03
         0.12554E-02
         0.18672E-02
         0.28845E-02
         0.27122E-02
         0.24602E-02
         0.22358E-02
         0.16502E-02
         0.87964E-03
        -0.21374E-02
        -0.26935E-02
        -0.31291E-02
        -0.30381E-02
        -0.28750E-02
        -0.26471E-02
        -0.23744E-02
        -0.21543E-02
        -0.15085E-02
         0.93572E-03
         0.00000E+00
         0.18171E-02
         0.25928E-02
         0.32179E-02
         0.36559E-02
         0.38815E-02
         0.38815E-02
         0.36559E-02
         0.32179E-02
         0.25928E-02
         0.18171E-02
         0.93572E-03
        -0.47884E-18
        -0.93572E-03
        -0.18171E-02
        -0.25928E-02
        -0.32179E-02
        -0.36559E-02
        -0.38815E-02
        -0.38815E-02
        -0.36559E-02
        -0.32179E-02
        -0.25928E-02
        -0.18171E-02
        -0.93572E-03
         0.68346E-03
         0.12434E-02
         0.60145E-03
        -0.32342E-03
         0.15572E-03
        -0.66706E-03
         0.18447E-02
         0.14767E-02
         0.32115E-03
         0.12005E-02
         0.22772E-02
         0.28203E-02
         0.24265E-02
         0.21691E-02
         0.29316E-02
        -0.10060E-02
         0.94345E-04
        -0.68939E-03
        -0.70929E-03
         0.85096E-04
        -0.77542E-03
         0.45906E-04
        -0.15185E-02
        -0.13211E-02
         0.10142E-02
        -0.17317E-02
         0.20274E-02
         0.18590E-02
         0.17175E-02
         0.91395E-03
        -0.19805E-02
        -0.23494E-02
        -0.17073E-02
        -0.14941E-02
         0.77946E-03
         0.12558E-02
         0.18672E-02
         0.28835E-02
         0.27118E-02
         0.24600E-02
         0.22358E-02
         0.16502E-02
         0.87990E-03
        -0.21374E-02
        -0.26935E-02
        -0.31291E-02
        -0.30381E-02
        -0.28750E-02
        -0.26474E-02
        -0.23746E-02
        -0.21549E-02
        -0.15084E-02
         0.93572E-03
         0.00000E+00
         0.18171E-02
         0.25928E-02
         0.32179E-02
         0.36559E-02
         0.38815E-02
         0.38815E-02
         0.36559E-02
         0.32179E-02
         0.25928E-02
         0.18171E-02
         0.93572E-03
         0.22152E-17
        -0.93572E-03
        -0.18171E-02
        -0.25928E-02
        -0.32179E-02
        -0.36559E-02
        -0.38815E-02
        -0.38815E-02
        -0.36559E-02
        -0.32179E-02
        -0.25928E-02
        -0.18171E-02
        -0.93572E-03
         0.68401E-03
         0.12440E-02
         0.60198E-03
        -0.32266E-03
         0.15609E-03
        -0.66657E-03
         0.18449E-02
         0.14777E-02
         0.32230E-03
         0.12022E-02
         0.22774E-02
         0.28198E-02
         0.24267E-02
         0.21692E-02
         0.29314E-02
        -0.10061E-02
         0.95155E-04
        -0.68866E-03
        -0.70915E-03
         0.85220E-04
        -0.77525E-03
         0.46180E-04
        -0.15185E-02
        -0.13210E-02
         0.10156E-02
        -0.17317E-02
         0.20277E-02
         0.18589E-02
         0.17175E-02
         0.91419E-03
        -0.19805E-02
        -0.23494E-02
        -0.17073E-02
        -0.14943E-02
         0.78047E-03
         0.12563E-02
         0.18672E-02
         0.28824E-02
         0.27113E-02
         0.24597E-02
         0.22358E-02
         0.16502E-02
         0.88016E-03
        -0.21374E-02
        -0.26935E-02
        -0.31291E-02
        -0.30381E-02
        -0.28751E-02
        -0.26476E-02
        -0.23748E-02
        -0.21554E-02
        -0.15083E-02
         0.93572E-03
         0.00000E+00
         0.18171E-02
         0.25928E-02
         0.32179E-02
         0.36559E-02
         0.38815E-02
         0.38815E-02
         0.36559E-02
         0.32179E-02
         0.25928E-02
         0.18171E-02
         0.93572E-03
        -0.47884E-18
        -0.93572E-03
        -0.18171E-02
        -0.25928E-02
        -0.32179E-02
        -0.36559E-02
        -0.38815E-02
        -0.38815E-02
        -0.36559E-02
        -0.32179E-02
        -0.25928E-02
        -0.18171E-02
        -0.93572E-03
         0.68457E-03
         0.12447E-02
         0.60250E-03
        -0.32191E-03
         0.15645E-03
        -0.66607E-03
         0.18451E-02
         0.14787E-02
         0.32345E-03
         0.12040E-02
         0.22775E-02
         0.28194E-02
         0.24268E-02
         0.21692E-02
         0.29311E-02
        -0.10062E-02
         0.95964E-04
        -0.68793E-03
        -0.70901E-03
         0.85343E-04
        -0.77507E-03
         0.46453E-04
        -0.15184E-02
        -0.13209E-02
         0.10169E-02
        -0.17316E-02
         0.20280E-02
         0.18588E-02
         0.17175E-02
         0.91443E-03
        -0.19806E-02
        -0.23494E-02
        -0.17073E-02
        -0.14945E-02
         0.78148E-03
         0.12567E-02
         0.18673E-02
         0.28813E-02
         0.27108E-02
         0.24595E-02
         0.22358E-02
         0.16502E-02
         0.88043E-03
        -0.21374E-02
        -0.26936E-02
        -0.31291E-02
        -0.30381E-02
        -0.28751E-02
        -0.26479E-02
        -0.23750E-02
        -0.21560E-02
        -0.15082E-02
         0.93572E-03
         0.00000E+00
         0.18171E-02
         0.25928E-02
         0.32179E-02
         0.36559E-02
         0.38815E-02
         0.38815E-02
         0.36559E-02
         0.32179E-02
         0.25928E-02
         0.18171E-02
         0.93572E-03
        -0.47884E-18
        -0.93572E-03
        -0.18171E-02
        -0.25928E-02
        -0.32179E-02
        -0.36559E-02
        -0.38815E-02
        -0.38815E-02
        -0.36559E-02
        -0.32179E-02
        -0.25928E-02
        -0.18171E-02
        -0.93572E-03
         0.68512E-03
         0.12454E-02
         0.60302E-03
        -0.32115E-03
         0.15681E-03
        -0.66558E-03
         0.18453E-02
         0.14797E-02
         0.32459E-03
         0.12058E-02
         0.22776E-02
         0.28189E-02
         0.24270E-02
         0.21693E-02
         0.29308E-02
        -0.10064E-02
         0.96773E-04
        -0.68721E-03
        -0.70887E-03
         0.85467E-04
        -0.77490E-03
         0.46726E-04
        -0.15184E-02
        -0.13208E-02
         0.10183E-02
        -0.17316E-02
         0.20283E-02
         0.18586E-02
         0.17175E-02
         0.91467E-03
        -0.19806E-02
        -0.23494E-02
        -0.17073E-02
        -0.14948E-02
         0.78248E-03
         0.12571E-02
         0.18673E-02
         0.28802E-02
         0.27103E-02
         0.24593E-02
         0.22358E-02
         0.16502E-02
         0.88069E-03
        -0.21374E-02
        -0.26936E-02
        -0.31291E-02
        -0.30381E-02
        -0.28751E-02
        -0.26482E-02
        -0.23752E-02
        -0.21565E-02
        -0.15081E-02
         0.93572E-03
         0.00000E+00
         0.18171E-02
         0.25928E-02
         0.32179E-02
         0.36559E-02
         0.38815E-02
         0.38815E-02
         0.36559E-02
         0.32179E-02
         0.25928E-02
         0.18171E-02
         0.93572E-03
        -0.47884E-18
        -0.93572E-03
        -0.18171E-02
        -0.25928E-02
        -0.32179E-02
        -0.36559E-02
        -0.38815E-02
        -0.38815E-02
        -0.36559E-02
        -0.32179E-02
        -0.25928E-02
        -0.18171E-02
        -0.93572E-03
         0.68567E-03
         0.12460E-02
         0.60355E-03
        -0.32040E-03
         0.15718E-03
        -0.66509E-03
         0.18455E-02
         0.14807E-02
         0.32574E-03
         0.12075E-02
         0.22777E-02
         0.28185E-02
         0.24271E-02
         0.21693E-02
         0.29306E-02
        -0.10065E-02
         0.97583E-04
        -0.68648E-03
        -0.70873E-03
         0.85591E-04
        -0.77474E-03
         0.47000E-04
        -0.15183E-02
        -0.13207E-02
         0.10197E-02
        -0.17316E-02
         0.20285E-02
         0.18585E-02
         0.17175E-02
         0.91491E-03
        -0.19806E-02
        -0.23495E-02
        -0.17073E-02
        -0.14950E-02
         0.78348E-03
         0.12576E-02
         0.18674E-02
         0.28792E-02
         0.27099E-02
         0.24591E-02
         0.22358E-02
         0.16502E-02
         0.88095E-03
        -0.21374E-02
        -0.26936E-02
        -0.31290E-02
        -0.30381E-02
        -0.28751E-02
        -0.26484E-02
        -0.23754E-02
        -0.21571E-02
        -0.15080E-02
         0.93572E-03
         0.00000E+00
         0.18171E-02
         0.25928E-02
         0.32179E-02
         0.36559E-02
         0.38815E-02
         0.38815E-02
         0.36559E-02
         0.32179E-02
         0.25928E-02
         0.18171E-02
         0.93572E-03
         0.47884E-18
        -0.93572E-03
        -0.18171E-02
        -0.25928E-02
        -0.32179E-02
        -0.36559E-02
        -0.38815E-02
        -0.38815E-02
        -0.36559E-02
        -0.32179E-02
        -0.25928E-02
        -0.18171E-02
        -0.93572E-03
  
SCALARS           initial_coordinate_z  double 1
LOOKUP_TABLE default
        -0.10771E-01
        -0.10771E-01
        -0.10771E-01
        -0.10771E-01
        -0.11750E-01
        -0.11750E-01
        -0.11750E-01
        -0.11750E-01
        -0.10771E-01
        -0.10771E-01
        -0.11750E-01
        -0.11750E-01
        -0.10771E-01
        -0.10771E-01
        -0.11750E-01
        -0.11750E-01
        -0.10771E-01
        -0.10771E-01
        -0.11750E-01
        -0.11750E-01
        -0.10771E-01
        -0.10771E-01
        -0.10771E-01
        -0.11750E-01
        -0.11750E-01
        -0.11750E-01
        -0.10771E-01
        -0.10771E-01
        -0.11750E-01
        -0.11750E-01
        -0.10771E-01
        -0.10771E-01
        -0.10771E-01
        -0.11750E-01
        -0.11750E-01
        -0.11750E-01
        -0.10771E-01
        -0.10771E-01
        -0.11750E-01
        -0.11750E-01
        -0.10771E-01
        -0.10771E-01
        -0.11750E-01
        -0.11750E-01
        -0.10771E-01
        -0.10771E-01
        -0.11750E-01
        -0.11750E-01
        -0.10771E-01
        -0.11750E-01
        -0.10771E-01
        -0.11750E-01
        -0.10771E-01
        -0.11750E-01
        -0.10771E-01
        -0.11750E-01
        -0.10771E-01
        -0.10771E-01
        -0.11750E-01
        -0.11750E-01
        -0.10771E-01
        -0.10771E-01
        -0.11750E-01
        -0.11750E-01
        -0.10771E-01
        -0.11750E-01
        -0.10771E-01
        -0.11750E-01
        -0.10771E-01
        -0.10771E-01
        -0.11750E-01
        -0.11750E-01
        -0.10771E-01
        -0.11750E-01
        -0.10771E-01
        -0.11750E-01
        -0.10771E-01
        -0.11750E-01
        -0.10771E-01
        -0.11750E-01
        -0.10771E-01
        -0.10771E-01
        -0.11750E-01
        -0.11750E-01
        -0.10771E-01
        -0.11750E-01
        -0.10771E-01
        -0.11750E-01
        -0.10771E-01
        -0.11750E-01
        -0.10771E-01
        -0.10771E-01
        -0.11750E-01
        -0.11750E-01
        -0.10771E-01
        -0.11750E-01
        -0.10771E-01
        -0.11750E-01
        -0.10771E-01
        -0.11750E-01
        -0.10771E-01
        -0.10771E-01
        -0.11750E-01
        -0.11750E-01
        -0.10771E-01
        -0.10771E-01
        -0.11750E-01
        -0.11750E-01
        -0.10771E-01
        -0.11750E-01
        -0.10771E-01
        -0.11750E-01
        -0.10771E-01
        -0.11750E-01
        -0.10771E-01
        -0.11750E-01
        -0.10771E-01
        -0.11750E-01
        -0.10771E-01
        -0.11750E-01
        -0.10771E-01
        -0.11750E-01
        -0.10771E-01
        -0.11750E-01
        -0.10771E-01
        -0.11750E-01
        -0.10771E-01
        -0.11750E-01
        -0.10771E-01
        -0.11750E-01
        -0.10771E-01
        -0.11750E-01
        -0.10771E-01
        -0.11750E-01
        -0.10771E-01
        -0.11750E-01
        -0.10771E-01
        -0.11750E-01
        -0.10771E-01
        -0.11750E-01
        -0.10771E-01
        -0.11750E-01
        -0.10771E-01
        -0.11750E-01
        -0.10771E-01
        -0.11750E-01
        -0.10771E-01
        -0.11750E-01
        -0.10771E-01
        -0.11750E-01
        -0.10771E-01
        -0.11750E-01
        -0.10771E-01
        -0.11750E-01
        -0.10771E-01
        -0.11750E-01
        -0.97917E-02
        -0.97917E-02
        -0.97917E-02
        -0.97917E-02
        -0.97917E-02
        -0.97917E-02
        -0.97917E-02
        -0.97917E-02
        -0.97917E-02
        -0.97917E-02
        -0.97917E-02
        -0.97917E-02
        -0.97917E-02
        -0.97917E-02
        -0.97917E-02
        -0.97917E-02
        -0.97917E-02
        -0.97917E-02
        -0.97917E-02
        -0.97917E-02
        -0.97917E-02
        -0.97917E-02
        -0.97917E-02
        -0.97917E-02
        -0.97917E-02
        -0.97917E-02
        -0.97917E-02
        -0.97917E-02
        -0.97917E-02
        -0.97917E-02
        -0.97917E-02
        -0.97917E-02
        -0.97917E-02
        -0.97917E-02
        -0.97917E-02
        -0.97917E-02
        -0.97917E-02
        -0.97917E-02
        -0.97917E-02
        -0.97917E-02
        -0.97917E-02
        -0.97917E-02
        -0.97917E-02
        -0.97917E-02
        -0.97917E-02
        -0.97917E-02
        -0.97917E-02
        -0.97917E-02
        -0.97917E-02
        -0.97917E-02
        -0.97917E-02
        -0.97917E-02
        -0.97917E-02
        -0.97917E-02
        -0.97917E-02
        -0.97917E-02
        -0.97917E-02
        -0.97917E-02
        -0.97917E-02
        -0.97917E-02
        -0.97917E-02
        -0.97917E-02
        -0.97917E-02
        -0.97917E-02
        -0.97917E-02
        -0.97917E-02
        -0.97917E-02
        -0.97917E-02
        -0.97917E-02
        -0.97917E-02
        -0.97917E-02
        -0.97917E-02
        -0.97917E-02
        -0.97917E-02
        -0.97917E-02
        -0.97917E-02
        -0.97917E-02
        -0.97917E-02
        -0.88125E-02
        -0.88125E-02
        -0.88125E-02
        -0.88125E-02
        -0.88125E-02
        -0.88125E-02
        -0.88125E-02
        -0.88125E-02
        -0.88125E-02
        -0.88125E-02
        -0.88125E-02
        -0.88125E-02
        -0.88125E-02
        -0.88125E-02
        -0.88125E-02
        -0.88125E-02
        -0.88125E-02
        -0.88125E-02
        -0.88125E-02
        -0.88125E-02
        -0.88125E-02
        -0.88125E-02
        -0.88125E-02
        -0.88125E-02
        -0.88125E-02
        -0.88125E-02
        -0.88125E-02
        -0.88125E-02
        -0.88125E-02
        -0.88125E-02
        -0.88125E-02
        -0.88125E-02
        -0.88125E-02
        -0.88125E-02
        -0.88125E-02
        -0.88125E-02
        -0.88125E-02
        -0.88125E-02
        -0.88125E-02
        -0.88125E-02
        -0.88125E-02
        -0.88125E-02
        -0.88125E-02
        -0.88125E-02
        -0.88125E-02
        -0.88125E-02
        -0.88125E-02
        -0.88125E-02
        -0.88125E-02
        -0.88125E-02
        -0.88125E-02
        -0.88125E-02
        -0.88125E-02
        -0.88125E-02
        -0.88125E-02
        -0.88125E-02
        -0.88125E-02
        -0.88125E-02
        -0.88125E-02
        -0.88125E-02
        -0.88125E-02
        -0.88125E-02
        -0.88125E-02
        -0.88125E-02
        -0.88125E-02
        -0.88125E-02
        -0.88125E-02
        -0.88125E-02
        -0.88125E-02
        -0.88125E-02
        -0.88125E-02
        -0.88125E-02
        -0.88125E-02
        -0.88125E-02
        -0.88125E-02
        -0.88125E-02
        -0.88125E-02
        -0.88125E-02
        -0.78333E-02
        -0.78333E-02
        -0.78333E-02
        -0.78333E-02
        -0.78333E-02
        -0.78333E-02
        -0.78333E-02
        -0.78333E-02
        -0.78333E-02
        -0.78333E-02
        -0.78333E-02
        -0.78333E-02
        -0.78333E-02
        -0.78333E-02
        -0.78333E-02
        -0.78333E-02
        -0.78333E-02
        -0.78333E-02
        -0.78333E-02
        -0.78333E-02
        -0.78333E-02
        -0.78333E-02
        -0.78333E-02
        -0.78333E-02
        -0.78333E-02
        -0.78333E-02
        -0.78333E-02
        -0.78333E-02
        -0.78333E-02
        -0.78333E-02
        -0.78333E-02
        -0.78333E-02
        -0.78333E-02
        -0.78333E-02
        -0.78333E-02
        -0.78333E-02
        -0.78333E-02
        -0.78333E-02
        -0.78333E-02
        -0.78333E-02
        -0.78333E-02
        -0.78333E-02
        -0.78333E-02
        -0.78333E-02
        -0.78333E-02
        -0.78333E-02
        -0.78333E-02
        -0.78333E-02
        -0.78333E-02
        -0.78333E-02
        -0.78333E-02
        -0.78333E-02
        -0.78333E-02
        -0.78333E-02
        -0.78333E-02
        -0.78333E-02
        -0.78333E-02
        -0.78333E-02
        -0.78333E-02
        -0.78333E-02
        -0.78333E-02
        -0.78333E-02
        -0.78333E-02
        -0.78333E-02
        -0.78333E-02
        -0.78333E-02
        -0.78333E-02
        -0.78333E-02
        -0.78333E-02
        -0.78333E-02
        -0.78333E-02
        -0.78333E-02
        -0.78333E-02
        -0.78333E-02
        -0.78333E-02
        -0.78333E-02
        -0.78333E-02
        -0.78333E-02
        -0.68542E-02
        -0.68542E-02
        -0.68542E-02
        -0.68542E-02
        -0.68542E-02
        -0.68542E-02
        -0.68542E-02
        -0.68542E-02
        -0.68542E-02
        -0.68542E-02
        -0.68542E-02
        -0.68542E-02
        -0.68542E-02
        -0.68542E-02
        -0.68542E-02
        -0.68542E-02
        -0.68542E-02
        -0.68542E-02
        -0.68542E-02
        -0.68542E-02
        -0.68542E-02
        -0.68542E-02
        -0.68542E-02
        -0.68542E-02
        -0.68542E-02
        -0.68542E-02
        -0.68542E-02
        -0.68542E-02
        -0.68542E-02
        -0.68542E-02
        -0.68542E-02
        -0.68542E-02
        -0.68542E-02
        -0.68542E-02
        -0.68542E-02
        -0.68542E-02
        -0.68542E-02
        -0.68542E-02
        -0.68542E-02
        -0.68542E-02
        -0.68542E-02
        -0.68542E-02
        -0.68542E-02
        -0.68542E-02
        -0.68542E-02
        -0.68542E-02
        -0.68542E-02
        -0.68542E-02
        -0.68542E-02
        -0.68542E-02
        -0.68542E-02
        -0.68542E-02
        -0.68542E-02
        -0.68542E-02
        -0.68542E-02
        -0.68542E-02
        -0.68542E-02
        -0.68542E-02
        -0.68542E-02
        -0.68542E-02
        -0.68542E-02
        -0.68542E-02
        -0.68542E-02
        -0.68542E-02
        -0.68542E-02
        -0.68542E-02
        -0.68542E-02
        -0.68542E-02
        -0.68542E-02
        -0.68542E-02
        -0.68542E-02
        -0.68542E-02
        -0.68542E-02
        -0.68542E-02
        -0.68542E-02
        -0.68542E-02
        -0.68542E-02
        -0.68542E-02
        -0.58750E-02
        -0.58750E-02
        -0.58750E-02
        -0.58750E-02
        -0.58750E-02
        -0.58750E-02
        -0.58750E-02
        -0.58750E-02
        -0.58750E-02
        -0.58750E-02
        -0.58750E-02
        -0.58750E-02
        -0.58750E-02
        -0.58750E-02
        -0.58750E-02
        -0.58750E-02
        -0.58750E-02
        -0.58750E-02
        -0.58750E-02
        -0.58750E-02
        -0.58750E-02
        -0.58750E-02
        -0.58750E-02
        -0.58750E-02
        -0.58750E-02
        -0.58750E-02
        -0.58750E-02
        -0.58750E-02
        -0.58750E-02
        -0.58750E-02
        -0.58750E-02
        -0.58750E-02
        -0.58750E-02
        -0.58750E-02
        -0.58750E-02
        -0.58750E-02
        -0.58750E-02
        -0.58750E-02
        -0.58750E-02
        -0.58750E-02
        -0.58750E-02
        -0.58750E-02
        -0.58750E-02
        -0.58750E-02
        -0.58750E-02
        -0.58750E-02
        -0.58750E-02
        -0.58750E-02
        -0.58750E-02
        -0.58750E-02
        -0.58750E-02
        -0.58750E-02
        -0.58750E-02
        -0.58750E-02
        -0.58750E-02
        -0.58750E-02
        -0.58750E-02
        -0.58750E-02
        -0.58750E-02
        -0.58750E-02
        -0.58750E-02
        -0.58750E-02
        -0.58750E-02
        -0.58750E-02
        -0.58750E-02
        -0.58750E-02
        -0.58750E-02
        -0.58750E-02
        -0.58750E-02
        -0.58750E-02
        -0.58750E-02
        -0.58750E-02
        -0.58750E-02
        -0.58750E-02
        -0.58750E-02
        -0.58750E-02
        -0.58750E-02
        -0.58750E-02
        -0.48958E-02
        -0.48958E-02
        -0.48958E-02
        -0.48958E-02
        -0.48958E-02
        -0.48958E-02
        -0.48958E-02
        -0.48958E-02
        -0.48958E-02
        -0.48958E-02
        -0.48958E-02
        -0.48958E-02
        -0.48958E-02
        -0.48958E-02
        -0.48958E-02
        -0.48958E-02
        -0.48958E-02
        -0.48958E-02
        -0.48958E-02
        -0.48958E-02
        -0.48958E-02
        -0.48958E-02
        -0.48958E-02
        -0.48958E-02
        -0.48958E-02
        -0.48958E-02
        -0.48958E-02
        -0.48958E-02
        -0.48958E-02
        -0.48958E-02
        -0.48958E-02
        -0.48958E-02
        -0.48958E-02
        -0.48958E-02
        -0.48958E-02
        -0.48958E-02
        -0.48958E-02
        -0.48958E-02
        -0.48958E-02
        -0.48958E-02
        -0.48958E-02
        -0.48958E-02
        -0.48958E-02
        -0.48958E-02
        -0.48958E-02
        -0.48958E-02
        -0.48958E-02
        -0.48958E-02
        -0.48958E-02
        -0.48958E-02
        -0.48958E-02
        -0.48958E-02
        -0.48958E-02
        -0.48958E-02
        -0.48958E-02
        -0.48958E-02
        -0.48958E-02
        -0.48958E-02
        -0.48958E-02
        -0.48958E-02
        -0.48958E-02
        -0.48958E-02
        -0.48958E-02
        -0.48958E-02
        -0.48958E-02
        -0.48958E-02
        -0.48958E-02
        -0.48958E-02
        -0.48958E-02
        -0.48958E-02
        -0.48958E-02
        -0.48958E-02
        -0.48958E-02
        -0.48958E-02
        -0.48958E-02
        -0.48958E-02
        -0.48958E-02
        -0.48958E-02
        -0.39167E-02
        -0.39167E-02
        -0.39167E-02
        -0.39167E-02
        -0.39167E-02
        -0.39167E-02
        -0.39167E-02
        -0.39167E-02
        -0.39167E-02
        -0.39167E-02
        -0.39167E-02
        -0.39167E-02
        -0.39167E-02
        -0.39167E-02
        -0.39167E-02
        -0.39167E-02
        -0.39167E-02
        -0.39167E-02
        -0.39167E-02
        -0.39167E-02
        -0.39167E-02
        -0.39167E-02
        -0.39167E-02
        -0.39167E-02
        -0.39167E-02
        -0.39167E-02
        -0.39167E-02
        -0.39167E-02
        -0.39167E-02
        -0.39167E-02
        -0.39167E-02
        -0.39167E-02
        -0.39167E-02
        -0.39167E-02
        -0.39167E-02
        -0.39167E-02
        -0.39167E-02
        -0.39167E-02
        -0.39167E-02
        -0.39167E-02
        -0.39167E-02
        -0.39167E-02
        -0.39167E-02
        -0.39167E-02
        -0.39167E-02
        -0.39167E-02
        -0.39167E-02
        -0.39167E-02
        -0.39167E-02
        -0.39167E-02
        -0.39167E-02
        -0.39167E-02
        -0.39167E-02
        -0.39167E-02
        -0.39167E-02
        -0.39167E-02
        -0.39167E-02
        -0.39167E-02
        -0.39167E-02
        -0.39167E-02
        -0.39167E-02
        -0.39167E-02
        -0.39167E-02
        -0.39167E-02
        -0.39167E-02
        -0.39167E-02
        -0.39167E-02
        -0.39167E-02
        -0.39167E-02
        -0.39167E-02
        -0.39167E-02
        -0.39167E-02
        -0.39167E-02
        -0.39167E-02
        -0.39167E-02
        -0.39167E-02
        -0.39167E-02
        -0.39167E-02
        -0.29375E-02
        -0.29375E-02
        -0.29375E-02
        -0.29375E-02
        -0.29375E-02
        -0.29375E-02
        -0.29375E-02
        -0.29375E-02
        -0.29375E-02
        -0.29375E-02
        -0.29375E-02
        -0.29375E-02
        -0.29375E-02
        -0.29375E-02
        -0.29375E-02
        -0.29375E-02
        -0.29375E-02
        -0.29375E-02
        -0.29375E-02
        -0.29375E-02
        -0.29375E-02
        -0.29375E-02
        -0.29375E-02
        -0.29375E-02
        -0.29375E-02
        -0.29375E-02
        -0.29375E-02
        -0.29375E-02
        -0.29375E-02
        -0.29375E-02
        -0.29375E-02
        -0.29375E-02
        -0.29375E-02
        -0.29375E-02
        -0.29375E-02
        -0.29375E-02
        -0.29375E-02
        -0.29375E-02
        -0.29375E-02
        -0.29375E-02
        -0.29375E-02
        -0.29375E-02
        -0.29375E-02
        -0.29375E-02
        -0.29375E-02
        -0.29375E-02
        -0.29375E-02
        -0.29375E-02
        -0.29375E-02
        -0.29375E-02
        -0.29375E-02
        -0.29375E-02
        -0.29375E-02
        -0.29375E-02
        -0.29375E-02
        -0.29375E-02
        -0.29375E-02
        -0.29375E-02
        -0.29375E-02
        -0.29375E-02
        -0.29375E-02
        -0.29375E-02
        -0.29375E-02
        -0.29375E-02
        -0.29375E-02
        -0.29375E-02
        -0.29375E-02
        -0.29375E-02
        -0.29375E-02
        -0.29375E-02
        -0.29375E-02
        -0.29375E-02
        -0.29375E-02
        -0.29375E-02
        -0.29375E-02
        -0.29375E-02
        -0.29375E-02
        -0.29375E-02
        -0.19583E-02
        -0.19583E-02
        -0.19583E-02
        -0.19583E-02
        -0.19583E-02
        -0.19583E-02
        -0.19583E-02
        -0.19583E-02
        -0.19583E-02
        -0.19583E-02
        -0.19583E-02
        -0.19583E-02
        -0.19583E-02
        -0.19583E-02
        -0.19583E-02
        -0.19583E-02
        -0.19583E-02
        -0.19583E-02
        -0.19583E-02
        -0.19583E-02
        -0.19583E-02
        -0.19583E-02
        -0.19583E-02
        -0.19583E-02
        -0.19583E-02
        -0.19583E-02
        -0.19583E-02
        -0.19583E-02
        -0.19583E-02
        -0.19583E-02
        -0.19583E-02
        -0.19583E-02
        -0.19583E-02
        -0.19583E-02
        -0.19583E-02
        -0.19583E-02
        -0.19583E-02
        -0.19583E-02
        -0.19583E-02
        -0.19583E-02
        -0.19583E-02
        -0.19583E-02
        -0.19583E-02
        -0.19583E-02
        -0.19583E-02
        -0.19583E-02
        -0.19583E-02
        -0.19583E-02
        -0.19583E-02
        -0.19583E-02
        -0.19583E-02
        -0.19583E-02
        -0.19583E-02
        -0.19583E-02
        -0.19583E-02
        -0.19583E-02
        -0.19583E-02
        -0.19583E-02
        -0.19583E-02
        -0.19583E-02
        -0.19583E-02
        -0.19583E-02
        -0.19583E-02
        -0.19583E-02
        -0.19583E-02
        -0.19583E-02
        -0.19583E-02
        -0.19583E-02
        -0.19583E-02
        -0.19583E-02
        -0.19583E-02
        -0.19583E-02
        -0.19583E-02
        -0.19583E-02
        -0.19583E-02
        -0.19583E-02
        -0.19583E-02
        -0.19583E-02
        -0.97917E-03
        -0.97917E-03
        -0.97917E-03
        -0.97917E-03
        -0.97917E-03
        -0.97917E-03
        -0.97917E-03
        -0.97917E-03
        -0.97917E-03
        -0.97917E-03
        -0.97917E-03
        -0.97917E-03
        -0.97917E-03
        -0.97917E-03
        -0.97917E-03
        -0.97917E-03
        -0.97917E-03
        -0.97917E-03
        -0.97917E-03
        -0.97917E-03
        -0.97917E-03
        -0.97917E-03
        -0.97917E-03
        -0.97917E-03
        -0.97917E-03
        -0.97917E-03
        -0.97917E-03
        -0.97917E-03
        -0.97917E-03
        -0.97917E-03
        -0.97917E-03
        -0.97917E-03
        -0.97917E-03
        -0.97917E-03
        -0.97917E-03
        -0.97917E-03
        -0.97917E-03
        -0.97917E-03
        -0.97917E-03
        -0.97917E-03
        -0.97917E-03
        -0.97917E-03
        -0.97917E-03
        -0.97917E-03
        -0.97917E-03
        -0.97917E-03
        -0.97917E-03
        -0.97917E-03
        -0.97917E-03
        -0.97917E-03
        -0.97917E-03
        -0.97917E-03
        -0.97917E-03
        -0.97917E-03
        -0.97917E-03
        -0.97917E-03
        -0.97917E-03
        -0.97917E-03
        -0.97917E-03
        -0.97917E-03
        -0.97917E-03
        -0.97917E-03
        -0.97917E-03
        -0.97917E-03
        -0.97917E-03
        -0.97917E-03
        -0.97917E-03
        -0.97917E-03
        -0.97917E-03
        -0.97917E-03
        -0.97917E-03
        -0.97917E-03
        -0.97917E-03
        -0.97917E-03
        -0.97917E-03
        -0.97917E-03
        -0.97917E-03
        -0.97917E-03
         0.38917E-18
         0.44621E-18
         0.34485E-18
         0.23671E-18
         0.26613E-18
         0.16162E-18
         0.53980E-18
         0.50579E-18
         0.36337E-18
         0.48798E-18
         0.60712E-18
         0.67611E-18
         0.60634E-18
         0.60658E-18
         0.70997E-18
         0.20892E-18
         0.35894E-18
         0.21887E-18
         0.27638E-18
         0.38382E-18
         0.29058E-18
         0.40326E-18
         0.18564E-18
         0.19650E-18
         0.48570E-18
         0.12837E-18
         0.60589E-18
         0.60416E-18
         0.60524E-18
         0.49621E-18
         0.61582E-19
         0.32255E-19
         0.73874E-19
         0.78478E-19
         0.34514E-18
         0.42054E-18
         0.51644E-18
         0.72521E-18
         0.72233E-18
         0.70722E-18
         0.69126E-18
         0.61573E-18
         0.51484E-18
         0.91170E-19
         0.30347E-20
        -0.66516E-19
        -0.69988E-19
        -0.68643E-19
        -0.59779E-19
        -0.43507E-19
        -0.29471E-19
         0.53205E-19
         0.86819E-18
         0.00000E+00
         0.86819E-18
         0.86819E-18
         0.00000E+00
         0.00000E+00
         0.00000E+00
         0.17364E-17
         0.17364E-17
         0.17364E-17
         0.43410E-18
         0.43410E-18
         0.43410E-18
         0.00000E+00
         0.00000E+00
         0.00000E+00
         0.00000E+00
         0.00000E+00
         0.21705E-18
        -0.21705E-18
         0.00000E+00
         0.00000E+00
         0.00000E+00
        -0.32557E-18
         0.54262E-19
        -0.40697E-18
         0.97917E-03
         0.97917E-03
         0.97917E-03
         0.97917E-03
         0.97917E-03
         0.97917E-03
         0.97917E-03
         0.97917E-03
         0.97917E-03
         0.97917E-03
         0.97917E-03
         0.97917E-03
         0.97917E-03
         0.97917E-03
         0.97917E-03
         0.97917E-03
         0.97917E-03
         0.97917E-03
         0.97917E-03
         0.97917E-03
         0.97917E-03
         0.97917E-03
         0.97917E-03
         0.97917E-03
         0.97917E-03
         0.97917E-03
         0.97917E-03
         0.97917E-03
         0.97917E-03
         0.97917E-03
         0.97917E-03
         0.97917E-03
         0.97917E-03
         0.97917E-03
         0.97917E-03
         0.97917E-03
         0.97917E-03
         0.97917E-03
         0.97917E-03
         0.97917E-03
         0.97917E-03
         0.97917E-03
         0.97917E-03
         0.97917E-03
         0.97917E-03
         0.97917E-03
         0.97917E-03
         0.97917E-03
         0.97917E-03
         0.97917E-03
         0.97917E-03
         0.97917E-03
         0.97917E-03
         0.97917E-03
         0.97917E-03
         0.97917E-03
         0.97917E-03
         0.97917E-03
         0.97917E-03
         0.97917E-03
         0.97917E-03
         0.97917E-03
         0.97917E-03
         0.97917E-03
         0.97917E-03
         0.97917E-03
         0.97917E-03
         0.97917E-03
         0.97917E-03
         0.97917E-03
         0.97917E-03
         0.97917E-03
         0.97917E-03
         0.97917E-03
         0.97917E-03
         0.97917E-03
         0.97917E-03
         0.97917E-03
         0.19583E-02
         0.19583E-02
         0.19583E-02
         0.19583E-02
         0.19583E-02
         0.19583E-02
         0.19583E-02
         0.19583E-02
         0.19583E-02
         0.19583E-02
         0.19583E-02
         0.19583E-02
         0.19583E-02
         0.19583E-02
         0.19583E-02
         0.19583E-02
         0.19583E-02
         0.19583E-02
         0.19583E-02
         0.19583E-02
         0.19583E-02
         0.19583E-02
         0.19583E-02
         0.19583E-02
         0.19583E-02
         0.19583E-02
         0.19583E-02
         0.19583E-02
         0.19583E-02
         0.19583E-02
         0.19583E-02
         0.19583E-02
         0.19583E-02
         0.19583E-02
         0.19583E-02
         0.19583E-02
         0.19583E-02
         0.19583E-02
         0.19583E-02
         0.19583E-02
         0.19583E-02
         0.19583E-02
         0.19583E-02
         0.19583E-02
         0.19583E-02
         0.19583E-02
         0.19583E-02
         0.19583E-02
         0.19583E-02
         0.19583E-02
         0.19583E-02
         0.19583E-02
         0.19583E-02
         0.19583E-02
         0.19583E-02
         0.19583E-02
         0.19583E-02
         0.19583E-02
         0.19583E-02
         0.19583E-02
         0.19583E-02
         0.19583E-02
         0.19583E-02
         0.19583E-02
         0.19583E-02
         0.19583E-02
         0.19583E-02
         0.19583E-02
         0.19583E-02
         0.19583E-02
         0.19583E-02
         0.19583E-02
         0.19583E-02
         0.19583E-02
         0.19583E-02
         0.19583E-02
         0.19583E-02
         0.19583E-02
         0.29375E-02
         0.29375E-02
         0.29375E-02
         0.29375E-02
         0.29375E-02
         0.29375E-02
         0.29375E-02
         0.29375E-02
         0.29375E-02
         0.29375E-02
         0.29375E-02
         0.29375E-02
         0.29375E-02
         0.29375E-02
         0.29375E-02
         0.29375E-02
         0.29375E-02
         0.29375E-02
         0.29375E-02
         0.29375E-02
         0.29375E-02
         0.29375E-02
         0.29375E-02
         0.29375E-02
         0.29375E-02
         0.29375E-02
         0.29375E-02
         0.29375E-02
         0.29375E-02
         0.29375E-02
         0.29375E-02
         0.29375E-02
         0.29375E-02
         0.29375E-02
         0.29375E-02
         0.29375E-02
         0.29375E-02
         0.29375E-02
         0.29375E-02
         0.29375E-02
         0.29375E-02
         0.29375E-02
         0.29375E-02
         0.29375E-02
         0.29375E-02
         0.29375E-02
         0.29375E-02
         0.29375E-02
         0.29375E-02
         0.29375E-02
         0.29375E-02
         0.29375E-02
         0.29375E-02
         0.29375E-02
         0.29375E-02
         0.29375E-02
         0.29375E-02
         0.29375E-02
         0.29375E-02
         0.29375E-02
         0.29375E-02
         0.29375E-02
         0.29375E-02
         0.29375E-02
         0.29375E-02
         0.29375E-02
         0.29375E-02
         0.29375E-02
         0.29375E-02
         0.29375E-02
         0.29375E-02
         0.29375E-02
         0.29375E-02
         0.29375E-02
         0.29375E-02
         0.29375E-02
         0.29375E-02
         0.29375E-02
         0.39167E-02
         0.39167E-02
         0.39167E-02
         0.39167E-02
         0.39167E-02
         0.39167E-02
         0.39167E-02
         0.39167E-02
         0.39167E-02
         0.39167E-02
         0.39167E-02
         0.39167E-02
         0.39167E-02
         0.39167E-02
         0.39167E-02
         0.39167E-02
         0.39167E-02
         0.39167E-02
         0.39167E-02
         0.39167E-02
         0.39167E-02
         0.39167E-02
         0.39167E-02
         0.39167E-02
         0.39167E-02
         0.39167E-02
         0.39167E-02
         0.39167E-02
         0.39167E-02
         0.39167E-02
         0.39167E-02
         0.39167E-02
         0.39167E-02
         0.39167E-02
         0.39167E-02
         0.39167E-02
         0.39167E-02
         0.39167E-02
         0.39167E-02
         0.39167E-02
         0.39167E-02
         0.39167E-02
         0.39167E-02
         0.39167E-02
         0.39167E-02
         0.39167E-02
         0.39167E-02
         0.39167E-02
         0.39167E-02
         0.39167E-02
         0.39167E-02
         0.39167E-02
         0.39167E-02
         0.39167E-02
         0.39167E-02
         0.39167E-02
         0.39167E-02
         0.39167E-02
         0.39167E-02
         0.39167E-02
         0.39167E-02
         0.39167E-02
         0.39167E-02
         0.39167E-02
         0.39167E-02
         0.39167E-02
         0.39167E-02
         0.39167E-02
         0.39167E-02
         0.39167E-02
         0.39167E-02
         0.39167E-02
         0.39167E-02
         0.39167E-02
         0.39167E-02
         0.39167E-02
         0.39167E-02
         0.39167E-02
         0.48958E-02
         0.48958E-02
         0.48958E-02
         0.48958E-02
         0.48958E-02
         0.48958E-02
         0.48958E-02
         0.48958E-02
         0.48958E-02
         0.48958E-02
         0.48958E-02
         0.48958E-02
         0.48958E-02
         0.48958E-02
         0.48958E-02
         0.48958E-02
         0.48958E-02
         0.48958E-02
         0.48958E-02
         0.48958E-02
         0.48958E-02
         0.48958E-02
         0.48958E-02
         0.48958E-02
         0.48958E-02
         0.48958E-02
         0.48958E-02
         0.48958E-02
         0.48958E-02
         0.48958E-02
         0.48958E-02
         0.48958E-02
         0.48958E-02
         0.48958E-02
         0.48958E-02
         0.48958E-02
         0.48958E-02
         0.48958E-02
         0.48958E-02
         0.48958E-02
         0.48958E-02
         0.48958E-02
         0.48958E-02
         0.48958E-02
         0.48958E-02
         0.48958E-02
         0.48958E-02
         0.48958E-02
         0.48958E-02
         0.48958E-02
         0.48958E-02
         0.48958E-02
         0.48958E-02
         0.48958E-02
         0.48958E-02
         0.48958E-02
         0.48958E-02
         0.48958E-02
         0.48958E-02
         0.48958E-02
         0.48958E-02
         0.48958E-02
         0.48958E-02
         0.48958E-02
         0.48958E-02
         0.48958E-02
         0.48958E-02
         0.48958E-02
         0.48958E-02
         0.48958E-02
         0.48958E-02
         0.48958E-02
         0.48958E-02
         0.48958E-02
         0.48958E-02
         0.48958E-02
         0.48958E-02
         0.48958E-02
         0.58750E-02
         0.58750E-02
         0.58750E-02
         0.58750E-02
         0.58750E-02
         0.58750E-02
         0.58750E-02
         0.58750E-02
         0.58750E-02
         0.58750E-02
         0.58750E-02
         0.58750E-02
         0.58750E-02
         0.58750E-02
         0.58750E-02
         0.58750E-02
         0.58750E-02
         0.58750E-02
         0.58750E-02
         0.58750E-02
         0.58750E-02
         0.58750E-02
         0.58750E-02
         0.58750E-02
         0.58750E-02
         0.58750E-02
         0.58750E-02
         0.58750E-02
         0.58750E-02
         0.58750E-02
         0.58750E-02
         0.58750E-02
         0.58750E-02
         0.58750E-02
         0.58750E-02
         0.58750E-02
         0.58750E-02
         0.58750E-02
         0.58750E-02
         0.58750E-02
         0.58750E-02
         0.58750E-02
         0.58750E-02
         0.58750E-02
         0.58750E-02
         0.58750E-02
         0.58750E-02
         0.58750E-02
         0.58750E-02
         0.58750E-02
         0.58750E-02
         0.58750E-02
         0.58750E-02
         0.58750E-02
         0.58750E-02
         0.58750E-02
         0.58750E-02
         0.58750E-02
         0.58750E-02
         0.58750E-02
         0.58750E-02
         0.58750E-02
         0.58750E-02
         0.58750E-02
         0.58750E-02
         0.58750E-02
         0.58750E-02
         0.58750E-02
         0.58750E-02
         0.58750E-02
         0.58750E-02
         0.58750E-02
         0.58750E-02
         0.58750E-02
         0.58750E-02
         0.58750E-02
         0.58750E-02
         0.58750E-02
         0.68542E-02
         0.68542E-02
         0.68542E-02
         0.68542E-02
         0.68542E-02
         0.68542E-02
         0.68542E-02
         0.68542E-02
         0.68542E-02
         0.68542E-02
         0.68542E-02
         0.68542E-02
         0.68542E-02
         0.68542E-02
         0.68542E-02
         0.68542E-02
         0.68542E-02
         0.68542E-02
         0.68542E-02
         0.68542E-02
         0.68542E-02
         0.68542E-02
         0.68542E-02
         0.68542E-02
         0.68542E-02
         0.68542E-02
         0.68542E-02
         0.68542E-02
         0.68542E-02
         0.68542E-02
         0.68542E-02
         0.68542E-02
         0.68542E-02
         0.68542E-02
         0.68542E-02
         0.68542E-02
         0.68542E-02
         0.68542E-02
         0.68542E-02
         0.68542E-02
         0.68542E-02
         0.68542E-02
         0.68542E-02
         0.68542E-02
         0.68542E-02
         0.68542E-02
         0.68542E-02
         0.68542E-02
         0.68542E-02
         0.68542E-02
         0.68542E-02
         0.68542E-02
         0.68542E-02
         0.68542E-02
         0.68542E-02
         0.68542E-02
         0.68542E-02
         0.68542E-02
         0.68542E-02
         0.68542E-02
         0.68542E-02
         0.68542E-02
         0.68542E-02
         0.68542E-02
         0.68542E-02
         0.68542E-02
         0.68542E-02
         0.68542E-02
         0.68542E-02
         0.68542E-02
         0.68542E-02
         0.68542E-02
         0.68542E-02
         0.68542E-02
         0.68542E-02
         0.68542E-02
         0.68542E-02
         0.68542E-02
         0.78333E-02
         0.78333E-02
         0.78333E-02
         0.78333E-02
         0.78333E-02
         0.78333E-02
         0.78333E-02
         0.78333E-02
         0.78333E-02
         0.78333E-02
         0.78333E-02
         0.78333E-02
         0.78333E-02
         0.78333E-02
         0.78333E-02
         0.78333E-02
         0.78333E-02
         0.78333E-02
         0.78333E-02
         0.78333E-02
         0.78333E-02
         0.78333E-02
         0.78333E-02
         0.78333E-02
         0.78333E-02
         0.78333E-02
         0.78333E-02
         0.78333E-02
         0.78333E-02
         0.78333E-02
         0.78333E-02
         0.78333E-02
         0.78333E-02
         0.78333E-02
         0.78333E-02
         0.78333E-02
         0.78333E-02
         0.78333E-02
         0.78333E-02
         0.78333E-02
         0.78333E-02
         0.78333E-02
         0.78333E-02
         0.78333E-02
         0.78333E-02
         0.78333E-02
         0.78333E-02
         0.78333E-02
         0.78333E-02
         0.78333E-02
         0.78333E-02
         0.78333E-02
         0.78333E-02
         0.78333E-02
         0.78333E-02
         0.78333E-02
         0.78333E-02
         0.78333E-02
         0.78333E-02
         0.78333E-02
         0.78333E-02
         0.78333E-02
         0.78333E-02
         0.78333E-02
         0.78333E-02
         0.78333E-02
         0.78333E-02
         0.78333E-02
         0.78333E-02
         0.78333E-02
         0.78333E-02
         0.78333E-02
         0.78333E-02
         0.78333E-02
         0.78333E-02
         0.78333E-02
         0.78333E-02
         0.78333E-02
         0.88125E-02
         0.88125E-02
         0.88125E-02
         0.88125E-02
         0.88125E-02
         0.88125E-02
         0.88125E-02
         0.88125E-02
         0.88125E-02
         0.88125E-02
         0.88125E-02
         0.88125E-02
         0.88125E-02
         0.88125E-02
         0.88125E-02
         0.88125E-02
         0.88125E-02
         0.88125E-02
         0.88125E-02
         0.88125E-02
         0.88125E-02
         0.88125E-02
         0.88125E-02
         0.88125E-02
         0.88125E-02
         0.88125E-02
         0.88125E-02
         0.88125E-02
         0.88125E-02
         0.88125E-02
         0.88125E-02
         0.88125E-02
         0.88125E-02
         0.88125E-02
         0.88125E-02
         0.88125E-02
         0.88125E-02
         0.88125E-02
         0.88125E-02
         0.88125E-02
         0.88125E-02
         0.88125E-02
         0.88125E-02
         0.88125E-02
         0.88125E-02
         0.88125E-02
         0.88125E-02
         0.88125E-02
         0.88125E-02
         0.88125E-02
         0.88125E-02
         0.88125E-02
         0.88125E-02
         0.88125E-02
         0.88125E-02
         0.88125E-02
         0.88125E-02
         0.88125E-02
         0.88125E-02
         0.88125E-02
         0.88125E-02
         0.88125E-02
         0.88125E-02
         0.88125E-02
         0.88125E-02
         0.88125E-02
         0.88125E-02
         0.88125E-02
         0.88125E-02
         0.88125E-02
         0.88125E-02
         0.88125E-02
         0.88125E-02
         0.88125E-02
         0.88125E-02
         0.88125E-02
         0.88125E-02
         0.88125E-02
         0.97917E-02
         0.97917E-02
         0.97917E-02
         0.97917E-02
         0.97917E-02
         0.97917E-02
         0.97917E-02
         0.97917E-02
         0.97917E-02
         0.97917E-02
         0.97917E-02
         0.97917E-02
         0.97917E-02
         0.97917E-02
         0.97917E-02
         0.97917E-02
         0.97917E-02
         0.97917E-02
         0.97917E-02
         0.97917E-02
         0.97917E-02
         0.97917E-02
         0.97917E-02
         0.97917E-02
         0.97917E-02
         0.97917E-02
         0.97917E-02
         0.97917E-02
         0.97917E-02
         0.97917E-02
         0.97917E-02
         0.97917E-02
         0.97917E-02
         0.97917E-02
         0.97917E-02
         0.97917E-02
         0.97917E-02
         0.97917E-02
         0.97917E-02
         0.97917E-02
         0.97917E-02
         0.97917E-02
         0.97917E-02
         0.97917E-02
         0.97917E-02
         0.97917E-02
         0.97917E-02
         0.97917E-02
         0.97917E-02
         0.97917E-02
         0.97917E-02
         0.97917E-02
         0.97917E-02
         0.97917E-02
         0.97917E-02
         0.97917E-02
         0.97917E-02
         0.97917E-02
         0.97917E-02
         0.97917E-02
         0.97917E-02
         0.97917E-02
         0.97917E-02
         0.97917E-02
         0.97917E-02
         0.97917E-02
         0.97917E-02
         0.97917E-02
         0.97917E-02
         0.97917E-02
         0.97917E-02
         0.97917E-02
         0.97917E-02
         0.97917E-02
         0.97917E-02
         0.97917E-02
         0.97917E-02
         0.97917E-02
         0.10771E-01
         0.10771E-01
         0.10771E-01
         0.10771E-01
         0.10771E-01
         0.10771E-01
         0.10771E-01
         0.10771E-01
         0.10771E-01
         0.10771E-01
         0.10771E-01
         0.10771E-01
         0.10771E-01
         0.10771E-01
         0.10771E-01
         0.10771E-01
         0.10771E-01
         0.10771E-01
         0.10771E-01
         0.10771E-01
         0.10771E-01
         0.10771E-01
         0.10771E-01
         0.10771E-01
         0.10771E-01
         0.10771E-01
         0.10771E-01
         0.10771E-01
         0.10771E-01
         0.10771E-01
         0.10771E-01
         0.10771E-01
         0.10771E-01
         0.10771E-01
         0.10771E-01
         0.10771E-01
         0.10771E-01
         0.10771E-01
         0.10771E-01
         0.10771E-01
         0.10771E-01
         0.10771E-01
         0.10771E-01
         0.10771E-01
         0.10771E-01
         0.10771E-01
         0.10771E-01
         0.10771E-01
         0.10771E-01
         0.10771E-01
         0.10771E-01
         0.10771E-01
         0.10771E-01
         0.10771E-01
         0.10771E-01
         0.10771E-01
         0.10771E-01
         0.10771E-01
         0.10771E-01
         0.10771E-01
         0.10771E-01
         0.10771E-01
         0.10771E-01
         0.10771E-01
         0.10771E-01
         0.10771E-01
         0.10771E-01
         0.10771E-01
         0.10771E-01
         0.10771E-01
         0.10771E-01
         0.10771E-01
         0.10771E-01
         0.10771E-01
         0.10771E-01
         0.10771E-01
         0.10771E-01
         0.10771E-01
         0.11750E-01
         0.11750E-01
         0.11750E-01
         0.11750E-01
         0.11750E-01
         0.11750E-01
         0.11750E-01
         0.11750E-01
         0.11750E-01
         0.11750E-01
         0.11750E-01
         0.11750E-01
         0.11750E-01
         0.11750E-01
         0.11750E-01
         0.11750E-01
         0.11750E-01
         0.11750E-01
         0.11750E-01
         0.11750E-01
         0.11750E-01
         0.11750E-01
         0.11750E-01
         0.11750E-01
         0.11750E-01
         0.11750E-01
         0.11750E-01
         0.11750E-01
         0.11750E-01
         0.11750E-01
         0.11750E-01
         0.11750E-01
         0.11750E-01
         0.11750E-01
         0.11750E-01
         0.11750E-01
         0.11750E-01
         0.11750E-01
         0.11750E-01
         0.11750E-01
         0.11750E-01
         0.11750E-01
         0.11750E-01
         0.11750E-01
         0.11750E-01
         0.11750E-01
         0.11750E-01
         0.11750E-01
         0.11750E-01
         0.11750E-01
         0.11750E-01
         0.11750E-01
         0.11750E-01
         0.11750E-01
         0.11750E-01
         0.11750E-01
         0.11750E-01
         0.11750E-01
         0.11750E-01
         0.11750E-01
         0.11750E-01
         0.11750E-01
         0.11750E-01
         0.11750E-01
         0.11750E-01
         0.11750E-01
         0.11750E-01
         0.11750E-01
         0.11750E-01
         0.11750E-01
         0.11750E-01
         0.11750E-01
         0.11750E-01
         0.11750E-01
         0.11750E-01
         0.11750E-01
         0.11750E-01
         0.11750E-01
  
SCALARS                init_velocity_x  double 1
LOOKUP_TABLE default
         0.00000E+00
         0.00000E+00
         0.00000E+00
         0.00000E+00
         0.00000E+00
         0.00000E+00
         0.00000E+00
         0.00000E+00
         0.00000E+00
         0.00000E+00
         0.00000E+00
         0.00000E+00
         0.00000E+00
         0.00000E+00
         0.00000E+00
         0.00000E+00
         0.00000E+00
         0.00000E+00
         0.00000E+00
         0.00000E+00
         0.00000E+00
         0.00000E+00
         0.00000E+00
         0.00000E+00
         0.00000E+00
         0.00000E+00
         0.00000E+00
         0.00000E+00
         0.00000E+00
         0.00000E+00
         0.00000E+00
         0.00000E+00
         0.00000E+00
         0.00000E+00
         0.00000E+00
         0.00000E+00
         0.00000E+00
         0.00000E+00
         0.00000E+00
         0.00000E+00
         0.00000E+00
         0.00000E+00
         0.00000E+00
         0.00000E+00
         0.00000E+00
         0.00000E+00
         0.00000E+00
         0.00000E+00
         0.00000E+00
         0.00000E+00
         0.00000E+00
         0.00000E+00
         0.00000E+00
         0.00000E+00
         0.00000E+00
         0.00000E+00
         0.00000E+00
         0.00000E+00
         0.00000E+00
         0.00000E+00
         0.00000E+00
         0.00000E+00
         0.00000E+00
         0.00000E+00
         0.00000E+00
         0.00000E+00
         0.00000E+00
         0.00000E+00
         0.00000E+00
         0.00000E+00
         0.00000E+00
         0.00000E+00
         0.00000E+00
         0.00000E+00
         0.00000E+00
         0.00000E+00
         0.00000E+00
         0.00000E+00
         0.00000E+00
         0.00000E+00
         0.00000E+00
         0.00000E+00
         0.00000E+00
         0.00000E+00
         0.00000E+00
         0.00000E+00
         0.00000E+00
         0.00000E+00
         0.00000E+00
         0.00000E+00
         0.00000E+00
         0.00000E+00
         0.00000E+00
         0.00000E+00
         0.00000E+00
         0.00000E+00
         0.00000E+00
         0.00000E+00
         0.00000E+00
         0.00000E+00
         0.00000E+00
         0.00000E+00
         0.00000E+00
         0.00000E+00
         0.00000E+00
         0.00000E+00
         0.00000E+00
         0.00000E+00
         0.00000E+00
         0.00000E+00
         0.00000E+00
         0.00000E+00
         0.00000E+00
         0.00000E+00
         0.00000E+00
         0.00000E+00
         0.00000E+00
         0.00000E+00
         0.00000E+00
         0.00000E+00
         0.00000E+00
         0.00000E+00
         0.00000E+00
         0.00000E+00
         0.00000E+00
         0.00000E+00
         0.00000E+00
         0.00000E+00
         0.00000E+00
         0.00000E+00
         0.00000E+00
         0.00000E+00
         0.00000E+00
         0.00000E+00
         0.00000E+00
         0.00000E+00
         0.00000E+00
         0.00000E+00
         0.00000E+00
         0.00000E+00
         0.00000E+00
         0.00000E+00
         0.00000E+00
         0.00000E+00
         0.00000E+00
         0.00000E+00
         0.00000E+00
         0.00000E+00
         0.00000E+00
         0.00000E+00
         0.00000E+00
         0.00000E+00
         0.00000E+00
         0.00000E+00
         0.00000E+00
         0.00000E+00
         0.00000E+00
         0.00000E+00
         0.00000E+00
         0.00000E+00
         0.00000E+00
         0.00000E+00
         0.00000E+00
         0.00000E+00
         0.00000E+00
         0.00000E+00
         0.00000E+00
         0.00000E+00
         0.00000E+00
         0.00000E+00
         0.00000E+00
         0.00000E+00
         0.00000E+00
         0.00000E+00
         0.00000E+00
         0.00000E+00
         0.00000E+00
         0.00000E+00
         0.00000E+00
         0.00000E+00
         0.00000E+00
         0.00000E+00
         0.00000E+00
         0.00000E+00
         0.00000E+00
         0.00000E+00
         0.00000E+00
         0.00000E+00
         0.00000E+00
         0.00000E+00
         0.00000E+00
         0.00000E+00
         0.00000E+00
         0.00000E+00
         0.00000E+00
         0.00000E+00
         0.00000E+00
         0.00000E+00
         0.00000E+00
         0.00000E+00
         0.00000E+00
         0.00000E+00
         0.00000E+00
         0.00000E+00
         0.00000E+00
         0.00000E+00
         0.00000E+00
         0.00000E+00
         0.00000E+00
         0.00000E+00
         0.00000E+00
         0.00000E+00
         0.00000E+00
         0.00000E+00
         0.00000E+00
         0.00000E+00
         0.00000E+00
         0.00000E+00
         0.00000E+00
         0.00000E+00
         0.00000E+00
         0.00000E+00
         0.00000E+00
         0.00000E+00
         0.00000E+00
         0.00000E+00
         0.00000E+00
         0.00000E+00
         0.00000E+00
         0.00000E+00
         0.00000E+00
         0.00000E+00
         0.00000E+00
         0.00000E+00
         0.00000E+00
         0.00000E+00
         0.00000E+00
         0.00000E+00
         0.00000E+00
         0.00000E+00
         0.00000E+00
         0.00000E+00
         0.00000E+00
         0.00000E+00
         0.00000E+00
         0.00000E+00
         0.00000E+00
         0.00000E+00
         0.00000E+00
         0.00000E+00
         0.00000E+00
         0.00000E+00
         0.00000E+00
         0.00000E+00
         0.00000E+00
         0.00000E+00
         0.00000E+00
         0.00000E+00
         0.00000E+00
         0.00000E+00
         0.00000E+00
         0.00000E+00
         0.00000E+00
         0.00000E+00
         0.00000E+00
         0.00000E+00
         0.00000E+00
         0.00000E+00
         0.00000E+00
         0.00000E+00
         0.00000E+00
         0.00000E+00
         0.00000E+00
         0.00000E+00
         0.00000E+00
         0.00000E+00
         0.00000E+00
         0.00000E+00
         0.00000E+00
         0.00000E+00
         0.00000E+00
         0.00000E+00
         0.00000E+00
         0.00000E+00
         0.00000E+00
         0.00000E+00
         0.00000E+00
         0.00000E+00
         0.00000E+00
         0.00000E+00
         0.00000E+00
         0.00000E+00
         0.00000E+00
         0.00000E+00
         0.00000E+00
         0.00000E+00
         0.00000E+00
         0.00000E+00
         0.00000E+00
         0.00000E+00
         0.00000E+00
         0.00000E+00
         0.00000E+00
         0.00000E+00
         0.00000E+00
         0.00000E+00
         0.00000E+00
         0.00000E+00
         0.00000E+00
         0.00000E+00
         0.00000E+00
         0.00000E+00
         0.00000E+00
         0.00000E+00
         0.00000E+00
         0.00000E+00
         0.00000E+00
         0.00000E+00
         0.00000E+00
         0.00000E+00
         0.00000E+00
         0.00000E+00
         0.00000E+00
         0.00000E+00
         0.00000E+00
         0.00000E+00
         0.00000E+00
         0.00000E+00
         0.00000E+00
         0.00000E+00
         0.00000E+00
         0.00000E+00
         0.00000E+00
         0.00000E+00
         0.00000E+00
         0.00000E+00
         0.00000E+00
         0.00000E+00
         0.00000E+00
         0.00000E+00
         0.00000E+00
         0.00000E+00
         0.00000E+00
         0.00000E+00
         0.00000E+00
         0.00000E+00
         0.00000E+00
         0.00000E+00
         0.00000E+00
         0.00000E+00
         0.00000E+00
         0.00000E+00
         0.00000E+00
         0.00000E+00
         0.00000E+00
         0.00000E+00
         0.00000E+00
         0.00000E+00
         0.00000E+00
         0.00000E+00
         0.00000E+00
         0.00000E+00
         0.00000E+00
         0.00000E+00
         0.00000E+00
         0.00000E+00
         0.00000E+00
         0.00000E+00
         0.00000E+00
         0.00000E+00
         0.00000E+00
         0.00000E+00
         0.00000E+00
         0.00000E+00
         0.00000E+00
         0.00000E+00
         0.00000E+00
         0.00000E+00
         0.00000E+00
         0.00000E+00
         0.00000E+00
         0.00000E+00
         0.00000E+00
         0.00000E+00
         0.00000E+00
         0.00000E+00
         0.00000E+00
         0.00000E+00
         0.00000E+00
         0.00000E+00
         0.00000E+00
         0.00000E+00
         0.00000E+00
         0.00000E+00
         0.00000E+00
         0.00000E+00
         0.00000E+00
         0.00000E+00
         0.00000E+00
         0.00000E+00
         0.00000E+00
         0.00000E+00
         0.00000E+00
         0.00000E+00
         0.00000E+00
         0.00000E+00
         0.00000E+00
         0.00000E+00
         0.00000E+00
         0.00000E+00
         0.00000E+00
         0.00000E+00
         0.00000E+00
         0.00000E+00
         0.00000E+00
         0.00000E+00
         0.00000E+00
         0.00000E+00
         0.00000E+00
         0.00000E+00
         0.00000E+00
         0.00000E+00
         0.00000E+00
         0.00000E+00
         0.00000E+00
         0.00000E+00
         0.00000E+00
         0.00000E+00
         0.00000E+00
         0.00000E+00
         0.00000E+00
         0.00000E+00
         0.00000E+00
         0.00000E+00
         0.00000E+00
         0.00000E+00
         0.00000E+00
         0.00000E+00
         0.00000E+00
         0.00000E+00
         0.00000E+00
         0.00000E+00
         0.00000E+00
         0.00000E+00
         0.00000E+00
         0.00000E+00
         0.00000E+00
         0.00000E+00
         0.00000E+00
         0.00000E+00
         0.00000E+00
         0.00000E+00
         0.00000E+00
         0.00000E+00
         0.00000E+00
         0.00000E+00
         0.00000E+00
         0.00000E+00
         0.00000E+00
         0.00000E+00
         0.00000E+00
         0.00000E+00
         0.00000E+00
         0.00000E+00
         0.00000E+00
         0.00000E+00
         0.00000E+00
         0.00000E+00
         0.00000E+00
         0.00000E+00
         0.00000E+00
         0.00000E+00
         0.00000E+00
         0.00000E+00
         0.00000E+00
         0.00000E+00
         0.00000E+00
         0.00000E+00
         0.00000E+00
         0.00000E+00
         0.00000E+00
         0.00000E+00
         0.00000E+00
         0.00000E+00
         0.00000E+00
         0.00000E+00
         0.00000E+00
         0.00000E+00
         0.00000E+00
         0.00000E+00
         0.00000E+00
         0.00000E+00
         0.00000E+00
         0.00000E+00
         0.00000E+00
         0.00000E+00
         0.00000E+00
         0.00000E+00
         0.00000E+00
         0.00000E+00
         0.00000E+00
         0.00000E+00
         0.00000E+00
         0.00000E+00
         0.00000E+00
         0.00000E+00
         0.00000E+00
         0.00000E+00
         0.00000E+00
         0.00000E+00
         0.00000E+00
         0.00000E+00
         0.00000E+00
         0.00000E+00
         0.00000E+00
         0.00000E+00
         0.00000E+00
         0.00000E+00
         0.00000E+00
         0.00000E+00
         0.00000E+00
         0.00000E+00
         0.00000E+00
         0.00000E+00
         0.00000E+00
         0.00000E+00
         0.00000E+00
         0.00000E+00
         0.00000E+00
         0.00000E+00
         0.00000E+00
         0.00000E+00
         0.00000E+00
         0.00000E+00
         0.00000E+00
         0.00000E+00
         0.00000E+00
         0.00000E+00
         0.00000E+00
         0.00000E+00
         0.00000E+00
         0.00000E+00
         0.00000E+00
         0.00000E+00
         0.00000E+00
         0.00000E+00
         0.00000E+00
         0.00000E+00
         0.00000E+00
         0.00000E+00
         0.00000E+00
         0.00000E+00
         0.00000E+00
         0.00000E+00
         0.00000E+00
         0.00000E+00
         0.00000E+00
         0.00000E+00
         0.00000E+00
         0.00000E+00
         0.00000E+00
         0.00000E+00
         0.00000E+00
         0.00000E+00
         0.00000E+00
         0.00000E+00
         0.00000E+00
         0.00000E+00
         0.00000E+00
         0.00000E+00
         0.00000E+00
         0.00000E+00
         0.00000E+00
         0.00000E+00
         0.00000E+00
         0.00000E+00
         0.00000E+00
         0.00000E+00
         0.00000E+00
         0.00000E+00
         0.00000E+00
         0.00000E+00
         0.00000E+00
         0.00000E+00
         0.00000E+00
         0.00000E+00
         0.00000E+00
         0.00000E+00
         0.00000E+00
         0.00000E+00
         0.00000E+00
         0.00000E+00
         0.00000E+00
         0.00000E+00
         0.00000E+00
         0.00000E+00
         0.00000E+00
         0.00000E+00
         0.00000E+00
         0.00000E+00
         0.00000E+00
         0.00000E+00
         0.00000E+00
         0.00000E+00
         0.00000E+00
         0.00000E+00
         0.00000E+00
         0.00000E+00
         0.00000E+00
         0.00000E+00
         0.00000E+00
         0.00000E+00
         0.00000E+00
         0.00000E+00
         0.00000E+00
         0.00000E+00
         0.00000E+00
         0.00000E+00
         0.00000E+00
         0.00000E+00
         0.00000E+00
         0.00000E+00
         0.00000E+00
         0.00000E+00
         0.00000E+00
         0.00000E+00
         0.00000E+00
         0.00000E+00
         0.00000E+00
         0.00000E+00
         0.00000E+00
         0.00000E+00
         0.00000E+00
         0.00000E+00
         0.00000E+00
         0.00000E+00
         0.00000E+00
         0.00000E+00
         0.00000E+00
         0.00000E+00
         0.00000E+00
         0.00000E+00
         0.00000E+00
         0.00000E+00
         0.00000E+00
         0.00000E+00
         0.00000E+00
         0.00000E+00
         0.00000E+00
         0.00000E+00
         0.00000E+00
         0.00000E+00
         0.00000E+00
         0.00000E+00
         0.00000E+00
         0.00000E+00
         0.00000E+00
         0.00000E+00
         0.00000E+00
         0.00000E+00
         0.00000E+00
         0.00000E+00
         0.00000E+00
         0.00000E+00
         0.00000E+00
         0.00000E+00
         0.00000E+00
         0.00000E+00
         0.00000E+00
         0.00000E+00
         0.00000E+00
         0.00000E+00
         0.00000E+00
         0.00000E+00
         0.00000E+00
         0.00000E+00
         0.00000E+00
         0.00000E+00
         0.00000E+00
         0.00000E+00
         0.00000E+00
         0.00000E+00
         0.00000E+00
         0.00000E+00
         0.00000E+00
         0.00000E+00
         0.00000E+00
         0.00000E+00
         0.00000E+00
         0.00000E+00
         0.00000E+00
         0.00000E+00
         0.00000E+00
         0.00000E+00
         0.00000E+00
         0.00000E+00
         0.00000E+00
         0.00000E+00
         0.00000E+00
         0.00000E+00
         0.00000E+00
         0.00000E+00
         0.00000E+00
         0.00000E+00
         0.00000E+00
         0.00000E+00
         0.00000E+00
         0.00000E+00
         0.00000E+00
         0.00000E+00
         0.00000E+00
         0.00000E+00
         0.00000E+00
         0.00000E+00
         0.00000E+00
         0.00000E+00
         0.00000E+00
         0.00000E+00
         0.00000E+00
         0.00000E+00
         0.00000E+00
         0.00000E+00
         0.00000E+00
         0.00000E+00
         0.00000E+00
         0.00000E+00
         0.00000E+00
         0.00000E+00
         0.00000E+00
         0.00000E+00
         0.00000E+00
         0.00000E+00
         0.00000E+00
         0.00000E+00
         0.00000E+00
         0.00000E+00
         0.00000E+00
         0.00000E+00
         0.00000E+00
         0.00000E+00
         0.00000E+00
         0.00000E+00
         0.00000E+00
         0.00000E+00
         0.00000E+00
         0.00000E+00
         0.00000E+00
         0.00000E+00
         0.00000E+00
         0.00000E+00
         0.00000E+00
         0.00000E+00
         0.00000E+00
         0.00000E+00
         0.00000E+00
         0.00000E+00
         0.00000E+00
         0.00000E+00
         0.00000E+00
         0.00000E+00
         0.00000E+00
         0.00000E+00
         0.00000E+00
         0.00000E+00
         0.00000E+00
         0.00000E+00
         0.00000E+00
         0.00000E+00
         0.00000E+00
         0.00000E+00
         0.00000E+00
         0.00000E+00
         0.00000E+00
         0.00000E+00
         0.00000E+00
         0.00000E+00
         0.00000E+00
         0.00000E+00
         0.00000E+00
         0.00000E+00
         0.00000E+00
         0.00000E+00
         0.00000E+00
         0.00000E+00
         0.00000E+00
         0.00000E+00
         0.00000E+00
         0.00000E+00
         0.00000E+00
         0.00000E+00
         0.00000E+00
         0.00000E+00
         0.00000E+00
         0.00000E+00
         0.00000E+00
         0.00000E+00
         0.00000E+00
         0.00000E+00
         0.00000E+00
         0.00000E+00
         0.00000E+00
         0.00000E+00
         0.00000E+00
         0.00000E+00
         0.00000E+00
         0.00000E+00
         0.00000E+00
         0.00000E+00
         0.00000E+00
         0.00000E+00
         0.00000E+00
         0.00000E+00
         0.00000E+00
         0.00000E+00
         0.00000E+00
         0.00000E+00
         0.00000E+00
         0.00000E+00
         0.00000E+00
         0.00000E+00
         0.00000E+00
         0.00000E+00
         0.00000E+00
         0.00000E+00
         0.00000E+00
         0.00000E+00
         0.00000E+00
         0.00000E+00
         0.00000E+00
         0.00000E+00
         0.00000E+00
         0.00000E+00
         0.00000E+00
         0.00000E+00
         0.00000E+00
         0.00000E+00
         0.00000E+00
         0.00000E+00
         0.00000E+00
         0.00000E+00
         0.00000E+00
         0.00000E+00
         0.00000E+00
         0.00000E+00
         0.00000E+00
         0.00000E+00
         0.00000E+00
         0.00000E+00
         0.00000E+00
         0.00000E+00
         0.00000E+00
         0.00000E+00
         0.00000E+00
         0.00000E+00
         0.00000E+00
         0.00000E+00
         0.00000E+00
         0.00000E+00
         0.00000E+00
         0.00000E+00
         0.00000E+00
         0.00000E+00
         0.00000E+00
         0.00000E+00
         0.00000E+00
         0.00000E+00
         0.00000E+00
         0.00000E+00
         0.00000E+00
         0.00000E+00
         0.00000E+00
         0.00000E+00
         0.00000E+00
         0.00000E+00
         0.00000E+00
         0.00000E+00
         0.00000E+00
         0.00000E+00
         0.00000E+00
         0.00000E+00
         0.00000E+00
         0.00000E+00
         0.00000E+00
         0.00000E+00
         0.00000E+00
         0.00000E+00
         0.00000E+00
         0.00000E+00
         0.00000E+00
         0.00000E+00
         0.00000E+00
         0.00000E+00
         0.00000E+00
         0.00000E+00
         0.00000E+00
         0.00000E+00
         0.00000E+00
         0.00000E+00
         0.00000E+00
         0.00000E+00
         0.00000E+00
         0.00000E+00
         0.00000E+00
         0.00000E+00
         0.00000E+00
         0.00000E+00
         0.00000E+00
         0.00000E+00
         0.00000E+00
         0.00000E+00
         0.00000E+00
         0.00000E+00
         0.00000E+00
         0.00000E+00
         0.00000E+00
         0.00000E+00
         0.00000E+00
         0.00000E+00
         0.00000E+00
         0.00000E+00
         0.00000E+00
         0.00000E+00
         0.00000E+00
         0.00000E+00
         0.00000E+00
         0.00000E+00
         0.00000E+00
         0.00000E+00
         0.00000E+00
         0.00000E+00
         0.00000E+00
         0.00000E+00
         0.00000E+00
         0.00000E+00
         0.00000E+00
         0.00000E+00
         0.00000E+00
         0.00000E+00
         0.00000E+00
         0.00000E+00
         0.00000E+00
         0.00000E+00
         0.00000E+00
         0.00000E+00
         0.00000E+00
         0.00000E+00
         0.00000E+00
         0.00000E+00
         0.00000E+00
         0.00000E+00
         0.00000E+00
         0.00000E+00
         0.00000E+00
         0.00000E+00
         0.00000E+00
         0.00000E+00
         0.00000E+00
         0.00000E+00
         0.00000E+00
         0.00000E+00
         0.00000E+00
         0.00000E+00
         0.00000E+00
         0.00000E+00
         0.00000E+00
         0.00000E+00
         0.00000E+00
         0.00000E+00
         0.00000E+00
         0.00000E+00
         0.00000E+00
         0.00000E+00
         0.00000E+00
         0.00000E+00
         0.00000E+00
         0.00000E+00
         0.00000E+00
         0.00000E+00
         0.00000E+00
         0.00000E+00
         0.00000E+00
         0.00000E+00
         0.00000E+00
         0.00000E+00
         0.00000E+00
         0.00000E+00
         0.00000E+00
         0.00000E+00
         0.00000E+00
         0.00000E+00
         0.00000E+00
         0.00000E+00
         0.00000E+00
         0.00000E+00
         0.00000E+00
         0.00000E+00
         0.00000E+00
         0.00000E+00
         0.00000E+00
         0.00000E+00
         0.00000E+00
         0.00000E+00
         0.00000E+00
         0.00000E+00
         0.00000E+00
         0.00000E+00
         0.00000E+00
         0.00000E+00
         0.00000E+00
         0.00000E+00
         0.00000E+00
         0.00000E+00
         0.00000E+00
         0.00000E+00
         0.00000E+00
         0.00000E+00
         0.00000E+00
         0.00000E+00
         0.00000E+00
         0.00000E+00
         0.00000E+00
         0.00000E+00
         0.00000E+00
         0.00000E+00
         0.00000E+00
         0.00000E+00
         0.00000E+00
         0.00000E+00
         0.00000E+00
         0.00000E+00
         0.00000E+00
         0.00000E+00
         0.00000E+00
         0.00000E+00
         0.00000E+00
         0.00000E+00
         0.00000E+00
         0.00000E+00
         0.00000E+00
         0.00000E+00
         0.00000E+00
         0.00000E+00
         0.00000E+00
         0.00000E+00
         0.00000E+00
         0.00000E+00
         0.00000E+00
         0.00000E+00
         0.00000E+00
         0.00000E+00
         0.00000E+00
         0.00000E+00
         0.00000E+00
         0.00000E+00
         0.00000E+00
         0.00000E+00
         0.00000E+00
         0.00000E+00
         0.00000E+00
         0.00000E+00
         0.00000E+00
         0.00000E+00
         0.00000E+00
         0.00000E+00
         0.00000E+00
         0.00000E+00
         0.00000E+00
         0.00000E+00
         0.00000E+00
         0.00000E+00
         0.00000E+00
         0.00000E+00
         0.00000E+00
         0.00000E+00
         0.00000E+00
         0.00000E+00
         0.00000E+00
         0.00000E+00
         0.00000E+00
         0.00000E+00
         0.00000E+00
         0.00000E+00
         0.00000E+00
         0.00000E+00
         0.00000E+00
         0.00000E+00
         0.00000E+00
         0.00000E+00
         0.00000E+00
         0.00000E+00
         0.00000E+00
         0.00000E+00
         0.00000E+00
         0.00000E+00
         0.00000E+00
         0.00000E+00
         0.00000E+00
         0.00000E+00
         0.00000E+00
         0.00000E+00
         0.00000E+00
         0.00000E+00
         0.00000E+00
         0.00000E+00
         0.00000E+00
         0.00000E+00
         0.00000E+00
         0.00000E+00
         0.00000E+00
         0.00000E+00
         0.00000E+00
         0.00000E+00
         0.00000E+00
         0.00000E+00
         0.00000E+00
         0.00000E+00
         0.00000E+00
         0.00000E+00
         0.00000E+00
         0.00000E+00
         0.00000E+00
         0.00000E+00
         0.00000E+00
         0.00000E+00
         0.00000E+00
         0.00000E+00
         0.00000E+00
         0.00000E+00
         0.00000E+00
         0.00000E+00
         0.00000E+00
         0.00000E+00
         0.00000E+00
         0.00000E+00
         0.00000E+00
         0.00000E+00
         0.00000E+00
         0.00000E+00
         0.00000E+00
         0.00000E+00
         0.00000E+00
         0.00000E+00
         0.00000E+00
         0.00000E+00
         0.00000E+00
         0.00000E+00
         0.00000E+00
         0.00000E+00
         0.00000E+00
         0.00000E+00
         0.00000E+00
         0.00000E+00
         0.00000E+00
         0.00000E+00
         0.00000E+00
         0.00000E+00
         0.00000E+00
         0.00000E+00
         0.00000E+00
         0.00000E+00
         0.00000E+00
         0.00000E+00
         0.00000E+00
         0.00000E+00
         0.00000E+00
         0.00000E+00
         0.00000E+00
         0.00000E+00
         0.00000E+00
         0.00000E+00
         0.00000E+00
         0.00000E+00
         0.00000E+00
         0.00000E+00
         0.00000E+00
         0.00000E+00
         0.00000E+00
         0.00000E+00
         0.00000E+00
         0.00000E+00
         0.00000E+00
         0.00000E+00
         0.00000E+00
         0.00000E+00
         0.00000E+00
         0.00000E+00
         0.00000E+00
         0.00000E+00
         0.00000E+00
         0.00000E+00
         0.00000E+00
         0.00000E+00
         0.00000E+00
         0.00000E+00
         0.00000E+00
         0.00000E+00
         0.00000E+00
         0.00000E+00
         0.00000E+00
         0.00000E+00
         0.00000E+00
         0.00000E+00
         0.00000E+00
         0.00000E+00
         0.00000E+00
         0.00000E+00
         0.00000E+00
         0.00000E+00
         0.00000E+00
         0.00000E+00
         0.00000E+00
         0.00000E+00
         0.00000E+00
         0.00000E+00
         0.00000E+00
         0.00000E+00
         0.00000E+00
         0.00000E+00
         0.00000E+00
         0.00000E+00
         0.00000E+00
         0.00000E+00
         0.00000E+00
         0.00000E+00
         0.00000E+00
         0.00000E+00
         0.00000E+00
         0.00000E+00
         0.00000E+00
         0.00000E+00
         0.00000E+00
         0.00000E+00
         0.00000E+00
         0.00000E+00
         0.00000E+00
         0.00000E+00
         0.00000E+00
         0.00000E+00
         0.00000E+00
         0.00000E+00
         0.00000E+00
         0.00000E+00
         0.00000E+00
         0.00000E+00
         0.00000E+00
         0.00000E+00
         0.00000E+00
         0.00000E+00
         0.00000E+00
         0.00000E+00
         0.00000E+00
         0.00000E+00
         0.00000E+00
         0.00000E+00
         0.00000E+00
         0.00000E+00
         0.00000E+00
         0.00000E+00
         0.00000E+00
         0.00000E+00
         0.00000E+00
         0.00000E+00
         0.00000E+00
         0.00000E+00
         0.00000E+00
         0.00000E+00
         0.00000E+00
         0.00000E+00
         0.00000E+00
         0.00000E+00
         0.00000E+00
         0.00000E+00
         0.00000E+00
         0.00000E+00
         0.00000E+00
         0.00000E+00
         0.00000E+00
         0.00000E+00
         0.00000E+00
         0.00000E+00
         0.00000E+00
         0.00000E+00
         0.00000E+00
         0.00000E+00
         0.00000E+00
         0.00000E+00
         0.00000E+00
         0.00000E+00
         0.00000E+00
         0.00000E+00
         0.00000E+00
         0.00000E+00
         0.00000E+00
         0.00000E+00
         0.00000E+00
         0.00000E+00
         0.00000E+00
         0.00000E+00
         0.00000E+00
         0.00000E+00
         0.00000E+00
         0.00000E+00
         0.00000E+00
         0.00000E+00
         0.00000E+00
         0.00000E+00
         0.00000E+00
         0.00000E+00
         0.00000E+00
         0.00000E+00
         0.00000E+00
         0.00000E+00
         0.00000E+00
         0.00000E+00
         0.00000E+00
         0.00000E+00
         0.00000E+00
         0.00000E+00
         0.00000E+00
         0.00000E+00
         0.00000E+00
         0.00000E+00
         0.00000E+00
         0.00000E+00
         0.00000E+00
         0.00000E+00
         0.00000E+00
         0.00000E+00
         0.00000E+00
         0.00000E+00
         0.00000E+00
         0.00000E+00
         0.00000E+00
         0.00000E+00
         0.00000E+00
         0.00000E+00
         0.00000E+00
         0.00000E+00
         0.00000E+00
         0.00000E+00
         0.00000E+00
         0.00000E+00
         0.00000E+00
         0.00000E+00
         0.00000E+00
         0.00000E+00
         0.00000E+00
         0.00000E+00
         0.00000E+00
         0.00000E+00
         0.00000E+00
         0.00000E+00
         0.00000E+00
         0.00000E+00
         0.00000E+00
         0.00000E+00
         0.00000E+00
         0.00000E+00
         0.00000E+00
         0.00000E+00
         0.00000E+00
         0.00000E+00
         0.00000E+00
         0.00000E+00
         0.00000E+00
         0.00000E+00
         0.00000E+00
         0.00000E+00
         0.00000E+00
         0.00000E+00
         0.00000E+00
         0.00000E+00
         0.00000E+00
         0.00000E+00
         0.00000E+00
         0.00000E+00
         0.00000E+00
         0.00000E+00
         0.00000E+00
         0.00000E+00
         0.00000E+00
         0.00000E+00
         0.00000E+00
         0.00000E+00
         0.00000E+00
         0.00000E+00
         0.00000E+00
         0.00000E+00
         0.00000E+00
         0.00000E+00
         0.00000E+00
         0.00000E+00
         0.00000E+00
         0.00000E+00
         0.00000E+00
         0.00000E+00
         0.00000E+00
         0.00000E+00
         0.00000E+00
         0.00000E+00
         0.00000E+00
         0.00000E+00
         0.00000E+00
         0.00000E+00
         0.00000E+00
         0.00000E+00
         0.00000E+00
         0.00000E+00
         0.00000E+00
         0.00000E+00
         0.00000E+00
         0.00000E+00
         0.00000E+00
         0.00000E+00
         0.00000E+00
         0.00000E+00
         0.00000E+00
         0.00000E+00
         0.00000E+00
         0.00000E+00
         0.00000E+00
         0.00000E+00
         0.00000E+00
         0.00000E+00
         0.00000E+00
         0.00000E+00
         0.00000E+00
         0.00000E+00
         0.00000E+00
         0.00000E+00
         0.00000E+00
         0.00000E+00
         0.00000E+00
         0.00000E+00
         0.00000E+00
         0.00000E+00
         0.00000E+00
         0.00000E+00
         0.00000E+00
         0.00000E+00
         0.00000E+00
         0.00000E+00
         0.00000E+00
         0.00000E+00
         0.00000E+00
         0.00000E+00
         0.00000E+00
         0.00000E+00
         0.00000E+00
         0.00000E+00
         0.00000E+00
         0.00000E+00
         0.00000E+00
         0.00000E+00
         0.00000E+00
         0.00000E+00
         0.00000E+00
         0.00000E+00
         0.00000E+00
         0.00000E+00
         0.00000E+00
         0.00000E+00
         0.00000E+00
         0.00000E+00
         0.00000E+00
         0.00000E+00
         0.00000E+00
         0.00000E+00
         0.00000E+00
         0.00000E+00
         0.00000E+00
         0.00000E+00
         0.00000E+00
         0.00000E+00
         0.00000E+00
         0.00000E+00
         0.00000E+00
         0.00000E+00
         0.00000E+00
         0.00000E+00
         0.00000E+00
         0.00000E+00
         0.00000E+00
         0.00000E+00
         0.00000E+00
         0.00000E+00
         0.00000E+00
         0.00000E+00
         0.00000E+00
         0.00000E+00
         0.00000E+00
         0.00000E+00
         0.00000E+00
         0.00000E+00
         0.00000E+00
         0.00000E+00
         0.00000E+00
         0.00000E+00
         0.00000E+00
         0.00000E+00
         0.00000E+00
         0.00000E+00
         0.00000E+00
         0.00000E+00
         0.00000E+00
         0.00000E+00
         0.00000E+00
         0.00000E+00
         0.00000E+00
         0.00000E+00
         0.00000E+00
         0.00000E+00
         0.00000E+00
         0.00000E+00
         0.00000E+00
         0.00000E+00
         0.00000E+00
         0.00000E+00
         0.00000E+00
         0.00000E+00
         0.00000E+00
         0.00000E+00
         0.00000E+00
         0.00000E+00
         0.00000E+00
         0.00000E+00
         0.00000E+00
         0.00000E+00
         0.00000E+00
         0.00000E+00
         0.00000E+00
         0.00000E+00
         0.00000E+00
         0.00000E+00
         0.00000E+00
         0.00000E+00
         0.00000E+00
         0.00000E+00
         0.00000E+00
         0.00000E+00
         0.00000E+00
         0.00000E+00
         0.00000E+00
         0.00000E+00
         0.00000E+00
         0.00000E+00
         0.00000E+00
         0.00000E+00
         0.00000E+00
         0.00000E+00
         0.00000E+00
         0.00000E+00
         0.00000E+00
         0.00000E+00
         0.00000E+00
         0.00000E+00
         0.00000E+00
         0.00000E+00
         0.00000E+00
         0.00000E+00
         0.00000E+00
         0.00000E+00
         0.00000E+00
         0.00000E+00
         0.00000E+00
         0.00000E+00
         0.00000E+00
         0.00000E+00
         0.00000E+00
         0.00000E+00
         0.00000E+00
         0.00000E+00
         0.00000E+00
         0.00000E+00
         0.00000E+00
         0.00000E+00
         0.00000E+00
         0.00000E+00
         0.00000E+00
         0.00000E+00
         0.00000E+00
         0.00000E+00
         0.00000E+00
         0.00000E+00
         0.00000E+00
         0.00000E+00
         0.00000E+00
         0.00000E+00
         0.00000E+00
         0.00000E+00
         0.00000E+00
         0.00000E+00
         0.00000E+00
         0.00000E+00
         0.00000E+00
         0.00000E+00
         0.00000E+00
         0.00000E+00
         0.00000E+00
         0.00000E+00
         0.00000E+00
         0.00000E+00
         0.00000E+00
         0.00000E+00
         0.00000E+00
         0.00000E+00
         0.00000E+00
         0.00000E+00
         0.00000E+00
         0.00000E+00
         0.00000E+00
         0.00000E+00
         0.00000E+00
         0.00000E+00
         0.00000E+00
         0.00000E+00
         0.00000E+00
         0.00000E+00
         0.00000E+00
         0.00000E+00
         0.00000E+00
         0.00000E+00
         0.00000E+00
         0.00000E+00
         0.00000E+00
         0.00000E+00
         0.00000E+00
         0.00000E+00
         0.00000E+00
         0.00000E+00
         0.00000E+00
         0.00000E+00
         0.00000E+00
         0.00000E+00
         0.00000E+00
         0.00000E+00
         0.00000E+00
         0.00000E+00
         0.00000E+00
         0.00000E+00
         0.00000E+00
         0.00000E+00
         0.00000E+00
         0.00000E+00
         0.00000E+00
         0.00000E+00
         0.00000E+00
         0.00000E+00
         0.00000E+00
         0.00000E+00
         0.00000E+00
         0.00000E+00
         0.00000E+00
         0.00000E+00
         0.00000E+00
         0.00000E+00
         0.00000E+00
         0.00000E+00
         0.00000E+00
         0.00000E+00
         0.00000E+00
         0.00000E+00
         0.00000E+00
         0.00000E+00
         0.00000E+00
         0.00000E+00
         0.00000E+00
         0.00000E+00
         0.00000E+00
         0.00000E+00
         0.00000E+00
         0.00000E+00
         0.00000E+00
         0.00000E+00
         0.00000E+00
         0.00000E+00
         0.00000E+00
         0.00000E+00
         0.00000E+00
         0.00000E+00
         0.00000E+00
         0.00000E+00
         0.00000E+00
         0.00000E+00
         0.00000E+00
         0.00000E+00
         0.00000E+00
         0.00000E+00
         0.00000E+00
         0.00000E+00
         0.00000E+00
         0.00000E+00
         0.00000E+00
         0.00000E+00
         0.00000E+00
         0.00000E+00
         0.00000E+00
         0.00000E+00
         0.00000E+00
         0.00000E+00
         0.00000E+00
         0.00000E+00
         0.00000E+00
         0.00000E+00
         0.00000E+00
         0.00000E+00
         0.00000E+00
         0.00000E+00
         0.00000E+00
         0.00000E+00
         0.00000E+00
         0.00000E+00
         0.00000E+00
         0.00000E+00
         0.00000E+00
         0.00000E+00
         0.00000E+00
         0.00000E+00
         0.00000E+00
         0.00000E+00
         0.00000E+00
         0.00000E+00
         0.00000E+00
         0.00000E+00
         0.00000E+00
         0.00000E+00
         0.00000E+00
         0.00000E+00
         0.00000E+00
         0.00000E+00
         0.00000E+00
         0.00000E+00
         0.00000E+00
         0.00000E+00
         0.00000E+00
         0.00000E+00
         0.00000E+00
         0.00000E+00
         0.00000E+00
         0.00000E+00
         0.00000E+00
         0.00000E+00
         0.00000E+00
         0.00000E+00
         0.00000E+00
         0.00000E+00
         0.00000E+00
         0.00000E+00
         0.00000E+00
         0.00000E+00
         0.00000E+00
         0.00000E+00
         0.00000E+00
         0.00000E+00
         0.00000E+00
         0.00000E+00
         0.00000E+00
         0.00000E+00
         0.00000E+00
         0.00000E+00
         0.00000E+00
         0.00000E+00
         0.00000E+00
         0.00000E+00
         0.00000E+00
         0.00000E+00
         0.00000E+00
         0.00000E+00
         0.00000E+00
         0.00000E+00
         0.00000E+00
         0.00000E+00
         0.00000E+00
         0.00000E+00
         0.00000E+00
         0.00000E+00
         0.00000E+00
         0.00000E+00
         0.00000E+00
         0.00000E+00
         0.00000E+00
         0.00000E+00
         0.00000E+00
         0.00000E+00
         0.00000E+00
         0.00000E+00
         0.00000E+00
         0.00000E+00
         0.00000E+00
         0.00000E+00
         0.00000E+00
         0.00000E+00
         0.00000E+00
         0.00000E+00
         0.00000E+00
         0.00000E+00
         0.00000E+00
         0.00000E+00
         0.00000E+00
         0.00000E+00
         0.00000E+00
         0.00000E+00
         0.00000E+00
         0.00000E+00
         0.00000E+00
         0.00000E+00
         0.00000E+00
         0.00000E+00
         0.00000E+00
         0.00000E+00
         0.00000E+00
         0.00000E+00
         0.00000E+00
         0.00000E+00
         0.00000E+00
         0.00000E+00
         0.00000E+00
         0.00000E+00
         0.00000E+00
         0.00000E+00
         0.00000E+00
         0.00000E+00
         0.00000E+00
         0.00000E+00
         0.00000E+00
         0.00000E+00
         0.00000E+00
         0.00000E+00
         0.00000E+00
         0.00000E+00
         0.00000E+00
         0.00000E+00
         0.00000E+00
         0.00000E+00
         0.00000E+00
         0.00000E+00
         0.00000E+00
         0.00000E+00
         0.00000E+00
         0.00000E+00
         0.00000E+00
         0.00000E+00
         0.00000E+00
         0.00000E+00
         0.00000E+00
         0.00000E+00
         0.00000E+00
         0.00000E+00
         0.00000E+00
         0.00000E+00
         0.00000E+00
         0.00000E+00
         0.00000E+00
         0.00000E+00
         0.00000E+00
         0.00000E+00
         0.00000E+00
         0.00000E+00
         0.00000E+00
         0.00000E+00
         0.00000E+00
         0.00000E+00
         0.00000E+00
         0.00000E+00
         0.00000E+00
         0.00000E+00
         0.00000E+00
         0.00000E+00
         0.00000E+00
         0.00000E+00
         0.00000E+00
         0.00000E+00
         0.00000E+00
         0.00000E+00
         0.00000E+00
         0.00000E+00
         0.00000E+00
         0.00000E+00
         0.00000E+00
         0.00000E+00
         0.00000E+00
         0.00000E+00
         0.00000E+00
         0.00000E+00
         0.00000E+00
         0.00000E+00
         0.00000E+00
         0.00000E+00
         0.00000E+00
         0.00000E+00
         0.00000E+00
         0.00000E+00
         0.00000E+00
         0.00000E+00
         0.00000E+00
         0.00000E+00
         0.00000E+00
         0.00000E+00
         0.00000E+00
         0.00000E+00
         0.00000E+00
         0.00000E+00
         0.00000E+00
         0.00000E+00
         0.00000E+00
         0.00000E+00
         0.00000E+00
         0.00000E+00
         0.00000E+00
         0.00000E+00
         0.00000E+00
         0.00000E+00
         0.00000E+00
         0.00000E+00
         0.00000E+00
         0.00000E+00
         0.00000E+00
         0.00000E+00
         0.00000E+00
         0.00000E+00
         0.00000E+00
         0.00000E+00
         0.00000E+00
         0.00000E+00
         0.00000E+00
         0.00000E+00
         0.00000E+00
         0.00000E+00
         0.00000E+00
         0.00000E+00
         0.00000E+00
         0.00000E+00
         0.00000E+00
         0.00000E+00
         0.00000E+00
         0.00000E+00
         0.00000E+00
         0.00000E+00
         0.00000E+00
         0.00000E+00
         0.00000E+00
         0.00000E+00
         0.00000E+00
         0.00000E+00
         0.00000E+00
         0.00000E+00
         0.00000E+00
         0.00000E+00
         0.00000E+00
         0.00000E+00
  
SCALARS                init_velocity_y  double 1
LOOKUP_TABLE default
         0.00000E+00
         0.00000E+00
         0.00000E+00
         0.00000E+00
         0.00000E+00
         0.00000E+00
         0.00000E+00
         0.00000E+00
         0.00000E+00
         0.00000E+00
         0.00000E+00
         0.00000E+00
         0.00000E+00
         0.00000E+00
         0.00000E+00
         0.00000E+00
         0.00000E+00
         0.00000E+00
         0.00000E+00
         0.00000E+00
         0.00000E+00
         0.00000E+00
         0.00000E+00
         0.00000E+00
         0.00000E+00
         0.00000E+00
         0.00000E+00
         0.00000E+00
         0.00000E+00
         0.00000E+00
         0.00000E+00
         0.00000E+00
         0.00000E+00
         0.00000E+00
         0.00000E+00
         0.00000E+00
         0.00000E+00
         0.00000E+00
         0.00000E+00
         0.00000E+00
         0.00000E+00
         0.00000E+00
         0.00000E+00
         0.00000E+00
         0.00000E+00
         0.00000E+00
         0.00000E+00
         0.00000E+00
         0.00000E+00
         0.00000E+00
         0.00000E+00
         0.00000E+00
         0.00000E+00
         0.00000E+00
         0.00000E+00
         0.00000E+00
         0.00000E+00
         0.00000E+00
         0.00000E+00
         0.00000E+00
         0.00000E+00
         0.00000E+00
         0.00000E+00
         0.00000E+00
         0.00000E+00
         0.00000E+00
         0.00000E+00
         0.00000E+00
         0.00000E+00
         0.00000E+00
         0.00000E+00
         0.00000E+00
         0.00000E+00
         0.00000E+00
         0.00000E+00
         0.00000E+00
         0.00000E+00
         0.00000E+00
         0.00000E+00
         0.00000E+00
         0.00000E+00
         0.00000E+00
         0.00000E+00
         0.00000E+00
         0.00000E+00
         0.00000E+00
         0.00000E+00
         0.00000E+00
         0.00000E+00
         0.00000E+00
         0.00000E+00
         0.00000E+00
         0.00000E+00
         0.00000E+00
         0.00000E+00
         0.00000E+00
         0.00000E+00
         0.00000E+00
         0.00000E+00
         0.00000E+00
         0.00000E+00
         0.00000E+00
         0.00000E+00
         0.00000E+00
         0.00000E+00
         0.00000E+00
         0.00000E+00
         0.00000E+00
         0.00000E+00
         0.00000E+00
         0.00000E+00
         0.00000E+00
         0.00000E+00
         0.00000E+00
         0.00000E+00
         0.00000E+00
         0.00000E+00
         0.00000E+00
         0.00000E+00
         0.00000E+00
         0.00000E+00
         0.00000E+00
         0.00000E+00
         0.00000E+00
         0.00000E+00
         0.00000E+00
         0.00000E+00
         0.00000E+00
         0.00000E+00
         0.00000E+00
         0.00000E+00
         0.00000E+00
         0.00000E+00
         0.00000E+00
         0.00000E+00
         0.00000E+00
         0.00000E+00
         0.00000E+00
         0.00000E+00
         0.00000E+00
         0.00000E+00
         0.00000E+00
         0.00000E+00
         0.00000E+00
         0.00000E+00
         0.00000E+00
         0.00000E+00
         0.00000E+00
         0.00000E+00
         0.00000E+00
         0.00000E+00
         0.00000E+00
         0.00000E+00
         0.00000E+00
         0.00000E+00
         0.00000E+00
         0.00000E+00
         0.00000E+00
         0.00000E+00
         0.00000E+00
         0.00000E+00
         0.00000E+00
         0.00000E+00
         0.00000E+00
         0.00000E+00
         0.00000E+00
         0.00000E+00
         0.00000E+00
         0.00000E+00
         0.00000E+00
         0.00000E+00
         0.00000E+00
         0.00000E+00
         0.00000E+00
         0.00000E+00
         0.00000E+00
         0.00000E+00
         0.00000E+00
         0.00000E+00
         0.00000E+00
         0.00000E+00
         0.00000E+00
         0.00000E+00
         0.00000E+00
         0.00000E+00
         0.00000E+00
         0.00000E+00
         0.00000E+00
         0.00000E+00
         0.00000E+00
         0.00000E+00
         0.00000E+00
         0.00000E+00
         0.00000E+00
         0.00000E+00
         0.00000E+00
         0.00000E+00
         0.00000E+00
         0.00000E+00
         0.00000E+00
         0.00000E+00
         0.00000E+00
         0.00000E+00
         0.00000E+00
         0.00000E+00
         0.00000E+00
         0.00000E+00
         0.00000E+00
         0.00000E+00
         0.00000E+00
         0.00000E+00
         0.00000E+00
         0.00000E+00
         0.00000E+00
         0.00000E+00
         0.00000E+00
         0.00000E+00
         0.00000E+00
         0.00000E+00
         0.00000E+00
         0.00000E+00
         0.00000E+00
         0.00000E+00
         0.00000E+00
         0.00000E+00
         0.00000E+00
         0.00000E+00
         0.00000E+00
         0.00000E+00
         0.00000E+00
         0.00000E+00
         0.00000E+00
         0.00000E+00
         0.00000E+00
         0.00000E+00
         0.00000E+00
         0.00000E+00
         0.00000E+00
         0.00000E+00
         0.00000E+00
         0.00000E+00
         0.00000E+00
         0.00000E+00
         0.00000E+00
         0.00000E+00
         0.00000E+00
         0.00000E+00
         0.00000E+00
         0.00000E+00
         0.00000E+00
         0.00000E+00
         0.00000E+00
         0.00000E+00
         0.00000E+00
         0.00000E+00
         0.00000E+00
         0.00000E+00
         0.00000E+00
         0.00000E+00
         0.00000E+00
         0.00000E+00
         0.00000E+00
         0.00000E+00
         0.00000E+00
         0.00000E+00
         0.00000E+00
         0.00000E+00
         0.00000E+00
         0.00000E+00
         0.00000E+00
         0.00000E+00
         0.00000E+00
         0.00000E+00
         0.00000E+00
         0.00000E+00
         0.00000E+00
         0.00000E+00
         0.00000E+00
         0.00000E+00
         0.00000E+00
         0.00000E+00
         0.00000E+00
         0.00000E+00
         0.00000E+00
         0.00000E+00
         0.00000E+00
         0.00000E+00
         0.00000E+00
         0.00000E+00
         0.00000E+00
         0.00000E+00
         0.00000E+00
         0.00000E+00
         0.00000E+00
         0.00000E+00
         0.00000E+00
         0.00000E+00
         0.00000E+00
         0.00000E+00
         0.00000E+00
         0.00000E+00
         0.00000E+00
         0.00000E+00
         0.00000E+00
         0.00000E+00
         0.00000E+00
         0.00000E+00
         0.00000E+00
         0.00000E+00
         0.00000E+00
         0.00000E+00
         0.00000E+00
         0.00000E+00
         0.00000E+00
         0.00000E+00
         0.00000E+00
         0.00000E+00
         0.00000E+00
         0.00000E+00
         0.00000E+00
         0.00000E+00
         0.00000E+00
         0.00000E+00
         0.00000E+00
         0.00000E+00
         0.00000E+00
         0.00000E+00
         0.00000E+00
         0.00000E+00
         0.00000E+00
         0.00000E+00
         0.00000E+00
         0.00000E+00
         0.00000E+00
         0.00000E+00
         0.00000E+00
         0.00000E+00
         0.00000E+00
         0.00000E+00
         0.00000E+00
         0.00000E+00
         0.00000E+00
         0.00000E+00
         0.00000E+00
         0.00000E+00
         0.00000E+00
         0.00000E+00
         0.00000E+00
         0.00000E+00
         0.00000E+00
         0.00000E+00
         0.00000E+00
         0.00000E+00
         0.00000E+00
         0.00000E+00
         0.00000E+00
         0.00000E+00
         0.00000E+00
         0.00000E+00
         0.00000E+00
         0.00000E+00
         0.00000E+00
         0.00000E+00
         0.00000E+00
         0.00000E+00
         0.00000E+00
         0.00000E+00
         0.00000E+00
         0.00000E+00
         0.00000E+00
         0.00000E+00
         0.00000E+00
         0.00000E+00
         0.00000E+00
         0.00000E+00
         0.00000E+00
         0.00000E+00
         0.00000E+00
         0.00000E+00
         0.00000E+00
         0.00000E+00
         0.00000E+00
         0.00000E+00
         0.00000E+00
         0.00000E+00
         0.00000E+00
         0.00000E+00
         0.00000E+00
         0.00000E+00
         0.00000E+00
         0.00000E+00
         0.00000E+00
         0.00000E+00
         0.00000E+00
         0.00000E+00
         0.00000E+00
         0.00000E+00
         0.00000E+00
         0.00000E+00
         0.00000E+00
         0.00000E+00
         0.00000E+00
         0.00000E+00
         0.00000E+00
         0.00000E+00
         0.00000E+00
         0.00000E+00
         0.00000E+00
         0.00000E+00
         0.00000E+00
         0.00000E+00
         0.00000E+00
         0.00000E+00
         0.00000E+00
         0.00000E+00
         0.00000E+00
         0.00000E+00
         0.00000E+00
         0.00000E+00
         0.00000E+00
         0.00000E+00
         0.00000E+00
         0.00000E+00
         0.00000E+00
         0.00000E+00
         0.00000E+00
         0.00000E+00
         0.00000E+00
         0.00000E+00
         0.00000E+00
         0.00000E+00
         0.00000E+00
         0.00000E+00
         0.00000E+00
         0.00000E+00
         0.00000E+00
         0.00000E+00
         0.00000E+00
         0.00000E+00
         0.00000E+00
         0.00000E+00
         0.00000E+00
         0.00000E+00
         0.00000E+00
         0.00000E+00
         0.00000E+00
         0.00000E+00
         0.00000E+00
         0.00000E+00
         0.00000E+00
         0.00000E+00
         0.00000E+00
         0.00000E+00
         0.00000E+00
         0.00000E+00
         0.00000E+00
         0.00000E+00
         0.00000E+00
         0.00000E+00
         0.00000E+00
         0.00000E+00
         0.00000E+00
         0.00000E+00
         0.00000E+00
         0.00000E+00
         0.00000E+00
         0.00000E+00
         0.00000E+00
         0.00000E+00
         0.00000E+00
         0.00000E+00
         0.00000E+00
         0.00000E+00
         0.00000E+00
         0.00000E+00
         0.00000E+00
         0.00000E+00
         0.00000E+00
         0.00000E+00
         0.00000E+00
         0.00000E+00
         0.00000E+00
         0.00000E+00
         0.00000E+00
         0.00000E+00
         0.00000E+00
         0.00000E+00
         0.00000E+00
         0.00000E+00
         0.00000E+00
         0.00000E+00
         0.00000E+00
         0.00000E+00
         0.00000E+00
         0.00000E+00
         0.00000E+00
         0.00000E+00
         0.00000E+00
         0.00000E+00
         0.00000E+00
         0.00000E+00
         0.00000E+00
         0.00000E+00
         0.00000E+00
         0.00000E+00
         0.00000E+00
         0.00000E+00
         0.00000E+00
         0.00000E+00
         0.00000E+00
         0.00000E+00
         0.00000E+00
         0.00000E+00
         0.00000E+00
         0.00000E+00
         0.00000E+00
         0.00000E+00
         0.00000E+00
         0.00000E+00
         0.00000E+00
         0.00000E+00
         0.00000E+00
         0.00000E+00
         0.00000E+00
         0.00000E+00
         0.00000E+00
         0.00000E+00
         0.00000E+00
         0.00000E+00
         0.00000E+00
         0.00000E+00
         0.00000E+00
         0.00000E+00
         0.00000E+00
         0.00000E+00
         0.00000E+00
         0.00000E+00
         0.00000E+00
         0.00000E+00
         0.00000E+00
         0.00000E+00
         0.00000E+00
         0.00000E+00
         0.00000E+00
         0.00000E+00
         0.00000E+00
         0.00000E+00
         0.00000E+00
         0.00000E+00
         0.00000E+00
         0.00000E+00
         0.00000E+00
         0.00000E+00
         0.00000E+00
         0.00000E+00
         0.00000E+00
         0.00000E+00
         0.00000E+00
         0.00000E+00
         0.00000E+00
         0.00000E+00
         0.00000E+00
         0.00000E+00
         0.00000E+00
         0.00000E+00
         0.00000E+00
         0.00000E+00
         0.00000E+00
         0.00000E+00
         0.00000E+00
         0.00000E+00
         0.00000E+00
         0.00000E+00
         0.00000E+00
         0.00000E+00
         0.00000E+00
         0.00000E+00
         0.00000E+00
         0.00000E+00
         0.00000E+00
         0.00000E+00
         0.00000E+00
         0.00000E+00
         0.00000E+00
         0.00000E+00
         0.00000E+00
         0.00000E+00
         0.00000E+00
         0.00000E+00
         0.00000E+00
         0.00000E+00
         0.00000E+00
         0.00000E+00
         0.00000E+00
         0.00000E+00
         0.00000E+00
         0.00000E+00
         0.00000E+00
         0.00000E+00
         0.00000E+00
         0.00000E+00
         0.00000E+00
         0.00000E+00
         0.00000E+00
         0.00000E+00
         0.00000E+00
         0.00000E+00
         0.00000E+00
         0.00000E+00
         0.00000E+00
         0.00000E+00
         0.00000E+00
         0.00000E+00
         0.00000E+00
         0.00000E+00
         0.00000E+00
         0.00000E+00
         0.00000E+00
         0.00000E+00
         0.00000E+00
         0.00000E+00
         0.00000E+00
         0.00000E+00
         0.00000E+00
         0.00000E+00
         0.00000E+00
         0.00000E+00
         0.00000E+00
         0.00000E+00
         0.00000E+00
         0.00000E+00
         0.00000E+00
         0.00000E+00
         0.00000E+00
         0.00000E+00
         0.00000E+00
         0.00000E+00
         0.00000E+00
         0.00000E+00
         0.00000E+00
         0.00000E+00
         0.00000E+00
         0.00000E+00
         0.00000E+00
         0.00000E+00
         0.00000E+00
         0.00000E+00
         0.00000E+00
         0.00000E+00
         0.00000E+00
         0.00000E+00
         0.00000E+00
         0.00000E+00
         0.00000E+00
         0.00000E+00
         0.00000E+00
         0.00000E+00
         0.00000E+00
         0.00000E+00
         0.00000E+00
         0.00000E+00
         0.00000E+00
         0.00000E+00
         0.00000E+00
         0.00000E+00
         0.00000E+00
         0.00000E+00
         0.00000E+00
         0.00000E+00
         0.00000E+00
         0.00000E+00
         0.00000E+00
         0.00000E+00
         0.00000E+00
         0.00000E+00
         0.00000E+00
         0.00000E+00
         0.00000E+00
         0.00000E+00
         0.00000E+00
         0.00000E+00
         0.00000E+00
         0.00000E+00
         0.00000E+00
         0.00000E+00
         0.00000E+00
         0.00000E+00
         0.00000E+00
         0.00000E+00
         0.00000E+00
         0.00000E+00
         0.00000E+00
         0.00000E+00
         0.00000E+00
         0.00000E+00
         0.00000E+00
         0.00000E+00
         0.00000E+00
         0.00000E+00
         0.00000E+00
         0.00000E+00
         0.00000E+00
         0.00000E+00
         0.00000E+00
         0.00000E+00
         0.00000E+00
         0.00000E+00
         0.00000E+00
         0.00000E+00
         0.00000E+00
         0.00000E+00
         0.00000E+00
         0.00000E+00
         0.00000E+00
         0.00000E+00
         0.00000E+00
         0.00000E+00
         0.00000E+00
         0.00000E+00
         0.00000E+00
         0.00000E+00
         0.00000E+00
         0.00000E+00
         0.00000E+00
         0.00000E+00
         0.00000E+00
         0.00000E+00
         0.00000E+00
         0.00000E+00
         0.00000E+00
         0.00000E+00
         0.00000E+00
         0.00000E+00
         0.00000E+00
         0.00000E+00
         0.00000E+00
         0.00000E+00
         0.00000E+00
         0.00000E+00
         0.00000E+00
         0.00000E+00
         0.00000E+00
         0.00000E+00
         0.00000E+00
         0.00000E+00
         0.00000E+00
         0.00000E+00
         0.00000E+00
         0.00000E+00
         0.00000E+00
         0.00000E+00
         0.00000E+00
         0.00000E+00
         0.00000E+00
         0.00000E+00
         0.00000E+00
         0.00000E+00
         0.00000E+00
         0.00000E+00
         0.00000E+00
         0.00000E+00
         0.00000E+00
         0.00000E+00
         0.00000E+00
         0.00000E+00
         0.00000E+00
         0.00000E+00
         0.00000E+00
         0.00000E+00
         0.00000E+00
         0.00000E+00
         0.00000E+00
         0.00000E+00
         0.00000E+00
         0.00000E+00
         0.00000E+00
         0.00000E+00
         0.00000E+00
         0.00000E+00
         0.00000E+00
         0.00000E+00
         0.00000E+00
         0.00000E+00
         0.00000E+00
         0.00000E+00
         0.00000E+00
         0.00000E+00
         0.00000E+00
         0.00000E+00
         0.00000E+00
         0.00000E+00
         0.00000E+00
         0.00000E+00
         0.00000E+00
         0.00000E+00
         0.00000E+00
         0.00000E+00
         0.00000E+00
         0.00000E+00
         0.00000E+00
         0.00000E+00
         0.00000E+00
         0.00000E+00
         0.00000E+00
         0.00000E+00
         0.00000E+00
         0.00000E+00
         0.00000E+00
         0.00000E+00
         0.00000E+00
         0.00000E+00
         0.00000E+00
         0.00000E+00
         0.00000E+00
         0.00000E+00
         0.00000E+00
         0.00000E+00
         0.00000E+00
         0.00000E+00
         0.00000E+00
         0.00000E+00
         0.00000E+00
         0.00000E+00
         0.00000E+00
         0.00000E+00
         0.00000E+00
         0.00000E+00
         0.00000E+00
         0.00000E+00
         0.00000E+00
         0.00000E+00
         0.00000E+00
         0.00000E+00
         0.00000E+00
         0.00000E+00
         0.00000E+00
         0.00000E+00
         0.00000E+00
         0.00000E+00
         0.00000E+00
         0.00000E+00
         0.00000E+00
         0.00000E+00
         0.00000E+00
         0.00000E+00
         0.00000E+00
         0.00000E+00
         0.00000E+00
         0.00000E+00
         0.00000E+00
         0.00000E+00
         0.00000E+00
         0.00000E+00
         0.00000E+00
         0.00000E+00
         0.00000E+00
         0.00000E+00
         0.00000E+00
         0.00000E+00
         0.00000E+00
         0.00000E+00
         0.00000E+00
         0.00000E+00
         0.00000E+00
         0.00000E+00
         0.00000E+00
         0.00000E+00
         0.00000E+00
         0.00000E+00
         0.00000E+00
         0.00000E+00
         0.00000E+00
         0.00000E+00
         0.00000E+00
         0.00000E+00
         0.00000E+00
         0.00000E+00
         0.00000E+00
         0.00000E+00
         0.00000E+00
         0.00000E+00
         0.00000E+00
         0.00000E+00
         0.00000E+00
         0.00000E+00
         0.00000E+00
         0.00000E+00
         0.00000E+00
         0.00000E+00
         0.00000E+00
         0.00000E+00
         0.00000E+00
         0.00000E+00
         0.00000E+00
         0.00000E+00
         0.00000E+00
         0.00000E+00
         0.00000E+00
         0.00000E+00
         0.00000E+00
         0.00000E+00
         0.00000E+00
         0.00000E+00
         0.00000E+00
         0.00000E+00
         0.00000E+00
         0.00000E+00
         0.00000E+00
         0.00000E+00
         0.00000E+00
         0.00000E+00
         0.00000E+00
         0.00000E+00
         0.00000E+00
         0.00000E+00
         0.00000E+00
         0.00000E+00
         0.00000E+00
         0.00000E+00
         0.00000E+00
         0.00000E+00
         0.00000E+00
         0.00000E+00
         0.00000E+00
         0.00000E+00
         0.00000E+00
         0.00000E+00
         0.00000E+00
         0.00000E+00
         0.00000E+00
         0.00000E+00
         0.00000E+00
         0.00000E+00
         0.00000E+00
         0.00000E+00
         0.00000E+00
         0.00000E+00
         0.00000E+00
         0.00000E+00
         0.00000E+00
         0.00000E+00
         0.00000E+00
         0.00000E+00
         0.00000E+00
         0.00000E+00
         0.00000E+00
         0.00000E+00
         0.00000E+00
         0.00000E+00
         0.00000E+00
         0.00000E+00
         0.00000E+00
         0.00000E+00
         0.00000E+00
         0.00000E+00
         0.00000E+00
         0.00000E+00
         0.00000E+00
         0.00000E+00
         0.00000E+00
         0.00000E+00
         0.00000E+00
         0.00000E+00
         0.00000E+00
         0.00000E+00
         0.00000E+00
         0.00000E+00
         0.00000E+00
         0.00000E+00
         0.00000E+00
         0.00000E+00
         0.00000E+00
         0.00000E+00
         0.00000E+00
         0.00000E+00
         0.00000E+00
         0.00000E+00
         0.00000E+00
         0.00000E+00
         0.00000E+00
         0.00000E+00
         0.00000E+00
         0.00000E+00
         0.00000E+00
         0.00000E+00
         0.00000E+00
         0.00000E+00
         0.00000E+00
         0.00000E+00
         0.00000E+00
         0.00000E+00
         0.00000E+00
         0.00000E+00
         0.00000E+00
         0.00000E+00
         0.00000E+00
         0.00000E+00
         0.00000E+00
         0.00000E+00
         0.00000E+00
         0.00000E+00
         0.00000E+00
         0.00000E+00
         0.00000E+00
         0.00000E+00
         0.00000E+00
         0.00000E+00
         0.00000E+00
         0.00000E+00
         0.00000E+00
         0.00000E+00
         0.00000E+00
         0.00000E+00
         0.00000E+00
         0.00000E+00
         0.00000E+00
         0.00000E+00
         0.00000E+00
         0.00000E+00
         0.00000E+00
         0.00000E+00
         0.00000E+00
         0.00000E+00
         0.00000E+00
         0.00000E+00
         0.00000E+00
         0.00000E+00
         0.00000E+00
         0.00000E+00
         0.00000E+00
         0.00000E+00
         0.00000E+00
         0.00000E+00
         0.00000E+00
         0.00000E+00
         0.00000E+00
         0.00000E+00
         0.00000E+00
         0.00000E+00
         0.00000E+00
         0.00000E+00
         0.00000E+00
         0.00000E+00
         0.00000E+00
         0.00000E+00
         0.00000E+00
         0.00000E+00
         0.00000E+00
         0.00000E+00
         0.00000E+00
         0.00000E+00
         0.00000E+00
         0.00000E+00
         0.00000E+00
         0.00000E+00
         0.00000E+00
         0.00000E+00
         0.00000E+00
         0.00000E+00
         0.00000E+00
         0.00000E+00
         0.00000E+00
         0.00000E+00
         0.00000E+00
         0.00000E+00
         0.00000E+00
         0.00000E+00
         0.00000E+00
         0.00000E+00
         0.00000E+00
         0.00000E+00
         0.00000E+00
         0.00000E+00
         0.00000E+00
         0.00000E+00
         0.00000E+00
         0.00000E+00
         0.00000E+00
         0.00000E+00
         0.00000E+00
         0.00000E+00
         0.00000E+00
         0.00000E+00
         0.00000E+00
         0.00000E+00
         0.00000E+00
         0.00000E+00
         0.00000E+00
         0.00000E+00
         0.00000E+00
         0.00000E+00
         0.00000E+00
         0.00000E+00
         0.00000E+00
         0.00000E+00
         0.00000E+00
         0.00000E+00
         0.00000E+00
         0.00000E+00
         0.00000E+00
         0.00000E+00
         0.00000E+00
         0.00000E+00
         0.00000E+00
         0.00000E+00
         0.00000E+00
         0.00000E+00
         0.00000E+00
         0.00000E+00
         0.00000E+00
         0.00000E+00
         0.00000E+00
         0.00000E+00
         0.00000E+00
         0.00000E+00
         0.00000E+00
         0.00000E+00
         0.00000E+00
         0.00000E+00
         0.00000E+00
         0.00000E+00
         0.00000E+00
         0.00000E+00
         0.00000E+00
         0.00000E+00
         0.00000E+00
         0.00000E+00
         0.00000E+00
         0.00000E+00
         0.00000E+00
         0.00000E+00
         0.00000E+00
         0.00000E+00
         0.00000E+00
         0.00000E+00
         0.00000E+00
         0.00000E+00
         0.00000E+00
         0.00000E+00
         0.00000E+00
         0.00000E+00
         0.00000E+00
         0.00000E+00
         0.00000E+00
         0.00000E+00
         0.00000E+00
         0.00000E+00
         0.00000E+00
         0.00000E+00
         0.00000E+00
         0.00000E+00
         0.00000E+00
         0.00000E+00
         0.00000E+00
         0.00000E+00
         0.00000E+00
         0.00000E+00
         0.00000E+00
         0.00000E+00
         0.00000E+00
         0.00000E+00
         0.00000E+00
         0.00000E+00
         0.00000E+00
         0.00000E+00
         0.00000E+00
         0.00000E+00
         0.00000E+00
         0.00000E+00
         0.00000E+00
         0.00000E+00
         0.00000E+00
         0.00000E+00
         0.00000E+00
         0.00000E+00
         0.00000E+00
         0.00000E+00
         0.00000E+00
         0.00000E+00
         0.00000E+00
         0.00000E+00
         0.00000E+00
         0.00000E+00
         0.00000E+00
         0.00000E+00
         0.00000E+00
         0.00000E+00
         0.00000E+00
         0.00000E+00
         0.00000E+00
         0.00000E+00
         0.00000E+00
         0.00000E+00
         0.00000E+00
         0.00000E+00
         0.00000E+00
         0.00000E+00
         0.00000E+00
         0.00000E+00
         0.00000E+00
         0.00000E+00
         0.00000E+00
         0.00000E+00
         0.00000E+00
         0.00000E+00
         0.00000E+00
         0.00000E+00
         0.00000E+00
         0.00000E+00
         0.00000E+00
         0.00000E+00
         0.00000E+00
         0.00000E+00
         0.00000E+00
         0.00000E+00
         0.00000E+00
         0.00000E+00
         0.00000E+00
         0.00000E+00
         0.00000E+00
         0.00000E+00
         0.00000E+00
         0.00000E+00
         0.00000E+00
         0.00000E+00
         0.00000E+00
         0.00000E+00
         0.00000E+00
         0.00000E+00
         0.00000E+00
         0.00000E+00
         0.00000E+00
         0.00000E+00
         0.00000E+00
         0.00000E+00
         0.00000E+00
         0.00000E+00
         0.00000E+00
         0.00000E+00
         0.00000E+00
         0.00000E+00
         0.00000E+00
         0.00000E+00
         0.00000E+00
         0.00000E+00
         0.00000E+00
         0.00000E+00
         0.00000E+00
         0.00000E+00
         0.00000E+00
         0.00000E+00
         0.00000E+00
         0.00000E+00
         0.00000E+00
         0.00000E+00
         0.00000E+00
         0.00000E+00
         0.00000E+00
         0.00000E+00
         0.00000E+00
         0.00000E+00
         0.00000E+00
         0.00000E+00
         0.00000E+00
         0.00000E+00
         0.00000E+00
         0.00000E+00
         0.00000E+00
         0.00000E+00
         0.00000E+00
         0.00000E+00
         0.00000E+00
         0.00000E+00
         0.00000E+00
         0.00000E+00
         0.00000E+00
         0.00000E+00
         0.00000E+00
         0.00000E+00
         0.00000E+00
         0.00000E+00
         0.00000E+00
         0.00000E+00
         0.00000E+00
         0.00000E+00
         0.00000E+00
         0.00000E+00
         0.00000E+00
         0.00000E+00
         0.00000E+00
         0.00000E+00
         0.00000E+00
         0.00000E+00
         0.00000E+00
         0.00000E+00
         0.00000E+00
         0.00000E+00
         0.00000E+00
         0.00000E+00
         0.00000E+00
         0.00000E+00
         0.00000E+00
         0.00000E+00
         0.00000E+00
         0.00000E+00
         0.00000E+00
         0.00000E+00
         0.00000E+00
         0.00000E+00
         0.00000E+00
         0.00000E+00
         0.00000E+00
         0.00000E+00
         0.00000E+00
         0.00000E+00
         0.00000E+00
         0.00000E+00
         0.00000E+00
         0.00000E+00
         0.00000E+00
         0.00000E+00
         0.00000E+00
         0.00000E+00
         0.00000E+00
         0.00000E+00
         0.00000E+00
         0.00000E+00
         0.00000E+00
         0.00000E+00
         0.00000E+00
         0.00000E+00
         0.00000E+00
         0.00000E+00
         0.00000E+00
         0.00000E+00
         0.00000E+00
         0.00000E+00
         0.00000E+00
         0.00000E+00
         0.00000E+00
         0.00000E+00
         0.00000E+00
         0.00000E+00
         0.00000E+00
         0.00000E+00
         0.00000E+00
         0.00000E+00
         0.00000E+00
         0.00000E+00
         0.00000E+00
         0.00000E+00
         0.00000E+00
         0.00000E+00
         0.00000E+00
         0.00000E+00
         0.00000E+00
         0.00000E+00
         0.00000E+00
         0.00000E+00
         0.00000E+00
         0.00000E+00
         0.00000E+00
         0.00000E+00
         0.00000E+00
         0.00000E+00
         0.00000E+00
         0.00000E+00
         0.00000E+00
         0.00000E+00
         0.00000E+00
         0.00000E+00
         0.00000E+00
         0.00000E+00
         0.00000E+00
         0.00000E+00
         0.00000E+00
         0.00000E+00
         0.00000E+00
         0.00000E+00
         0.00000E+00
         0.00000E+00
         0.00000E+00
         0.00000E+00
         0.00000E+00
         0.00000E+00
         0.00000E+00
         0.00000E+00
         0.00000E+00
         0.00000E+00
         0.00000E+00
         0.00000E+00
         0.00000E+00
         0.00000E+00
         0.00000E+00
         0.00000E+00
         0.00000E+00
         0.00000E+00
         0.00000E+00
         0.00000E+00
         0.00000E+00
         0.00000E+00
         0.00000E+00
         0.00000E+00
         0.00000E+00
         0.00000E+00
         0.00000E+00
         0.00000E+00
         0.00000E+00
         0.00000E+00
         0.00000E+00
         0.00000E+00
         0.00000E+00
         0.00000E+00
         0.00000E+00
         0.00000E+00
         0.00000E+00
         0.00000E+00
         0.00000E+00
         0.00000E+00
         0.00000E+00
         0.00000E+00
         0.00000E+00
         0.00000E+00
         0.00000E+00
         0.00000E+00
         0.00000E+00
         0.00000E+00
         0.00000E+00
         0.00000E+00
         0.00000E+00
         0.00000E+00
         0.00000E+00
         0.00000E+00
         0.00000E+00
         0.00000E+00
         0.00000E+00
         0.00000E+00
         0.00000E+00
         0.00000E+00
         0.00000E+00
         0.00000E+00
         0.00000E+00
         0.00000E+00
         0.00000E+00
         0.00000E+00
         0.00000E+00
         0.00000E+00
         0.00000E+00
         0.00000E+00
         0.00000E+00
         0.00000E+00
         0.00000E+00
         0.00000E+00
         0.00000E+00
         0.00000E+00
         0.00000E+00
         0.00000E+00
         0.00000E+00
         0.00000E+00
         0.00000E+00
         0.00000E+00
         0.00000E+00
         0.00000E+00
         0.00000E+00
         0.00000E+00
         0.00000E+00
         0.00000E+00
         0.00000E+00
         0.00000E+00
         0.00000E+00
         0.00000E+00
         0.00000E+00
         0.00000E+00
         0.00000E+00
         0.00000E+00
         0.00000E+00
         0.00000E+00
         0.00000E+00
         0.00000E+00
         0.00000E+00
         0.00000E+00
         0.00000E+00
         0.00000E+00
         0.00000E+00
         0.00000E+00
         0.00000E+00
         0.00000E+00
         0.00000E+00
         0.00000E+00
         0.00000E+00
         0.00000E+00
         0.00000E+00
         0.00000E+00
         0.00000E+00
         0.00000E+00
         0.00000E+00
         0.00000E+00
         0.00000E+00
         0.00000E+00
         0.00000E+00
         0.00000E+00
         0.00000E+00
         0.00000E+00
         0.00000E+00
         0.00000E+00
         0.00000E+00
         0.00000E+00
         0.00000E+00
         0.00000E+00
         0.00000E+00
         0.00000E+00
         0.00000E+00
         0.00000E+00
         0.00000E+00
         0.00000E+00
         0.00000E+00
         0.00000E+00
         0.00000E+00
         0.00000E+00
         0.00000E+00
         0.00000E+00
         0.00000E+00
         0.00000E+00
         0.00000E+00
         0.00000E+00
         0.00000E+00
         0.00000E+00
         0.00000E+00
         0.00000E+00
         0.00000E+00
         0.00000E+00
         0.00000E+00
         0.00000E+00
         0.00000E+00
         0.00000E+00
         0.00000E+00
         0.00000E+00
         0.00000E+00
         0.00000E+00
         0.00000E+00
         0.00000E+00
         0.00000E+00
         0.00000E+00
         0.00000E+00
         0.00000E+00
         0.00000E+00
         0.00000E+00
         0.00000E+00
         0.00000E+00
         0.00000E+00
         0.00000E+00
         0.00000E+00
         0.00000E+00
         0.00000E+00
         0.00000E+00
         0.00000E+00
         0.00000E+00
         0.00000E+00
         0.00000E+00
         0.00000E+00
         0.00000E+00
         0.00000E+00
         0.00000E+00
         0.00000E+00
         0.00000E+00
         0.00000E+00
         0.00000E+00
         0.00000E+00
         0.00000E+00
         0.00000E+00
         0.00000E+00
         0.00000E+00
         0.00000E+00
         0.00000E+00
         0.00000E+00
         0.00000E+00
         0.00000E+00
         0.00000E+00
         0.00000E+00
         0.00000E+00
         0.00000E+00
         0.00000E+00
         0.00000E+00
         0.00000E+00
         0.00000E+00
         0.00000E+00
         0.00000E+00
         0.00000E+00
         0.00000E+00
         0.00000E+00
         0.00000E+00
         0.00000E+00
         0.00000E+00
         0.00000E+00
         0.00000E+00
         0.00000E+00
         0.00000E+00
         0.00000E+00
         0.00000E+00
         0.00000E+00
         0.00000E+00
         0.00000E+00
         0.00000E+00
         0.00000E+00
         0.00000E+00
         0.00000E+00
         0.00000E+00
         0.00000E+00
         0.00000E+00
         0.00000E+00
         0.00000E+00
         0.00000E+00
         0.00000E+00
         0.00000E+00
         0.00000E+00
         0.00000E+00
         0.00000E+00
         0.00000E+00
         0.00000E+00
         0.00000E+00
         0.00000E+00
         0.00000E+00
         0.00000E+00
         0.00000E+00
         0.00000E+00
         0.00000E+00
         0.00000E+00
         0.00000E+00
         0.00000E+00
         0.00000E+00
         0.00000E+00
         0.00000E+00
         0.00000E+00
         0.00000E+00
         0.00000E+00
         0.00000E+00
         0.00000E+00
         0.00000E+00
         0.00000E+00
         0.00000E+00
         0.00000E+00
         0.00000E+00
         0.00000E+00
         0.00000E+00
         0.00000E+00
         0.00000E+00
         0.00000E+00
         0.00000E+00
         0.00000E+00
         0.00000E+00
         0.00000E+00
         0.00000E+00
         0.00000E+00
         0.00000E+00
         0.00000E+00
         0.00000E+00
         0.00000E+00
         0.00000E+00
         0.00000E+00
         0.00000E+00
         0.00000E+00
         0.00000E+00
         0.00000E+00
         0.00000E+00
         0.00000E+00
         0.00000E+00
         0.00000E+00
         0.00000E+00
         0.00000E+00
         0.00000E+00
         0.00000E+00
         0.00000E+00
         0.00000E+00
         0.00000E+00
         0.00000E+00
         0.00000E+00
         0.00000E+00
         0.00000E+00
         0.00000E+00
         0.00000E+00
         0.00000E+00
         0.00000E+00
         0.00000E+00
         0.00000E+00
         0.00000E+00
         0.00000E+00
         0.00000E+00
         0.00000E+00
         0.00000E+00
         0.00000E+00
         0.00000E+00
         0.00000E+00
         0.00000E+00
         0.00000E+00
         0.00000E+00
         0.00000E+00
         0.00000E+00
         0.00000E+00
         0.00000E+00
         0.00000E+00
         0.00000E+00
         0.00000E+00
         0.00000E+00
         0.00000E+00
         0.00000E+00
         0.00000E+00
         0.00000E+00
         0.00000E+00
         0.00000E+00
         0.00000E+00
         0.00000E+00
         0.00000E+00
         0.00000E+00
         0.00000E+00
         0.00000E+00
         0.00000E+00
         0.00000E+00
         0.00000E+00
         0.00000E+00
         0.00000E+00
         0.00000E+00
         0.00000E+00
         0.00000E+00
         0.00000E+00
         0.00000E+00
         0.00000E+00
         0.00000E+00
         0.00000E+00
         0.00000E+00
         0.00000E+00
         0.00000E+00
         0.00000E+00
         0.00000E+00
         0.00000E+00
         0.00000E+00
         0.00000E+00
         0.00000E+00
         0.00000E+00
         0.00000E+00
         0.00000E+00
         0.00000E+00
         0.00000E+00
         0.00000E+00
         0.00000E+00
         0.00000E+00
         0.00000E+00
         0.00000E+00
         0.00000E+00
         0.00000E+00
         0.00000E+00
         0.00000E+00
         0.00000E+00
         0.00000E+00
         0.00000E+00
         0.00000E+00
         0.00000E+00
         0.00000E+00
         0.00000E+00
         0.00000E+00
         0.00000E+00
         0.00000E+00
         0.00000E+00
         0.00000E+00
         0.00000E+00
         0.00000E+00
         0.00000E+00
         0.00000E+00
         0.00000E+00
         0.00000E+00
         0.00000E+00
         0.00000E+00
         0.00000E+00
         0.00000E+00
         0.00000E+00
         0.00000E+00
         0.00000E+00
         0.00000E+00
         0.00000E+00
         0.00000E+00
         0.00000E+00
         0.00000E+00
         0.00000E+00
         0.00000E+00
         0.00000E+00
         0.00000E+00
         0.00000E+00
         0.00000E+00
         0.00000E+00
         0.00000E+00
         0.00000E+00
         0.00000E+00
         0.00000E+00
         0.00000E+00
         0.00000E+00
         0.00000E+00
         0.00000E+00
         0.00000E+00
         0.00000E+00
         0.00000E+00
         0.00000E+00
         0.00000E+00
         0.00000E+00
         0.00000E+00
         0.00000E+00
         0.00000E+00
         0.00000E+00
         0.00000E+00
         0.00000E+00
         0.00000E+00
         0.00000E+00
         0.00000E+00
         0.00000E+00
         0.00000E+00
         0.00000E+00
         0.00000E+00
         0.00000E+00
         0.00000E+00
         0.00000E+00
         0.00000E+00
         0.00000E+00
         0.00000E+00
         0.00000E+00
         0.00000E+00
         0.00000E+00
         0.00000E+00
         0.00000E+00
         0.00000E+00
         0.00000E+00
         0.00000E+00
         0.00000E+00
         0.00000E+00
         0.00000E+00
         0.00000E+00
         0.00000E+00
         0.00000E+00
         0.00000E+00
         0.00000E+00
         0.00000E+00
         0.00000E+00
         0.00000E+00
         0.00000E+00
         0.00000E+00
         0.00000E+00
         0.00000E+00
         0.00000E+00
         0.00000E+00
         0.00000E+00
         0.00000E+00
         0.00000E+00
         0.00000E+00
         0.00000E+00
         0.00000E+00
         0.00000E+00
         0.00000E+00
         0.00000E+00
         0.00000E+00
         0.00000E+00
         0.00000E+00
         0.00000E+00
         0.00000E+00
         0.00000E+00
         0.00000E+00
         0.00000E+00
         0.00000E+00
         0.00000E+00
         0.00000E+00
         0.00000E+00
         0.00000E+00
         0.00000E+00
         0.00000E+00
         0.00000E+00
         0.00000E+00
         0.00000E+00
         0.00000E+00
         0.00000E+00
         0.00000E+00
         0.00000E+00
         0.00000E+00
         0.00000E+00
         0.00000E+00
         0.00000E+00
         0.00000E+00
         0.00000E+00
         0.00000E+00
         0.00000E+00
         0.00000E+00
         0.00000E+00
         0.00000E+00
         0.00000E+00
         0.00000E+00
         0.00000E+00
         0.00000E+00
         0.00000E+00
         0.00000E+00
         0.00000E+00
         0.00000E+00
         0.00000E+00
         0.00000E+00
         0.00000E+00
         0.00000E+00
         0.00000E+00
         0.00000E+00
         0.00000E+00
         0.00000E+00
         0.00000E+00
         0.00000E+00
         0.00000E+00
         0.00000E+00
         0.00000E+00
         0.00000E+00
         0.00000E+00
         0.00000E+00
         0.00000E+00
         0.00000E+00
         0.00000E+00
         0.00000E+00
         0.00000E+00
         0.00000E+00
         0.00000E+00
         0.00000E+00
         0.00000E+00
         0.00000E+00
         0.00000E+00
         0.00000E+00
         0.00000E+00
         0.00000E+00
         0.00000E+00
         0.00000E+00
         0.00000E+00
         0.00000E+00
         0.00000E+00
         0.00000E+00
         0.00000E+00
         0.00000E+00
         0.00000E+00
         0.00000E+00
         0.00000E+00
         0.00000E+00
         0.00000E+00
         0.00000E+00
         0.00000E+00
         0.00000E+00
         0.00000E+00
         0.00000E+00
         0.00000E+00
         0.00000E+00
         0.00000E+00
         0.00000E+00
         0.00000E+00
         0.00000E+00
  
SCALARS                init_velocity_z  double 1
LOOKUP_TABLE default
        -0.37300E+03
        -0.37300E+03
        -0.37300E+03
        -0.37300E+03
        -0.37300E+03
        -0.37300E+03
        -0.37300E+03
        -0.37300E+03
        -0.37300E+03
        -0.37300E+03
        -0.37300E+03
        -0.37300E+03
        -0.37300E+03
        -0.37300E+03
        -0.37300E+03
        -0.37300E+03
        -0.37300E+03
        -0.37300E+03
        -0.37300E+03
        -0.37300E+03
        -0.37300E+03
        -0.37300E+03
        -0.37300E+03
        -0.37300E+03
        -0.37300E+03
        -0.37300E+03
        -0.37300E+03
        -0.37300E+03
        -0.37300E+03
        -0.37300E+03
        -0.37300E+03
        -0.37300E+03
        -0.37300E+03
        -0.37300E+03
        -0.37300E+03
        -0.37300E+03
        -0.37300E+03
        -0.37300E+03
        -0.37300E+03
        -0.37300E+03
        -0.37300E+03
        -0.37300E+03
        -0.37300E+03
        -0.37300E+03
        -0.37300E+03
        -0.37300E+03
        -0.37300E+03
        -0.37300E+03
        -0.37300E+03
        -0.37300E+03
        -0.37300E+03
        -0.37300E+03
        -0.37300E+03
        -0.37300E+03
        -0.37300E+03
        -0.37300E+03
        -0.37300E+03
        -0.37300E+03
        -0.37300E+03
        -0.37300E+03
        -0.37300E+03
        -0.37300E+03
        -0.37300E+03
        -0.37300E+03
        -0.37300E+03
        -0.37300E+03
        -0.37300E+03
        -0.37300E+03
        -0.37300E+03
        -0.37300E+03
        -0.37300E+03
        -0.37300E+03
        -0.37300E+03
        -0.37300E+03
        -0.37300E+03
        -0.37300E+03
        -0.37300E+03
        -0.37300E+03
        -0.37300E+03
        -0.37300E+03
        -0.37300E+03
        -0.37300E+03
        -0.37300E+03
        -0.37300E+03
        -0.37300E+03
        -0.37300E+03
        -0.37300E+03
        -0.37300E+03
        -0.37300E+03
        -0.37300E+03
        -0.37300E+03
        -0.37300E+03
        -0.37300E+03
        -0.37300E+03
        -0.37300E+03
        -0.37300E+03
        -0.37300E+03
        -0.37300E+03
        -0.37300E+03
        -0.37300E+03
        -0.37300E+03
        -0.37300E+03
        -0.37300E+03
        -0.37300E+03
        -0.37300E+03
        -0.37300E+03
        -0.37300E+03
        -0.37300E+03
        -0.37300E+03
        -0.37300E+03
        -0.37300E+03
        -0.37300E+03
        -0.37300E+03
        -0.37300E+03
        -0.37300E+03
        -0.37300E+03
        -0.37300E+03
        -0.37300E+03
        -0.37300E+03
        -0.37300E+03
        -0.37300E+03
        -0.37300E+03
        -0.37300E+03
        -0.37300E+03
        -0.37300E+03
        -0.37300E+03
        -0.37300E+03
        -0.37300E+03
        -0.37300E+03
        -0.37300E+03
        -0.37300E+03
        -0.37300E+03
        -0.37300E+03
        -0.37300E+03
        -0.37300E+03
        -0.37300E+03
        -0.37300E+03
        -0.37300E+03
        -0.37300E+03
        -0.37300E+03
        -0.37300E+03
        -0.37300E+03
        -0.37300E+03
        -0.37300E+03
        -0.37300E+03
        -0.37300E+03
        -0.37300E+03
        -0.37300E+03
        -0.37300E+03
        -0.37300E+03
        -0.37300E+03
        -0.37300E+03
        -0.37300E+03
        -0.37300E+03
        -0.37300E+03
        -0.37300E+03
        -0.37300E+03
        -0.37300E+03
        -0.37300E+03
        -0.37300E+03
        -0.37300E+03
        -0.37300E+03
        -0.37300E+03
        -0.37300E+03
        -0.37300E+03
        -0.37300E+03
        -0.37300E+03
        -0.37300E+03
        -0.37300E+03
        -0.37300E+03
        -0.37300E+03
        -0.37300E+03
        -0.37300E+03
        -0.37300E+03
        -0.37300E+03
        -0.37300E+03
        -0.37300E+03
        -0.37300E+03
        -0.37300E+03
        -0.37300E+03
        -0.37300E+03
        -0.37300E+03
        -0.37300E+03
        -0.37300E+03
        -0.37300E+03
        -0.37300E+03
        -0.37300E+03
        -0.37300E+03
        -0.37300E+03
        -0.37300E+03
        -0.37300E+03
        -0.37300E+03
        -0.37300E+03
        -0.37300E+03
        -0.37300E+03
        -0.37300E+03
        -0.37300E+03
        -0.37300E+03
        -0.37300E+03
        -0.37300E+03
        -0.37300E+03
        -0.37300E+03
        -0.37300E+03
        -0.37300E+03
        -0.37300E+03
        -0.37300E+03
        -0.37300E+03
        -0.37300E+03
        -0.37300E+03
        -0.37300E+03
        -0.37300E+03
        -0.37300E+03
        -0.37300E+03
        -0.37300E+03
        -0.37300E+03
        -0.37300E+03
        -0.37300E+03
        -0.37300E+03
        -0.37300E+03
        -0.37300E+03
        -0.37300E+03
        -0.37300E+03
        -0.37300E+03
        -0.37300E+03
        -0.37300E+03
        -0.37300E+03
        -0.37300E+03
        -0.37300E+03
        -0.37300E+03
        -0.37300E+03
        -0.37300E+03
        -0.37300E+03
        -0.37300E+03
        -0.37300E+03
        -0.37300E+03
        -0.37300E+03
        -0.37300E+03
        -0.37300E+03
        -0.37300E+03
        -0.37300E+03
        -0.37300E+03
        -0.37300E+03
        -0.37300E+03
        -0.37300E+03
        -0.37300E+03
        -0.37300E+03
        -0.37300E+03
        -0.37300E+03
        -0.37300E+03
        -0.37300E+03
        -0.37300E+03
        -0.37300E+03
        -0.37300E+03
        -0.37300E+03
        -0.37300E+03
        -0.37300E+03
        -0.37300E+03
        -0.37300E+03
        -0.37300E+03
        -0.37300E+03
        -0.37300E+03
        -0.37300E+03
        -0.37300E+03
        -0.37300E+03
        -0.37300E+03
        -0.37300E+03
        -0.37300E+03
        -0.37300E+03
        -0.37300E+03
        -0.37300E+03
        -0.37300E+03
        -0.37300E+03
        -0.37300E+03
        -0.37300E+03
        -0.37300E+03
        -0.37300E+03
        -0.37300E+03
        -0.37300E+03
        -0.37300E+03
        -0.37300E+03
        -0.37300E+03
        -0.37300E+03
        -0.37300E+03
        -0.37300E+03
        -0.37300E+03
        -0.37300E+03
        -0.37300E+03
        -0.37300E+03
        -0.37300E+03
        -0.37300E+03
        -0.37300E+03
        -0.37300E+03
        -0.37300E+03
        -0.37300E+03
        -0.37300E+03
        -0.37300E+03
        -0.37300E+03
        -0.37300E+03
        -0.37300E+03
        -0.37300E+03
        -0.37300E+03
        -0.37300E+03
        -0.37300E+03
        -0.37300E+03
        -0.37300E+03
        -0.37300E+03
        -0.37300E+03
        -0.37300E+03
        -0.37300E+03
        -0.37300E+03
        -0.37300E+03
        -0.37300E+03
        -0.37300E+03
        -0.37300E+03
        -0.37300E+03
        -0.37300E+03
        -0.37300E+03
        -0.37300E+03
        -0.37300E+03
        -0.37300E+03
        -0.37300E+03
        -0.37300E+03
        -0.37300E+03
        -0.37300E+03
        -0.37300E+03
        -0.37300E+03
        -0.37300E+03
        -0.37300E+03
        -0.37300E+03
        -0.37300E+03
        -0.37300E+03
        -0.37300E+03
        -0.37300E+03
        -0.37300E+03
        -0.37300E+03
        -0.37300E+03
        -0.37300E+03
        -0.37300E+03
        -0.37300E+03
        -0.37300E+03
        -0.37300E+03
        -0.37300E+03
        -0.37300E+03
        -0.37300E+03
        -0.37300E+03
        -0.37300E+03
        -0.37300E+03
        -0.37300E+03
        -0.37300E+03
        -0.37300E+03
        -0.37300E+03
        -0.37300E+03
        -0.37300E+03
        -0.37300E+03
        -0.37300E+03
        -0.37300E+03
        -0.37300E+03
        -0.37300E+03
        -0.37300E+03
        -0.37300E+03
        -0.37300E+03
        -0.37300E+03
        -0.37300E+03
        -0.37300E+03
        -0.37300E+03
        -0.37300E+03
        -0.37300E+03
        -0.37300E+03
        -0.37300E+03
        -0.37300E+03
        -0.37300E+03
        -0.37300E+03
        -0.37300E+03
        -0.37300E+03
        -0.37300E+03
        -0.37300E+03
        -0.37300E+03
        -0.37300E+03
        -0.37300E+03
        -0.37300E+03
        -0.37300E+03
        -0.37300E+03
        -0.37300E+03
        -0.37300E+03
        -0.37300E+03
        -0.37300E+03
        -0.37300E+03
        -0.37300E+03
        -0.37300E+03
        -0.37300E+03
        -0.37300E+03
        -0.37300E+03
        -0.37300E+03
        -0.37300E+03
        -0.37300E+03
        -0.37300E+03
        -0.37300E+03
        -0.37300E+03
        -0.37300E+03
        -0.37300E+03
        -0.37300E+03
        -0.37300E+03
        -0.37300E+03
        -0.37300E+03
        -0.37300E+03
        -0.37300E+03
        -0.37300E+03
        -0.37300E+03
        -0.37300E+03
        -0.37300E+03
        -0.37300E+03
        -0.37300E+03
        -0.37300E+03
        -0.37300E+03
        -0.37300E+03
        -0.37300E+03
        -0.37300E+03
        -0.37300E+03
        -0.37300E+03
        -0.37300E+03
        -0.37300E+03
        -0.37300E+03
        -0.37300E+03
        -0.37300E+03
        -0.37300E+03
        -0.37300E+03
        -0.37300E+03
        -0.37300E+03
        -0.37300E+03
        -0.37300E+03
        -0.37300E+03
        -0.37300E+03
        -0.37300E+03
        -0.37300E+03
        -0.37300E+03
        -0.37300E+03
        -0.37300E+03
        -0.37300E+03
        -0.37300E+03
        -0.37300E+03
        -0.37300E+03
        -0.37300E+03
        -0.37300E+03
        -0.37300E+03
        -0.37300E+03
        -0.37300E+03
        -0.37300E+03
        -0.37300E+03
        -0.37300E+03
        -0.37300E+03
        -0.37300E+03
        -0.37300E+03
        -0.37300E+03
        -0.37300E+03
        -0.37300E+03
        -0.37300E+03
        -0.37300E+03
        -0.37300E+03
        -0.37300E+03
        -0.37300E+03
        -0.37300E+03
        -0.37300E+03
        -0.37300E+03
        -0.37300E+03
        -0.37300E+03
        -0.37300E+03
        -0.37300E+03
        -0.37300E+03
        -0.37300E+03
        -0.37300E+03
        -0.37300E+03
        -0.37300E+03
        -0.37300E+03
        -0.37300E+03
        -0.37300E+03
        -0.37300E+03
        -0.37300E+03
        -0.37300E+03
        -0.37300E+03
        -0.37300E+03
        -0.37300E+03
        -0.37300E+03
        -0.37300E+03
        -0.37300E+03
        -0.37300E+03
        -0.37300E+03
        -0.37300E+03
        -0.37300E+03
        -0.37300E+03
        -0.37300E+03
        -0.37300E+03
        -0.37300E+03
        -0.37300E+03
        -0.37300E+03
        -0.37300E+03
        -0.37300E+03
        -0.37300E+03
        -0.37300E+03
        -0.37300E+03
        -0.37300E+03
        -0.37300E+03
        -0.37300E+03
        -0.37300E+03
        -0.37300E+03
        -0.37300E+03
        -0.37300E+03
        -0.37300E+03
        -0.37300E+03
        -0.37300E+03
        -0.37300E+03
        -0.37300E+03
        -0.37300E+03
        -0.37300E+03
        -0.37300E+03
        -0.37300E+03
        -0.37300E+03
        -0.37300E+03
        -0.37300E+03
        -0.37300E+03
        -0.37300E+03
        -0.37300E+03
        -0.37300E+03
        -0.37300E+03
        -0.37300E+03
        -0.37300E+03
        -0.37300E+03
        -0.37300E+03
        -0.37300E+03
        -0.37300E+03
        -0.37300E+03
        -0.37300E+03
        -0.37300E+03
        -0.37300E+03
        -0.37300E+03
        -0.37300E+03
        -0.37300E+03
        -0.37300E+03
        -0.37300E+03
        -0.37300E+03
        -0.37300E+03
        -0.37300E+03
        -0.37300E+03
        -0.37300E+03
        -0.37300E+03
        -0.37300E+03
        -0.37300E+03
        -0.37300E+03
        -0.37300E+03
        -0.37300E+03
        -0.37300E+03
        -0.37300E+03
        -0.37300E+03
        -0.37300E+03
        -0.37300E+03
        -0.37300E+03
        -0.37300E+03
        -0.37300E+03
        -0.37300E+03
        -0.37300E+03
        -0.37300E+03
        -0.37300E+03
        -0.37300E+03
        -0.37300E+03
        -0.37300E+03
        -0.37300E+03
        -0.37300E+03
        -0.37300E+03
        -0.37300E+03
        -0.37300E+03
        -0.37300E+03
        -0.37300E+03
        -0.37300E+03
        -0.37300E+03
        -0.37300E+03
        -0.37300E+03
        -0.37300E+03
        -0.37300E+03
        -0.37300E+03
        -0.37300E+03
        -0.37300E+03
        -0.37300E+03
        -0.37300E+03
        -0.37300E+03
        -0.37300E+03
        -0.37300E+03
        -0.37300E+03
        -0.37300E+03
        -0.37300E+03
        -0.37300E+03
        -0.37300E+03
        -0.37300E+03
        -0.37300E+03
        -0.37300E+03
        -0.37300E+03
        -0.37300E+03
        -0.37300E+03
        -0.37300E+03
        -0.37300E+03
        -0.37300E+03
        -0.37300E+03
        -0.37300E+03
        -0.37300E+03
        -0.37300E+03
        -0.37300E+03
        -0.37300E+03
        -0.37300E+03
        -0.37300E+03
        -0.37300E+03
        -0.37300E+03
        -0.37300E+03
        -0.37300E+03
        -0.37300E+03
        -0.37300E+03
        -0.37300E+03
        -0.37300E+03
        -0.37300E+03
        -0.37300E+03
        -0.37300E+03
        -0.37300E+03
        -0.37300E+03
        -0.37300E+03
        -0.37300E+03
        -0.37300E+03
        -0.37300E+03
        -0.37300E+03
        -0.37300E+03
        -0.37300E+03
        -0.37300E+03
        -0.37300E+03
        -0.37300E+03
        -0.37300E+03
        -0.37300E+03
        -0.37300E+03
        -0.37300E+03
        -0.37300E+03
        -0.37300E+03
        -0.37300E+03
        -0.37300E+03
        -0.37300E+03
        -0.37300E+03
        -0.37300E+03
        -0.37300E+03
        -0.37300E+03
        -0.37300E+03
        -0.37300E+03
        -0.37300E+03
        -0.37300E+03
        -0.37300E+03
        -0.37300E+03
        -0.37300E+03
        -0.37300E+03
        -0.37300E+03
        -0.37300E+03
        -0.37300E+03
        -0.37300E+03
        -0.37300E+03
        -0.37300E+03
        -0.37300E+03
        -0.37300E+03
        -0.37300E+03
        -0.37300E+03
        -0.37300E+03
        -0.37300E+03
        -0.37300E+03
        -0.37300E+03
        -0.37300E+03
        -0.37300E+03
        -0.37300E+03
        -0.37300E+03
        -0.37300E+03
        -0.37300E+03
        -0.37300E+03
        -0.37300E+03
        -0.37300E+03
        -0.37300E+03
        -0.37300E+03
        -0.37300E+03
        -0.37300E+03
        -0.37300E+03
        -0.37300E+03
        -0.37300E+03
        -0.37300E+03
        -0.37300E+03
        -0.37300E+03
        -0.37300E+03
        -0.37300E+03
        -0.37300E+03
        -0.37300E+03
        -0.37300E+03
        -0.37300E+03
        -0.37300E+03
        -0.37300E+03
        -0.37300E+03
        -0.37300E+03
        -0.37300E+03
        -0.37300E+03
        -0.37300E+03
        -0.37300E+03
        -0.37300E+03
        -0.37300E+03
        -0.37300E+03
        -0.37300E+03
        -0.37300E+03
        -0.37300E+03
        -0.37300E+03
        -0.37300E+03
        -0.37300E+03
        -0.37300E+03
        -0.37300E+03
        -0.37300E+03
        -0.37300E+03
        -0.37300E+03
        -0.37300E+03
        -0.37300E+03
        -0.37300E+03
        -0.37300E+03
        -0.37300E+03
        -0.37300E+03
        -0.37300E+03
        -0.37300E+03
        -0.37300E+03
        -0.37300E+03
        -0.37300E+03
        -0.37300E+03
        -0.37300E+03
        -0.37300E+03
        -0.37300E+03
        -0.37300E+03
        -0.37300E+03
        -0.37300E+03
        -0.37300E+03
        -0.37300E+03
        -0.37300E+03
        -0.37300E+03
        -0.37300E+03
        -0.37300E+03
        -0.37300E+03
        -0.37300E+03
        -0.37300E+03
        -0.37300E+03
        -0.37300E+03
        -0.37300E+03
        -0.37300E+03
        -0.37300E+03
        -0.37300E+03
        -0.37300E+03
        -0.37300E+03
        -0.37300E+03
        -0.37300E+03
        -0.37300E+03
        -0.37300E+03
        -0.37300E+03
        -0.37300E+03
        -0.37300E+03
        -0.37300E+03
        -0.37300E+03
        -0.37300E+03
        -0.37300E+03
        -0.37300E+03
        -0.37300E+03
        -0.37300E+03
        -0.37300E+03
        -0.37300E+03
        -0.37300E+03
        -0.37300E+03
        -0.37300E+03
        -0.37300E+03
        -0.37300E+03
        -0.37300E+03
        -0.37300E+03
        -0.37300E+03
        -0.37300E+03
        -0.37300E+03
        -0.37300E+03
        -0.37300E+03
        -0.37300E+03
        -0.37300E+03
        -0.37300E+03
        -0.37300E+03
        -0.37300E+03
        -0.37300E+03
        -0.37300E+03
        -0.37300E+03
        -0.37300E+03
        -0.37300E+03
        -0.37300E+03
        -0.37300E+03
        -0.37300E+03
        -0.37300E+03
        -0.37300E+03
        -0.37300E+03
        -0.37300E+03
        -0.37300E+03
        -0.37300E+03
        -0.37300E+03
        -0.37300E+03
        -0.37300E+03
        -0.37300E+03
        -0.37300E+03
        -0.37300E+03
        -0.37300E+03
        -0.37300E+03
        -0.37300E+03
        -0.37300E+03
        -0.37300E+03
        -0.37300E+03
        -0.37300E+03
        -0.37300E+03
        -0.37300E+03
        -0.37300E+03
        -0.37300E+03
        -0.37300E+03
        -0.37300E+03
        -0.37300E+03
        -0.37300E+03
        -0.37300E+03
        -0.37300E+03
        -0.37300E+03
        -0.37300E+03
        -0.37300E+03
        -0.37300E+03
        -0.37300E+03
        -0.37300E+03
        -0.37300E+03
        -0.37300E+03
        -0.37300E+03
        -0.37300E+03
        -0.37300E+03
        -0.37300E+03
        -0.37300E+03
        -0.37300E+03
        -0.37300E+03
        -0.37300E+03
        -0.37300E+03
        -0.37300E+03
        -0.37300E+03
        -0.37300E+03
        -0.37300E+03
        -0.37300E+03
        -0.37300E+03
        -0.37300E+03
        -0.37300E+03
        -0.37300E+03
        -0.37300E+03
        -0.37300E+03
        -0.37300E+03
        -0.37300E+03
        -0.37300E+03
        -0.37300E+03
        -0.37300E+03
        -0.37300E+03
        -0.37300E+03
        -0.37300E+03
        -0.37300E+03
        -0.37300E+03
        -0.37300E+03
        -0.37300E+03
        -0.37300E+03
        -0.37300E+03
        -0.37300E+03
        -0.37300E+03
        -0.37300E+03
        -0.37300E+03
        -0.37300E+03
        -0.37300E+03
        -0.37300E+03
        -0.37300E+03
        -0.37300E+03
        -0.37300E+03
        -0.37300E+03
        -0.37300E+03
        -0.37300E+03
        -0.37300E+03
        -0.37300E+03
        -0.37300E+03
        -0.37300E+03
        -0.37300E+03
        -0.37300E+03
        -0.37300E+03
        -0.37300E+03
        -0.37300E+03
        -0.37300E+03
        -0.37300E+03
        -0.37300E+03
        -0.37300E+03
        -0.37300E+03
        -0.37300E+03
        -0.37300E+03
        -0.37300E+03
        -0.37300E+03
        -0.37300E+03
        -0.37300E+03
        -0.37300E+03
        -0.37300E+03
        -0.37300E+03
        -0.37300E+03
        -0.37300E+03
        -0.37300E+03
        -0.37300E+03
        -0.37300E+03
        -0.37300E+03
        -0.37300E+03
        -0.37300E+03
        -0.37300E+03
        -0.37300E+03
        -0.37300E+03
        -0.37300E+03
        -0.37300E+03
        -0.37300E+03
        -0.37300E+03
        -0.37300E+03
        -0.37300E+03
        -0.37300E+03
        -0.37300E+03
        -0.37300E+03
        -0.37300E+03
        -0.37300E+03
        -0.37300E+03
        -0.37300E+03
        -0.37300E+03
        -0.37300E+03
        -0.37300E+03
        -0.37300E+03
        -0.37300E+03
        -0.37300E+03
        -0.37300E+03
        -0.37300E+03
        -0.37300E+03
        -0.37300E+03
        -0.37300E+03
        -0.37300E+03
        -0.37300E+03
        -0.37300E+03
        -0.37300E+03
        -0.37300E+03
        -0.37300E+03
        -0.37300E+03
        -0.37300E+03
        -0.37300E+03
        -0.37300E+03
        -0.37300E+03
        -0.37300E+03
        -0.37300E+03
        -0.37300E+03
        -0.37300E+03
        -0.37300E+03
        -0.37300E+03
        -0.37300E+03
        -0.37300E+03
        -0.37300E+03
        -0.37300E+03
        -0.37300E+03
        -0.37300E+03
        -0.37300E+03
        -0.37300E+03
        -0.37300E+03
        -0.37300E+03
        -0.37300E+03
        -0.37300E+03
        -0.37300E+03
        -0.37300E+03
        -0.37300E+03
        -0.37300E+03
        -0.37300E+03
        -0.37300E+03
        -0.37300E+03
        -0.37300E+03
        -0.37300E+03
        -0.37300E+03
        -0.37300E+03
        -0.37300E+03
        -0.37300E+03
        -0.37300E+03
        -0.37300E+03
        -0.37300E+03
        -0.37300E+03
        -0.37300E+03
        -0.37300E+03
        -0.37300E+03
        -0.37300E+03
        -0.37300E+03
        -0.37300E+03
        -0.37300E+03
        -0.37300E+03
        -0.37300E+03
        -0.37300E+03
        -0.37300E+03
        -0.37300E+03
        -0.37300E+03
        -0.37300E+03
        -0.37300E+03
        -0.37300E+03
        -0.37300E+03
        -0.37300E+03
        -0.37300E+03
        -0.37300E+03
        -0.37300E+03
        -0.37300E+03
        -0.37300E+03
        -0.37300E+03
        -0.37300E+03
        -0.37300E+03
        -0.37300E+03
        -0.37300E+03
        -0.37300E+03
        -0.37300E+03
        -0.37300E+03
        -0.37300E+03
        -0.37300E+03
        -0.37300E+03
        -0.37300E+03
        -0.37300E+03
        -0.37300E+03
        -0.37300E+03
        -0.37300E+03
        -0.37300E+03
        -0.37300E+03
        -0.37300E+03
        -0.37300E+03
        -0.37300E+03
        -0.37300E+03
        -0.37300E+03
        -0.37300E+03
        -0.37300E+03
        -0.37300E+03
        -0.37300E+03
        -0.37300E+03
        -0.37300E+03
        -0.37300E+03
        -0.37300E+03
        -0.37300E+03
        -0.37300E+03
        -0.37300E+03
        -0.37300E+03
        -0.37300E+03
        -0.37300E+03
        -0.37300E+03
        -0.37300E+03
        -0.37300E+03
        -0.37300E+03
        -0.37300E+03
        -0.37300E+03
        -0.37300E+03
        -0.37300E+03
        -0.37300E+03
        -0.37300E+03
        -0.37300E+03
        -0.37300E+03
        -0.37300E+03
        -0.37300E+03
        -0.37300E+03
        -0.37300E+03
        -0.37300E+03
        -0.37300E+03
        -0.37300E+03
        -0.37300E+03
        -0.37300E+03
        -0.37300E+03
        -0.37300E+03
        -0.37300E+03
        -0.37300E+03
        -0.37300E+03
        -0.37300E+03
        -0.37300E+03
        -0.37300E+03
        -0.37300E+03
        -0.37300E+03
        -0.37300E+03
        -0.37300E+03
        -0.37300E+03
        -0.37300E+03
        -0.37300E+03
        -0.37300E+03
        -0.37300E+03
        -0.37300E+03
        -0.37300E+03
        -0.37300E+03
        -0.37300E+03
        -0.37300E+03
        -0.37300E+03
        -0.37300E+03
        -0.37300E+03
        -0.37300E+03
        -0.37300E+03
        -0.37300E+03
        -0.37300E+03
        -0.37300E+03
        -0.37300E+03
        -0.37300E+03
        -0.37300E+03
        -0.37300E+03
        -0.37300E+03
        -0.37300E+03
        -0.37300E+03
        -0.37300E+03
        -0.37300E+03
        -0.37300E+03
        -0.37300E+03
        -0.37300E+03
        -0.37300E+03
        -0.37300E+03
        -0.37300E+03
        -0.37300E+03
        -0.37300E+03
        -0.37300E+03
        -0.37300E+03
        -0.37300E+03
        -0.37300E+03
        -0.37300E+03
        -0.37300E+03
        -0.37300E+03
        -0.37300E+03
        -0.37300E+03
        -0.37300E+03
        -0.37300E+03
        -0.37300E+03
        -0.37300E+03
        -0.37300E+03
        -0.37300E+03
        -0.37300E+03
        -0.37300E+03
        -0.37300E+03
        -0.37300E+03
        -0.37300E+03
        -0.37300E+03
        -0.37300E+03
        -0.37300E+03
        -0.37300E+03
        -0.37300E+03
        -0.37300E+03
        -0.37300E+03
        -0.37300E+03
        -0.37300E+03
        -0.37300E+03
        -0.37300E+03
        -0.37300E+03
        -0.37300E+03
        -0.37300E+03
        -0.37300E+03
        -0.37300E+03
        -0.37300E+03
        -0.37300E+03
        -0.37300E+03
        -0.37300E+03
        -0.37300E+03
        -0.37300E+03
        -0.37300E+03
        -0.37300E+03
        -0.37300E+03
        -0.37300E+03
        -0.37300E+03
        -0.37300E+03
        -0.37300E+03
        -0.37300E+03
        -0.37300E+03
        -0.37300E+03
        -0.37300E+03
        -0.37300E+03
        -0.37300E+03
        -0.37300E+03
        -0.37300E+03
        -0.37300E+03
        -0.37300E+03
        -0.37300E+03
        -0.37300E+03
        -0.37300E+03
        -0.37300E+03
        -0.37300E+03
        -0.37300E+03
        -0.37300E+03
        -0.37300E+03
        -0.37300E+03
        -0.37300E+03
        -0.37300E+03
        -0.37300E+03
        -0.37300E+03
        -0.37300E+03
        -0.37300E+03
        -0.37300E+03
        -0.37300E+03
        -0.37300E+03
        -0.37300E+03
        -0.37300E+03
        -0.37300E+03
        -0.37300E+03
        -0.37300E+03
        -0.37300E+03
        -0.37300E+03
        -0.37300E+03
        -0.37300E+03
        -0.37300E+03
        -0.37300E+03
        -0.37300E+03
        -0.37300E+03
        -0.37300E+03
        -0.37300E+03
        -0.37300E+03
        -0.37300E+03
        -0.37300E+03
        -0.37300E+03
        -0.37300E+03
        -0.37300E+03
        -0.37300E+03
        -0.37300E+03
        -0.37300E+03
        -0.37300E+03
        -0.37300E+03
        -0.37300E+03
        -0.37300E+03
        -0.37300E+03
        -0.37300E+03
        -0.37300E+03
        -0.37300E+03
        -0.37300E+03
        -0.37300E+03
        -0.37300E+03
        -0.37300E+03
        -0.37300E+03
        -0.37300E+03
        -0.37300E+03
        -0.37300E+03
        -0.37300E+03
        -0.37300E+03
        -0.37300E+03
        -0.37300E+03
        -0.37300E+03
        -0.37300E+03
        -0.37300E+03
        -0.37300E+03
        -0.37300E+03
        -0.37300E+03
        -0.37300E+03
        -0.37300E+03
        -0.37300E+03
        -0.37300E+03
        -0.37300E+03
        -0.37300E+03
        -0.37300E+03
        -0.37300E+03
        -0.37300E+03
        -0.37300E+03
        -0.37300E+03
        -0.37300E+03
        -0.37300E+03
        -0.37300E+03
        -0.37300E+03
        -0.37300E+03
        -0.37300E+03
        -0.37300E+03
        -0.37300E+03
        -0.37300E+03
        -0.37300E+03
        -0.37300E+03
        -0.37300E+03
        -0.37300E+03
        -0.37300E+03
        -0.37300E+03
        -0.37300E+03
        -0.37300E+03
        -0.37300E+03
        -0.37300E+03
        -0.37300E+03
        -0.37300E+03
        -0.37300E+03
        -0.37300E+03
        -0.37300E+03
        -0.37300E+03
        -0.37300E+03
        -0.37300E+03
        -0.37300E+03
        -0.37300E+03
        -0.37300E+03
        -0.37300E+03
        -0.37300E+03
        -0.37300E+03
        -0.37300E+03
        -0.37300E+03
        -0.37300E+03
        -0.37300E+03
        -0.37300E+03
        -0.37300E+03
        -0.37300E+03
        -0.37300E+03
        -0.37300E+03
        -0.37300E+03
        -0.37300E+03
        -0.37300E+03
        -0.37300E+03
        -0.37300E+03
        -0.37300E+03
        -0.37300E+03
        -0.37300E+03
        -0.37300E+03
        -0.37300E+03
        -0.37300E+03
        -0.37300E+03
        -0.37300E+03
        -0.37300E+03
        -0.37300E+03
        -0.37300E+03
        -0.37300E+03
        -0.37300E+03
        -0.37300E+03
        -0.37300E+03
        -0.37300E+03
        -0.37300E+03
        -0.37300E+03
        -0.37300E+03
        -0.37300E+03
        -0.37300E+03
        -0.37300E+03
        -0.37300E+03
        -0.37300E+03
        -0.37300E+03
        -0.37300E+03
        -0.37300E+03
        -0.37300E+03
        -0.37300E+03
        -0.37300E+03
        -0.37300E+03
        -0.37300E+03
        -0.37300E+03
        -0.37300E+03
        -0.37300E+03
        -0.37300E+03
        -0.37300E+03
        -0.37300E+03
        -0.37300E+03
        -0.37300E+03
        -0.37300E+03
        -0.37300E+03
        -0.37300E+03
        -0.37300E+03
        -0.37300E+03
        -0.37300E+03
        -0.37300E+03
        -0.37300E+03
        -0.37300E+03
        -0.37300E+03
        -0.37300E+03
        -0.37300E+03
        -0.37300E+03
        -0.37300E+03
        -0.37300E+03
        -0.37300E+03
        -0.37300E+03
        -0.37300E+03
        -0.37300E+03
        -0.37300E+03
        -0.37300E+03
        -0.37300E+03
        -0.37300E+03
        -0.37300E+03
        -0.37300E+03
        -0.37300E+03
        -0.37300E+03
        -0.37300E+03
        -0.37300E+03
        -0.37300E+03
        -0.37300E+03
        -0.37300E+03
        -0.37300E+03
        -0.37300E+03
        -0.37300E+03
        -0.37300E+03
        -0.37300E+03
        -0.37300E+03
        -0.37300E+03
        -0.37300E+03
        -0.37300E+03
        -0.37300E+03
        -0.37300E+03
        -0.37300E+03
        -0.37300E+03
        -0.37300E+03
        -0.37300E+03
        -0.37300E+03
        -0.37300E+03
        -0.37300E+03
        -0.37300E+03
        -0.37300E+03
        -0.37300E+03
        -0.37300E+03
        -0.37300E+03
        -0.37300E+03
        -0.37300E+03
        -0.37300E+03
        -0.37300E+03
        -0.37300E+03
        -0.37300E+03
        -0.37300E+03
        -0.37300E+03
        -0.37300E+03
        -0.37300E+03
        -0.37300E+03
        -0.37300E+03
        -0.37300E+03
        -0.37300E+03
        -0.37300E+03
        -0.37300E+03
        -0.37300E+03
        -0.37300E+03
        -0.37300E+03
        -0.37300E+03
        -0.37300E+03
        -0.37300E+03
        -0.37300E+03
        -0.37300E+03
        -0.37300E+03
        -0.37300E+03
        -0.37300E+03
        -0.37300E+03
        -0.37300E+03
        -0.37300E+03
        -0.37300E+03
        -0.37300E+03
        -0.37300E+03
        -0.37300E+03
        -0.37300E+03
        -0.37300E+03
        -0.37300E+03
        -0.37300E+03
        -0.37300E+03
        -0.37300E+03
        -0.37300E+03
        -0.37300E+03
        -0.37300E+03
        -0.37300E+03
        -0.37300E+03
        -0.37300E+03
        -0.37300E+03
        -0.37300E+03
        -0.37300E+03
        -0.37300E+03
        -0.37300E+03
        -0.37300E+03
        -0.37300E+03
        -0.37300E+03
        -0.37300E+03
        -0.37300E+03
        -0.37300E+03
        -0.37300E+03
        -0.37300E+03
        -0.37300E+03
        -0.37300E+03
        -0.37300E+03
        -0.37300E+03
        -0.37300E+03
        -0.37300E+03
        -0.37300E+03
        -0.37300E+03
        -0.37300E+03
        -0.37300E+03
        -0.37300E+03
        -0.37300E+03
        -0.37300E+03
        -0.37300E+03
        -0.37300E+03
        -0.37300E+03
        -0.37300E+03
        -0.37300E+03
        -0.37300E+03
        -0.37300E+03
        -0.37300E+03
        -0.37300E+03
        -0.37300E+03
        -0.37300E+03
        -0.37300E+03
        -0.37300E+03
        -0.37300E+03
        -0.37300E+03
        -0.37300E+03
        -0.37300E+03
        -0.37300E+03
        -0.37300E+03
        -0.37300E+03
        -0.37300E+03
        -0.37300E+03
        -0.37300E+03
        -0.37300E+03
        -0.37300E+03
        -0.37300E+03
        -0.37300E+03
        -0.37300E+03
        -0.37300E+03
        -0.37300E+03
        -0.37300E+03
        -0.37300E+03
        -0.37300E+03
        -0.37300E+03
        -0.37300E+03
        -0.37300E+03
        -0.37300E+03
        -0.37300E+03
        -0.37300E+03
        -0.37300E+03
        -0.37300E+03
        -0.37300E+03
        -0.37300E+03
        -0.37300E+03
        -0.37300E+03
        -0.37300E+03
        -0.37300E+03
        -0.37300E+03
        -0.37300E+03
        -0.37300E+03
        -0.37300E+03
        -0.37300E+03
        -0.37300E+03
        -0.37300E+03
        -0.37300E+03
        -0.37300E+03
        -0.37300E+03
        -0.37300E+03
        -0.37300E+03
        -0.37300E+03
        -0.37300E+03
        -0.37300E+03
        -0.37300E+03
        -0.37300E+03
        -0.37300E+03
        -0.37300E+03
        -0.37300E+03
        -0.37300E+03
        -0.37300E+03
        -0.37300E+03
        -0.37300E+03
        -0.37300E+03
        -0.37300E+03
        -0.37300E+03
        -0.37300E+03
        -0.37300E+03
        -0.37300E+03
        -0.37300E+03
        -0.37300E+03
        -0.37300E+03
        -0.37300E+03
        -0.37300E+03
        -0.37300E+03
        -0.37300E+03
        -0.37300E+03
        -0.37300E+03
        -0.37300E+03
        -0.37300E+03
        -0.37300E+03
        -0.37300E+03
        -0.37300E+03
        -0.37300E+03
        -0.37300E+03
        -0.37300E+03
        -0.37300E+03
        -0.37300E+03
        -0.37300E+03
        -0.37300E+03
        -0.37300E+03
        -0.37300E+03
        -0.37300E+03
        -0.37300E+03
        -0.37300E+03
        -0.37300E+03
        -0.37300E+03
        -0.37300E+03
        -0.37300E+03
        -0.37300E+03
        -0.37300E+03
        -0.37300E+03
        -0.37300E+03
        -0.37300E+03
        -0.37300E+03
        -0.37300E+03
        -0.37300E+03
        -0.37300E+03
        -0.37300E+03
        -0.37300E+03
        -0.37300E+03
        -0.37300E+03
        -0.37300E+03
        -0.37300E+03
        -0.37300E+03
        -0.37300E+03
        -0.37300E+03
        -0.37300E+03
        -0.37300E+03
        -0.37300E+03
        -0.37300E+03
        -0.37300E+03
        -0.37300E+03
        -0.37300E+03
        -0.37300E+03
        -0.37300E+03
        -0.37300E+03
        -0.37300E+03
        -0.37300E+03
        -0.37300E+03
        -0.37300E+03
        -0.37300E+03
        -0.37300E+03
        -0.37300E+03
        -0.37300E+03
        -0.37300E+03
        -0.37300E+03
        -0.37300E+03
        -0.37300E+03
        -0.37300E+03
        -0.37300E+03
        -0.37300E+03
        -0.37300E+03
        -0.37300E+03
        -0.37300E+03
        -0.37300E+03
        -0.37300E+03
        -0.37300E+03
        -0.37300E+03
        -0.37300E+03
        -0.37300E+03
        -0.37300E+03
        -0.37300E+03
        -0.37300E+03
        -0.37300E+03
        -0.37300E+03
        -0.37300E+03
        -0.37300E+03
        -0.37300E+03
        -0.37300E+03
        -0.37300E+03
        -0.37300E+03
        -0.37300E+03
        -0.37300E+03
        -0.37300E+03
        -0.37300E+03
        -0.37300E+03
        -0.37300E+03
        -0.37300E+03
        -0.37300E+03
        -0.37300E+03
        -0.37300E+03
        -0.37300E+03
        -0.37300E+03
        -0.37300E+03
        -0.37300E+03
        -0.37300E+03
        -0.37300E+03
        -0.37300E+03
        -0.37300E+03
        -0.37300E+03
        -0.37300E+03
        -0.37300E+03
        -0.37300E+03
        -0.37300E+03
        -0.37300E+03
        -0.37300E+03
        -0.37300E+03
        -0.37300E+03
        -0.37300E+03
        -0.37300E+03
        -0.37300E+03
        -0.37300E+03
        -0.37300E+03
        -0.37300E+03
        -0.37300E+03
        -0.37300E+03
        -0.37300E+03
        -0.37300E+03
        -0.37300E+03
        -0.37300E+03
        -0.37300E+03
        -0.37300E+03
        -0.37300E+03
        -0.37300E+03
        -0.37300E+03
        -0.37300E+03
        -0.37300E+03
        -0.37300E+03
        -0.37300E+03
        -0.37300E+03
        -0.37300E+03
        -0.37300E+03
        -0.37300E+03
        -0.37300E+03
        -0.37300E+03
        -0.37300E+03
        -0.37300E+03
        -0.37300E+03
        -0.37300E+03
        -0.37300E+03
        -0.37300E+03
        -0.37300E+03
        -0.37300E+03
        -0.37300E+03
        -0.37300E+03
        -0.37300E+03
        -0.37300E+03
        -0.37300E+03
        -0.37300E+03
        -0.37300E+03
        -0.37300E+03
        -0.37300E+03
        -0.37300E+03
        -0.37300E+03
        -0.37300E+03
        -0.37300E+03
        -0.37300E+03
        -0.37300E+03
        -0.37300E+03
        -0.37300E+03
        -0.37300E+03
        -0.37300E+03
        -0.37300E+03
        -0.37300E+03
        -0.37300E+03
        -0.37300E+03
        -0.37300E+03
        -0.37300E+03
        -0.37300E+03
        -0.37300E+03
        -0.37300E+03
        -0.37300E+03
        -0.37300E+03
        -0.37300E+03
        -0.37300E+03
        -0.37300E+03
        -0.37300E+03
        -0.37300E+03
        -0.37300E+03
        -0.37300E+03
        -0.37300E+03
        -0.37300E+03
        -0.37300E+03
        -0.37300E+03
        -0.37300E+03
        -0.37300E+03
        -0.37300E+03
        -0.37300E+03
        -0.37300E+03
        -0.37300E+03
        -0.37300E+03
        -0.37300E+03
        -0.37300E+03
        -0.37300E+03
        -0.37300E+03
        -0.37300E+03
        -0.37300E+03
        -0.37300E+03
        -0.37300E+03
        -0.37300E+03
        -0.37300E+03
        -0.37300E+03
        -0.37300E+03
        -0.37300E+03
        -0.37300E+03
        -0.37300E+03
        -0.37300E+03
        -0.37300E+03
        -0.37300E+03
        -0.37300E+03
        -0.37300E+03
        -0.37300E+03
        -0.37300E+03
        -0.37300E+03
        -0.37300E+03
        -0.37300E+03
        -0.37300E+03
        -0.37300E+03
        -0.37300E+03
        -0.37300E+03
        -0.37300E+03
        -0.37300E+03
        -0.37300E+03
        -0.37300E+03
        -0.37300E+03
        -0.37300E+03
        -0.37300E+03
        -0.37300E+03
        -0.37300E+03
        -0.37300E+03
        -0.37300E+03
        -0.37300E+03
        -0.37300E+03
        -0.37300E+03
        -0.37300E+03
        -0.37300E+03
        -0.37300E+03
        -0.37300E+03
        -0.37300E+03
        -0.37300E+03
        -0.37300E+03
        -0.37300E+03
        -0.37300E+03
        -0.37300E+03
        -0.37300E+03
        -0.37300E+03
        -0.37300E+03
        -0.37300E+03
        -0.37300E+03
        -0.37300E+03
        -0.37300E+03
        -0.37300E+03
        -0.37300E+03
        -0.37300E+03
        -0.37300E+03
        -0.37300E+03
        -0.37300E+03
        -0.37300E+03
        -0.37300E+03
        -0.37300E+03
        -0.37300E+03
        -0.37300E+03
        -0.37300E+03
        -0.37300E+03
        -0.37300E+03
        -0.37300E+03
        -0.37300E+03
        -0.37300E+03
        -0.37300E+03
        -0.37300E+03
        -0.37300E+03
        -0.37300E+03
        -0.37300E+03
        -0.37300E+03
        -0.37300E+03
        -0.37300E+03
        -0.37300E+03
        -0.37300E+03
        -0.37300E+03
        -0.37300E+03
        -0.37300E+03
        -0.37300E+03
        -0.37300E+03
        -0.37300E+03
        -0.37300E+03
        -0.37300E+03
        -0.37300E+03
        -0.37300E+03
        -0.37300E+03
        -0.37300E+03
        -0.37300E+03
        -0.37300E+03
        -0.37300E+03
        -0.37300E+03
        -0.37300E+03
        -0.37300E+03
        -0.37300E+03
        -0.37300E+03
        -0.37300E+03
        -0.37300E+03
        -0.37300E+03
        -0.37300E+03
        -0.37300E+03
        -0.37300E+03
        -0.37300E+03
        -0.37300E+03
        -0.37300E+03
        -0.37300E+03
        -0.37300E+03
        -0.37300E+03
        -0.37300E+03
        -0.37300E+03
        -0.37300E+03
        -0.37300E+03
        -0.37300E+03
        -0.37300E+03
        -0.37300E+03
        -0.37300E+03
        -0.37300E+03
        -0.37300E+03
        -0.37300E+03
        -0.37300E+03
        -0.37300E+03
        -0.37300E+03
        -0.37300E+03
        -0.37300E+03
        -0.37300E+03
        -0.37300E+03
        -0.37300E+03
        -0.37300E+03
        -0.37300E+03
        -0.37300E+03
        -0.37300E+03
        -0.37300E+03
        -0.37300E+03
        -0.37300E+03
        -0.37300E+03
        -0.37300E+03
        -0.37300E+03
        -0.37300E+03
        -0.37300E+03
        -0.37300E+03
        -0.37300E+03
        -0.37300E+03
        -0.37300E+03
        -0.37300E+03
        -0.37300E+03
        -0.37300E+03
        -0.37300E+03
        -0.37300E+03
        -0.37300E+03
        -0.37300E+03
        -0.37300E+03
        -0.37300E+03
        -0.37300E+03
        -0.37300E+03
        -0.37300E+03
        -0.37300E+03
        -0.37300E+03
        -0.37300E+03
        -0.37300E+03
        -0.37300E+03
        -0.37300E+03
        -0.37300E+03
        -0.37300E+03
        -0.37300E+03
        -0.37300E+03
        -0.37300E+03
        -0.37300E+03
        -0.37300E+03
        -0.37300E+03
        -0.37300E+03
        -0.37300E+03
        -0.37300E+03
        -0.37300E+03
        -0.37300E+03
        -0.37300E+03
        -0.37300E+03
        -0.37300E+03
        -0.37300E+03
        -0.37300E+03
        -0.37300E+03
        -0.37300E+03
        -0.37300E+03
        -0.37300E+03
        -0.37300E+03
        -0.37300E+03
        -0.37300E+03
        -0.37300E+03
        -0.37300E+03
        -0.37300E+03
        -0.37300E+03
        -0.37300E+03
        -0.37300E+03
        -0.37300E+03
        -0.37300E+03
        -0.37300E+03
        -0.37300E+03
        -0.37300E+03
        -0.37300E+03
        -0.37300E+03
        -0.37300E+03
        -0.37300E+03
        -0.37300E+03
        -0.37300E+03
  
SCALARS              normalized_window  double 1
LOOKUP_TABLE default
         0.27500E+01
         0.27500E+01
         0.27500E+01
         0.27500E+01
         0.27500E+01
         0.27500E+01
         0.27500E+01
         0.27500E+01
         0.27500E+01
         0.27500E+01
         0.27500E+01
         0.27500E+01
         0.27500E+01
         0.27500E+01
         0.27500E+01
         0.27500E+01
         0.27500E+01
         0.27500E+01
         0.27500E+01
         0.27500E+01
         0.27500E+01
         0.27500E+01
         0.27500E+01
         0.27500E+01
         0.27500E+01
         0.27500E+01
         0.27500E+01
         0.27500E+01
         0.27500E+01
         0.27500E+01
         0.27500E+01
         0.27500E+01
         0.27500E+01
         0.27500E+01
         0.27500E+01
         0.27500E+01
         0.27500E+01
         0.27500E+01
         0.27500E+01
         0.27500E+01
         0.27500E+01
         0.27500E+01
         0.27500E+01
         0.27500E+01
         0.27500E+01
         0.27500E+01
         0.27500E+01
         0.27500E+01
         0.27500E+01
         0.27500E+01
         0.27500E+01
         0.27500E+01
         0.27500E+01
         0.27500E+01
         0.27500E+01
         0.27500E+01
         0.27500E+01
         0.27500E+01
         0.27500E+01
         0.27500E+01
         0.27500E+01
         0.27500E+01
         0.27500E+01
         0.27500E+01
         0.27500E+01
         0.27500E+01
         0.27500E+01
         0.27500E+01
         0.27500E+01
         0.27500E+01
         0.27500E+01
         0.27500E+01
         0.27500E+01
         0.27500E+01
         0.27500E+01
         0.27500E+01
         0.27500E+01
         0.27500E+01
         0.27500E+01
         0.27500E+01
         0.27500E+01
         0.27500E+01
         0.27500E+01
         0.27500E+01
         0.27500E+01
         0.27500E+01
         0.27500E+01
         0.27500E+01
         0.27500E+01
         0.27500E+01
         0.27500E+01
         0.27500E+01
         0.27500E+01
         0.27500E+01
         0.27500E+01
         0.27500E+01
         0.27500E+01
         0.27500E+01
         0.27500E+01
         0.27500E+01
         0.27500E+01
         0.27500E+01
         0.27500E+01
         0.27500E+01
         0.27500E+01
         0.27500E+01
         0.27500E+01
         0.27500E+01
         0.27500E+01
         0.27500E+01
         0.27500E+01
         0.27500E+01
         0.27500E+01
         0.27500E+01
         0.27500E+01
         0.27500E+01
         0.27500E+01
         0.27500E+01
         0.27500E+01
         0.27500E+01
         0.27500E+01
         0.27500E+01
         0.27500E+01
         0.27500E+01
         0.27500E+01
         0.27500E+01
         0.27500E+01
         0.27500E+01
         0.27500E+01
         0.27500E+01
         0.27500E+01
         0.27500E+01
         0.27500E+01
         0.27500E+01
         0.27500E+01
         0.27500E+01
         0.27500E+01
         0.27500E+01
         0.27500E+01
         0.27500E+01
         0.27500E+01
         0.27500E+01
         0.27500E+01
         0.27500E+01
         0.27500E+01
         0.27500E+01
         0.27500E+01
         0.27500E+01
         0.27500E+01
         0.27500E+01
         0.27500E+01
         0.27500E+01
         0.27500E+01
         0.27500E+01
         0.27500E+01
         0.27500E+01
         0.27500E+01
         0.27500E+01
         0.27500E+01
         0.27500E+01
         0.27500E+01
         0.27500E+01
         0.27500E+01
         0.27500E+01
         0.27500E+01
         0.27500E+01
         0.27500E+01
         0.27500E+01
         0.27500E+01
         0.27500E+01
         0.27500E+01
         0.27500E+01
         0.27500E+01
         0.27500E+01
         0.27500E+01
         0.27500E+01
         0.27500E+01
         0.27500E+01
         0.27500E+01
         0.27500E+01
         0.27500E+01
         0.27500E+01
         0.27500E+01
         0.27500E+01
         0.27500E+01
         0.27500E+01
         0.27500E+01
         0.27500E+01
         0.27500E+01
         0.27500E+01
         0.27500E+01
         0.27500E+01
         0.27500E+01
         0.27500E+01
         0.27500E+01
         0.27500E+01
         0.27500E+01
         0.27500E+01
         0.27500E+01
         0.27500E+01
         0.27500E+01
         0.27500E+01
         0.27500E+01
         0.27500E+01
         0.27500E+01
         0.27500E+01
         0.27500E+01
         0.27500E+01
         0.27500E+01
         0.27500E+01
         0.27500E+01
         0.27500E+01
         0.27500E+01
         0.27500E+01
         0.27500E+01
         0.27500E+01
         0.27500E+01
         0.27500E+01
         0.27500E+01
         0.27500E+01
         0.27500E+01
         0.27500E+01
         0.27500E+01
         0.27500E+01
         0.27500E+01
         0.27500E+01
         0.27500E+01
         0.27500E+01
         0.27500E+01
         0.27500E+01
         0.27500E+01
         0.27500E+01
         0.27500E+01
         0.27500E+01
         0.27500E+01
         0.27500E+01
         0.27500E+01
         0.27500E+01
         0.27500E+01
         0.27500E+01
         0.27500E+01
         0.27500E+01
         0.27500E+01
         0.27500E+01
         0.27500E+01
         0.27500E+01
         0.27500E+01
         0.27500E+01
         0.27500E+01
         0.27500E+01
         0.27500E+01
         0.27500E+01
         0.27500E+01
         0.27500E+01
         0.27500E+01
         0.27500E+01
         0.27500E+01
         0.27500E+01
         0.27500E+01
         0.27500E+01
         0.27500E+01
         0.27500E+01
         0.27500E+01
         0.27500E+01
         0.27500E+01
         0.27500E+01
         0.27500E+01
         0.27500E+01
         0.27500E+01
         0.27500E+01
         0.27500E+01
         0.27500E+01
         0.27500E+01
         0.27500E+01
         0.27500E+01
         0.27500E+01
         0.27500E+01
         0.27500E+01
         0.27500E+01
         0.27500E+01
         0.27500E+01
         0.27500E+01
         0.27500E+01
         0.27500E+01
         0.27500E+01
         0.27500E+01
         0.27500E+01
         0.27500E+01
         0.27500E+01
         0.27500E+01
         0.27500E+01
         0.27500E+01
         0.27500E+01
         0.27500E+01
         0.27500E+01
         0.27500E+01
         0.27500E+01
         0.27500E+01
         0.27500E+01
         0.27500E+01
         0.27500E+01
         0.27500E+01
         0.27500E+01
         0.27500E+01
         0.27500E+01
         0.27500E+01
         0.27500E+01
         0.27500E+01
         0.27500E+01
         0.27500E+01
         0.27500E+01
         0.27500E+01
         0.27500E+01
         0.27500E+01
         0.27500E+01
         0.27500E+01
         0.27500E+01
         0.27500E+01
         0.27500E+01
         0.27500E+01
         0.27500E+01
         0.27500E+01
         0.27500E+01
         0.27500E+01
         0.27500E+01
         0.27500E+01
         0.27500E+01
         0.27500E+01
         0.27500E+01
         0.27500E+01
         0.27500E+01
         0.27500E+01
         0.27500E+01
         0.27500E+01
         0.27500E+01
         0.27500E+01
         0.27500E+01
         0.27500E+01
         0.27500E+01
         0.27500E+01
         0.27500E+01
         0.27500E+01
         0.27500E+01
         0.27500E+01
         0.27500E+01
         0.27500E+01
         0.27500E+01
         0.27500E+01
         0.27500E+01
         0.27500E+01
         0.27500E+01
         0.27500E+01
         0.27500E+01
         0.27500E+01
         0.27500E+01
         0.27500E+01
         0.27500E+01
         0.27500E+01
         0.27500E+01
         0.27500E+01
         0.27500E+01
         0.27500E+01
         0.27500E+01
         0.27500E+01
         0.27500E+01
         0.27500E+01
         0.27500E+01
         0.27500E+01
         0.27500E+01
         0.27500E+01
         0.27500E+01
         0.27500E+01
         0.27500E+01
         0.27500E+01
         0.27500E+01
         0.27500E+01
         0.27500E+01
         0.27500E+01
         0.27500E+01
         0.27500E+01
         0.27500E+01
         0.27500E+01
         0.27500E+01
         0.27500E+01
         0.27500E+01
         0.27500E+01
         0.27500E+01
         0.27500E+01
         0.27500E+01
         0.27500E+01
         0.27500E+01
         0.27500E+01
         0.27500E+01
         0.27500E+01
         0.27500E+01
         0.27500E+01
         0.27500E+01
         0.27500E+01
         0.27500E+01
         0.27500E+01
         0.27500E+01
         0.27500E+01
         0.27500E+01
         0.27500E+01
         0.27500E+01
         0.27500E+01
         0.27500E+01
         0.27500E+01
         0.27500E+01
         0.27500E+01
         0.27500E+01
         0.27500E+01
         0.27500E+01
         0.27500E+01
         0.27500E+01
         0.27500E+01
         0.27500E+01
         0.27500E+01
         0.27500E+01
         0.27500E+01
         0.27500E+01
         0.27500E+01
         0.27500E+01
         0.27500E+01
         0.27500E+01
         0.27500E+01
         0.27500E+01
         0.27500E+01
         0.27500E+01
         0.27500E+01
         0.27500E+01
         0.27500E+01
         0.27500E+01
         0.27500E+01
         0.27500E+01
         0.27500E+01
         0.27500E+01
         0.27500E+01
         0.27500E+01
         0.27500E+01
         0.27500E+01
         0.27500E+01
         0.27500E+01
         0.27500E+01
         0.27500E+01
         0.27500E+01
         0.27500E+01
         0.27500E+01
         0.27500E+01
         0.27500E+01
         0.27500E+01
         0.27500E+01
         0.27500E+01
         0.27500E+01
         0.27500E+01
         0.27500E+01
         0.27500E+01
         0.27500E+01
         0.27500E+01
         0.27500E+01
         0.27500E+01
         0.27500E+01
         0.27500E+01
         0.27500E+01
         0.27500E+01
         0.27500E+01
         0.27500E+01
         0.27500E+01
         0.27500E+01
         0.27500E+01
         0.27500E+01
         0.27500E+01
         0.27500E+01
         0.27500E+01
         0.27500E+01
         0.27500E+01
         0.27500E+01
         0.27500E+01
         0.27500E+01
         0.27500E+01
         0.27500E+01
         0.27500E+01
         0.27500E+01
         0.27500E+01
         0.27500E+01
         0.27500E+01
         0.27500E+01
         0.27500E+01
         0.27500E+01
         0.27500E+01
         0.27500E+01
         0.27500E+01
         0.27500E+01
         0.27500E+01
         0.27500E+01
         0.27500E+01
         0.27500E+01
         0.27500E+01
         0.27500E+01
         0.27500E+01
         0.27500E+01
         0.27500E+01
         0.27500E+01
         0.27500E+01
         0.27500E+01
         0.27500E+01
         0.27500E+01
         0.27500E+01
         0.27500E+01
         0.27500E+01
         0.27500E+01
         0.27500E+01
         0.27500E+01
         0.27500E+01
         0.27500E+01
         0.27500E+01
         0.27500E+01
         0.27500E+01
         0.27500E+01
         0.27500E+01
         0.27500E+01
         0.27500E+01
         0.27500E+01
         0.27500E+01
         0.27500E+01
         0.27500E+01
         0.27500E+01
         0.27500E+01
         0.27500E+01
         0.27500E+01
         0.27500E+01
         0.27500E+01
         0.27500E+01
         0.27500E+01
         0.27500E+01
         0.27500E+01
         0.27500E+01
         0.27500E+01
         0.27500E+01
         0.27500E+01
         0.27500E+01
         0.27500E+01
         0.27500E+01
         0.27500E+01
         0.27500E+01
         0.27500E+01
         0.27500E+01
         0.27500E+01
         0.27500E+01
         0.27500E+01
         0.27500E+01
         0.27500E+01
         0.27500E+01
         0.27500E+01
         0.27500E+01
         0.27500E+01
         0.27500E+01
         0.27500E+01
         0.27500E+01
         0.27500E+01
         0.27500E+01
         0.27500E+01
         0.27500E+01
         0.27500E+01
         0.27500E+01
         0.27500E+01
         0.27500E+01
         0.27500E+01
         0.27500E+01
         0.27500E+01
         0.27500E+01
         0.27500E+01
         0.27500E+01
         0.27500E+01
         0.27500E+01
         0.27500E+01
         0.27500E+01
         0.27500E+01
         0.27500E+01
         0.27500E+01
         0.27500E+01
         0.27500E+01
         0.27500E+01
         0.27500E+01
         0.27500E+01
         0.27500E+01
         0.27500E+01
         0.27500E+01
         0.27500E+01
         0.27500E+01
         0.27500E+01
         0.27500E+01
         0.27500E+01
         0.27500E+01
         0.27500E+01
         0.27500E+01
         0.27500E+01
         0.27500E+01
         0.27500E+01
         0.27500E+01
         0.27500E+01
         0.27500E+01
         0.27500E+01
         0.27500E+01
         0.27500E+01
         0.27500E+01
         0.27500E+01
         0.27500E+01
         0.27500E+01
         0.27500E+01
         0.27500E+01
         0.27500E+01
         0.27500E+01
         0.27500E+01
         0.27500E+01
         0.27500E+01
         0.27500E+01
         0.27500E+01
         0.27500E+01
         0.27500E+01
         0.27500E+01
         0.27500E+01
         0.27500E+01
         0.27500E+01
         0.27500E+01
         0.27500E+01
         0.27500E+01
         0.27500E+01
         0.27500E+01
         0.27500E+01
         0.27500E+01
         0.27500E+01
         0.27500E+01
         0.27500E+01
         0.27500E+01
         0.27500E+01
         0.27500E+01
         0.27500E+01
         0.27500E+01
         0.27500E+01
         0.27500E+01
         0.27500E+01
         0.27500E+01
         0.27500E+01
         0.27500E+01
         0.27500E+01
         0.27500E+01
         0.27500E+01
         0.27500E+01
         0.27500E+01
         0.27500E+01
         0.27500E+01
         0.27500E+01
         0.27500E+01
         0.27500E+01
         0.27500E+01
         0.27500E+01
         0.27500E+01
         0.27500E+01
         0.27500E+01
         0.27500E+01
         0.27500E+01
         0.27500E+01
         0.27500E+01
         0.27500E+01
         0.27500E+01
         0.27500E+01
         0.27500E+01
         0.27500E+01
         0.27500E+01
         0.27500E+01
         0.27500E+01
         0.27500E+01
         0.27500E+01
         0.27500E+01
         0.27500E+01
         0.27500E+01
         0.27500E+01
         0.27500E+01
         0.27500E+01
         0.27500E+01
         0.27500E+01
         0.27500E+01
         0.27500E+01
         0.27500E+01
         0.27500E+01
         0.27500E+01
         0.27500E+01
         0.27500E+01
         0.27500E+01
         0.27500E+01
         0.27500E+01
         0.27500E+01
         0.27500E+01
         0.27500E+01
         0.27500E+01
         0.27500E+01
         0.27500E+01
         0.27500E+01
         0.27500E+01
         0.27500E+01
         0.27500E+01
         0.27500E+01
         0.27500E+01
         0.27500E+01
         0.27500E+01
         0.27500E+01
         0.27500E+01
         0.27500E+01
         0.27500E+01
         0.27500E+01
         0.27500E+01
         0.27500E+01
         0.27500E+01
         0.27500E+01
         0.27500E+01
         0.27500E+01
         0.27500E+01
         0.27500E+01
         0.27500E+01
         0.27500E+01
         0.27500E+01
         0.27500E+01
         0.27500E+01
         0.27500E+01
         0.27500E+01
         0.27500E+01
         0.27500E+01
         0.27500E+01
         0.27500E+01
         0.27500E+01
         0.27500E+01
         0.27500E+01
         0.27500E+01
         0.27500E+01
         0.27500E+01
         0.27500E+01
         0.27500E+01
         0.27500E+01
         0.27500E+01
         0.27500E+01
         0.27500E+01
         0.27500E+01
         0.27500E+01
         0.27500E+01
         0.27500E+01
         0.27500E+01
         0.27500E+01
         0.27500E+01
         0.27500E+01
         0.27500E+01
         0.27500E+01
         0.27500E+01
         0.27500E+01
         0.27500E+01
         0.27500E+01
         0.27500E+01
         0.27500E+01
         0.27500E+01
         0.27500E+01
         0.27500E+01
         0.27500E+01
         0.27500E+01
         0.27500E+01
         0.27500E+01
         0.27500E+01
         0.27500E+01
         0.27500E+01
         0.27500E+01
         0.27500E+01
         0.27500E+01
         0.27500E+01
         0.27500E+01
         0.27500E+01
         0.27500E+01
         0.27500E+01
         0.27500E+01
         0.27500E+01
         0.27500E+01
         0.27500E+01
         0.27500E+01
         0.27500E+01
         0.27500E+01
         0.27500E+01
         0.27500E+01
         0.27500E+01
         0.27500E+01
         0.27500E+01
         0.27500E+01
         0.27500E+01
         0.27500E+01
         0.27500E+01
         0.27500E+01
         0.27500E+01
         0.27500E+01
         0.27500E+01
         0.27500E+01
         0.27500E+01
         0.27500E+01
         0.27500E+01
         0.27500E+01
         0.27500E+01
         0.27500E+01
         0.27500E+01
         0.27500E+01
         0.27500E+01
         0.27500E+01
         0.27500E+01
         0.27500E+01
         0.27500E+01
         0.27500E+01
         0.27500E+01
         0.27500E+01
         0.27500E+01
         0.27500E+01
         0.27500E+01
         0.27500E+01
         0.27500E+01
         0.27500E+01
         0.27500E+01
         0.27500E+01
         0.27500E+01
         0.27500E+01
         0.27500E+01
         0.27500E+01
         0.27500E+01
         0.27500E+01
         0.27500E+01
         0.27500E+01
         0.27500E+01
         0.27500E+01
         0.27500E+01
         0.27500E+01
         0.27500E+01
         0.27500E+01
         0.27500E+01
         0.27500E+01
         0.27500E+01
         0.27500E+01
         0.27500E+01
         0.27500E+01
         0.27500E+01
         0.27500E+01
         0.27500E+01
         0.27500E+01
         0.27500E+01
         0.27500E+01
         0.27500E+01
         0.27500E+01
         0.27500E+01
         0.27500E+01
         0.27500E+01
         0.27500E+01
         0.27500E+01
         0.27500E+01
         0.27500E+01
         0.27500E+01
         0.27500E+01
         0.27500E+01
         0.27500E+01
         0.27500E+01
         0.27500E+01
         0.27500E+01
         0.27500E+01
         0.27500E+01
         0.27500E+01
         0.27500E+01
         0.27500E+01
         0.27500E+01
         0.27500E+01
         0.27500E+01
         0.27500E+01
         0.27500E+01
         0.27500E+01
         0.27500E+01
         0.27500E+01
         0.27500E+01
         0.27500E+01
         0.27500E+01
         0.27500E+01
         0.27500E+01
         0.27500E+01
         0.27500E+01
         0.27500E+01
         0.27500E+01
         0.27500E+01
         0.27500E+01
         0.27500E+01
         0.27500E+01
         0.27500E+01
         0.27500E+01
         0.27500E+01
         0.27500E+01
         0.27500E+01
         0.27500E+01
         0.27500E+01
         0.27500E+01
         0.27500E+01
         0.27500E+01
         0.27500E+01
         0.27500E+01
         0.27500E+01
         0.27500E+01
         0.27500E+01
         0.27500E+01
         0.27500E+01
         0.27500E+01
         0.27500E+01
         0.27500E+01
         0.27500E+01
         0.27500E+01
         0.27500E+01
         0.27500E+01
         0.27500E+01
         0.27500E+01
         0.27500E+01
         0.27500E+01
         0.27500E+01
         0.27500E+01
         0.27500E+01
         0.27500E+01
         0.27500E+01
         0.27500E+01
         0.27500E+01
         0.27500E+01
         0.27500E+01
         0.27500E+01
         0.27500E+01
         0.27500E+01
         0.27500E+01
         0.27500E+01
         0.27500E+01
         0.27500E+01
         0.27500E+01
         0.27500E+01
         0.27500E+01
         0.27500E+01
         0.27500E+01
         0.27500E+01
         0.27500E+01
         0.27500E+01
         0.27500E+01
         0.27500E+01
         0.27500E+01
         0.27500E+01
         0.27500E+01
         0.27500E+01
         0.27500E+01
         0.27500E+01
         0.27500E+01
         0.27500E+01
         0.27500E+01
         0.27500E+01
         0.27500E+01
         0.27500E+01
         0.27500E+01
         0.27500E+01
         0.27500E+01
         0.27500E+01
         0.27500E+01
         0.27500E+01
         0.27500E+01
         0.27500E+01
         0.27500E+01
         0.27500E+01
         0.27500E+01
         0.27500E+01
         0.27500E+01
         0.27500E+01
         0.27500E+01
         0.27500E+01
         0.27500E+01
         0.27500E+01
         0.27500E+01
         0.27500E+01
         0.27500E+01
         0.27500E+01
         0.27500E+01
         0.27500E+01
         0.27500E+01
         0.27500E+01
         0.27500E+01
         0.27500E+01
         0.27500E+01
         0.27500E+01
         0.27500E+01
         0.27500E+01
         0.27500E+01
         0.27500E+01
         0.27500E+01
         0.27500E+01
         0.27500E+01
         0.27500E+01
         0.27500E+01
         0.27500E+01
         0.27500E+01
         0.27500E+01
         0.27500E+01
         0.27500E+01
         0.27500E+01
         0.27500E+01
         0.27500E+01
         0.27500E+01
         0.27500E+01
         0.27500E+01
         0.27500E+01
         0.27500E+01
         0.27500E+01
         0.27500E+01
         0.27500E+01
         0.27500E+01
         0.27500E+01
         0.27500E+01
         0.27500E+01
         0.27500E+01
         0.27500E+01
         0.27500E+01
         0.27500E+01
         0.27500E+01
         0.27500E+01
         0.27500E+01
         0.27500E+01
         0.27500E+01
         0.27500E+01
         0.27500E+01
         0.27500E+01
         0.27500E+01
         0.27500E+01
         0.27500E+01
         0.27500E+01
         0.27500E+01
         0.27500E+01
         0.27500E+01
         0.27500E+01
         0.27500E+01
         0.27500E+01
         0.27500E+01
         0.27500E+01
         0.27500E+01
         0.27500E+01
         0.27500E+01
         0.27500E+01
         0.27500E+01
         0.27500E+01
         0.27500E+01
         0.27500E+01
         0.27500E+01
         0.27500E+01
         0.27500E+01
         0.27500E+01
         0.27500E+01
         0.27500E+01
         0.27500E+01
         0.27500E+01
         0.27500E+01
         0.27500E+01
         0.27500E+01
         0.27500E+01
         0.27500E+01
         0.27500E+01
         0.27500E+01
         0.27500E+01
         0.27500E+01
         0.27500E+01
         0.27500E+01
         0.27500E+01
         0.27500E+01
         0.27500E+01
         0.27500E+01
         0.27500E+01
         0.27500E+01
         0.27500E+01
         0.27500E+01
         0.27500E+01
         0.27500E+01
         0.27500E+01
         0.27500E+01
         0.27500E+01
         0.27500E+01
         0.27500E+01
         0.27500E+01
         0.27500E+01
         0.27500E+01
         0.27500E+01
         0.27500E+01
         0.27500E+01
         0.27500E+01
         0.27500E+01
         0.27500E+01
         0.27500E+01
         0.27500E+01
         0.27500E+01
         0.27500E+01
         0.27500E+01
         0.27500E+01
         0.27500E+01
         0.27500E+01
         0.27500E+01
         0.27500E+01
         0.27500E+01
         0.27500E+01
         0.27500E+01
         0.27500E+01
         0.27500E+01
         0.27500E+01
         0.27500E+01
         0.27500E+01
         0.27500E+01
         0.27500E+01
         0.27500E+01
         0.27500E+01
         0.27500E+01
         0.27500E+01
         0.27500E+01
         0.27500E+01
         0.27500E+01
         0.27500E+01
         0.27500E+01
         0.27500E+01
         0.27500E+01
         0.27500E+01
         0.27500E+01
         0.27500E+01
         0.27500E+01
         0.27500E+01
         0.27500E+01
         0.27500E+01
         0.27500E+01
         0.27500E+01
         0.27500E+01
         0.27500E+01
         0.27500E+01
         0.27500E+01
         0.27500E+01
         0.27500E+01
         0.27500E+01
         0.27500E+01
         0.27500E+01
         0.27500E+01
         0.27500E+01
         0.27500E+01
         0.27500E+01
         0.27500E+01
         0.27500E+01
         0.27500E+01
         0.27500E+01
         0.27500E+01
         0.27500E+01
         0.27500E+01
         0.27500E+01
         0.27500E+01
         0.27500E+01
         0.27500E+01
         0.27500E+01
         0.27500E+01
         0.27500E+01
         0.27500E+01
         0.27500E+01
         0.27500E+01
         0.27500E+01
         0.27500E+01
         0.27500E+01
         0.27500E+01
         0.27500E+01
         0.27500E+01
         0.27500E+01
         0.27500E+01
         0.27500E+01
         0.27500E+01
         0.27500E+01
         0.27500E+01
         0.27500E+01
         0.27500E+01
         0.27500E+01
         0.27500E+01
         0.27500E+01
         0.27500E+01
         0.27500E+01
         0.27500E+01
         0.27500E+01
         0.27500E+01
         0.27500E+01
         0.27500E+01
         0.27500E+01
         0.27500E+01
         0.27500E+01
         0.27500E+01
         0.27500E+01
         0.27500E+01
         0.27500E+01
         0.27500E+01
         0.27500E+01
         0.27500E+01
         0.27500E+01
         0.27500E+01
         0.27500E+01
         0.27500E+01
         0.27500E+01
         0.27500E+01
         0.27500E+01
         0.27500E+01
         0.27500E+01
         0.27500E+01
         0.27500E+01
         0.27500E+01
         0.27500E+01
         0.27500E+01
         0.27500E+01
         0.27500E+01
         0.27500E+01
         0.27500E+01
         0.27500E+01
         0.27500E+01
         0.27500E+01
         0.27500E+01
         0.27500E+01
         0.27500E+01
         0.27500E+01
         0.27500E+01
         0.27500E+01
         0.27500E+01
         0.27500E+01
         0.27500E+01
         0.27500E+01
         0.27500E+01
         0.27500E+01
         0.27500E+01
         0.27500E+01
         0.27500E+01
         0.27500E+01
         0.27500E+01
         0.27500E+01
         0.27500E+01
         0.27500E+01
         0.27500E+01
         0.27500E+01
         0.27500E+01
         0.27500E+01
         0.27500E+01
         0.27500E+01
         0.27500E+01
         0.27500E+01
         0.27500E+01
         0.27500E+01
         0.27500E+01
         0.27500E+01
         0.27500E+01
         0.27500E+01
         0.27500E+01
         0.27500E+01
         0.27500E+01
         0.27500E+01
         0.27500E+01
         0.27500E+01
         0.27500E+01
         0.27500E+01
         0.27500E+01
         0.27500E+01
         0.27500E+01
         0.27500E+01
         0.27500E+01
         0.27500E+01
         0.27500E+01
         0.27500E+01
         0.27500E+01
         0.27500E+01
         0.27500E+01
         0.27500E+01
         0.27500E+01
         0.27500E+01
         0.27500E+01
         0.27500E+01
         0.27500E+01
         0.27500E+01
         0.27500E+01
         0.27500E+01
         0.27500E+01
         0.27500E+01
         0.27500E+01
         0.27500E+01
         0.27500E+01
         0.27500E+01
         0.27500E+01
         0.27500E+01
         0.27500E+01
         0.27500E+01
         0.27500E+01
         0.27500E+01
         0.27500E+01
         0.27500E+01
         0.27500E+01
         0.27500E+01
         0.27500E+01
         0.27500E+01
         0.27500E+01
         0.27500E+01
         0.27500E+01
         0.27500E+01
         0.27500E+01
         0.27500E+01
         0.27500E+01
         0.27500E+01
         0.27500E+01
         0.27500E+01
         0.27500E+01
         0.27500E+01
         0.27500E+01
         0.27500E+01
         0.27500E+01
         0.27500E+01
         0.27500E+01
         0.27500E+01
         0.27500E+01
         0.27500E+01
         0.27500E+01
         0.27500E+01
         0.27500E+01
         0.27500E+01
         0.27500E+01
         0.27500E+01
         0.27500E+01
         0.27500E+01
         0.27500E+01
         0.27500E+01
         0.27500E+01
         0.27500E+01
         0.27500E+01
         0.27500E+01
         0.27500E+01
         0.27500E+01
         0.27500E+01
         0.27500E+01
         0.27500E+01
         0.27500E+01
         0.27500E+01
         0.27500E+01
         0.27500E+01
         0.27500E+01
         0.27500E+01
         0.27500E+01
         0.27500E+01
         0.27500E+01
         0.27500E+01
         0.27500E+01
         0.27500E+01
         0.27500E+01
         0.27500E+01
         0.27500E+01
         0.27500E+01
         0.27500E+01
         0.27500E+01
         0.27500E+01
         0.27500E+01
         0.27500E+01
         0.27500E+01
         0.27500E+01
         0.27500E+01
         0.27500E+01
         0.27500E+01
         0.27500E+01
         0.27500E+01
         0.27500E+01
         0.27500E+01
         0.27500E+01
         0.27500E+01
         0.27500E+01
         0.27500E+01
         0.27500E+01
         0.27500E+01
         0.27500E+01
         0.27500E+01
         0.27500E+01
         0.27500E+01
         0.27500E+01
         0.27500E+01
         0.27500E+01
         0.27500E+01
         0.27500E+01
         0.27500E+01
         0.27500E+01
         0.27500E+01
         0.27500E+01
         0.27500E+01
         0.27500E+01
         0.27500E+01
         0.27500E+01
         0.27500E+01
         0.27500E+01
         0.27500E+01
         0.27500E+01
         0.27500E+01
         0.27500E+01
         0.27500E+01
         0.27500E+01
         0.27500E+01
         0.27500E+01
         0.27500E+01
         0.27500E+01
         0.27500E+01
         0.27500E+01
         0.27500E+01
         0.27500E+01
         0.27500E+01
         0.27500E+01
         0.27500E+01
         0.27500E+01
         0.27500E+01
         0.27500E+01
         0.27500E+01
         0.27500E+01
         0.27500E+01
         0.27500E+01
         0.27500E+01
         0.27500E+01
         0.27500E+01
         0.27500E+01
         0.27500E+01
         0.27500E+01
         0.27500E+01
         0.27500E+01
         0.27500E+01
         0.27500E+01
         0.27500E+01
         0.27500E+01
         0.27500E+01
         0.27500E+01
         0.27500E+01
         0.27500E+01
         0.27500E+01
         0.27500E+01
         0.27500E+01
         0.27500E+01
         0.27500E+01
         0.27500E+01
         0.27500E+01
         0.27500E+01
         0.27500E+01
         0.27500E+01
         0.27500E+01
         0.27500E+01
         0.27500E+01
         0.27500E+01
         0.27500E+01
         0.27500E+01
         0.27500E+01
         0.27500E+01
         0.27500E+01
         0.27500E+01
         0.27500E+01
         0.27500E+01
         0.27500E+01
         0.27500E+01
         0.27500E+01
         0.27500E+01
         0.27500E+01
         0.27500E+01
         0.27500E+01
         0.27500E+01
         0.27500E+01
         0.27500E+01
         0.27500E+01
         0.27500E+01
         0.27500E+01
         0.27500E+01
         0.27500E+01
         0.27500E+01
         0.27500E+01
         0.27500E+01
         0.27500E+01
         0.27500E+01
         0.27500E+01
         0.27500E+01
         0.27500E+01
         0.27500E+01
         0.27500E+01
         0.27500E+01
         0.27500E+01
         0.27500E+01
         0.27500E+01
         0.27500E+01
         0.27500E+01
         0.27500E+01
         0.27500E+01
         0.27500E+01
         0.27500E+01
         0.27500E+01
         0.27500E+01
         0.27500E+01
         0.27500E+01
         0.27500E+01
         0.27500E+01
         0.27500E+01
         0.27500E+01
         0.27500E+01
         0.27500E+01
         0.27500E+01
         0.27500E+01
         0.27500E+01
         0.27500E+01
         0.27500E+01
         0.27500E+01
         0.27500E+01
         0.27500E+01
         0.27500E+01
         0.27500E+01
         0.27500E+01
         0.27500E+01
         0.27500E+01
         0.27500E+01
         0.27500E+01
         0.27500E+01
         0.27500E+01
         0.27500E+01
         0.27500E+01
         0.27500E+01
         0.27500E+01
         0.27500E+01
         0.27500E+01
         0.27500E+01
         0.27500E+01
         0.27500E+01
         0.27500E+01
         0.27500E+01
         0.27500E+01
         0.27500E+01
         0.27500E+01
         0.27500E+01
         0.27500E+01
         0.27500E+01
         0.27500E+01
         0.27500E+01
         0.27500E+01
         0.27500E+01
         0.27500E+01
         0.27500E+01
         0.27500E+01
         0.27500E+01
         0.27500E+01
         0.27500E+01
         0.27500E+01
         0.27500E+01
         0.27500E+01
         0.27500E+01
         0.27500E+01
         0.27500E+01
         0.27500E+01
         0.27500E+01
         0.27500E+01
         0.27500E+01
         0.27500E+01
         0.27500E+01
         0.27500E+01
         0.27500E+01
         0.27500E+01
         0.27500E+01
         0.27500E+01
         0.27500E+01
         0.27500E+01
         0.27500E+01
         0.27500E+01
         0.27500E+01
         0.27500E+01
         0.27500E+01
         0.27500E+01
         0.27500E+01
         0.27500E+01
         0.27500E+01
         0.27500E+01
         0.27500E+01
         0.27500E+01
         0.27500E+01
         0.27500E+01
         0.27500E+01
         0.27500E+01
         0.27500E+01
         0.27500E+01
         0.27500E+01
         0.27500E+01
         0.27500E+01
         0.27500E+01
         0.27500E+01
         0.27500E+01
         0.27500E+01
         0.27500E+01
         0.27500E+01
         0.27500E+01
         0.27500E+01
         0.27500E+01
         0.27500E+01
         0.27500E+01
         0.27500E+01
         0.27500E+01
         0.27500E+01
         0.27500E+01
         0.27500E+01
         0.27500E+01
         0.27500E+01
         0.27500E+01
         0.27500E+01
         0.27500E+01
         0.27500E+01
         0.27500E+01
         0.27500E+01
         0.27500E+01
         0.27500E+01
         0.27500E+01
         0.27500E+01
         0.27500E+01
         0.27500E+01
         0.27500E+01
         0.27500E+01
         0.27500E+01
         0.27500E+01
         0.27500E+01
         0.27500E+01
         0.27500E+01
         0.27500E+01
         0.27500E+01
         0.27500E+01
         0.27500E+01
         0.27500E+01
         0.27500E+01
         0.27500E+01
         0.27500E+01
         0.27500E+01
         0.27500E+01
         0.27500E+01
         0.27500E+01
         0.27500E+01
         0.27500E+01
         0.27500E+01
         0.27500E+01
         0.27500E+01
         0.27500E+01
         0.27500E+01
         0.27500E+01
         0.27500E+01
         0.27500E+01
         0.27500E+01
         0.27500E+01
         0.27500E+01
         0.27500E+01
         0.27500E+01
         0.27500E+01
         0.27500E+01
         0.27500E+01
         0.27500E+01
         0.27500E+01
         0.27500E+01
         0.27500E+01
         0.27500E+01
         0.27500E+01
         0.27500E+01
         0.27500E+01
         0.27500E+01
         0.27500E+01
         0.27500E+01
         0.27500E+01
         0.27500E+01
         0.27500E+01
         0.27500E+01
         0.27500E+01
         0.27500E+01
         0.27500E+01
         0.27500E+01
         0.27500E+01
         0.27500E+01
         0.27500E+01
         0.27500E+01
         0.27500E+01
         0.27500E+01
         0.27500E+01
         0.27500E+01
         0.27500E+01
         0.27500E+01
         0.27500E+01
         0.27500E+01
         0.27500E+01
         0.27500E+01
         0.27500E+01
         0.27500E+01
         0.27500E+01
         0.27500E+01
         0.27500E+01
         0.27500E+01
         0.27500E+01
         0.27500E+01
         0.27500E+01
         0.27500E+01
         0.27500E+01
         0.27500E+01
         0.27500E+01
         0.27500E+01
         0.27500E+01
         0.27500E+01
         0.27500E+01
         0.27500E+01
         0.27500E+01
         0.27500E+01
         0.27500E+01
         0.27500E+01
         0.27500E+01
         0.27500E+01
         0.27500E+01
         0.27500E+01
         0.27500E+01
         0.27500E+01
         0.27500E+01
         0.27500E+01
         0.27500E+01
         0.27500E+01
         0.27500E+01
         0.27500E+01
         0.27500E+01
         0.27500E+01
         0.27500E+01
         0.27500E+01
         0.27500E+01
         0.27500E+01
         0.27500E+01
         0.27500E+01
         0.27500E+01
         0.27500E+01
         0.27500E+01
         0.27500E+01
         0.27500E+01
         0.27500E+01
         0.27500E+01
         0.27500E+01
         0.27500E+01
         0.27500E+01
         0.27500E+01
         0.27500E+01
         0.27500E+01
         0.27500E+01
         0.27500E+01
         0.27500E+01
         0.27500E+01
         0.27500E+01
         0.27500E+01
         0.27500E+01
         0.27500E+01
         0.27500E+01
         0.27500E+01
         0.27500E+01
         0.27500E+01
         0.27500E+01
         0.27500E+01
         0.27500E+01
         0.27500E+01
         0.27500E+01
         0.27500E+01
         0.27500E+01
         0.27500E+01
         0.27500E+01
         0.27500E+01
         0.27500E+01
         0.27500E+01
         0.27500E+01
         0.27500E+01
         0.27500E+01
         0.27500E+01
         0.27500E+01
         0.27500E+01
         0.27500E+01
         0.27500E+01
         0.27500E+01
         0.27500E+01
         0.27500E+01
         0.27500E+01
         0.27500E+01
         0.27500E+01
         0.27500E+01
         0.27500E+01
         0.27500E+01
         0.27500E+01
         0.27500E+01
         0.27500E+01
         0.27500E+01
         0.27500E+01
         0.27500E+01
         0.27500E+01
         0.27500E+01
         0.27500E+01
         0.27500E+01
         0.27500E+01
         0.27500E+01
         0.27500E+01
         0.27500E+01
         0.27500E+01
         0.27500E+01
         0.27500E+01
         0.27500E+01
         0.27500E+01
         0.27500E+01
         0.27500E+01
         0.27500E+01
         0.27500E+01
         0.27500E+01
         0.27500E+01
         0.27500E+01
         0.27500E+01
         0.27500E+01
         0.27500E+01
         0.27500E+01
         0.27500E+01
         0.27500E+01
         0.27500E+01
         0.27500E+01
         0.27500E+01
         0.27500E+01
         0.27500E+01
         0.27500E+01
         0.27500E+01
         0.27500E+01
         0.27500E+01
         0.27500E+01
         0.27500E+01
         0.27500E+01
         0.27500E+01
         0.27500E+01
         0.27500E+01
         0.27500E+01
         0.27500E+01
         0.27500E+01
         0.27500E+01
         0.27500E+01
         0.27500E+01
         0.27500E+01
         0.27500E+01
         0.27500E+01
         0.27500E+01
         0.27500E+01
         0.27500E+01
         0.27500E+01
         0.27500E+01
         0.27500E+01
         0.27500E+01
         0.27500E+01
         0.27500E+01
         0.27500E+01
         0.27500E+01
         0.27500E+01
         0.27500E+01
         0.27500E+01
         0.27500E+01
         0.27500E+01
         0.27500E+01
         0.27500E+01
         0.27500E+01
         0.27500E+01
         0.27500E+01
         0.27500E+01
         0.27500E+01
         0.27500E+01
         0.27500E+01
         0.27500E+01
         0.27500E+01
         0.27500E+01
         0.27500E+01
         0.27500E+01
         0.27500E+01
         0.27500E+01
         0.27500E+01
         0.27500E+01
         0.27500E+01
         0.27500E+01
         0.27500E+01
         0.27500E+01
         0.27500E+01
         0.27500E+01
         0.27500E+01
         0.27500E+01
         0.27500E+01
         0.27500E+01
         0.27500E+01
         0.27500E+01
         0.27500E+01
         0.27500E+01
         0.27500E+01
         0.27500E+01
         0.27500E+01
         0.27500E+01
         0.27500E+01
         0.27500E+01
         0.27500E+01
         0.27500E+01
         0.27500E+01
         0.27500E+01
         0.27500E+01
         0.27500E+01
         0.27500E+01
         0.27500E+01
         0.27500E+01
         0.27500E+01
         0.27500E+01
         0.27500E+01
         0.27500E+01
         0.27500E+01
         0.27500E+01
         0.27500E+01
         0.27500E+01
         0.27500E+01
         0.27500E+01
         0.27500E+01
         0.27500E+01
         0.27500E+01
         0.27500E+01
         0.27500E+01
         0.27500E+01
         0.27500E+01
         0.27500E+01
         0.27500E+01
         0.27500E+01
         0.27500E+01
         0.27500E+01
         0.27500E+01
         0.27500E+01
         0.27500E+01
         0.27500E+01
         0.27500E+01
         0.27500E+01
         0.27500E+01
         0.27500E+01
         0.27500E+01
         0.27500E+01
         0.27500E+01
         0.27500E+01
         0.27500E+01
         0.27500E+01
         0.27500E+01
         0.27500E+01
         0.27500E+01
         0.27500E+01
         0.27500E+01
         0.27500E+01
         0.27500E+01
         0.27500E+01
         0.27500E+01
         0.27500E+01
         0.27500E+01
         0.27500E+01
         0.27500E+01
         0.27500E+01
         0.27500E+01
         0.27500E+01
         0.27500E+01
         0.27500E+01
         0.27500E+01
         0.27500E+01
  
SCALARS              physical_window_x  double 1
LOOKUP_TABLE default
         0.42419E-02
         0.35201E-02
         0.37624E-02
         0.42419E-02
         0.42417E-02
         0.35201E-02
         0.37618E-02
         0.42417E-02
         0.37624E-02
         0.37624E-02
         0.37618E-02
         0.37618E-02
         0.30086E-02
         0.32069E-02
         0.30084E-02
         0.32067E-02
         0.42419E-02
         0.32069E-02
         0.42417E-02
         0.32067E-02
         0.24180E-02
         0.29942E-02
         0.32396E-02
         0.24180E-02
         0.29933E-02
         0.32385E-02
         0.26608E-02
         0.27190E-02
         0.26608E-02
         0.27190E-02
         0.42687E-02
         0.36511E-02
         0.42687E-02
         0.42687E-02
         0.36511E-02
         0.42687E-02
         0.32069E-02
         0.29739E-02
         0.32066E-02
         0.29739E-02
         0.34652E-02
         0.32621E-02
         0.34652E-02
         0.32621E-02
         0.37123E-02
         0.32069E-02
         0.37123E-02
         0.32066E-02
         0.30844E-02
         0.30844E-02
         0.35191E-02
         0.35189E-02
         0.26925E-02
         0.26925E-02
         0.26925E-02
         0.26925E-02
         0.24643E-02
         0.27651E-02
         0.24643E-02
         0.27651E-02
         0.42687E-02
         0.35191E-02
         0.42687E-02
         0.35189E-02
         0.42687E-02
         0.42687E-02
         0.34658E-02
         0.34648E-02
         0.27274E-02
         0.31799E-02
         0.27273E-02
         0.31796E-02
         0.32396E-02
         0.32385E-02
         0.26964E-02
         0.26960E-02
         0.27828E-02
         0.27828E-02
         0.27828E-02
         0.27828E-02
         0.27004E-02
         0.31883E-02
         0.27003E-02
         0.31880E-02
         0.31883E-02
         0.31880E-02
         0.37123E-02
         0.37123E-02
         0.36245E-02
         0.36245E-02
         0.28253E-02
         0.31642E-02
         0.28253E-02
         0.31636E-02
         0.33485E-02
         0.33485E-02
         0.33485E-02
         0.33485E-02
         0.31978E-02
         0.31969E-02
         0.29849E-02
         0.32843E-02
         0.29849E-02
         0.32843E-02
         0.27274E-02
         0.31109E-02
         0.27273E-02
         0.31109E-02
         0.31799E-02
         0.31796E-02
         0.32396E-02
         0.32385E-02
         0.32396E-02
         0.32385E-02
         0.29942E-02
         0.29933E-02
         0.27190E-02
         0.27190E-02
         0.26964E-02
         0.26960E-02
         0.27828E-02
         0.27828E-02
         0.27828E-02
         0.27828E-02
         0.27004E-02
         0.27003E-02
         0.31883E-02
         0.31880E-02
         0.31883E-02
         0.31880E-02
         0.32621E-02
         0.32621E-02
         0.34652E-02
         0.34652E-02
         0.37123E-02
         0.37123E-02
         0.37123E-02
         0.37123E-02
         0.36245E-02
         0.36245E-02
         0.28253E-02
         0.28253E-02
         0.29097E-02
         0.29087E-02
         0.32389E-02
         0.32378E-02
         0.32389E-02
         0.32378E-02
         0.31978E-02
         0.31969E-02
         0.29849E-02
         0.29849E-02
         0.32843E-02
         0.32843E-02
         0.32843E-02
         0.32843E-02
         0.42420E-02
         0.35201E-02
         0.37629E-02
         0.42420E-02
         0.37629E-02
         0.37629E-02
         0.30087E-02
         0.32071E-02
         0.42420E-02
         0.32071E-02
         0.24178E-02
         0.29952E-02
         0.32407E-02
         0.26596E-02
         0.27191E-02
         0.42679E-02
         0.36502E-02
         0.42679E-02
         0.32071E-02
         0.29727E-02
         0.34648E-02
         0.32622E-02
         0.37119E-02
         0.32071E-02
         0.30833E-02
         0.35193E-02
         0.26910E-02
         0.26910E-02
         0.24638E-02
         0.27644E-02
         0.42679E-02
         0.35193E-02
         0.42679E-02
         0.34670E-02
         0.27274E-02
         0.31802E-02
         0.32407E-02
         0.26968E-02
         0.27828E-02
         0.27828E-02
         0.27005E-02
         0.31885E-02
         0.31885E-02
         0.37119E-02
         0.36244E-02
         0.28250E-02
         0.31647E-02
         0.33484E-02
         0.33484E-02
         0.31986E-02
         0.29848E-02
         0.32841E-02
         0.27274E-02
         0.31099E-02
         0.31802E-02
         0.32407E-02
         0.32407E-02
         0.29952E-02
         0.27191E-02
         0.26968E-02
         0.27828E-02
         0.27828E-02
         0.27005E-02
         0.31885E-02
         0.31885E-02
         0.32622E-02
         0.34648E-02
         0.37119E-02
         0.37119E-02
         0.36244E-02
         0.28250E-02
         0.29106E-02
         0.32401E-02
         0.32401E-02
         0.31986E-02
         0.29848E-02
         0.32841E-02
         0.32841E-02
         0.42421E-02
         0.35201E-02
         0.37634E-02
         0.42421E-02
         0.37634E-02
         0.37634E-02
         0.30089E-02
         0.32073E-02
         0.42421E-02
         0.32073E-02
         0.24177E-02
         0.29961E-02
         0.32418E-02
         0.26584E-02
         0.27191E-02
         0.42670E-02
         0.36493E-02
         0.42670E-02
         0.32073E-02
         0.29714E-02
         0.34644E-02
         0.32623E-02
         0.37115E-02
         0.32073E-02
         0.30822E-02
         0.35195E-02
         0.26896E-02
         0.26896E-02
         0.24633E-02
         0.27638E-02
         0.42670E-02
         0.35195E-02
         0.42670E-02
         0.34681E-02
         0.27275E-02
         0.31805E-02
         0.32418E-02
         0.26972E-02
         0.27828E-02
         0.27828E-02
         0.27006E-02
         0.31888E-02
         0.31888E-02
         0.37115E-02
         0.36243E-02
         0.28247E-02
         0.31652E-02
         0.33483E-02
         0.33483E-02
         0.31995E-02
         0.29847E-02
         0.32839E-02
         0.27275E-02
         0.31090E-02
         0.31805E-02
         0.32418E-02
         0.32418E-02
         0.29961E-02
         0.27191E-02
         0.26972E-02
         0.27828E-02
         0.27828E-02
         0.27006E-02
         0.31888E-02
         0.31888E-02
         0.32623E-02
         0.34644E-02
         0.37115E-02
         0.37115E-02
         0.36243E-02
         0.28247E-02
         0.29116E-02
         0.32412E-02
         0.32412E-02
         0.31995E-02
         0.29847E-02
         0.32839E-02
         0.32839E-02
         0.42423E-02
         0.35200E-02
         0.37639E-02
         0.42423E-02
         0.37639E-02
         0.37639E-02
         0.30091E-02
         0.32075E-02
         0.42423E-02
         0.32075E-02
         0.24176E-02
         0.29970E-02
         0.32428E-02
         0.26572E-02
         0.27192E-02
         0.42662E-02
         0.36483E-02
         0.42662E-02
         0.32075E-02
         0.29702E-02
         0.34639E-02
         0.32624E-02
         0.37111E-02
         0.32075E-02
         0.30811E-02
         0.35197E-02
         0.26881E-02
         0.26881E-02
         0.24628E-02
         0.27631E-02
         0.42662E-02
         0.35197E-02
         0.42662E-02
         0.34692E-02
         0.27276E-02
         0.31808E-02
         0.32428E-02
         0.26975E-02
         0.27828E-02
         0.27828E-02
         0.27007E-02
         0.31890E-02
         0.31890E-02
         0.37111E-02
         0.36242E-02
         0.28243E-02
         0.31658E-02
         0.33482E-02
         0.33482E-02
         0.32003E-02
         0.29846E-02
         0.32837E-02
         0.27276E-02
         0.31081E-02
         0.31808E-02
         0.32428E-02
         0.32428E-02
         0.29970E-02
         0.27192E-02
         0.26975E-02
         0.27828E-02
         0.27828E-02
         0.27007E-02
         0.31890E-02
         0.31890E-02
         0.32624E-02
         0.34639E-02
         0.37111E-02
         0.37111E-02
         0.36242E-02
         0.28243E-02
         0.29125E-02
         0.32423E-02
         0.32423E-02
         0.32003E-02
         0.29846E-02
         0.32837E-02
         0.32837E-02
         0.42424E-02
         0.35200E-02
         0.37644E-02
         0.42424E-02
         0.37644E-02
         0.37644E-02
         0.30093E-02
         0.32077E-02
         0.42424E-02
         0.32077E-02
         0.24174E-02
         0.29979E-02
         0.32439E-02
         0.26559E-02
         0.27192E-02
         0.42653E-02
         0.36474E-02
         0.42653E-02
         0.32077E-02
         0.29690E-02
         0.34635E-02
         0.32624E-02
         0.37108E-02
         0.32077E-02
         0.30799E-02
         0.35199E-02
         0.26867E-02
         0.26867E-02
         0.24623E-02
         0.27625E-02
         0.42653E-02
         0.35199E-02
         0.42653E-02
         0.34703E-02
         0.27276E-02
         0.31812E-02
         0.32439E-02
         0.26979E-02
         0.27828E-02
         0.27828E-02
         0.27008E-02
         0.31893E-02
         0.31893E-02
         0.37108E-02
         0.36241E-02
         0.28240E-02
         0.31663E-02
         0.33481E-02
         0.33481E-02
         0.32012E-02
         0.29844E-02
         0.32835E-02
         0.27276E-02
         0.31071E-02
         0.31812E-02
         0.32439E-02
         0.32439E-02
         0.29979E-02
         0.27192E-02
         0.26979E-02
         0.27828E-02
         0.27828E-02
         0.27008E-02
         0.31893E-02
         0.31893E-02
         0.32624E-02
         0.34635E-02
         0.37108E-02
         0.37108E-02
         0.36241E-02
         0.28240E-02
         0.29135E-02
         0.32434E-02
         0.32434E-02
         0.32012E-02
         0.29844E-02
         0.32835E-02
         0.32835E-02
         0.42425E-02
         0.35200E-02
         0.37649E-02
         0.42425E-02
         0.37649E-02
         0.37649E-02
         0.30095E-02
         0.32079E-02
         0.42425E-02
         0.32079E-02
         0.24173E-02
         0.29989E-02
         0.32450E-02
         0.26547E-02
         0.27193E-02
         0.42645E-02
         0.36465E-02
         0.42645E-02
         0.32079E-02
         0.29677E-02
         0.34631E-02
         0.32625E-02
         0.37104E-02
         0.32079E-02
         0.30788E-02
         0.35201E-02
         0.26852E-02
         0.26852E-02
         0.24618E-02
         0.27618E-02
         0.42645E-02
         0.35201E-02
         0.42645E-02
         0.34715E-02
         0.27277E-02
         0.31815E-02
         0.32450E-02
         0.26983E-02
         0.27828E-02
         0.27828E-02
         0.27009E-02
         0.31895E-02
         0.31895E-02
         0.37104E-02
         0.36239E-02
         0.28237E-02
         0.31668E-02
         0.33480E-02
         0.33480E-02
         0.32020E-02
         0.29843E-02
         0.32833E-02
         0.27277E-02
         0.31062E-02
         0.31815E-02
         0.32450E-02
         0.32450E-02
         0.29989E-02
         0.27193E-02
         0.26983E-02
         0.27828E-02
         0.27828E-02
         0.27009E-02
         0.31895E-02
         0.31895E-02
         0.32625E-02
         0.34631E-02
         0.37104E-02
         0.37104E-02
         0.36239E-02
         0.28237E-02
         0.29145E-02
         0.32445E-02
         0.32445E-02
         0.32020E-02
         0.29843E-02
         0.32833E-02
         0.32833E-02
         0.42427E-02
         0.35200E-02
         0.37654E-02
         0.42427E-02
         0.37654E-02
         0.37654E-02
         0.30097E-02
         0.32081E-02
         0.42427E-02
         0.32081E-02
         0.24171E-02
         0.29998E-02
         0.32461E-02
         0.26535E-02
         0.27193E-02
         0.42636E-02
         0.36455E-02
         0.42636E-02
         0.32081E-02
         0.29665E-02
         0.34626E-02
         0.32626E-02
         0.37100E-02
         0.32081E-02
         0.30777E-02
         0.35203E-02
         0.26838E-02
         0.26838E-02
         0.24613E-02
         0.27611E-02
         0.42636E-02
         0.35203E-02
         0.42636E-02
         0.34726E-02
         0.27278E-02
         0.31818E-02
         0.32461E-02
         0.26987E-02
         0.27827E-02
         0.27827E-02
         0.27010E-02
         0.31898E-02
         0.31898E-02
         0.37100E-02
         0.36238E-02
         0.28234E-02
         0.31673E-02
         0.33479E-02
         0.33479E-02
         0.32029E-02
         0.29842E-02
         0.32831E-02
         0.27278E-02
         0.31052E-02
         0.31818E-02
         0.32461E-02
         0.32461E-02
         0.29998E-02
         0.27193E-02
         0.26987E-02
         0.27827E-02
         0.27827E-02
         0.27010E-02
         0.31898E-02
         0.31898E-02
         0.32626E-02
         0.34626E-02
         0.37100E-02
         0.37100E-02
         0.36238E-02
         0.28234E-02
         0.29154E-02
         0.32457E-02
         0.32457E-02
         0.32029E-02
         0.29842E-02
         0.32831E-02
         0.32831E-02
         0.42428E-02
         0.35199E-02
         0.37660E-02
         0.42428E-02
         0.37660E-02
         0.37660E-02
         0.30099E-02
         0.32083E-02
         0.42428E-02
         0.32083E-02
         0.24170E-02
         0.30007E-02
         0.32471E-02
         0.26523E-02
         0.27194E-02
         0.42628E-02
         0.36446E-02
         0.42628E-02
         0.32083E-02
         0.29652E-02
         0.34622E-02
         0.32627E-02
         0.37096E-02
         0.32083E-02
         0.30766E-02
         0.35205E-02
         0.26823E-02
         0.26823E-02
         0.24608E-02
         0.27605E-02
         0.42628E-02
         0.35205E-02
         0.42628E-02
         0.34737E-02
         0.27279E-02
         0.31821E-02
         0.32471E-02
         0.26991E-02
         0.27827E-02
         0.27827E-02
         0.27011E-02
         0.31900E-02
         0.31900E-02
         0.37096E-02
         0.36237E-02
         0.28231E-02
         0.31679E-02
         0.33478E-02
         0.33478E-02
         0.32038E-02
         0.29841E-02
         0.32829E-02
         0.27279E-02
         0.31043E-02
         0.31821E-02
         0.32471E-02
         0.32471E-02
         0.30007E-02
         0.27194E-02
         0.26991E-02
         0.27827E-02
         0.27827E-02
         0.27011E-02
         0.31900E-02
         0.31900E-02
         0.32627E-02
         0.34622E-02
         0.37096E-02
         0.37096E-02
         0.36237E-02
         0.28231E-02
         0.29164E-02
         0.32468E-02
         0.32468E-02
         0.32038E-02
         0.29841E-02
         0.32829E-02
         0.32829E-02
         0.42429E-02
         0.35199E-02
         0.37665E-02
         0.42429E-02
         0.37665E-02
         0.37665E-02
         0.30101E-02
         0.32085E-02
         0.42429E-02
         0.32085E-02
         0.24168E-02
         0.30017E-02
         0.32482E-02
         0.26510E-02
         0.27194E-02
         0.42619E-02
         0.36437E-02
         0.42619E-02
         0.32085E-02
         0.29640E-02
         0.34618E-02
         0.32627E-02
         0.37092E-02
         0.32085E-02
         0.30755E-02
         0.35207E-02
         0.26808E-02
         0.26808E-02
         0.24603E-02
         0.27599E-02
         0.42619E-02
         0.35207E-02
         0.42619E-02
         0.34748E-02
         0.27279E-02
         0.31824E-02
         0.32482E-02
         0.26994E-02
         0.27827E-02
         0.27827E-02
         0.27012E-02
         0.31902E-02
         0.31902E-02
         0.37092E-02
         0.36236E-02
         0.28227E-02
         0.31684E-02
         0.33477E-02
         0.33477E-02
         0.32046E-02
         0.29840E-02
         0.32827E-02
         0.27279E-02
         0.31034E-02
         0.31824E-02
         0.32482E-02
         0.32482E-02
         0.30017E-02
         0.27194E-02
         0.26994E-02
         0.27827E-02
         0.27827E-02
         0.27012E-02
         0.31902E-02
         0.31902E-02
         0.32627E-02
         0.34618E-02
         0.37092E-02
         0.37092E-02
         0.36236E-02
         0.28227E-02
         0.29173E-02
         0.32479E-02
         0.32479E-02
         0.32046E-02
         0.29840E-02
         0.32827E-02
         0.32827E-02
         0.42431E-02
         0.35199E-02
         0.37670E-02
         0.42431E-02
         0.37670E-02
         0.37670E-02
         0.30102E-02
         0.32087E-02
         0.42431E-02
         0.32087E-02
         0.24167E-02
         0.30026E-02
         0.32493E-02
         0.26498E-02
         0.27194E-02
         0.42611E-02
         0.36427E-02
         0.42611E-02
         0.32087E-02
         0.29628E-02
         0.34613E-02
         0.32628E-02
         0.37089E-02
         0.32087E-02
         0.30744E-02
         0.35209E-02
         0.26794E-02
         0.26794E-02
         0.24598E-02
         0.27592E-02
         0.42611E-02
         0.35209E-02
         0.42611E-02
         0.34759E-02
         0.27280E-02
         0.31827E-02
         0.32493E-02
         0.26998E-02
         0.27827E-02
         0.27827E-02
         0.27013E-02
         0.31905E-02
         0.31905E-02
         0.37089E-02
         0.36235E-02
         0.28224E-02
         0.31689E-02
         0.33476E-02
         0.33476E-02
         0.32055E-02
         0.29839E-02
         0.32825E-02
         0.27280E-02
         0.31024E-02
         0.31827E-02
         0.32493E-02
         0.32493E-02
         0.30026E-02
         0.27194E-02
         0.26998E-02
         0.27827E-02
         0.27827E-02
         0.27013E-02
         0.31905E-02
         0.31905E-02
         0.32628E-02
         0.34613E-02
         0.37089E-02
         0.37089E-02
         0.36235E-02
         0.28224E-02
         0.29183E-02
         0.32490E-02
         0.32490E-02
         0.32055E-02
         0.29839E-02
         0.32825E-02
         0.32825E-02
         0.42432E-02
         0.35199E-02
         0.37675E-02
         0.42432E-02
         0.37675E-02
         0.37675E-02
         0.30104E-02
         0.32089E-02
         0.42432E-02
         0.32089E-02
         0.24166E-02
         0.30035E-02
         0.32504E-02
         0.26486E-02
         0.27195E-02
         0.42603E-02
         0.36418E-02
         0.42603E-02
         0.32089E-02
         0.29615E-02
         0.34609E-02
         0.32629E-02
         0.37085E-02
         0.32089E-02
         0.30732E-02
         0.35211E-02
         0.26779E-02
         0.26779E-02
         0.24593E-02
         0.27585E-02
         0.42603E-02
         0.35211E-02
         0.42603E-02
         0.34771E-02
         0.27281E-02
         0.31830E-02
         0.32504E-02
         0.27002E-02
         0.27827E-02
         0.27827E-02
         0.27014E-02
         0.31907E-02
         0.31907E-02
         0.37085E-02
         0.36233E-02
         0.28221E-02
         0.31694E-02
         0.33475E-02
         0.33475E-02
         0.32063E-02
         0.29838E-02
         0.32823E-02
         0.27281E-02
         0.31015E-02
         0.31830E-02
         0.32504E-02
         0.32504E-02
         0.30035E-02
         0.27195E-02
         0.27002E-02
         0.27827E-02
         0.27827E-02
         0.27014E-02
         0.31907E-02
         0.31907E-02
         0.32629E-02
         0.34609E-02
         0.37085E-02
         0.37085E-02
         0.36233E-02
         0.28221E-02
         0.29193E-02
         0.32501E-02
         0.32501E-02
         0.32063E-02
         0.29838E-02
         0.32823E-02
         0.32823E-02
         0.42433E-02
         0.35199E-02
         0.37680E-02
         0.42433E-02
         0.37680E-02
         0.37680E-02
         0.30106E-02
         0.32091E-02
         0.42433E-02
         0.32091E-02
         0.24164E-02
         0.30045E-02
         0.32514E-02
         0.26474E-02
         0.27195E-02
         0.42594E-02
         0.36409E-02
         0.42594E-02
         0.32091E-02
         0.29603E-02
         0.34605E-02
         0.32630E-02
         0.37081E-02
         0.32091E-02
         0.30721E-02
         0.35213E-02
         0.26765E-02
         0.26765E-02
         0.24588E-02
         0.27579E-02
         0.42594E-02
         0.35213E-02
         0.42594E-02
         0.34782E-02
         0.27281E-02
         0.31833E-02
         0.32514E-02
         0.27006E-02
         0.27826E-02
         0.27826E-02
         0.27015E-02
         0.31910E-02
         0.31910E-02
         0.37081E-02
         0.36232E-02
         0.28218E-02
         0.31700E-02
         0.33474E-02
         0.33474E-02
         0.32072E-02
         0.29836E-02
         0.32821E-02
         0.27281E-02
         0.31005E-02
         0.31833E-02
         0.32514E-02
         0.32514E-02
         0.30045E-02
         0.27195E-02
         0.27006E-02
         0.27826E-02
         0.27826E-02
         0.27015E-02
         0.31910E-02
         0.31910E-02
         0.32630E-02
         0.34605E-02
         0.37081E-02
         0.37081E-02
         0.36232E-02
         0.28218E-02
         0.29202E-02
         0.32512E-02
         0.32512E-02
         0.32072E-02
         0.29836E-02
         0.32821E-02
         0.32821E-02
         0.42435E-02
         0.35199E-02
         0.37685E-02
         0.42435E-02
         0.37685E-02
         0.37685E-02
         0.30108E-02
         0.32093E-02
         0.42435E-02
         0.32093E-02
         0.24163E-02
         0.30054E-02
         0.32525E-02
         0.26461E-02
         0.27196E-02
         0.42586E-02
         0.36399E-02
         0.42586E-02
         0.32093E-02
         0.29591E-02
         0.34601E-02
         0.32630E-02
         0.37077E-02
         0.32093E-02
         0.30710E-02
         0.35215E-02
         0.26750E-02
         0.26750E-02
         0.24583E-02
         0.27572E-02
         0.42586E-02
         0.35215E-02
         0.42586E-02
         0.34793E-02
         0.27282E-02
         0.31836E-02
         0.32525E-02
         0.27010E-02
         0.27826E-02
         0.27826E-02
         0.27016E-02
         0.31912E-02
         0.31912E-02
         0.37077E-02
         0.36231E-02
         0.28215E-02
         0.31705E-02
         0.33473E-02
         0.33473E-02
         0.32080E-02
         0.29835E-02
         0.32819E-02
         0.27282E-02
         0.30996E-02
         0.31836E-02
         0.32525E-02
         0.32525E-02
         0.30054E-02
         0.27196E-02
         0.27010E-02
         0.27826E-02
         0.27826E-02
         0.27016E-02
         0.31912E-02
         0.31912E-02
         0.32630E-02
         0.34601E-02
         0.37077E-02
         0.37077E-02
         0.36231E-02
         0.28215E-02
         0.29212E-02
         0.32524E-02
         0.32524E-02
         0.32080E-02
         0.29835E-02
         0.32819E-02
         0.32819E-02
         0.42436E-02
         0.35198E-02
         0.37690E-02
         0.42436E-02
         0.37690E-02
         0.37690E-02
         0.30110E-02
         0.32095E-02
         0.42436E-02
         0.32095E-02
         0.24162E-02
         0.30064E-02
         0.32536E-02
         0.26449E-02
         0.27196E-02
         0.42577E-02
         0.36390E-02
         0.42577E-02
         0.32096E-02
         0.29578E-02
         0.34596E-02
         0.32631E-02
         0.37074E-02
         0.32096E-02
         0.30699E-02
         0.35217E-02
         0.26735E-02
         0.26735E-02
         0.24578E-02
         0.27566E-02
         0.42577E-02
         0.35217E-02
         0.42577E-02
         0.34804E-02
         0.27283E-02
         0.31839E-02
         0.32536E-02
         0.27013E-02
         0.27826E-02
         0.27826E-02
         0.27017E-02
         0.31915E-02
         0.31915E-02
         0.37074E-02
         0.36230E-02
         0.28211E-02
         0.31710E-02
         0.33472E-02
         0.33472E-02
         0.32089E-02
         0.29834E-02
         0.32817E-02
         0.27283E-02
         0.30986E-02
         0.31839E-02
         0.32536E-02
         0.32536E-02
         0.30064E-02
         0.27196E-02
         0.27013E-02
         0.27826E-02
         0.27826E-02
         0.27017E-02
         0.31915E-02
         0.31915E-02
         0.32631E-02
         0.34596E-02
         0.37074E-02
         0.37074E-02
         0.36230E-02
         0.28211E-02
         0.29221E-02
         0.32535E-02
         0.32535E-02
         0.32089E-02
         0.29834E-02
         0.32817E-02
         0.32817E-02
         0.42437E-02
         0.35198E-02
         0.37695E-02
         0.42437E-02
         0.37695E-02
         0.37695E-02
         0.30112E-02
         0.32097E-02
         0.42437E-02
         0.32097E-02
         0.24160E-02
         0.30073E-02
         0.32547E-02
         0.26437E-02
         0.27197E-02
         0.42569E-02
         0.36381E-02
         0.42569E-02
         0.32098E-02
         0.29566E-02
         0.34592E-02
         0.32632E-02
         0.37070E-02
         0.32098E-02
         0.30688E-02
         0.35219E-02
         0.26721E-02
         0.26721E-02
         0.24573E-02
         0.27560E-02
         0.42569E-02
         0.35219E-02
         0.42569E-02
         0.34815E-02
         0.27284E-02
         0.31843E-02
         0.32547E-02
         0.27017E-02
         0.27826E-02
         0.27826E-02
         0.27018E-02
         0.31917E-02
         0.31917E-02
         0.37070E-02
         0.36229E-02
         0.28208E-02
         0.31716E-02
         0.33471E-02
         0.33471E-02
         0.32097E-02
         0.29833E-02
         0.32815E-02
         0.27284E-02
         0.30977E-02
         0.31843E-02
         0.32547E-02
         0.32547E-02
         0.30073E-02
         0.27197E-02
         0.27017E-02
         0.27826E-02
         0.27826E-02
         0.27018E-02
         0.31917E-02
         0.31917E-02
         0.32632E-02
         0.34592E-02
         0.37070E-02
         0.37070E-02
         0.36229E-02
         0.28208E-02
         0.29231E-02
         0.32546E-02
         0.32546E-02
         0.32097E-02
         0.29833E-02
         0.32815E-02
         0.32815E-02
         0.42439E-02
         0.35198E-02
         0.37701E-02
         0.42439E-02
         0.37701E-02
         0.37701E-02
         0.30113E-02
         0.32099E-02
         0.42439E-02
         0.32099E-02
         0.24159E-02
         0.30082E-02
         0.32558E-02
         0.26425E-02
         0.27197E-02
         0.42560E-02
         0.36371E-02
         0.42560E-02
         0.32100E-02
         0.29554E-02
         0.34588E-02
         0.32633E-02
         0.37066E-02
         0.32100E-02
         0.30677E-02
         0.35221E-02
         0.26706E-02
         0.26706E-02
         0.24568E-02
         0.27553E-02
         0.42560E-02
         0.35221E-02
         0.42560E-02
         0.34827E-02
         0.27284E-02
         0.31846E-02
         0.32558E-02
         0.27021E-02
         0.27826E-02
         0.27826E-02
         0.27019E-02
         0.31920E-02
         0.31920E-02
         0.37066E-02
         0.36227E-02
         0.28205E-02
         0.31721E-02
         0.33470E-02
         0.33470E-02
         0.32106E-02
         0.29831E-02
         0.32813E-02
         0.27284E-02
         0.30968E-02
         0.31846E-02
         0.32558E-02
         0.32558E-02
         0.30082E-02
         0.27197E-02
         0.27021E-02
         0.27826E-02
         0.27826E-02
         0.27019E-02
         0.31920E-02
         0.31920E-02
         0.32633E-02
         0.34588E-02
         0.37066E-02
         0.37066E-02
         0.36227E-02
         0.28205E-02
         0.29241E-02
         0.32557E-02
         0.32557E-02
         0.32106E-02
         0.29831E-02
         0.32813E-02
         0.32813E-02
         0.42440E-02
         0.35198E-02
         0.37706E-02
         0.42440E-02
         0.37706E-02
         0.37706E-02
         0.30115E-02
         0.32101E-02
         0.42440E-02
         0.32101E-02
         0.24158E-02
         0.30091E-02
         0.32568E-02
         0.26412E-02
         0.27198E-02
         0.42552E-02
         0.36362E-02
         0.42552E-02
         0.32102E-02
         0.29541E-02
         0.34583E-02
         0.32633E-02
         0.37062E-02
         0.32102E-02
         0.30665E-02
         0.35223E-02
         0.26692E-02
         0.26692E-02
         0.24563E-02
         0.27546E-02
         0.42552E-02
         0.35223E-02
         0.42552E-02
         0.34838E-02
         0.27285E-02
         0.31849E-02
         0.32568E-02
         0.27025E-02
         0.27826E-02
         0.27826E-02
         0.27020E-02
         0.31922E-02
         0.31922E-02
         0.37062E-02
         0.36226E-02
         0.28202E-02
         0.31726E-02
         0.33469E-02
         0.33469E-02
         0.32114E-02
         0.29830E-02
         0.32811E-02
         0.27285E-02
         0.30958E-02
         0.31849E-02
         0.32568E-02
         0.32568E-02
         0.30091E-02
         0.27198E-02
         0.27025E-02
         0.27826E-02
         0.27826E-02
         0.27020E-02
         0.31922E-02
         0.31922E-02
         0.32633E-02
         0.34583E-02
         0.37062E-02
         0.37062E-02
         0.36226E-02
         0.28202E-02
         0.29250E-02
         0.32568E-02
         0.32568E-02
         0.32114E-02
         0.29830E-02
         0.32811E-02
         0.32811E-02
         0.42441E-02
         0.35198E-02
         0.37711E-02
         0.42441E-02
         0.37711E-02
         0.37711E-02
         0.30117E-02
         0.32103E-02
         0.42441E-02
         0.32103E-02
         0.24156E-02
         0.30101E-02
         0.32579E-02
         0.26400E-02
         0.27198E-02
         0.42543E-02
         0.36353E-02
         0.42543E-02
         0.32104E-02
         0.29529E-02
         0.34579E-02
         0.32634E-02
         0.37058E-02
         0.32104E-02
         0.30654E-02
         0.35225E-02
         0.26677E-02
         0.26677E-02
         0.24558E-02
         0.27540E-02
         0.42543E-02
         0.35225E-02
         0.42543E-02
         0.34849E-02
         0.27286E-02
         0.31852E-02
         0.32579E-02
         0.27029E-02
         0.27826E-02
         0.27826E-02
         0.27021E-02
         0.31924E-02
         0.31924E-02
         0.37058E-02
         0.36225E-02
         0.28198E-02
         0.31731E-02
         0.33468E-02
         0.33468E-02
         0.32123E-02
         0.29829E-02
         0.32809E-02
         0.27286E-02
         0.30949E-02
         0.31852E-02
         0.32579E-02
         0.32579E-02
         0.30101E-02
         0.27198E-02
         0.27029E-02
         0.27826E-02
         0.27826E-02
         0.27021E-02
         0.31924E-02
         0.31924E-02
         0.32634E-02
         0.34579E-02
         0.37058E-02
         0.37058E-02
         0.36225E-02
         0.28198E-02
         0.29260E-02
         0.32579E-02
         0.32579E-02
         0.32123E-02
         0.29829E-02
         0.32809E-02
         0.32809E-02
         0.42443E-02
         0.35197E-02
         0.37716E-02
         0.42443E-02
         0.37716E-02
         0.37716E-02
         0.30119E-02
         0.32105E-02
         0.42443E-02
         0.32105E-02
         0.24155E-02
         0.30110E-02
         0.32590E-02
         0.26388E-02
         0.27199E-02
         0.42535E-02
         0.36343E-02
         0.42535E-02
         0.32106E-02
         0.29517E-02
         0.34575E-02
         0.32635E-02
         0.37055E-02
         0.32106E-02
         0.30643E-02
         0.35227E-02
         0.26663E-02
         0.26663E-02
         0.24553E-02
         0.27533E-02
         0.42535E-02
         0.35227E-02
         0.42535E-02
         0.34860E-02
         0.27286E-02
         0.31855E-02
         0.32590E-02
         0.27032E-02
         0.27826E-02
         0.27826E-02
         0.27022E-02
         0.31927E-02
         0.31927E-02
         0.37055E-02
         0.36224E-02
         0.28195E-02
         0.31737E-02
         0.33467E-02
         0.33467E-02
         0.32132E-02
         0.29828E-02
         0.32807E-02
         0.27286E-02
         0.30939E-02
         0.31855E-02
         0.32590E-02
         0.32590E-02
         0.30110E-02
         0.27199E-02
         0.27032E-02
         0.27826E-02
         0.27826E-02
         0.27022E-02
         0.31927E-02
         0.31927E-02
         0.32635E-02
         0.34575E-02
         0.37055E-02
         0.37055E-02
         0.36224E-02
         0.28195E-02
         0.29269E-02
         0.32591E-02
         0.32591E-02
         0.32132E-02
         0.29828E-02
         0.32807E-02
         0.32807E-02
         0.42444E-02
         0.35197E-02
         0.37721E-02
         0.42444E-02
         0.37721E-02
         0.37721E-02
         0.30121E-02
         0.32107E-02
         0.42444E-02
         0.32107E-02
         0.24154E-02
         0.30119E-02
         0.32601E-02
         0.26376E-02
         0.27199E-02
         0.42527E-02
         0.36334E-02
         0.42527E-02
         0.32108E-02
         0.29504E-02
         0.34571E-02
         0.32636E-02
         0.37051E-02
         0.32108E-02
         0.30632E-02
         0.35229E-02
         0.26648E-02
         0.26648E-02
         0.24552E-02
         0.27527E-02
         0.42527E-02
         0.35229E-02
         0.42527E-02
         0.34871E-02
         0.27287E-02
         0.31858E-02
         0.32601E-02
         0.27036E-02
         0.27825E-02
         0.27825E-02
         0.27023E-02
         0.31929E-02
         0.31929E-02
         0.37051E-02
         0.36223E-02
         0.28192E-02
         0.31742E-02
         0.33466E-02
         0.33466E-02
         0.32140E-02
         0.29827E-02
         0.32805E-02
         0.27287E-02
         0.30930E-02
         0.31858E-02
         0.32601E-02
         0.32601E-02
         0.30119E-02
         0.27199E-02
         0.27036E-02
         0.27825E-02
         0.27825E-02
         0.27023E-02
         0.31929E-02
         0.31929E-02
         0.32636E-02
         0.34571E-02
         0.37051E-02
         0.37051E-02
         0.36223E-02
         0.28192E-02
         0.29279E-02
         0.32602E-02
         0.32602E-02
         0.32140E-02
         0.29827E-02
         0.32805E-02
         0.32805E-02
         0.42445E-02
         0.35197E-02
         0.37726E-02
         0.42445E-02
         0.37726E-02
         0.37726E-02
         0.30123E-02
         0.32108E-02
         0.42445E-02
         0.32108E-02
         0.24152E-02
         0.30129E-02
         0.32611E-02
         0.26363E-02
         0.27200E-02
         0.42518E-02
         0.36325E-02
         0.42518E-02
         0.32110E-02
         0.29492E-02
         0.34566E-02
         0.32636E-02
         0.37047E-02
         0.32110E-02
         0.30621E-02
         0.35231E-02
         0.26633E-02
         0.26633E-02
         0.24554E-02
         0.27520E-02
         0.42518E-02
         0.35231E-02
         0.42518E-02
         0.34882E-02
         0.27288E-02
         0.31861E-02
         0.32611E-02
         0.27040E-02
         0.27825E-02
         0.27825E-02
         0.27024E-02
         0.31932E-02
         0.31932E-02
         0.37047E-02
         0.36222E-02
         0.28189E-02
         0.31747E-02
         0.33465E-02
         0.33465E-02
         0.32149E-02
         0.29826E-02
         0.32803E-02
         0.27288E-02
         0.30921E-02
         0.31861E-02
         0.32611E-02
         0.32611E-02
         0.30129E-02
         0.27200E-02
         0.27040E-02
         0.27825E-02
         0.27825E-02
         0.27024E-02
         0.31932E-02
         0.31932E-02
         0.32636E-02
         0.34566E-02
         0.37047E-02
         0.37047E-02
         0.36222E-02
         0.28189E-02
         0.29289E-02
         0.32613E-02
         0.32613E-02
         0.32149E-02
         0.29826E-02
         0.32803E-02
         0.32803E-02
         0.42447E-02
         0.35196E-02
         0.37732E-02
         0.42447E-02
         0.37732E-02
         0.37732E-02
         0.30125E-02
         0.32111E-02
         0.42447E-02
         0.32111E-02
         0.24151E-02
         0.30138E-02
         0.32622E-02
         0.26351E-02
         0.27200E-02
         0.42510E-02
         0.36315E-02
         0.42510E-02
         0.32112E-02
         0.29480E-02
         0.34562E-02
         0.32637E-02
         0.37043E-02
         0.32112E-02
         0.30610E-02
         0.35233E-02
         0.26619E-02
         0.26619E-02
         0.24557E-02
         0.27514E-02
         0.42510E-02
         0.35233E-02
         0.42510E-02
         0.34894E-02
         0.27289E-02
         0.31864E-02
         0.32622E-02
         0.27044E-02
         0.27825E-02
         0.27825E-02
         0.27025E-02
         0.31934E-02
         0.31934E-02
         0.37043E-02
         0.36220E-02
         0.28186E-02
         0.31753E-02
         0.33464E-02
         0.33464E-02
         0.32157E-02
         0.29824E-02
         0.32801E-02
         0.27289E-02
         0.30911E-02
         0.31864E-02
         0.32622E-02
         0.32622E-02
         0.30138E-02
         0.27200E-02
         0.27044E-02
         0.27825E-02
         0.27825E-02
         0.27025E-02
         0.31934E-02
         0.31934E-02
         0.32637E-02
         0.34562E-02
         0.37043E-02
         0.37043E-02
         0.36220E-02
         0.28186E-02
         0.29298E-02
         0.32624E-02
         0.32624E-02
         0.32157E-02
         0.29824E-02
         0.32801E-02
         0.32801E-02
         0.42448E-02
         0.35196E-02
         0.37737E-02
         0.42448E-02
         0.37737E-02
         0.37737E-02
         0.30126E-02
         0.32112E-02
         0.42448E-02
         0.32112E-02
         0.24150E-02
         0.30147E-02
         0.32633E-02
         0.26339E-02
         0.27200E-02
         0.42501E-02
         0.36306E-02
         0.42501E-02
         0.32114E-02
         0.29467E-02
         0.34558E-02
         0.32638E-02
         0.37039E-02
         0.32114E-02
         0.30598E-02
         0.35235E-02
         0.26604E-02
         0.26604E-02
         0.24559E-02
         0.27507E-02
         0.42501E-02
         0.35235E-02
         0.42501E-02
         0.34905E-02
         0.27289E-02
         0.31867E-02
         0.32633E-02
         0.27048E-02
         0.27825E-02
         0.27825E-02
         0.27026E-02
         0.31937E-02
         0.31937E-02
         0.37039E-02
         0.36219E-02
         0.28183E-02
         0.31758E-02
         0.33463E-02
         0.33463E-02
         0.32166E-02
         0.29823E-02
         0.32799E-02
         0.27289E-02
         0.30902E-02
         0.31867E-02
         0.32633E-02
         0.32633E-02
         0.30147E-02
         0.27200E-02
         0.27048E-02
         0.27825E-02
         0.27825E-02
         0.27026E-02
         0.31937E-02
         0.31937E-02
         0.32638E-02
         0.34558E-02
         0.37039E-02
         0.37039E-02
         0.36219E-02
         0.28183E-02
         0.29308E-02
         0.32635E-02
         0.32635E-02
         0.32166E-02
         0.29823E-02
         0.32799E-02
         0.32799E-02
         0.42448E-02
         0.35196E-02
         0.37737E-02
         0.42448E-02
         0.37737E-02
         0.37737E-02
         0.30126E-02
         0.32112E-02
         0.42448E-02
         0.32112E-02
         0.24148E-02
         0.30147E-02
         0.32633E-02
         0.26327E-02
         0.27200E-02
         0.42493E-02
         0.36297E-02
         0.42493E-02
         0.32114E-02
         0.29455E-02
         0.34553E-02
         0.32638E-02
         0.37036E-02
         0.32114E-02
         0.30587E-02
         0.35235E-02
         0.26590E-02
         0.26590E-02
         0.24559E-02
         0.27501E-02
         0.42493E-02
         0.35235E-02
         0.42493E-02
         0.34905E-02
         0.27289E-02
         0.31867E-02
         0.32633E-02
         0.27048E-02
         0.27825E-02
         0.27825E-02
         0.27026E-02
         0.31937E-02
         0.31937E-02
         0.37036E-02
         0.36218E-02
         0.28180E-02
         0.31758E-02
         0.33462E-02
         0.33462E-02
         0.32166E-02
         0.29822E-02
         0.32797E-02
         0.27289E-02
         0.30892E-02
         0.31867E-02
         0.32633E-02
         0.32633E-02
         0.30147E-02
         0.27200E-02
         0.27048E-02
         0.27825E-02
         0.27825E-02
         0.27026E-02
         0.31937E-02
         0.31937E-02
         0.32638E-02
         0.34553E-02
         0.37036E-02
         0.37036E-02
         0.36218E-02
         0.28180E-02
         0.29308E-02
         0.32635E-02
         0.32635E-02
         0.32166E-02
         0.29822E-02
         0.32797E-02
         0.32797E-02
  
SCALARS              physical_window_y  double 1
LOOKUP_TABLE default
         0.43155E-02
         0.43155E-02
         0.43155E-02
         0.43155E-02
         0.43155E-02
         0.43155E-02
         0.43155E-02
         0.43155E-02
         0.34883E-02
         0.34883E-02
         0.34882E-02
         0.34882E-02
         0.32826E-02
         0.32142E-02
         0.32826E-02
         0.32142E-02
         0.37863E-02
         0.31884E-02
         0.37863E-02
         0.31884E-02
         0.27172E-02
         0.33887E-02
         0.37164E-02
         0.27172E-02
         0.33887E-02
         0.37164E-02
         0.27582E-02
         0.28966E-02
         0.27582E-02
         0.28954E-02
         0.37007E-02
         0.35859E-02
         0.37863E-02
         0.37007E-02
         0.35824E-02
         0.37863E-02
         0.29875E-02
         0.29875E-02
         0.29867E-02
         0.29867E-02
         0.28561E-02
         0.26860E-02
         0.28556E-02
         0.26852E-02
         0.29518E-02
         0.28068E-02
         0.29517E-02
         0.28066E-02
         0.29975E-02
         0.29949E-02
         0.37007E-02
         0.37007E-02
         0.28693E-02
         0.28693E-02
         0.28693E-02
         0.28693E-02
         0.27602E-02
         0.26193E-02
         0.27602E-02
         0.26193E-02
         0.37007E-02
         0.37007E-02
         0.37007E-02
         0.37007E-02
         0.37685E-02
         0.37665E-02
         0.37685E-02
         0.37665E-02
         0.30230E-02
         0.37003E-02
         0.30229E-02
         0.37003E-02
         0.37164E-02
         0.37164E-02
         0.31934E-02
         0.31921E-02
         0.32777E-02
         0.32771E-02
         0.32777E-02
         0.32771E-02
         0.27006E-02
         0.25920E-02
         0.27006E-02
         0.25920E-02
         0.25916E-02
         0.25916E-02
         0.29715E-02
         0.29715E-02
         0.29715E-02
         0.29715E-02
         0.26477E-02
         0.29102E-02
         0.26477E-02
         0.29102E-02
         0.34085E-02
         0.34085E-02
         0.35350E-02
         0.35350E-02
         0.35350E-02
         0.35350E-02
         0.29766E-02
         0.32272E-02
         0.29763E-02
         0.32254E-02
         0.29087E-02
         0.29835E-02
         0.29087E-02
         0.29825E-02
         0.37003E-02
         0.37003E-02
         0.37164E-02
         0.37164E-02
         0.37164E-02
         0.37164E-02
         0.33887E-02
         0.33887E-02
         0.28966E-02
         0.28954E-02
         0.31934E-02
         0.31921E-02
         0.32777E-02
         0.32771E-02
         0.32777E-02
         0.32771E-02
         0.27006E-02
         0.27006E-02
         0.25920E-02
         0.25920E-02
         0.25916E-02
         0.25916E-02
         0.26860E-02
         0.26852E-02
         0.28561E-02
         0.28556E-02
         0.29518E-02
         0.29517E-02
         0.29715E-02
         0.29715E-02
         0.29715E-02
         0.29715E-02
         0.26477E-02
         0.26477E-02
         0.27685E-02
         0.27685E-02
         0.34085E-02
         0.34085E-02
         0.35350E-02
         0.35350E-02
         0.35350E-02
         0.35350E-02
         0.29766E-02
         0.29763E-02
         0.31381E-02
         0.31368E-02
         0.31381E-02
         0.31368E-02
         0.43153E-02
         0.43153E-02
         0.43153E-02
         0.43153E-02
         0.34883E-02
         0.34883E-02
         0.32812E-02
         0.32132E-02
         0.37858E-02
         0.31880E-02
         0.27155E-02
         0.33883E-02
         0.37163E-02
         0.27535E-02
         0.28978E-02
         0.37004E-02
         0.35894E-02
         0.37858E-02
         0.29882E-02
         0.29882E-02
         0.28566E-02
         0.26867E-02
         0.29519E-02
         0.28071E-02
         0.30001E-02
         0.37004E-02
         0.28667E-02
         0.28667E-02
         0.27589E-02
         0.26183E-02
         0.37004E-02
         0.37004E-02
         0.37706E-02
         0.37706E-02
         0.30232E-02
         0.36991E-02
         0.37163E-02
         0.31947E-02
         0.32784E-02
         0.32784E-02
         0.27006E-02
         0.25920E-02
         0.25909E-02
         0.29715E-02
         0.29715E-02
         0.26476E-02
         0.29101E-02
         0.34078E-02
         0.35344E-02
         0.35344E-02
         0.29769E-02
         0.32290E-02
         0.29059E-02
         0.29845E-02
         0.36991E-02
         0.37163E-02
         0.37163E-02
         0.33883E-02
         0.28978E-02
         0.31947E-02
         0.32784E-02
         0.32784E-02
         0.27006E-02
         0.25920E-02
         0.25909E-02
         0.26867E-02
         0.28566E-02
         0.29519E-02
         0.29715E-02
         0.29715E-02
         0.26476E-02
         0.27685E-02
         0.34078E-02
         0.35344E-02
         0.35344E-02
         0.29769E-02
         0.31395E-02
         0.31395E-02
         0.43150E-02
         0.43150E-02
         0.43150E-02
         0.43150E-02
         0.34884E-02
         0.34884E-02
         0.32798E-02
         0.32122E-02
         0.37853E-02
         0.31876E-02
         0.27137E-02
         0.33879E-02
         0.37162E-02
         0.27488E-02
         0.28990E-02
         0.37001E-02
         0.35930E-02
         0.37853E-02
         0.29889E-02
         0.29889E-02
         0.28571E-02
         0.26875E-02
         0.29521E-02
         0.28074E-02
         0.30027E-02
         0.37001E-02
         0.28641E-02
         0.28641E-02
         0.27576E-02
         0.26173E-02
         0.37001E-02
         0.37001E-02
         0.37727E-02
         0.37727E-02
         0.30234E-02
         0.36979E-02
         0.37162E-02
         0.31960E-02
         0.32790E-02
         0.32790E-02
         0.27006E-02
         0.25920E-02
         0.25902E-02
         0.29715E-02
         0.29715E-02
         0.26476E-02
         0.29100E-02
         0.34071E-02
         0.35339E-02
         0.35339E-02
         0.29772E-02
         0.32307E-02
         0.29032E-02
         0.29855E-02
         0.36979E-02
         0.37162E-02
         0.37162E-02
         0.33879E-02
         0.28990E-02
         0.31960E-02
         0.32790E-02
         0.32790E-02
         0.27006E-02
         0.25920E-02
         0.25902E-02
         0.26875E-02
         0.28571E-02
         0.29521E-02
         0.29715E-02
         0.29715E-02
         0.26476E-02
         0.27684E-02
         0.34071E-02
         0.35339E-02
         0.35339E-02
         0.29772E-02
         0.31408E-02
         0.31408E-02
         0.43148E-02
         0.43148E-02
         0.43148E-02
         0.43148E-02
         0.34885E-02
         0.34885E-02
         0.32783E-02
         0.32112E-02
         0.37849E-02
         0.31872E-02
         0.27120E-02
         0.33875E-02
         0.37161E-02
         0.27441E-02
         0.29003E-02
         0.36998E-02
         0.35965E-02
         0.37849E-02
         0.29896E-02
         0.29896E-02
         0.28575E-02
         0.26882E-02
         0.29522E-02
         0.28077E-02
         0.30053E-02
         0.36998E-02
         0.28615E-02
         0.28615E-02
         0.27563E-02
         0.26163E-02
         0.36998E-02
         0.36998E-02
         0.37747E-02
         0.37747E-02
         0.30236E-02
         0.36967E-02
         0.37161E-02
         0.31973E-02
         0.32796E-02
         0.32796E-02
         0.27006E-02
         0.25920E-02
         0.25895E-02
         0.29714E-02
         0.29714E-02
         0.26475E-02
         0.29099E-02
         0.34063E-02
         0.35333E-02
         0.35333E-02
         0.29775E-02
         0.32325E-02
         0.29004E-02
         0.29865E-02
         0.36967E-02
         0.37161E-02
         0.37161E-02
         0.33875E-02
         0.29003E-02
         0.31973E-02
         0.32796E-02
         0.32796E-02
         0.27006E-02
         0.25920E-02
         0.25895E-02
         0.26882E-02
         0.28575E-02
         0.29522E-02
         0.29714E-02
         0.29714E-02
         0.26475E-02
         0.27684E-02
         0.34063E-02
         0.35333E-02
         0.35333E-02
         0.29775E-02
         0.31422E-02
         0.31422E-02
         0.43145E-02
         0.43145E-02
         0.43145E-02
         0.43145E-02
         0.34886E-02
         0.34886E-02
         0.32769E-02
         0.32102E-02
         0.37844E-02
         0.31868E-02
         0.27103E-02
         0.33871E-02
         0.37160E-02
         0.27394E-02
         0.29015E-02
         0.36995E-02
         0.36000E-02
         0.37844E-02
         0.29903E-02
         0.29903E-02
         0.28580E-02
         0.26890E-02
         0.29523E-02
         0.28079E-02
         0.30079E-02
         0.36995E-02
         0.28589E-02
         0.28589E-02
         0.27550E-02
         0.26152E-02
         0.36995E-02
         0.36995E-02
         0.37768E-02
         0.37768E-02
         0.30238E-02
         0.36956E-02
         0.37160E-02
         0.31986E-02
         0.32802E-02
         0.32802E-02
         0.27006E-02
         0.25920E-02
         0.25887E-02
         0.29714E-02
         0.29714E-02
         0.26475E-02
         0.29098E-02
         0.34056E-02
         0.35327E-02
         0.35327E-02
         0.29778E-02
         0.32342E-02
         0.28977E-02
         0.29875E-02
         0.36956E-02
         0.37160E-02
         0.37160E-02
         0.33871E-02
         0.29015E-02
         0.31986E-02
         0.32802E-02
         0.32802E-02
         0.27006E-02
         0.25920E-02
         0.25887E-02
         0.26890E-02
         0.28580E-02
         0.29523E-02
         0.29714E-02
         0.29714E-02
         0.26475E-02
         0.27683E-02
         0.34056E-02
         0.35327E-02
         0.35327E-02
         0.29778E-02
         0.31435E-02
         0.31435E-02
         0.43143E-02
         0.43143E-02
         0.43143E-02
         0.43143E-02
         0.34887E-02
         0.34887E-02
         0.32755E-02
         0.32091E-02
         0.37839E-02
         0.31864E-02
         0.27086E-02
         0.33867E-02
         0.37159E-02
         0.27347E-02
         0.29027E-02
         0.36991E-02
         0.36036E-02
         0.37839E-02
         0.29920E-02
         0.29920E-02
         0.28585E-02
         0.26897E-02
         0.29525E-02
         0.28082E-02
         0.30105E-02
         0.36991E-02
         0.28563E-02
         0.28563E-02
         0.27537E-02
         0.26142E-02
         0.36991E-02
         0.36991E-02
         0.37789E-02
         0.37789E-02
         0.30240E-02
         0.36944E-02
         0.37159E-02
         0.31999E-02
         0.32808E-02
         0.32808E-02
         0.27006E-02
         0.25920E-02
         0.25880E-02
         0.29714E-02
         0.29714E-02
         0.26474E-02
         0.29097E-02
         0.34049E-02
         0.35322E-02
         0.35322E-02
         0.29781E-02
         0.32360E-02
         0.28949E-02
         0.29885E-02
         0.36944E-02
         0.37159E-02
         0.37159E-02
         0.33867E-02
         0.29027E-02
         0.31999E-02
         0.32808E-02
         0.32808E-02
         0.27006E-02
         0.25920E-02
         0.25880E-02
         0.26897E-02
         0.28585E-02
         0.29525E-02
         0.29714E-02
         0.29714E-02
         0.26474E-02
         0.27683E-02
         0.34049E-02
         0.35322E-02
         0.35322E-02
         0.29781E-02
         0.31449E-02
         0.31449E-02
         0.43140E-02
         0.43140E-02
         0.43140E-02
         0.43140E-02
         0.34888E-02
         0.34888E-02
         0.32740E-02
         0.32081E-02
         0.37834E-02
         0.31860E-02
         0.27069E-02
         0.33863E-02
         0.37158E-02
         0.27299E-02
         0.29039E-02
         0.36988E-02
         0.36071E-02
         0.37834E-02
         0.29946E-02
         0.29946E-02
         0.28589E-02
         0.26905E-02
         0.29526E-02
         0.28085E-02
         0.30131E-02
         0.36988E-02
         0.28538E-02
         0.28538E-02
         0.27524E-02
         0.26132E-02
         0.36988E-02
         0.36988E-02
         0.37809E-02
         0.37809E-02
         0.30241E-02
         0.36932E-02
         0.37158E-02
         0.32012E-02
         0.32814E-02
         0.32814E-02
         0.27006E-02
         0.25920E-02
         0.25873E-02
         0.29714E-02
         0.29714E-02
         0.26473E-02
         0.29097E-02
         0.34041E-02
         0.35316E-02
         0.35316E-02
         0.29784E-02
         0.32378E-02
         0.28921E-02
         0.29895E-02
         0.36932E-02
         0.37158E-02
         0.37158E-02
         0.33863E-02
         0.29039E-02
         0.32012E-02
         0.32814E-02
         0.32814E-02
         0.27006E-02
         0.25920E-02
         0.25873E-02
         0.26905E-02
         0.28589E-02
         0.29526E-02
         0.29714E-02
         0.29714E-02
         0.26473E-02
         0.27683E-02
         0.34041E-02
         0.35316E-02
         0.35316E-02
         0.29784E-02
         0.31463E-02
         0.31463E-02
         0.43138E-02
         0.43138E-02
         0.43138E-02
         0.43138E-02
         0.34888E-02
         0.34888E-02
         0.32726E-02
         0.32071E-02
         0.37830E-02
         0.31856E-02
         0.27051E-02
         0.33859E-02
         0.37157E-02
         0.27252E-02
         0.29051E-02
         0.36985E-02
         0.36106E-02
         0.37830E-02
         0.29972E-02
         0.29972E-02
         0.28594E-02
         0.26912E-02
         0.29528E-02
         0.28087E-02
         0.30156E-02
         0.36985E-02
         0.28512E-02
         0.28512E-02
         0.27512E-02
         0.26122E-02
         0.36985E-02
         0.36985E-02
         0.37830E-02
         0.37830E-02
         0.30243E-02
         0.36920E-02
         0.37157E-02
         0.32025E-02
         0.32821E-02
         0.32821E-02
         0.27006E-02
         0.25920E-02
         0.25866E-02
         0.29714E-02
         0.29714E-02
         0.26473E-02
         0.29096E-02
         0.34034E-02
         0.35310E-02
         0.35310E-02
         0.29787E-02
         0.32396E-02
         0.28894E-02
         0.29905E-02
         0.36920E-02
         0.37157E-02
         0.37157E-02
         0.33859E-02
         0.29051E-02
         0.32025E-02
         0.32821E-02
         0.32821E-02
         0.27006E-02
         0.25920E-02
         0.25866E-02
         0.26912E-02
         0.28594E-02
         0.29528E-02
         0.29714E-02
         0.29714E-02
         0.26473E-02
         0.27682E-02
         0.34034E-02
         0.35310E-02
         0.35310E-02
         0.29787E-02
         0.31476E-02
         0.31476E-02
         0.43135E-02
         0.43135E-02
         0.43135E-02
         0.43135E-02
         0.34889E-02
         0.34889E-02
         0.32712E-02
         0.32061E-02
         0.37825E-02
         0.31852E-02
         0.27034E-02
         0.33856E-02
         0.37156E-02
         0.27205E-02
         0.29063E-02
         0.36982E-02
         0.36142E-02
         0.37851E-02
         0.29998E-02
         0.29998E-02
         0.28599E-02
         0.26920E-02
         0.29529E-02
         0.28090E-02
         0.30182E-02
         0.36982E-02
         0.28486E-02
         0.28486E-02
         0.27499E-02
         0.26112E-02
         0.36982E-02
         0.36982E-02
         0.37851E-02
         0.37851E-02
         0.30245E-02
         0.36908E-02
         0.37156E-02
         0.32038E-02
         0.32827E-02
         0.32827E-02
         0.27006E-02
         0.25920E-02
         0.25859E-02
         0.29714E-02
         0.29714E-02
         0.26472E-02
         0.29095E-02
         0.34027E-02
         0.35304E-02
         0.35304E-02
         0.29790E-02
         0.32413E-02
         0.28866E-02
         0.29915E-02
         0.36908E-02
         0.37156E-02
         0.37156E-02
         0.33856E-02
         0.29063E-02
         0.32038E-02
         0.32827E-02
         0.32827E-02
         0.27006E-02
         0.25920E-02
         0.25859E-02
         0.26920E-02
         0.28599E-02
         0.29529E-02
         0.29714E-02
         0.29714E-02
         0.26472E-02
         0.27682E-02
         0.34027E-02
         0.35304E-02
         0.35304E-02
         0.29790E-02
         0.31490E-02
         0.31490E-02
         0.43133E-02
         0.43133E-02
         0.43133E-02
         0.43133E-02
         0.34890E-02
         0.34890E-02
         0.32698E-02
         0.32051E-02
         0.37820E-02
         0.31848E-02
         0.27017E-02
         0.33851E-02
         0.37155E-02
         0.27158E-02
         0.29075E-02
         0.36979E-02
         0.36177E-02
         0.37871E-02
         0.30024E-02
         0.30024E-02
         0.28603E-02
         0.26927E-02
         0.29530E-02
         0.28093E-02
         0.30208E-02
         0.36979E-02
         0.28460E-02
         0.28460E-02
         0.27486E-02
         0.26101E-02
         0.36979E-02
         0.36979E-02
         0.37871E-02
         0.37871E-02
         0.30247E-02
         0.36896E-02
         0.37155E-02
         0.32051E-02
         0.32833E-02
         0.32833E-02
         0.27006E-02
         0.25920E-02
         0.25851E-02
         0.29714E-02
         0.29714E-02
         0.26472E-02
         0.29094E-02
         0.34019E-02
         0.35299E-02
         0.35299E-02
         0.29793E-02
         0.32431E-02
         0.28838E-02
         0.29925E-02
         0.36896E-02
         0.37155E-02
         0.37155E-02
         0.33851E-02
         0.29075E-02
         0.32051E-02
         0.32833E-02
         0.32833E-02
         0.27006E-02
         0.25920E-02
         0.25851E-02
         0.26927E-02
         0.28603E-02
         0.29530E-02
         0.29714E-02
         0.29714E-02
         0.26472E-02
         0.27681E-02
         0.34019E-02
         0.35299E-02
         0.35299E-02
         0.29793E-02
         0.31503E-02
         0.31503E-02
         0.43130E-02
         0.43130E-02
         0.43130E-02
         0.43130E-02
         0.34891E-02
         0.34891E-02
         0.32683E-02
         0.32041E-02
         0.37816E-02
         0.31844E-02
         0.27000E-02
         0.33848E-02
         0.37154E-02
         0.27111E-02
         0.29087E-02
         0.36976E-02
         0.36213E-02
         0.37892E-02
         0.30050E-02
         0.30050E-02
         0.28608E-02
         0.26935E-02
         0.29532E-02
         0.28096E-02
         0.30234E-02
         0.36976E-02
         0.28434E-02
         0.28434E-02
         0.27472E-02
         0.26091E-02
         0.36976E-02
         0.36976E-02
         0.37892E-02
         0.37892E-02
         0.30249E-02
         0.36885E-02
         0.37154E-02
         0.32064E-02
         0.32839E-02
         0.32839E-02
         0.27006E-02
         0.25920E-02
         0.25844E-02
         0.29714E-02
         0.29714E-02
         0.26471E-02
         0.29094E-02
         0.34012E-02
         0.35293E-02
         0.35293E-02
         0.29797E-02
         0.32449E-02
         0.28811E-02
         0.29935E-02
         0.36885E-02
         0.37154E-02
         0.37154E-02
         0.33848E-02
         0.29087E-02
         0.32064E-02
         0.32839E-02
         0.32839E-02
         0.27006E-02
         0.25920E-02
         0.25844E-02
         0.26935E-02
         0.28608E-02
         0.29532E-02
         0.29714E-02
         0.29714E-02
         0.26471E-02
         0.27681E-02
         0.34012E-02
         0.35293E-02
         0.35293E-02
         0.29797E-02
         0.31517E-02
         0.31517E-02
         0.43128E-02
         0.43128E-02
         0.43128E-02
         0.43128E-02
         0.34892E-02
         0.34892E-02
         0.32669E-02
         0.32031E-02
         0.37811E-02
         0.31840E-02
         0.26982E-02
         0.33844E-02
         0.37152E-02
         0.27063E-02
         0.29099E-02
         0.36973E-02
         0.36248E-02
         0.37913E-02
         0.30076E-02
         0.30076E-02
         0.28613E-02
         0.26942E-02
         0.29533E-02
         0.28099E-02
         0.30260E-02
         0.36973E-02
         0.28408E-02
         0.28408E-02
         0.27460E-02
         0.26081E-02
         0.36973E-02
         0.36973E-02
         0.37913E-02
         0.37913E-02
         0.30250E-02
         0.36873E-02
         0.37152E-02
         0.32077E-02
         0.32845E-02
         0.32845E-02
         0.27006E-02
         0.25920E-02
         0.25837E-02
         0.29714E-02
         0.29714E-02
         0.26471E-02
         0.29093E-02
         0.34005E-02
         0.35287E-02
         0.35287E-02
         0.29800E-02
         0.32467E-02
         0.28783E-02
         0.29945E-02
         0.36873E-02
         0.37152E-02
         0.37152E-02
         0.33844E-02
         0.29099E-02
         0.32077E-02
         0.32845E-02
         0.32845E-02
         0.27006E-02
         0.25920E-02
         0.25837E-02
         0.26942E-02
         0.28613E-02
         0.29533E-02
         0.29714E-02
         0.29714E-02
         0.26471E-02
         0.27681E-02
         0.34005E-02
         0.35287E-02
         0.35287E-02
         0.29800E-02
         0.31530E-02
         0.31530E-02
         0.43125E-02
         0.43125E-02
         0.43125E-02
         0.43125E-02
         0.34893E-02
         0.34893E-02
         0.32655E-02
         0.32021E-02
         0.37806E-02
         0.31836E-02
         0.26965E-02
         0.33840E-02
         0.37151E-02
         0.27016E-02
         0.29111E-02
         0.36969E-02
         0.36283E-02
         0.37933E-02
         0.30102E-02
         0.30102E-02
         0.28617E-02
         0.26950E-02
         0.29535E-02
         0.28101E-02
         0.30286E-02
         0.36969E-02
         0.28382E-02
         0.28382E-02
         0.27447E-02
         0.26071E-02
         0.36969E-02
         0.36969E-02
         0.37933E-02
         0.37933E-02
         0.30252E-02
         0.36861E-02
         0.37151E-02
         0.32090E-02
         0.32852E-02
         0.32852E-02
         0.27006E-02
         0.25920E-02
         0.25830E-02
         0.29714E-02
         0.29714E-02
         0.26470E-02
         0.29092E-02
         0.33997E-02
         0.35282E-02
         0.35282E-02
         0.29803E-02
         0.32484E-02
         0.28755E-02
         0.29955E-02
         0.36861E-02
         0.37151E-02
         0.37151E-02
         0.33840E-02
         0.29111E-02
         0.32090E-02
         0.32852E-02
         0.32852E-02
         0.27006E-02
         0.25920E-02
         0.25830E-02
         0.26950E-02
         0.28617E-02
         0.29535E-02
         0.29714E-02
         0.29714E-02
         0.26470E-02
         0.27680E-02
         0.33997E-02
         0.35282E-02
         0.35282E-02
         0.29803E-02
         0.31544E-02
         0.31544E-02
         0.43123E-02
         0.43123E-02
         0.43123E-02
         0.43123E-02
         0.34893E-02
         0.34893E-02
         0.32640E-02
         0.32011E-02
         0.37801E-02
         0.31832E-02
         0.26948E-02
         0.33836E-02
         0.37150E-02
         0.26969E-02
         0.29123E-02
         0.36966E-02
         0.36319E-02
         0.37954E-02
         0.30128E-02
         0.30128E-02
         0.28622E-02
         0.26957E-02
         0.29536E-02
         0.28104E-02
         0.30312E-02
         0.36966E-02
         0.28357E-02
         0.28357E-02
         0.27434E-02
         0.26061E-02
         0.36966E-02
         0.36966E-02
         0.37954E-02
         0.37954E-02
         0.30254E-02
         0.36849E-02
         0.37150E-02
         0.32103E-02
         0.32858E-02
         0.32858E-02
         0.27006E-02
         0.25920E-02
         0.25823E-02
         0.29714E-02
         0.29714E-02
         0.26470E-02
         0.29091E-02
         0.33990E-02
         0.35276E-02
         0.35276E-02
         0.29806E-02
         0.32502E-02
         0.28728E-02
         0.29965E-02
         0.36849E-02
         0.37150E-02
         0.37150E-02
         0.33836E-02
         0.29123E-02
         0.32103E-02
         0.32858E-02
         0.32858E-02
         0.27006E-02
         0.25920E-02
         0.25823E-02
         0.26957E-02
         0.28622E-02
         0.29536E-02
         0.29714E-02
         0.29714E-02
         0.26470E-02
         0.27680E-02
         0.33990E-02
         0.35276E-02
         0.35276E-02
         0.29806E-02
         0.31557E-02
         0.31557E-02
         0.43120E-02
         0.43120E-02
         0.43120E-02
         0.43120E-02
         0.34894E-02
         0.34894E-02
         0.32626E-02
         0.32001E-02
         0.37797E-02
         0.31828E-02
         0.26931E-02
         0.33832E-02
         0.37149E-02
         0.26922E-02
         0.29135E-02
         0.36963E-02
         0.36354E-02
         0.37975E-02
         0.30154E-02
         0.30154E-02
         0.28627E-02
         0.26965E-02
         0.29537E-02
         0.28107E-02
         0.30338E-02
         0.36963E-02
         0.28331E-02
         0.28331E-02
         0.27421E-02
         0.26051E-02
         0.36963E-02
         0.36963E-02
         0.37975E-02
         0.37975E-02
         0.30256E-02
         0.36838E-02
         0.37149E-02
         0.32116E-02
         0.32864E-02
         0.32864E-02
         0.27006E-02
         0.25920E-02
         0.25815E-02
         0.29714E-02
         0.29714E-02
         0.26469E-02
         0.29090E-02
         0.33983E-02
         0.35270E-02
         0.35270E-02
         0.29809E-02
         0.32519E-02
         0.28700E-02
         0.29975E-02
         0.36838E-02
         0.37149E-02
         0.37149E-02
         0.33832E-02
         0.29135E-02
         0.32116E-02
         0.32864E-02
         0.32864E-02
         0.27006E-02
         0.25920E-02
         0.25815E-02
         0.26965E-02
         0.28627E-02
         0.29537E-02
         0.29714E-02
         0.29714E-02
         0.26469E-02
         0.27680E-02
         0.33983E-02
         0.35270E-02
         0.35270E-02
         0.29809E-02
         0.31571E-02
         0.31571E-02
         0.43118E-02
         0.43118E-02
         0.43118E-02
         0.43118E-02
         0.34895E-02
         0.34895E-02
         0.32612E-02
         0.31990E-02
         0.37792E-02
         0.31824E-02
         0.26913E-02
         0.33828E-02
         0.37148E-02
         0.26875E-02
         0.29148E-02
         0.36960E-02
         0.36390E-02
         0.37995E-02
         0.30180E-02
         0.30180E-02
         0.28631E-02
         0.26972E-02
         0.29539E-02
         0.28110E-02
         0.30364E-02
         0.36960E-02
         0.28305E-02
         0.28305E-02
         0.27408E-02
         0.26040E-02
         0.36960E-02
         0.36960E-02
         0.37995E-02
         0.37995E-02
         0.30258E-02
         0.36826E-02
         0.37148E-02
         0.32129E-02
         0.32870E-02
         0.32870E-02
         0.27006E-02
         0.25920E-02
         0.25808E-02
         0.29713E-02
         0.29713E-02
         0.26468E-02
         0.29089E-02
         0.33975E-02
         0.35264E-02
         0.35264E-02
         0.29812E-02
         0.32537E-02
         0.28672E-02
         0.29985E-02
         0.36826E-02
         0.37148E-02
         0.37148E-02
         0.33828E-02
         0.29148E-02
         0.32129E-02
         0.32870E-02
         0.32870E-02
         0.27006E-02
         0.25920E-02
         0.25808E-02
         0.26972E-02
         0.28631E-02
         0.29539E-02
         0.29713E-02
         0.29713E-02
         0.26468E-02
         0.27679E-02
         0.33975E-02
         0.35264E-02
         0.35264E-02
         0.29812E-02
         0.31585E-02
         0.31585E-02
         0.43115E-02
         0.43115E-02
         0.43115E-02
         0.43115E-02
         0.34896E-02
         0.34896E-02
         0.32597E-02
         0.31980E-02
         0.37787E-02
         0.31820E-02
         0.26896E-02
         0.33824E-02
         0.37147E-02
         0.26827E-02
         0.29160E-02
         0.36957E-02
         0.36425E-02
         0.38016E-02
         0.30206E-02
         0.30206E-02
         0.28636E-02
         0.26980E-02
         0.29540E-02
         0.28112E-02
         0.30390E-02
         0.36957E-02
         0.28279E-02
         0.28279E-02
         0.27395E-02
         0.26030E-02
         0.36957E-02
         0.36957E-02
         0.38016E-02
         0.38016E-02
         0.30260E-02
         0.36814E-02
         0.37147E-02
         0.32141E-02
         0.32876E-02
         0.32876E-02
         0.27006E-02
         0.25920E-02
         0.25801E-02
         0.29713E-02
         0.29713E-02
         0.26468E-02
         0.29089E-02
         0.33968E-02
         0.35259E-02
         0.35259E-02
         0.29815E-02
         0.32555E-02
         0.28645E-02
         0.29995E-02
         0.36814E-02
         0.37147E-02
         0.37147E-02
         0.33824E-02
         0.29160E-02
         0.32141E-02
         0.32876E-02
         0.32876E-02
         0.27006E-02
         0.25920E-02
         0.25801E-02
         0.26980E-02
         0.28636E-02
         0.29540E-02
         0.29713E-02
         0.29713E-02
         0.26468E-02
         0.27679E-02
         0.33968E-02
         0.35259E-02
         0.35259E-02
         0.29815E-02
         0.31598E-02
         0.31598E-02
         0.43113E-02
         0.43113E-02
         0.43113E-02
         0.43113E-02
         0.34897E-02
         0.34897E-02
         0.32583E-02
         0.31970E-02
         0.37783E-02
         0.31816E-02
         0.26879E-02
         0.33820E-02
         0.37146E-02
         0.26780E-02
         0.29172E-02
         0.36954E-02
         0.36460E-02
         0.38037E-02
         0.30232E-02
         0.30232E-02
         0.28641E-02
         0.26987E-02
         0.29542E-02
         0.28115E-02
         0.30416E-02
         0.36954E-02
         0.28253E-02
         0.28253E-02
         0.27382E-02
         0.26020E-02
         0.36954E-02
         0.36954E-02
         0.38037E-02
         0.38037E-02
         0.30261E-02
         0.36802E-02
         0.37146E-02
         0.32154E-02
         0.32882E-02
         0.32882E-02
         0.27006E-02
         0.25921E-02
         0.25794E-02
         0.29713E-02
         0.29713E-02
         0.26467E-02
         0.29088E-02
         0.33961E-02
         0.35253E-02
         0.35253E-02
         0.29818E-02
         0.32573E-02
         0.28617E-02
         0.30005E-02
         0.36802E-02
         0.37146E-02
         0.37146E-02
         0.33820E-02
         0.29172E-02
         0.32154E-02
         0.32882E-02
         0.32882E-02
         0.27006E-02
         0.25921E-02
         0.25794E-02
         0.26987E-02
         0.28641E-02
         0.29542E-02
         0.29713E-02
         0.29713E-02
         0.26467E-02
         0.27678E-02
         0.33961E-02
         0.35253E-02
         0.35253E-02
         0.29818E-02
         0.31612E-02
         0.31612E-02
         0.43110E-02
         0.43110E-02
         0.43110E-02
         0.43110E-02
         0.34898E-02
         0.34898E-02
         0.32569E-02
         0.31960E-02
         0.37778E-02
         0.31812E-02
         0.26862E-02
         0.33816E-02
         0.37145E-02
         0.26733E-02
         0.29184E-02
         0.36950E-02
         0.36495E-02
         0.38057E-02
         0.30258E-02
         0.30258E-02
         0.28645E-02
         0.26995E-02
         0.29543E-02
         0.28118E-02
         0.30442E-02
         0.36950E-02
         0.28227E-02
         0.28227E-02
         0.27369E-02
         0.26010E-02
         0.36950E-02
         0.36950E-02
         0.38057E-02
         0.38057E-02
         0.30263E-02
         0.36790E-02
         0.37145E-02
         0.32167E-02
         0.32889E-02
         0.32889E-02
         0.27006E-02
         0.25921E-02
         0.25787E-02
         0.29713E-02
         0.29713E-02
         0.26467E-02
         0.29087E-02
         0.33953E-02
         0.35247E-02
         0.35247E-02
         0.29821E-02
         0.32590E-02
         0.28589E-02
         0.30015E-02
         0.36790E-02
         0.37145E-02
         0.37145E-02
         0.33816E-02
         0.29184E-02
         0.32167E-02
         0.32889E-02
         0.32889E-02
         0.27006E-02
         0.25921E-02
         0.25787E-02
         0.26995E-02
         0.28645E-02
         0.29543E-02
         0.29713E-02
         0.29713E-02
         0.26467E-02
         0.27678E-02
         0.33953E-02
         0.35247E-02
         0.35247E-02
         0.29821E-02
         0.31625E-02
         0.31625E-02
         0.43108E-02
         0.43108E-02
         0.43108E-02
         0.43108E-02
         0.34898E-02
         0.34898E-02
         0.32555E-02
         0.31950E-02
         0.37773E-02
         0.31808E-02
         0.26845E-02
         0.33812E-02
         0.37144E-02
         0.26686E-02
         0.29196E-02
         0.36948E-02
         0.36531E-02
         0.38078E-02
         0.30285E-02
         0.30285E-02
         0.28650E-02
         0.27002E-02
         0.29544E-02
         0.28120E-02
         0.30467E-02
         0.36948E-02
         0.28201E-02
         0.28201E-02
         0.27356E-02
         0.26000E-02
         0.36948E-02
         0.36948E-02
         0.38078E-02
         0.38078E-02
         0.30265E-02
         0.36779E-02
         0.37144E-02
         0.32181E-02
         0.32895E-02
         0.32895E-02
         0.27006E-02
         0.25921E-02
         0.25779E-02
         0.29713E-02
         0.29713E-02
         0.26466E-02
         0.29086E-02
         0.33946E-02
         0.35242E-02
         0.35242E-02
         0.29824E-02
         0.32608E-02
         0.28562E-02
         0.30025E-02
         0.36779E-02
         0.37144E-02
         0.37144E-02
         0.33812E-02
         0.29196E-02
         0.32181E-02
         0.32895E-02
         0.32895E-02
         0.27006E-02
         0.25921E-02
         0.25779E-02
         0.27002E-02
         0.28650E-02
         0.29544E-02
         0.29713E-02
         0.29713E-02
         0.26466E-02
         0.27678E-02
         0.33946E-02
         0.35242E-02
         0.35242E-02
         0.29824E-02
         0.31639E-02
         0.31639E-02
         0.43105E-02
         0.43105E-02
         0.43105E-02
         0.43105E-02
         0.34899E-02
         0.34899E-02
         0.32540E-02
         0.31940E-02
         0.37768E-02
         0.31804E-02
         0.26827E-02
         0.33808E-02
         0.37143E-02
         0.26639E-02
         0.29208E-02
         0.36944E-02
         0.36566E-02
         0.38099E-02
         0.30311E-02
         0.30311E-02
         0.28655E-02
         0.27010E-02
         0.29546E-02
         0.28123E-02
         0.30493E-02
         0.36944E-02
         0.28175E-02
         0.28175E-02
         0.27343E-02
         0.25990E-02
         0.36944E-02
         0.36944E-02
         0.38099E-02
         0.38099E-02
         0.30267E-02
         0.36767E-02
         0.37143E-02
         0.32193E-02
         0.32901E-02
         0.32901E-02
         0.27006E-02
         0.25921E-02
         0.25772E-02
         0.29713E-02
         0.29713E-02
         0.26466E-02
         0.29085E-02
         0.33939E-02
         0.35236E-02
         0.35236E-02
         0.29827E-02
         0.32626E-02
         0.28534E-02
         0.30035E-02
         0.36767E-02
         0.37143E-02
         0.37143E-02
         0.33808E-02
         0.29208E-02
         0.32193E-02
         0.32901E-02
         0.32901E-02
         0.27006E-02
         0.25921E-02
         0.25772E-02
         0.27010E-02
         0.28655E-02
         0.29546E-02
         0.29713E-02
         0.29713E-02
         0.26466E-02
         0.27677E-02
         0.33939E-02
         0.35236E-02
         0.35236E-02
         0.29827E-02
         0.31652E-02
         0.31652E-02
         0.43103E-02
         0.43103E-02
         0.43103E-02
         0.43103E-02
         0.34900E-02
         0.34900E-02
         0.32526E-02
         0.31930E-02
         0.37764E-02
         0.31800E-02
         0.26810E-02
         0.33804E-02
         0.37142E-02
         0.26591E-02
         0.29220E-02
         0.36941E-02
         0.36602E-02
         0.38119E-02
         0.30337E-02
         0.30337E-02
         0.28660E-02
         0.27017E-02
         0.29547E-02
         0.28126E-02
         0.30519E-02
         0.36941E-02
         0.28150E-02
         0.28150E-02
         0.27330E-02
         0.25979E-02
         0.36941E-02
         0.36941E-02
         0.38119E-02
         0.38119E-02
         0.30269E-02
         0.36755E-02
         0.37142E-02
         0.32206E-02
         0.32907E-02
         0.32907E-02
         0.27006E-02
         0.25921E-02
         0.25765E-02
         0.29713E-02
         0.29713E-02
         0.26465E-02
         0.29085E-02
         0.33931E-02
         0.35230E-02
         0.35230E-02
         0.29830E-02
         0.32643E-02
         0.28507E-02
         0.30045E-02
         0.36755E-02
         0.37142E-02
         0.37142E-02
         0.33804E-02
         0.29220E-02
         0.32206E-02
         0.32907E-02
         0.32907E-02
         0.27006E-02
         0.25921E-02
         0.25765E-02
         0.27017E-02
         0.28660E-02
         0.29547E-02
         0.29713E-02
         0.29713E-02
         0.26465E-02
         0.27677E-02
         0.33931E-02
         0.35230E-02
         0.35230E-02
         0.29830E-02
         0.31666E-02
         0.31666E-02
         0.43100E-02
         0.43100E-02
         0.43100E-02
         0.43100E-02
         0.34901E-02
         0.34901E-02
         0.32512E-02
         0.31920E-02
         0.37759E-02
         0.31796E-02
         0.26793E-02
         0.33800E-02
         0.37141E-02
         0.26544E-02
         0.29232E-02
         0.36938E-02
         0.36637E-02
         0.38140E-02
         0.30363E-02
         0.30363E-02
         0.28664E-02
         0.27025E-02
         0.29548E-02
         0.28129E-02
         0.30545E-02
         0.36938E-02
         0.28124E-02
         0.28124E-02
         0.27317E-02
         0.25969E-02
         0.36938E-02
         0.36938E-02
         0.38140E-02
         0.38140E-02
         0.30271E-02
         0.36743E-02
         0.37141E-02
         0.32219E-02
         0.32913E-02
         0.32913E-02
         0.27006E-02
         0.25921E-02
         0.25758E-02
         0.29713E-02
         0.29713E-02
         0.26465E-02
         0.29084E-02
         0.33924E-02
         0.35224E-02
         0.35224E-02
         0.29833E-02
         0.32661E-02
         0.28479E-02
         0.30055E-02
         0.36743E-02
         0.37141E-02
         0.37141E-02
         0.33800E-02
         0.29232E-02
         0.32219E-02
         0.32913E-02
         0.32913E-02
         0.27006E-02
         0.25921E-02
         0.25758E-02
         0.27025E-02
         0.28664E-02
         0.29548E-02
         0.29713E-02
         0.29713E-02
         0.26465E-02
         0.27677E-02
         0.33924E-02
         0.35224E-02
         0.35224E-02
         0.29833E-02
         0.31680E-02
         0.31680E-02
         0.43098E-02
         0.43098E-02
         0.43098E-02
         0.43098E-02
         0.34901E-02
         0.34901E-02
         0.32498E-02
         0.31910E-02
         0.37754E-02
         0.31792E-02
         0.26776E-02
         0.33796E-02
         0.37140E-02
         0.26497E-02
         0.29232E-02
         0.36935E-02
         0.36637E-02
         0.38140E-02
         0.30363E-02
         0.30363E-02
         0.28664E-02
         0.27025E-02
         0.29548E-02
         0.28129E-02
         0.30545E-02
         0.36935E-02
         0.28098E-02
         0.28098E-02
         0.27304E-02
         0.25959E-02
         0.36935E-02
         0.36935E-02
         0.38140E-02
         0.38140E-02
         0.30271E-02
         0.36731E-02
         0.37140E-02
         0.32219E-02
         0.32913E-02
         0.32913E-02
         0.27006E-02
         0.25921E-02
         0.25751E-02
         0.29713E-02
         0.29713E-02
         0.26464E-02
         0.29083E-02
         0.33916E-02
         0.35219E-02
         0.35219E-02
         0.29833E-02
         0.32661E-02
         0.28451E-02
         0.30055E-02
         0.36731E-02
         0.37140E-02
         0.37140E-02
         0.33796E-02
         0.29232E-02
         0.32219E-02
         0.32913E-02
         0.32913E-02
         0.27006E-02
         0.25921E-02
         0.25751E-02
         0.27025E-02
         0.28664E-02
         0.29548E-02
         0.29713E-02
         0.29713E-02
         0.26464E-02
         0.27676E-02
         0.33916E-02
         0.35219E-02
         0.35219E-02
         0.29833E-02
         0.31680E-02
         0.31680E-02
  
SCALARS              physical_window_z  double 1
LOOKUP_TABLE default
         0.26928E-02
         0.26928E-02
         0.26928E-02
         0.26928E-02
         0.26928E-02
         0.26928E-02
         0.26928E-02
         0.26928E-02
         0.26928E-02
         0.26928E-02
         0.26928E-02
         0.26928E-02
         0.26928E-02
         0.26928E-02
         0.26928E-02
         0.26928E-02
         0.26928E-02
         0.26928E-02
         0.26928E-02
         0.26928E-02
         0.26928E-02
         0.26928E-02
         0.26928E-02
         0.26928E-02
         0.26928E-02
         0.26928E-02
         0.26928E-02
         0.26928E-02
         0.26928E-02
         0.26928E-02
         0.26928E-02
         0.26928E-02
         0.26928E-02
         0.26928E-02
         0.26928E-02
         0.26928E-02
         0.26928E-02
         0.26928E-02
         0.26928E-02
         0.26928E-02
         0.26928E-02
         0.26928E-02
         0.26928E-02
         0.26928E-02
         0.26928E-02
         0.26928E-02
         0.26928E-02
         0.26928E-02
         0.26928E-02
         0.26928E-02
         0.26928E-02
         0.26928E-02
         0.26928E-02
         0.26928E-02
         0.26928E-02
         0.26928E-02
         0.26928E-02
         0.26928E-02
         0.26928E-02
         0.26928E-02
         0.26928E-02
         0.26928E-02
         0.26928E-02
         0.26928E-02
         0.26928E-02
         0.26928E-02
         0.26928E-02
         0.26928E-02
         0.26928E-02
         0.26928E-02
         0.26928E-02
         0.26928E-02
         0.26928E-02
         0.26928E-02
         0.26928E-02
         0.26928E-02
         0.26928E-02
         0.26928E-02
         0.26928E-02
         0.26928E-02
         0.26928E-02
         0.26928E-02
         0.26928E-02
         0.26928E-02
         0.26928E-02
         0.26928E-02
         0.26928E-02
         0.26928E-02
         0.26928E-02
         0.26928E-02
         0.26928E-02
         0.26928E-02
         0.26928E-02
         0.26928E-02
         0.26928E-02
         0.26928E-02
         0.26928E-02
         0.26928E-02
         0.26928E-02
         0.26928E-02
         0.26928E-02
         0.26928E-02
         0.26928E-02
         0.26928E-02
         0.26928E-02
         0.26928E-02
         0.26928E-02
         0.26928E-02
         0.26928E-02
         0.26928E-02
         0.26928E-02
         0.26928E-02
         0.26928E-02
         0.26928E-02
         0.26928E-02
         0.26928E-02
         0.26928E-02
         0.26928E-02
         0.26928E-02
         0.26928E-02
         0.26928E-02
         0.26928E-02
         0.26928E-02
         0.26928E-02
         0.26928E-02
         0.26928E-02
         0.26928E-02
         0.26928E-02
         0.26928E-02
         0.26928E-02
         0.26928E-02
         0.26928E-02
         0.26928E-02
         0.26928E-02
         0.26928E-02
         0.26928E-02
         0.26928E-02
         0.26928E-02
         0.26928E-02
         0.26928E-02
         0.26928E-02
         0.26928E-02
         0.26928E-02
         0.26928E-02
         0.26928E-02
         0.26928E-02
         0.26928E-02
         0.26928E-02
         0.26928E-02
         0.26928E-02
         0.26928E-02
         0.26928E-02
         0.26928E-02
         0.26928E-02
         0.26928E-02
         0.26928E-02
         0.26927E-02
         0.26927E-02
         0.26927E-02
         0.26927E-02
         0.26927E-02
         0.26927E-02
         0.26927E-02
         0.26927E-02
         0.26927E-02
         0.26927E-02
         0.26927E-02
         0.26927E-02
         0.26927E-02
         0.26927E-02
         0.26927E-02
         0.26927E-02
         0.26927E-02
         0.26927E-02
         0.26927E-02
         0.26927E-02
         0.26927E-02
         0.26927E-02
         0.26927E-02
         0.26927E-02
         0.26927E-02
         0.26927E-02
         0.26927E-02
         0.26927E-02
         0.26927E-02
         0.26927E-02
         0.26927E-02
         0.26927E-02
         0.26927E-02
         0.26927E-02
         0.26927E-02
         0.26927E-02
         0.26927E-02
         0.26927E-02
         0.26927E-02
         0.26927E-02
         0.26927E-02
         0.26927E-02
         0.26927E-02
         0.26927E-02
         0.26927E-02
         0.26927E-02
         0.26927E-02
         0.26927E-02
         0.26927E-02
         0.26927E-02
         0.26927E-02
         0.26927E-02
         0.26927E-02
         0.26927E-02
         0.26927E-02
         0.26927E-02
         0.26927E-02
         0.26927E-02
         0.26927E-02
         0.26927E-02
         0.26927E-02
         0.26927E-02
         0.26927E-02
         0.26927E-02
         0.26927E-02
         0.26927E-02
         0.26927E-02
         0.26927E-02
         0.26927E-02
         0.26927E-02
         0.26927E-02
         0.26927E-02
         0.26927E-02
         0.26927E-02
         0.26927E-02
         0.26927E-02
         0.26927E-02
         0.26927E-02
         0.26927E-02
         0.26927E-02
         0.26927E-02
         0.26927E-02
         0.26927E-02
         0.26927E-02
         0.26927E-02
         0.26927E-02
         0.26927E-02
         0.26927E-02
         0.26927E-02
         0.26927E-02
         0.26927E-02
         0.26927E-02
         0.26927E-02
         0.26927E-02
         0.26927E-02
         0.26927E-02
         0.26927E-02
         0.26927E-02
         0.26927E-02
         0.26927E-02
         0.26927E-02
         0.26927E-02
         0.26927E-02
         0.26927E-02
         0.26927E-02
         0.26927E-02
         0.26927E-02
         0.26927E-02
         0.26927E-02
         0.26927E-02
         0.26927E-02
         0.26927E-02
         0.26927E-02
         0.26927E-02
         0.26927E-02
         0.26927E-02
         0.26927E-02
         0.26927E-02
         0.26927E-02
         0.26927E-02
         0.26927E-02
         0.26927E-02
         0.26927E-02
         0.26927E-02
         0.26927E-02
         0.26927E-02
         0.26927E-02
         0.26927E-02
         0.26927E-02
         0.26927E-02
         0.26927E-02
         0.26927E-02
         0.26927E-02
         0.26927E-02
         0.26927E-02
         0.26927E-02
         0.26927E-02
         0.26927E-02
         0.26927E-02
         0.26927E-02
         0.26927E-02
         0.26927E-02
         0.26927E-02
         0.26927E-02
         0.26927E-02
         0.26927E-02
         0.26927E-02
         0.26927E-02
         0.26927E-02
         0.26927E-02
         0.26927E-02
         0.26927E-02
         0.26927E-02
         0.26927E-02
         0.26927E-02
         0.26927E-02
         0.26927E-02
         0.26927E-02
         0.26927E-02
         0.26927E-02
         0.26927E-02
         0.26927E-02
         0.26927E-02
         0.26927E-02
         0.26927E-02
         0.26927E-02
         0.26927E-02
         0.26927E-02
         0.26927E-02
         0.26927E-02
         0.26927E-02
         0.26927E-02
         0.26927E-02
         0.26927E-02
         0.26927E-02
         0.26927E-02
         0.26927E-02
         0.26927E-02
         0.26927E-02
         0.26927E-02
         0.26927E-02
         0.26927E-02
         0.26927E-02
         0.26927E-02
         0.26927E-02
         0.26927E-02
         0.26927E-02
         0.26927E-02
         0.26927E-02
         0.26927E-02
         0.26927E-02
         0.26927E-02
         0.26927E-02
         0.26927E-02
         0.26927E-02
         0.26927E-02
         0.26927E-02
         0.26927E-02
         0.26927E-02
         0.26927E-02
         0.26927E-02
         0.26927E-02
         0.26927E-02
         0.26927E-02
         0.26927E-02
         0.26927E-02
         0.26927E-02
         0.26927E-02
         0.26927E-02
         0.26927E-02
         0.26927E-02
         0.26927E-02
         0.26927E-02
         0.26927E-02
         0.26927E-02
         0.26927E-02
         0.26927E-02
         0.26927E-02
         0.26927E-02
         0.26927E-02
         0.26927E-02
         0.26927E-02
         0.26927E-02
         0.26927E-02
         0.26927E-02
         0.26927E-02
         0.26927E-02
         0.26927E-02
         0.26927E-02
         0.26927E-02
         0.26927E-02
         0.26927E-02
         0.26927E-02
         0.26927E-02
         0.26927E-02
         0.26927E-02
         0.26927E-02
         0.26927E-02
         0.26927E-02
         0.26927E-02
         0.26927E-02
         0.26927E-02
         0.26927E-02
         0.26927E-02
         0.26927E-02
         0.26927E-02
         0.26927E-02
         0.26927E-02
         0.26927E-02
         0.26927E-02
         0.26927E-02
         0.26927E-02
         0.26927E-02
         0.26927E-02
         0.26927E-02
         0.26927E-02
         0.26927E-02
         0.26927E-02
         0.26927E-02
         0.26927E-02
         0.26927E-02
         0.26927E-02
         0.26927E-02
         0.26927E-02
         0.26927E-02
         0.26927E-02
         0.26927E-02
         0.26927E-02
         0.26927E-02
         0.26927E-02
         0.26927E-02
         0.26927E-02
         0.26927E-02
         0.26927E-02
         0.26927E-02
         0.26927E-02
         0.26927E-02
         0.26927E-02
         0.26927E-02
         0.26927E-02
         0.26927E-02
         0.26927E-02
         0.26927E-02
         0.26927E-02
         0.26927E-02
         0.26927E-02
         0.26927E-02
         0.26927E-02
         0.26927E-02
         0.26927E-02
         0.26927E-02
         0.26927E-02
         0.26927E-02
         0.26927E-02
         0.26927E-02
         0.26927E-02
         0.26927E-02
         0.26927E-02
         0.26927E-02
         0.26927E-02
         0.26927E-02
         0.26927E-02
         0.26927E-02
         0.26927E-02
         0.26927E-02
         0.26927E-02
         0.26927E-02
         0.26927E-02
         0.26927E-02
         0.26927E-02
         0.26927E-02
         0.26927E-02
         0.26927E-02
         0.26927E-02
         0.26927E-02
         0.26927E-02
         0.26927E-02
         0.26927E-02
         0.26927E-02
         0.26927E-02
         0.26927E-02
         0.26927E-02
         0.26927E-02
         0.26927E-02
         0.26927E-02
         0.26927E-02
         0.26927E-02
         0.26927E-02
         0.26927E-02
         0.26927E-02
         0.26927E-02
         0.26927E-02
         0.26927E-02
         0.26927E-02
         0.26927E-02
         0.26927E-02
         0.26927E-02
         0.26927E-02
         0.26927E-02
         0.26927E-02
         0.26927E-02
         0.26927E-02
         0.26927E-02
         0.26927E-02
         0.26927E-02
         0.26927E-02
         0.26927E-02
         0.26927E-02
         0.26927E-02
         0.26927E-02
         0.26927E-02
         0.26927E-02
         0.26927E-02
         0.26927E-02
         0.26927E-02
         0.26927E-02
         0.26927E-02
         0.26927E-02
         0.26927E-02
         0.26927E-02
         0.26927E-02
         0.26927E-02
         0.26927E-02
         0.26927E-02
         0.26927E-02
         0.26927E-02
         0.26927E-02
         0.26927E-02
         0.26927E-02
         0.26927E-02
         0.26927E-02
         0.26927E-02
         0.26927E-02
         0.26927E-02
         0.26927E-02
         0.26927E-02
         0.26927E-02
         0.26927E-02
         0.26927E-02
         0.26927E-02
         0.26927E-02
         0.26927E-02
         0.26927E-02
         0.26927E-02
         0.26927E-02
         0.26927E-02
         0.26927E-02
         0.26927E-02
         0.26927E-02
         0.26927E-02
         0.26927E-02
         0.26927E-02
         0.26927E-02
         0.26927E-02
         0.26927E-02
         0.26927E-02
         0.26927E-02
         0.26927E-02
         0.26927E-02
         0.26927E-02
         0.26927E-02
         0.26927E-02
         0.26927E-02
         0.26927E-02
         0.26927E-02
         0.26927E-02
         0.26927E-02
         0.26927E-02
         0.26927E-02
         0.26927E-02
         0.26927E-02
         0.26927E-02
         0.26927E-02
         0.26927E-02
         0.26927E-02
         0.26927E-02
         0.26927E-02
         0.26927E-02
         0.26927E-02
         0.26927E-02
         0.26927E-02
         0.26927E-02
         0.26927E-02
         0.26927E-02
         0.26927E-02
         0.26927E-02
         0.26927E-02
         0.26927E-02
         0.26927E-02
         0.26927E-02
         0.26927E-02
         0.26927E-02
         0.26927E-02
         0.26927E-02
         0.26927E-02
         0.26927E-02
         0.26927E-02
         0.26927E-02
         0.26927E-02
         0.26927E-02
         0.26927E-02
         0.26927E-02
         0.26927E-02
         0.26927E-02
         0.26927E-02
         0.26927E-02
         0.26927E-02
         0.26927E-02
         0.26927E-02
         0.26927E-02
         0.26927E-02
         0.26927E-02
         0.26927E-02
         0.26927E-02
         0.26927E-02
         0.26927E-02
         0.26927E-02
         0.26927E-02
         0.26927E-02
         0.26927E-02
         0.26927E-02
         0.26927E-02
         0.26927E-02
         0.26927E-02
         0.26927E-02
         0.26927E-02
         0.26927E-02
         0.26927E-02
         0.26927E-02
         0.26927E-02
         0.26927E-02
         0.26927E-02
         0.26927E-02
         0.26927E-02
         0.26927E-02
         0.26927E-02
         0.26927E-02
         0.26927E-02
         0.26927E-02
         0.26927E-02
         0.26927E-02
         0.26927E-02
         0.26927E-02
         0.26927E-02
         0.26927E-02
         0.26927E-02
         0.26927E-02
         0.26927E-02
         0.26927E-02
         0.26927E-02
         0.26927E-02
         0.26927E-02
         0.26927E-02
         0.26927E-02
         0.26927E-02
         0.26927E-02
         0.26927E-02
         0.26927E-02
         0.26927E-02
         0.26927E-02
         0.26927E-02
         0.26927E-02
         0.26927E-02
         0.26927E-02
         0.26927E-02
         0.26927E-02
         0.26927E-02
         0.26927E-02
         0.26927E-02
         0.26927E-02
         0.26927E-02
         0.26927E-02
         0.26927E-02
         0.26927E-02
         0.26927E-02
         0.26927E-02
         0.26927E-02
         0.26927E-02
         0.26927E-02
         0.26927E-02
         0.26927E-02
         0.26927E-02
         0.26927E-02
         0.26927E-02
         0.26927E-02
         0.26927E-02
         0.26927E-02
         0.26927E-02
         0.26927E-02
         0.26927E-02
         0.26927E-02
         0.26927E-02
         0.26927E-02
         0.26927E-02
         0.26927E-02
         0.26927E-02
         0.26927E-02
         0.26927E-02
         0.26927E-02
         0.26927E-02
         0.26927E-02
         0.26927E-02
         0.26927E-02
         0.26927E-02
         0.26927E-02
         0.26927E-02
         0.26927E-02
         0.26927E-02
         0.26927E-02
         0.26927E-02
         0.26927E-02
         0.26927E-02
         0.26927E-02
         0.26927E-02
         0.26927E-02
         0.26927E-02
         0.26927E-02
         0.26927E-02
         0.26927E-02
         0.26927E-02
         0.26927E-02
         0.26927E-02
         0.26927E-02
         0.26927E-02
         0.26927E-02
         0.26927E-02
         0.26927E-02
         0.26927E-02
         0.26927E-02
         0.26927E-02
         0.26927E-02
         0.26927E-02
         0.26927E-02
         0.26927E-02
         0.26927E-02
         0.26927E-02
         0.26927E-02
         0.26927E-02
         0.26927E-02
         0.26927E-02
         0.26927E-02
         0.26927E-02
         0.26927E-02
         0.26927E-02
         0.26927E-02
         0.26927E-02
         0.26927E-02
         0.26927E-02
         0.26927E-02
         0.26927E-02
         0.26927E-02
         0.26927E-02
         0.26927E-02
         0.26927E-02
         0.26927E-02
         0.26927E-02
         0.26927E-02
         0.26927E-02
         0.26927E-02
         0.26927E-02
         0.26927E-02
         0.26927E-02
         0.26927E-02
         0.26927E-02
         0.26927E-02
         0.26927E-02
         0.26927E-02
         0.26927E-02
         0.26927E-02
         0.26927E-02
         0.26927E-02
         0.26927E-02
         0.26927E-02
         0.26927E-02
         0.26927E-02
         0.26927E-02
         0.26927E-02
         0.26927E-02
         0.26927E-02
         0.26927E-02
         0.26927E-02
         0.26927E-02
         0.26927E-02
         0.26927E-02
         0.26927E-02
         0.26927E-02
         0.26927E-02
         0.26927E-02
         0.26927E-02
         0.26927E-02
         0.26927E-02
         0.26927E-02
         0.26927E-02
         0.26927E-02
         0.26927E-02
         0.26927E-02
         0.26927E-02
         0.26927E-02
         0.26927E-02
         0.26927E-02
         0.26927E-02
         0.26927E-02
         0.26927E-02
         0.26927E-02
         0.26927E-02
         0.26927E-02
         0.26927E-02
         0.26927E-02
         0.26927E-02
         0.26927E-02
         0.26927E-02
         0.26927E-02
         0.26927E-02
         0.26927E-02
         0.26927E-02
         0.26927E-02
         0.26927E-02
         0.26927E-02
         0.26927E-02
         0.26927E-02
         0.26927E-02
         0.26927E-02
         0.26927E-02
         0.26927E-02
         0.26927E-02
         0.26927E-02
         0.26927E-02
         0.26927E-02
         0.26927E-02
         0.26927E-02
         0.26927E-02
         0.26927E-02
         0.26927E-02
         0.26927E-02
         0.26927E-02
         0.26927E-02
         0.26927E-02
         0.26927E-02
         0.26927E-02
         0.26927E-02
         0.26927E-02
         0.26927E-02
         0.26927E-02
         0.26927E-02
         0.26927E-02
         0.26927E-02
         0.26927E-02
         0.26927E-02
         0.26927E-02
         0.26927E-02
         0.26927E-02
         0.26927E-02
         0.26927E-02
         0.26927E-02
         0.26927E-02
         0.26927E-02
         0.26927E-02
         0.26927E-02
         0.26927E-02
         0.26927E-02
         0.26927E-02
         0.26927E-02
         0.26927E-02
         0.26927E-02
         0.26927E-02
         0.26927E-02
         0.26927E-02
         0.26927E-02
         0.26927E-02
         0.26927E-02
         0.26927E-02
         0.26927E-02
         0.26927E-02
         0.26927E-02
         0.26927E-02
         0.26927E-02
         0.26927E-02
         0.26927E-02
         0.26927E-02
         0.26927E-02
         0.26927E-02
         0.26927E-02
         0.26927E-02
         0.26927E-02
         0.26927E-02
         0.26927E-02
         0.26927E-02
         0.26927E-02
         0.26927E-02
         0.26927E-02
         0.26927E-02
         0.26927E-02
         0.26927E-02
         0.26927E-02
         0.26927E-02
         0.26927E-02
         0.26927E-02
         0.26927E-02
         0.26927E-02
         0.26927E-02
         0.26927E-02
         0.26927E-02
         0.26927E-02
         0.26927E-02
         0.26927E-02
         0.26927E-02
         0.26927E-02
         0.26927E-02
         0.26927E-02
         0.26927E-02
         0.26927E-02
         0.26927E-02
         0.26927E-02
         0.26927E-02
         0.26927E-02
         0.26927E-02
         0.26927E-02
         0.26927E-02
         0.26927E-02
         0.26927E-02
         0.26927E-02
         0.26927E-02
         0.26927E-02
         0.26927E-02
         0.26927E-02
         0.26927E-02
         0.26927E-02
         0.26927E-02
         0.26927E-02
         0.26927E-02
         0.26927E-02
         0.26927E-02
         0.26927E-02
         0.26927E-02
         0.26927E-02
         0.26927E-02
         0.26927E-02
         0.26927E-02
         0.26927E-02
         0.26927E-02
         0.26927E-02
         0.26927E-02
         0.26927E-02
         0.26927E-02
         0.26927E-02
         0.26927E-02
         0.26927E-02
         0.26927E-02
         0.26927E-02
         0.26927E-02
         0.26927E-02
         0.26927E-02
         0.26927E-02
         0.26927E-02
         0.26927E-02
         0.26927E-02
         0.26927E-02
         0.26927E-02
         0.26927E-02
         0.26927E-02
         0.26927E-02
         0.26927E-02
         0.26927E-02
         0.26927E-02
         0.26927E-02
         0.26927E-02
         0.26927E-02
         0.26927E-02
         0.26927E-02
         0.26927E-02
         0.26927E-02
         0.26927E-02
         0.26927E-02
         0.26927E-02
         0.26927E-02
         0.26927E-02
         0.26927E-02
         0.26927E-02
         0.26927E-02
         0.26927E-02
         0.26927E-02
         0.26927E-02
         0.26927E-02
         0.26927E-02
         0.26927E-02
         0.26927E-02
         0.26927E-02
         0.26927E-02
         0.26927E-02
         0.26927E-02
         0.26927E-02
         0.26927E-02
         0.26927E-02
         0.26927E-02
         0.26927E-02
         0.26927E-02
         0.26927E-02
         0.26927E-02
         0.26927E-02
         0.26927E-02
         0.26927E-02
         0.26927E-02
         0.26927E-02
         0.26927E-02
         0.26927E-02
         0.26927E-02
         0.26927E-02
         0.26927E-02
         0.26927E-02
         0.26927E-02
         0.26927E-02
         0.26927E-02
         0.26927E-02
         0.26927E-02
         0.26927E-02
         0.26927E-02
         0.26927E-02
         0.26927E-02
         0.26927E-02
         0.26927E-02
         0.26927E-02
         0.26927E-02
         0.26927E-02
         0.26927E-02
         0.26927E-02
         0.26927E-02
         0.26927E-02
         0.26927E-02
         0.26927E-02
         0.26927E-02
         0.26927E-02
         0.26927E-02
         0.26927E-02
         0.26927E-02
         0.26927E-02
         0.26927E-02
         0.26927E-02
         0.26927E-02
         0.26927E-02
         0.26927E-02
         0.26927E-02
         0.26927E-02
         0.26927E-02
         0.26927E-02
         0.26927E-02
         0.26927E-02
         0.26927E-02
         0.26927E-02
         0.26927E-02
         0.26927E-02
         0.26927E-02
         0.26927E-02
         0.26927E-02
         0.26927E-02
         0.26927E-02
         0.26927E-02
         0.26927E-02
         0.26927E-02
         0.26927E-02
         0.26927E-02
         0.26927E-02
         0.26927E-02
         0.26927E-02
         0.26927E-02
         0.26927E-02
         0.26927E-02
         0.26927E-02
         0.26927E-02
         0.26927E-02
         0.26927E-02
         0.26927E-02
         0.26927E-02
         0.26927E-02
         0.26927E-02
         0.26927E-02
         0.26927E-02
         0.26927E-02
         0.26927E-02
         0.26927E-02
         0.26927E-02
         0.26927E-02
         0.26927E-02
         0.26927E-02
         0.26927E-02
         0.26927E-02
         0.26927E-02
         0.26927E-02
         0.26927E-02
         0.26927E-02
         0.26927E-02
         0.26927E-02
         0.26927E-02
         0.26927E-02
         0.26927E-02
         0.26927E-02
         0.26927E-02
         0.26927E-02
         0.26927E-02
         0.26927E-02
         0.26927E-02
         0.26927E-02
         0.26927E-02
         0.26927E-02
         0.26927E-02
         0.26927E-02
         0.26927E-02
         0.26927E-02
         0.26927E-02
         0.26927E-02
         0.26927E-02
         0.26927E-02
         0.26927E-02
         0.26927E-02
         0.26927E-02
         0.26927E-02
         0.26927E-02
         0.26927E-02
         0.26927E-02
         0.26927E-02
         0.26927E-02
         0.26927E-02
         0.26927E-02
         0.26927E-02
         0.26927E-02
         0.26927E-02
         0.26927E-02
         0.26927E-02
         0.26927E-02
         0.26927E-02
         0.26927E-02
         0.26927E-02
         0.26927E-02
         0.26927E-02
         0.26927E-02
         0.26927E-02
         0.26927E-02
         0.26927E-02
         0.26927E-02
         0.26927E-02
         0.26927E-02
         0.26927E-02
         0.26927E-02
         0.26927E-02
         0.26927E-02
         0.26927E-02
         0.26927E-02
         0.26927E-02
         0.26927E-02
         0.26927E-02
         0.26927E-02
         0.26927E-02
         0.26927E-02
         0.26927E-02
         0.26927E-02
         0.26927E-02
         0.26927E-02
         0.26927E-02
         0.26927E-02
         0.26927E-02
         0.26927E-02
         0.26927E-02
         0.26927E-02
         0.26927E-02
         0.26927E-02
         0.26927E-02
         0.26927E-02
         0.26927E-02
         0.26927E-02
         0.26927E-02
         0.26927E-02
         0.26927E-02
         0.26927E-02
         0.26927E-02
         0.26927E-02
         0.26927E-02
         0.26927E-02
         0.26927E-02
         0.26927E-02
         0.26927E-02
         0.26927E-02
         0.26927E-02
         0.26927E-02
         0.26927E-02
         0.26927E-02
         0.26927E-02
         0.26927E-02
         0.26927E-02
         0.26927E-02
         0.26927E-02
         0.26927E-02
         0.26927E-02
         0.26927E-02
         0.26927E-02
         0.26927E-02
         0.26927E-02
         0.26927E-02
         0.26927E-02
         0.26927E-02
         0.26927E-02
         0.26927E-02
         0.26927E-02
         0.26927E-02
         0.26927E-02
         0.26927E-02
         0.26927E-02
         0.26927E-02
         0.26927E-02
         0.26927E-02
         0.26927E-02
         0.26927E-02
         0.26927E-02
         0.26927E-02
         0.26927E-02
         0.26927E-02
         0.26927E-02
         0.26927E-02
         0.26927E-02
         0.26927E-02
         0.26927E-02
         0.26927E-02
         0.26927E-02
         0.26927E-02
         0.26927E-02
         0.26927E-02
         0.26927E-02
         0.26927E-02
         0.26927E-02
         0.26927E-02
         0.26927E-02
         0.26927E-02
         0.26927E-02
         0.26927E-02
         0.26927E-02
         0.26927E-02
         0.26927E-02
         0.26927E-02
         0.26927E-02
         0.26927E-02
         0.26927E-02
         0.26927E-02
         0.26927E-02
         0.26927E-02
         0.26927E-02
         0.26927E-02
         0.26927E-02
         0.26927E-02
         0.26927E-02
         0.26927E-02
         0.26927E-02
         0.26927E-02
         0.26927E-02
         0.26927E-02
         0.26927E-02
         0.26927E-02
         0.26927E-02
         0.26927E-02
         0.26927E-02
         0.26927E-02
         0.26927E-02
         0.26927E-02
         0.26927E-02
         0.26927E-02
         0.26927E-02
         0.26927E-02
         0.26927E-02
         0.26927E-02
         0.26927E-02
         0.26927E-02
         0.26927E-02
         0.26927E-02
         0.26927E-02
         0.26927E-02
         0.26927E-02
         0.26927E-02
         0.26927E-02
         0.26927E-02
         0.26927E-02
         0.26927E-02
         0.26927E-02
         0.26927E-02
         0.26927E-02
         0.26927E-02
         0.26927E-02
         0.26927E-02
         0.26927E-02
         0.26927E-02
         0.26927E-02
         0.26927E-02
         0.26927E-02
         0.26927E-02
         0.26927E-02
         0.26927E-02
         0.26927E-02
         0.26927E-02
         0.26927E-02
         0.26927E-02
         0.26927E-02
         0.26927E-02
         0.26927E-02
         0.26927E-02
         0.26927E-02
         0.26927E-02
         0.26927E-02
         0.26927E-02
         0.26927E-02
         0.26927E-02
         0.26927E-02
         0.26927E-02
         0.26927E-02
         0.26927E-02
         0.26927E-02
         0.26927E-02
         0.26927E-02
         0.26927E-02
         0.26927E-02
         0.26927E-02
         0.26927E-02
         0.26927E-02
         0.26927E-02
         0.26927E-02
         0.26927E-02
         0.26927E-02
         0.26927E-02
         0.26927E-02
         0.26927E-02
         0.26927E-02
         0.26927E-02
         0.26927E-02
         0.26927E-02
         0.26927E-02
         0.26927E-02
         0.26927E-02
         0.26927E-02
         0.26927E-02
         0.26927E-02
         0.26927E-02
         0.26927E-02
         0.26927E-02
         0.26927E-02
         0.26927E-02
         0.26927E-02
         0.26927E-02
         0.26927E-02
         0.26927E-02
         0.26927E-02
         0.26927E-02
         0.26927E-02
         0.26927E-02
         0.26927E-02
         0.26927E-02
         0.26927E-02
         0.26927E-02
         0.26927E-02
         0.26927E-02
         0.26927E-02
         0.26927E-02
         0.26927E-02
         0.26927E-02
         0.26927E-02
         0.26927E-02
         0.26927E-02
         0.26927E-02
         0.26927E-02
         0.26927E-02
         0.26927E-02
         0.26927E-02
         0.26927E-02
         0.26927E-02
         0.26927E-02
         0.26927E-02
         0.26927E-02
         0.26927E-02
         0.26927E-02
         0.26927E-02
         0.26927E-02
         0.26927E-02
         0.26927E-02
         0.26927E-02
         0.26927E-02
         0.26927E-02
         0.26927E-02
         0.26927E-02
         0.26927E-02
         0.26927E-02
         0.26927E-02
         0.26927E-02
         0.26927E-02
         0.26927E-02
         0.26927E-02
         0.26927E-02
         0.26927E-02
         0.26927E-02
         0.26927E-02
         0.26927E-02
         0.26927E-02
         0.26927E-02
         0.26927E-02
         0.26927E-02
         0.26927E-02
         0.26927E-02
         0.26927E-02
         0.26927E-02
         0.26927E-02
         0.26927E-02
         0.26927E-02
         0.26927E-02
         0.26927E-02
         0.26927E-02
         0.26927E-02
         0.26927E-02
         0.26927E-02
         0.26927E-02
         0.26927E-02
         0.26927E-02
         0.26927E-02
         0.26927E-02
         0.26927E-02
         0.26927E-02
         0.26927E-02
         0.26927E-02
         0.26927E-02
         0.26927E-02
         0.26927E-02
         0.26927E-02
         0.26927E-02
         0.26927E-02
         0.26927E-02
         0.26927E-02
         0.26927E-02
         0.26927E-02
         0.26927E-02
         0.26927E-02
         0.26927E-02
         0.26927E-02
         0.26927E-02
         0.26927E-02
         0.26927E-02
         0.26927E-02
         0.26927E-02
         0.26927E-02
         0.26927E-02
         0.26927E-02
         0.26927E-02
         0.26927E-02
         0.26927E-02
         0.26927E-02
         0.26927E-02
         0.26927E-02
         0.26927E-02
         0.26927E-02
         0.26927E-02
         0.26927E-02
         0.26927E-02
         0.26927E-02
         0.26927E-02
         0.26927E-02
         0.26927E-02
         0.26927E-02
         0.26927E-02
         0.26927E-02
         0.26927E-02
         0.26927E-02
         0.26927E-02
         0.26927E-02
         0.26927E-02
         0.26927E-02
         0.26927E-02
         0.26927E-02
         0.26927E-02
         0.26927E-02
         0.26927E-02
         0.26927E-02
         0.26927E-02
         0.26927E-02
         0.26927E-02
         0.26927E-02
         0.26927E-02
         0.26927E-02
         0.26927E-02
         0.26927E-02
         0.26927E-02
         0.26927E-02
         0.26927E-02
         0.26927E-02
         0.26927E-02
         0.26927E-02
         0.26927E-02
         0.26927E-02
         0.26927E-02
         0.26927E-02
         0.26927E-02
         0.26927E-02
         0.26927E-02
         0.26927E-02
         0.26927E-02
         0.26927E-02
         0.26927E-02
         0.26927E-02
         0.26927E-02
         0.26927E-02
         0.26927E-02
         0.26927E-02
         0.26927E-02
         0.26927E-02
         0.26927E-02
         0.26927E-02
         0.26927E-02
         0.26927E-02
         0.26927E-02
         0.26927E-02
         0.26927E-02
         0.26927E-02
         0.26927E-02
         0.26927E-02
         0.26927E-02
         0.26927E-02
         0.26927E-02
         0.26927E-02
         0.26927E-02
         0.26927E-02
         0.26927E-02
         0.26927E-02
         0.26927E-02
         0.26927E-02
         0.26927E-02
         0.26927E-02
         0.26927E-02
         0.26927E-02
         0.26927E-02
         0.26927E-02
         0.26927E-02
         0.26927E-02
         0.26927E-02
         0.26927E-02
         0.26927E-02
         0.26927E-02
         0.26927E-02
         0.26927E-02
         0.26927E-02
         0.26927E-02
         0.26927E-02
         0.26927E-02
         0.26927E-02
         0.26927E-02
         0.26927E-02
         0.26927E-02
         0.26927E-02
         0.26927E-02
         0.26927E-02
         0.26927E-02
         0.26927E-02
         0.26927E-02
         0.26927E-02
         0.26927E-02
         0.26927E-02
         0.26927E-02
         0.26927E-02
         0.26927E-02
         0.26927E-02
         0.26927E-02
         0.26927E-02
         0.26927E-02
         0.26927E-02
         0.26927E-02
         0.26927E-02
         0.26927E-02
         0.26927E-02
         0.26927E-02
         0.26927E-02
         0.26927E-02
         0.26927E-02
         0.26927E-02
         0.26927E-02
         0.26927E-02
         0.26927E-02
         0.26927E-02
         0.26927E-02
         0.26927E-02
         0.26927E-02
         0.26927E-02
         0.26927E-02
         0.26927E-02
         0.26927E-02
         0.26927E-02
         0.26927E-02
         0.26927E-02
         0.26927E-02
         0.26927E-02
         0.26927E-02
         0.26927E-02
         0.26927E-02
         0.26927E-02
         0.26927E-02
         0.26927E-02
         0.26927E-02
         0.26927E-02
         0.26927E-02
         0.26927E-02
         0.26927E-02
         0.26927E-02
         0.26927E-02
         0.26927E-02
         0.26927E-02
         0.26927E-02
         0.26927E-02
         0.26927E-02
         0.26927E-02
         0.26927E-02
         0.26927E-02
         0.26927E-02
         0.26927E-02
         0.26927E-02
         0.26927E-02
         0.26927E-02
         0.26927E-02
         0.26927E-02
         0.26927E-02
         0.26927E-02
         0.26927E-02
         0.26927E-02
         0.26927E-02
         0.26927E-02
         0.26927E-02
         0.26927E-02
         0.26927E-02
         0.26927E-02
         0.26927E-02
         0.26927E-02
         0.26927E-02
         0.26927E-02
         0.26927E-02
         0.26927E-02
         0.26927E-02
         0.26927E-02
         0.26927E-02
         0.26927E-02
         0.26927E-02
         0.26927E-02
         0.26927E-02
         0.26927E-02
         0.26927E-02
         0.26927E-02
         0.26927E-02
         0.26927E-02
         0.26927E-02
         0.26927E-02
         0.26927E-02
         0.26927E-02
         0.26927E-02
         0.26927E-02
         0.26927E-02
         0.26927E-02
         0.26927E-02
         0.26927E-02
         0.26927E-02
         0.26927E-02
         0.26927E-02
         0.26927E-02
         0.26927E-02
         0.26927E-02
         0.26927E-02
         0.26927E-02
         0.26927E-02
         0.26927E-02
         0.26927E-02
         0.26927E-02
         0.26927E-02
         0.26927E-02
         0.26927E-02
         0.26927E-02
         0.26927E-02
         0.26927E-02
         0.26927E-02
         0.26927E-02
         0.26927E-02
         0.26927E-02
         0.26927E-02
         0.26927E-02
         0.26927E-02
         0.26927E-02
         0.26927E-02
         0.26927E-02
         0.26927E-02
         0.26927E-02
         0.26927E-02
         0.26927E-02
         0.26927E-02
         0.26927E-02
         0.26927E-02
         0.26927E-02
         0.26927E-02
         0.26927E-02
         0.26927E-02
         0.26927E-02
         0.26927E-02
         0.26927E-02
         0.26927E-02
         0.26927E-02
         0.26927E-02
         0.26927E-02
         0.26927E-02
         0.26927E-02
         0.26927E-02
         0.26927E-02
         0.26927E-02
         0.26927E-02
         0.26927E-02
         0.26927E-02
         0.26927E-02
         0.26927E-02
         0.26927E-02
         0.26927E-02
         0.26927E-02
         0.26927E-02
         0.26927E-02
         0.26927E-02
         0.26927E-02
         0.26927E-02
         0.26927E-02
         0.26927E-02
         0.26927E-02
         0.26927E-02
         0.26927E-02
         0.26927E-02
         0.26927E-02
         0.26927E-02
         0.26927E-02
         0.26927E-02
         0.26927E-02
         0.26927E-02
         0.26927E-02
         0.26927E-02
         0.26927E-02
         0.26927E-02
         0.26927E-02
         0.26927E-02
         0.26927E-02
         0.26927E-02
         0.26927E-02
         0.26927E-02
         0.26927E-02
         0.26927E-02
         0.26927E-02
         0.26927E-02
         0.26927E-02
         0.26927E-02
         0.26927E-02
         0.26927E-02
         0.26927E-02
         0.26927E-02
         0.26927E-02
         0.26927E-02
         0.26927E-02
         0.26927E-02
         0.26927E-02
         0.26927E-02
         0.26927E-02
         0.26927E-02
         0.26927E-02
         0.26927E-02
         0.26927E-02
         0.26927E-02
         0.26927E-02
         0.26927E-02
         0.26927E-02
         0.26927E-02
         0.26927E-02
         0.26927E-02
         0.26927E-02
         0.26927E-02
         0.26927E-02
         0.26927E-02
         0.26927E-02
         0.26927E-02
         0.26927E-02
         0.26927E-02
         0.26927E-02
         0.26927E-02
         0.26927E-02
         0.26927E-02
         0.26927E-02
         0.26927E-02
         0.26927E-02
         0.26927E-02
         0.26927E-02
         0.26927E-02
         0.26927E-02
         0.26927E-02
         0.26927E-02
         0.26927E-02
         0.26927E-02
         0.26927E-02
         0.26927E-02
         0.26927E-02
         0.26927E-02
         0.26927E-02
         0.26927E-02
         0.26927E-02
         0.26928E-02
         0.26928E-02
         0.26928E-02
         0.26928E-02
         0.26928E-02
         0.26928E-02
         0.26928E-02
         0.26928E-02
         0.26928E-02
         0.26928E-02
         0.26928E-02
         0.26928E-02
         0.26928E-02
         0.26928E-02
         0.26928E-02
         0.26928E-02
         0.26928E-02
         0.26928E-02
         0.26928E-02
         0.26928E-02
         0.26928E-02
         0.26928E-02
         0.26928E-02
         0.26928E-02
         0.26928E-02
         0.26928E-02
         0.26928E-02
         0.26928E-02
         0.26928E-02
         0.26928E-02
         0.26928E-02
         0.26928E-02
         0.26928E-02
         0.26928E-02
         0.26928E-02
         0.26928E-02
         0.26928E-02
         0.26928E-02
         0.26928E-02
         0.26928E-02
         0.26928E-02
         0.26928E-02
         0.26928E-02
         0.26928E-02
         0.26928E-02
         0.26928E-02
         0.26928E-02
         0.26928E-02
         0.26928E-02
         0.26928E-02
         0.26928E-02
         0.26928E-02
         0.26928E-02
         0.26928E-02
         0.26928E-02
         0.26928E-02
         0.26928E-02
         0.26928E-02
         0.26928E-02
         0.26928E-02
         0.26928E-02
         0.26928E-02
         0.26928E-02
         0.26928E-02
         0.26928E-02
         0.26928E-02
         0.26928E-02
         0.26928E-02
         0.26928E-02
         0.26928E-02
         0.26928E-02
         0.26928E-02
         0.26928E-02
         0.26928E-02
         0.26928E-02
         0.26928E-02
         0.26928E-02
         0.26928E-02
         0.26928E-02
         0.26928E-02
         0.26928E-02
         0.26928E-02
         0.26928E-02
         0.26928E-02
         0.26928E-02
         0.26928E-02
         0.26928E-02
         0.26928E-02
         0.26928E-02
         0.26928E-02
         0.26928E-02
         0.26928E-02
         0.26928E-02
         0.26928E-02
         0.26928E-02
         0.26928E-02
         0.26928E-02
         0.26928E-02
         0.26928E-02
         0.26928E-02
         0.26928E-02
         0.26928E-02
         0.26928E-02
         0.26928E-02
         0.26928E-02
         0.26928E-02
         0.26928E-02
         0.26928E-02
         0.26928E-02
         0.26928E-02
         0.26928E-02
         0.26928E-02
         0.26928E-02
         0.26928E-02
         0.26928E-02
         0.26928E-02
         0.26928E-02
         0.26928E-02
         0.26928E-02
         0.26928E-02
         0.26928E-02
         0.26928E-02
         0.26928E-02
         0.26928E-02
         0.26928E-02
         0.26928E-02
         0.26928E-02
         0.26928E-02
         0.26928E-02
         0.26928E-02
         0.26928E-02
         0.26928E-02
         0.26928E-02
         0.26928E-02
         0.26928E-02
         0.26928E-02
         0.26928E-02
         0.26928E-02
         0.26928E-02
         0.26928E-02
         0.26928E-02
         0.26928E-02
         0.26928E-02
         0.26928E-02
         0.26928E-02
         0.26928E-02
         0.26928E-02
         0.26928E-02
         0.26928E-02
         0.26928E-02
         0.26928E-02
         0.26928E-02
         0.26928E-02
         0.26928E-02
         0.26928E-02
         0.26928E-02
  
SCALARS                   nodal_volume  double 1
LOOKUP_TABLE default
         0.91140E-09
         0.72412E-09
         0.77574E-09
         0.13316E-08
         0.45570E-09
         0.36211E-09
         0.38787E-09
         0.66566E-09
         0.71537E-09
         0.91211E-09
         0.35767E-09
         0.45600E-09
         0.51195E-09
         0.61532E-09
         0.25605E-09
         0.30776E-09
         0.10101E-08
         0.74536E-09
         0.50500E-09
         0.37281E-09
         0.30273E-09
         0.57012E-09
         0.62699E-09
         0.15144E-09
         0.28509E-09
         0.31352E-09
         0.51329E-09
         0.64933E-09
         0.25683E-09
         0.32471E-09
         0.12026E-08
         0.93909E-09
         0.11935E-08
         0.60122E-09
         0.46945E-09
         0.59663E-09
         0.70296E-09
         0.80270E-09
         0.35149E-09
         0.40134E-09
         0.75859E-09
         0.84013E-09
         0.37932E-09
         0.42007E-09
         0.64542E-09
         0.40086E-09
         0.32274E-09
         0.20045E-09
         0.76288E-09
         0.38153E-09
         0.63346E-09
         0.31675E-09
         0.66583E-09
         0.33318E-09
         0.68008E-09
         0.34022E-09
         0.58930E-09
         0.71738E-09
         0.29472E-09
         0.35874E-09
         0.90938E-09
         0.64302E-09
         0.45469E-09
         0.32154E-09
         0.10152E-08
         0.50747E-09
         0.88120E-09
         0.44042E-09
         0.40077E-09
         0.61872E-09
         0.20039E-09
         0.30940E-09
         0.70206E-09
         0.35106E-09
         0.74172E-09
         0.37089E-09
         0.71539E-09
         0.35770E-09
         0.56226E-09
         0.28113E-09
         0.35349E-09
         0.58452E-09
         0.17675E-09
         0.29229E-09
         0.77354E-09
         0.38679E-09
         0.62469E-09
         0.31238E-09
         0.54957E-09
         0.27483E-09
         0.36009E-09
         0.61365E-09
         0.18007E-09
         0.30685E-09
         0.83268E-09
         0.41635E-09
         0.87287E-09
         0.43642E-09
         0.70438E-09
         0.35217E-09
         0.43365E-09
         0.74413E-09
         0.21683E-09
         0.37198E-09
         0.27660E-09
         0.35144E-09
         0.13833E-09
         0.17573E-09
         0.32921E-09
         0.16465E-09
         0.38764E-09
         0.19382E-09
         0.37797E-09
         0.18897E-09
         0.36707E-09
         0.18352E-09
         0.39112E-09
         0.19552E-09
         0.41268E-09
         0.20627E-09
         0.38876E-09
         0.19433E-09
         0.30402E-09
         0.15200E-09
         0.24796E-09
         0.12398E-09
         0.31999E-09
         0.16000E-09
         0.42608E-09
         0.21303E-09
         0.46805E-09
         0.23401E-09
         0.44933E-09
         0.22466E-09
         0.40550E-09
         0.20276E-09
         0.36826E-09
         0.18414E-09
         0.29911E-09
         0.14956E-09
         0.25178E-09
         0.12591E-09
         0.32888E-09
         0.16445E-09
         0.43529E-09
         0.21765E-09
         0.44963E-09
         0.22482E-09
         0.36384E-09
         0.18194E-09
         0.29543E-09
         0.14774E-09
         0.36126E-09
         0.18063E-09
         0.42771E-09
         0.21386E-09
         0.91143E-09
         0.72396E-09
         0.77579E-09
         0.13322E-08
         0.71547E-09
         0.91237E-09
         0.51167E-09
         0.61494E-09
         0.10105E-08
         0.74486E-09
         0.30244E-09
         0.57001E-09
         0.62694E-09
         0.51257E-09
         0.64918E-09
         0.12029E-08
         0.93950E-09
         0.11941E-08
         0.70298E-09
         0.80279E-09
         0.75855E-09
         0.84015E-09
         0.64535E-09
         0.40081E-09
         0.76254E-09
         0.63339E-09
         0.66483E-09
         0.67941E-09
         0.58904E-09
         0.71721E-09
         0.90946E-09
         0.64293E-09
         0.10157E-08
         0.88199E-09
         0.40076E-09
         0.61859E-09
         0.70195E-09
         0.74166E-09
         0.71543E-09
         0.56228E-09
         0.35349E-09
         0.58443E-09
         0.77349E-09
         0.62459E-09
         0.54943E-09
         0.35999E-09
         0.61359E-09
         0.83268E-09
         0.87299E-09
         0.70451E-09
         0.43366E-09
         0.74449E-09
         0.27651E-09
         0.35143E-09
         0.32904E-09
         0.38765E-09
         0.37805E-09
         0.36714E-09
         0.39129E-09
         0.41297E-09
         0.38899E-09
         0.30408E-09
         0.24798E-09
         0.31999E-09
         0.42613E-09
         0.46815E-09
         0.44938E-09
         0.40548E-09
         0.36823E-09
         0.29908E-09
         0.25174E-09
         0.32885E-09
         0.43527E-09
         0.44962E-09
         0.36376E-09
         0.29536E-09
         0.36130E-09
         0.42769E-09
         0.91151E-09
         0.72383E-09
         0.77587E-09
         0.13329E-08
         0.71560E-09
         0.91267E-09
         0.51142E-09
         0.61459E-09
         0.10109E-08
         0.74439E-09
         0.30216E-09
         0.56992E-09
         0.62691E-09
         0.51187E-09
         0.64906E-09
         0.12033E-08
         0.93995E-09
         0.11947E-08
         0.70302E-09
         0.80291E-09
         0.75853E-09
         0.84020E-09
         0.64530E-09
         0.40078E-09
         0.76223E-09
         0.63335E-09
         0.66385E-09
         0.67875E-09
         0.58880E-09
         0.71706E-09
         0.90957E-09
         0.64286E-09
         0.10162E-08
         0.88281E-09
         0.40076E-09
         0.61849E-09
         0.70188E-09
         0.74162E-09
         0.71550E-09
         0.56232E-09
         0.35350E-09
         0.58436E-09
         0.77347E-09
         0.62452E-09
         0.54931E-09
         0.35990E-09
         0.61355E-09
         0.83270E-09
         0.87315E-09
         0.70467E-09
         0.43368E-09
         0.74487E-09
         0.27643E-09
         0.35143E-09
         0.32889E-09
         0.38767E-09
         0.37814E-09
         0.36723E-09
         0.39147E-09
         0.41328E-09
         0.38923E-09
         0.30416E-09
         0.24800E-09
         0.32001E-09
         0.42620E-09
         0.46826E-09
         0.44944E-09
         0.40548E-09
         0.36821E-09
         0.29906E-09
         0.25171E-09
         0.32883E-09
         0.43527E-09
         0.44963E-09
         0.36369E-09
         0.29530E-09
         0.36135E-09
         0.42769E-09
         0.91156E-09
         0.72368E-09
         0.77594E-09
         0.13335E-08
         0.71571E-09
         0.91295E-09
         0.51115E-09
         0.61422E-09
         0.10112E-08
         0.74389E-09
         0.30187E-09
         0.56982E-09
         0.62686E-09
         0.51116E-09
         0.64892E-09
         0.12036E-08
         0.94038E-09
         0.11953E-08
         0.70304E-09
         0.80300E-09
         0.75850E-09
         0.84023E-09
         0.64523E-09
         0.40073E-09
         0.76190E-09
         0.63330E-09
         0.66285E-09
         0.67809E-09
         0.58855E-09
         0.71689E-09
         0.90966E-09
         0.64278E-09
         0.10168E-08
         0.88361E-09
         0.40076E-09
         0.61837E-09
         0.70178E-09
         0.74156E-09
         0.71554E-09
         0.56234E-09
         0.35350E-09
         0.58428E-09
         0.77343E-09
         0.62442E-09
         0.54918E-09
         0.35981E-09
         0.61349E-09
         0.83271E-09
         0.87328E-09
         0.70481E-09
         0.43369E-09
         0.74524E-09
         0.27634E-09
         0.35142E-09
         0.32873E-09
         0.38768E-09
         0.37823E-09
         0.36731E-09
         0.39163E-09
         0.41358E-09
         0.38945E-09
         0.30422E-09
         0.24802E-09
         0.32001E-09
         0.42625E-09
         0.46837E-09
         0.44949E-09
         0.40546E-09
         0.36819E-09
         0.29904E-09
         0.25167E-09
         0.32881E-09
         0.43526E-09
         0.44963E-09
         0.36362E-09
         0.29523E-09
         0.36139E-09
         0.42768E-09
         0.91161E-09
         0.72353E-09
         0.77600E-09
         0.13341E-08
         0.71583E-09
         0.91323E-09
         0.51088E-09
         0.61386E-09
         0.10116E-08
         0.74341E-09
         0.30158E-09
         0.56972E-09
         0.62682E-09
         0.51045E-09
         0.64879E-09
         0.12040E-08
         0.94081E-09
         0.11959E-08
         0.70307E-09
         0.80310E-09
         0.75847E-09
         0.84027E-09
         0.64517E-09
         0.40069E-09
         0.76158E-09
         0.63325E-09
         0.66186E-09
         0.67742E-09
         0.58831E-09
         0.71673E-09
         0.90975E-09
         0.64270E-09
         0.10173E-08
         0.88441E-09
         0.40075E-09
         0.61825E-09
         0.70169E-09
         0.74151E-09
         0.71559E-09
         0.56237E-09
         0.35350E-09
         0.58420E-09
         0.77339E-09
         0.62433E-09
         0.54905E-09
         0.35972E-09
         0.61344E-09
         0.83272E-09
         0.87341E-09
         0.70496E-09
         0.43370E-09
         0.74562E-09
         0.27626E-09
         0.35142E-09
         0.32857E-09
         0.38770E-09
         0.37832E-09
         0.36739E-09
         0.39181E-09
         0.41387E-09
         0.38968E-09
         0.30429E-09
         0.24804E-09
         0.32002E-09
         0.42631E-09
         0.46847E-09
         0.44954E-09
         0.40545E-09
         0.36816E-09
         0.29901E-09
         0.25163E-09
         0.32878E-09
         0.43525E-09
         0.44963E-09
         0.36354E-09
         0.29517E-09
         0.36144E-09
         0.42766E-09
         0.91167E-09
         0.72338E-09
         0.77607E-09
         0.13348E-08
         0.71594E-09
         0.91351E-09
         0.51062E-09
         0.61349E-09
         0.10119E-08
         0.74292E-09
         0.30129E-09
         0.56962E-09
         0.62678E-09
         0.50974E-09
         0.64865E-09
         0.12044E-08
         0.94125E-09
         0.11965E-08
         0.70310E-09
         0.80321E-09
         0.75844E-09
         0.84031E-09
         0.64511E-09
         0.40065E-09
         0.76125E-09
         0.63320E-09
         0.66087E-09
         0.67676E-09
         0.58806E-09
         0.71657E-09
         0.90984E-09
         0.64263E-09
         0.10179E-08
         0.88522E-09
         0.40075E-09
         0.61813E-09
         0.70160E-09
         0.74146E-09
         0.71564E-09
         0.56240E-09
         0.35350E-09
         0.58412E-09
         0.77336E-09
         0.62425E-09
         0.54892E-09
         0.35963E-09
         0.61339E-09
         0.83274E-09
         0.87355E-09
         0.70511E-09
         0.43371E-09
         0.74599E-09
         0.27618E-09
         0.35141E-09
         0.32841E-09
         0.38771E-09
         0.37841E-09
         0.36747E-09
         0.39198E-09
         0.41417E-09
         0.38992E-09
         0.30436E-09
         0.24806E-09
         0.32003E-09
         0.42637E-09
         0.46858E-09
         0.44960E-09
         0.40544E-09
         0.36814E-09
         0.29899E-09
         0.25159E-09
         0.32876E-09
         0.43525E-09
         0.44963E-09
         0.36347E-09
         0.29511E-09
         0.36148E-09
         0.42766E-09
         0.91171E-09
         0.72323E-09
         0.77613E-09
         0.13354E-08
         0.71606E-09
         0.91379E-09
         0.51035E-09
         0.61313E-09
         0.10123E-08
         0.74243E-09
         0.30101E-09
         0.56952E-09
         0.62674E-09
         0.50903E-09
         0.64851E-09
         0.12047E-08
         0.94167E-09
         0.11971E-08
         0.70312E-09
         0.80331E-09
         0.75840E-09
         0.84034E-09
         0.64504E-09
         0.40061E-09
         0.76092E-09
         0.63314E-09
         0.65988E-09
         0.67609E-09
         0.58781E-09
         0.71641E-09
         0.90993E-09
         0.64255E-09
         0.10184E-08
         0.88601E-09
         0.40075E-09
         0.61801E-09
         0.70151E-09
         0.74140E-09
         0.71569E-09
         0.56243E-09
         0.35350E-09
         0.58404E-09
         0.77332E-09
         0.62416E-09
         0.54879E-09
         0.35953E-09
         0.61334E-09
         0.83274E-09
         0.87368E-09
         0.70525E-09
         0.43372E-09
         0.74636E-09
         0.27609E-09
         0.35141E-09
         0.32825E-09
         0.38772E-09
         0.37849E-09
         0.36754E-09
         0.39215E-09
         0.41447E-09
         0.39014E-09
         0.30443E-09
         0.24808E-09
         0.32004E-09
         0.42642E-09
         0.46868E-09
         0.44965E-09
         0.40543E-09
         0.36812E-09
         0.29897E-09
         0.25155E-09
         0.32874E-09
         0.43524E-09
         0.44963E-09
         0.36340E-09
         0.29504E-09
         0.36153E-09
         0.42764E-09
         0.91176E-09
         0.72308E-09
         0.77620E-09
         0.13360E-08
         0.71617E-09
         0.91407E-09
         0.51008E-09
         0.61276E-09
         0.10126E-08
         0.74195E-09
         0.30072E-09
         0.56942E-09
         0.62670E-09
         0.50832E-09
         0.64838E-09
         0.12051E-08
         0.94210E-09
         0.11977E-08
         0.70314E-09
         0.80341E-09
         0.75837E-09
         0.84038E-09
         0.64498E-09
         0.40056E-09
         0.76060E-09
         0.63309E-09
         0.65888E-09
         0.67542E-09
         0.58756E-09
         0.71624E-09
         0.91002E-09
         0.64247E-09
         0.10189E-08
         0.88682E-09
         0.40074E-09
         0.61790E-09
         0.70142E-09
         0.74135E-09
         0.71574E-09
         0.56245E-09
         0.35351E-09
         0.58396E-09
         0.77328E-09
         0.62407E-09
         0.54866E-09
         0.35944E-09
         0.61329E-09
         0.83275E-09
         0.87382E-09
         0.70539E-09
         0.43373E-09
         0.74673E-09
         0.27601E-09
         0.35140E-09
         0.32809E-09
         0.38774E-09
         0.37858E-09
         0.36762E-09
         0.39232E-09
         0.41477E-09
         0.39037E-09
         0.30450E-09
         0.24810E-09
         0.32005E-09
         0.42648E-09
         0.46879E-09
         0.44970E-09
         0.40541E-09
         0.36809E-09
         0.29894E-09
         0.25151E-09
         0.32871E-09
         0.43523E-09
         0.44963E-09
         0.36333E-09
         0.29497E-09
         0.36157E-09
         0.42763E-09
         0.91182E-09
         0.72293E-09
         0.77627E-09
         0.13367E-08
         0.71629E-09
         0.91436E-09
         0.50982E-09
         0.61240E-09
         0.10130E-08
         0.74146E-09
         0.30043E-09
         0.56932E-09
         0.62666E-09
         0.50762E-09
         0.64825E-09
         0.12054E-08
         0.94253E-09
         0.11983E-08
         0.70317E-09
         0.80351E-09
         0.75834E-09
         0.84041E-09
         0.64491E-09
         0.40053E-09
         0.76028E-09
         0.63304E-09
         0.65790E-09
         0.67476E-09
         0.58731E-09
         0.71609E-09
         0.91012E-09
         0.64239E-09
         0.10195E-08
         0.88762E-09
         0.40074E-09
         0.61778E-09
         0.70133E-09
         0.74130E-09
         0.71579E-09
         0.56249E-09
         0.35351E-09
         0.58388E-09
         0.77324E-09
         0.62398E-09
         0.54853E-09
         0.35935E-09
         0.61324E-09
         0.83277E-09
         0.87396E-09
         0.70554E-09
         0.43375E-09
         0.74711E-09
         0.27592E-09
         0.35140E-09
         0.32793E-09
         0.38775E-09
         0.37867E-09
         0.36770E-09
         0.39249E-09
         0.41507E-09
         0.39061E-09
         0.30457E-09
         0.24812E-09
         0.32006E-09
         0.42654E-09
         0.46890E-09
         0.44975E-09
         0.40540E-09
         0.36807E-09
         0.29892E-09
         0.25148E-09
         0.32869E-09
         0.43522E-09
         0.44963E-09
         0.36325E-09
         0.29491E-09
         0.36162E-09
         0.42762E-09
         0.91187E-09
         0.72278E-09
         0.77633E-09
         0.13373E-08
         0.71640E-09
         0.91463E-09
         0.50955E-09
         0.61204E-09
         0.10134E-08
         0.74098E-09
         0.30015E-09
         0.56922E-09
         0.62662E-09
         0.50691E-09
         0.64811E-09
         0.12058E-08
         0.94296E-09
         0.11989E-08
         0.70320E-09
         0.80361E-09
         0.75831E-09
         0.84045E-09
         0.64485E-09
         0.40048E-09
         0.75995E-09
         0.63298E-09
         0.65690E-09
         0.67409E-09
         0.58706E-09
         0.71592E-09
         0.91020E-09
         0.64231E-09
         0.10200E-08
         0.88843E-09
         0.40074E-09
         0.61766E-09
         0.70124E-09
         0.74124E-09
         0.71584E-09
         0.56251E-09
         0.35351E-09
         0.58380E-09
         0.77320E-09
         0.62389E-09
         0.54840E-09
         0.35926E-09
         0.61318E-09
         0.83277E-09
         0.87409E-09
         0.70568E-09
         0.43376E-09
         0.74748E-09
         0.27584E-09
         0.35139E-09
         0.32777E-09
         0.38777E-09
         0.37876E-09
         0.36778E-09
         0.39266E-09
         0.41536E-09
         0.39084E-09
         0.30464E-09
         0.24814E-09
         0.32006E-09
         0.42659E-09
         0.46900E-09
         0.44980E-09
         0.40539E-09
         0.36805E-09
         0.29890E-09
         0.25144E-09
         0.32867E-09
         0.43521E-09
         0.44963E-09
         0.36318E-09
         0.29485E-09
         0.36166E-09
         0.42761E-09
         0.91192E-09
         0.72263E-09
         0.77640E-09
         0.13380E-08
         0.71652E-09
         0.91491E-09
         0.50928E-09
         0.61167E-09
         0.10137E-08
         0.74049E-09
         0.29986E-09
         0.56912E-09
         0.62657E-09
         0.50620E-09
         0.64797E-09
         0.12061E-08
         0.94339E-09
         0.11995E-08
         0.70322E-09
         0.80371E-09
         0.75827E-09
         0.84048E-09
         0.64478E-09
         0.40044E-09
         0.75962E-09
         0.63293E-09
         0.65591E-09
         0.67343E-09
         0.58681E-09
         0.71576E-09
         0.91029E-09
         0.64223E-09
         0.10205E-08
         0.88923E-09
         0.40073E-09
         0.61754E-09
         0.70114E-09
         0.74119E-09
         0.71588E-09
         0.56254E-09
         0.35351E-09
         0.58372E-09
         0.77316E-09
         0.62380E-09
         0.54827E-09
         0.35917E-09
         0.61313E-09
         0.83278E-09
         0.87422E-09
         0.70582E-09
         0.43377E-09
         0.74785E-09
         0.27575E-09
         0.35138E-09
         0.32761E-09
         0.38778E-09
         0.37885E-09
         0.36786E-09
         0.39283E-09
         0.41566E-09
         0.39107E-09
         0.30470E-09
         0.24816E-09
         0.32007E-09
         0.42665E-09
         0.46911E-09
         0.44985E-09
         0.40538E-09
         0.36802E-09
         0.29887E-09
         0.25140E-09
         0.32864E-09
         0.43520E-09
         0.44963E-09
         0.36310E-09
         0.29478E-09
         0.36170E-09
         0.42760E-09
         0.91198E-09
         0.72248E-09
         0.77646E-09
         0.13386E-08
         0.71663E-09
         0.91520E-09
         0.50901E-09
         0.61131E-09
         0.10141E-08
         0.74000E-09
         0.29957E-09
         0.56902E-09
         0.62653E-09
         0.50549E-09
         0.64784E-09
         0.12065E-08
         0.94382E-09
         0.12002E-08
         0.70325E-09
         0.80381E-09
         0.75824E-09
         0.84052E-09
         0.64472E-09
         0.40040E-09
         0.75929E-09
         0.63288E-09
         0.65492E-09
         0.67276E-09
         0.58657E-09
         0.71560E-09
         0.91038E-09
         0.64216E-09
         0.10211E-08
         0.89003E-09
         0.40073E-09
         0.61742E-09
         0.70105E-09
         0.74114E-09
         0.71593E-09
         0.56257E-09
         0.35351E-09
         0.58364E-09
         0.77313E-09
         0.62371E-09
         0.54814E-09
         0.35908E-09
         0.61308E-09
         0.83280E-09
         0.87436E-09
         0.70597E-09
         0.43378E-09
         0.74823E-09
         0.27567E-09
         0.35138E-09
         0.32745E-09
         0.38779E-09
         0.37893E-09
         0.36794E-09
         0.39300E-09
         0.41596E-09
         0.39130E-09
         0.30477E-09
         0.24818E-09
         0.32008E-09
         0.42671E-09
         0.46921E-09
         0.44991E-09
         0.40537E-09
         0.36800E-09
         0.29885E-09
         0.25136E-09
         0.32862E-09
         0.43520E-09
         0.44963E-09
         0.36303E-09
         0.29472E-09
         0.36175E-09
         0.42759E-09
         0.91203E-09
         0.72233E-09
         0.77653E-09
         0.13392E-08
         0.71675E-09
         0.91547E-09
         0.50875E-09
         0.61094E-09
         0.10144E-08
         0.73952E-09
         0.29928E-09
         0.56892E-09
         0.62649E-09
         0.50478E-09
         0.64770E-09
         0.12068E-08
         0.94424E-09
         0.12008E-08
         0.70327E-09
         0.80391E-09
         0.75821E-09
         0.84055E-09
         0.64465E-09
         0.40035E-09
         0.75896E-09
         0.63282E-09
         0.65393E-09
         0.67210E-09
         0.58632E-09
         0.71543E-09
         0.91047E-09
         0.64208E-09
         0.10216E-08
         0.89084E-09
         0.40073E-09
         0.61730E-09
         0.70096E-09
         0.74108E-09
         0.71598E-09
         0.56259E-09
         0.35351E-09
         0.58356E-09
         0.77309E-09
         0.62362E-09
         0.54801E-09
         0.35898E-09
         0.61303E-09
         0.83281E-09
         0.87449E-09
         0.70611E-09
         0.43379E-09
         0.74860E-09
         0.27558E-09
         0.35137E-09
         0.32729E-09
         0.38781E-09
         0.37902E-09
         0.36802E-09
         0.39317E-09
         0.41625E-09
         0.39153E-09
         0.30484E-09
         0.24820E-09
         0.32009E-09
         0.42677E-09
         0.46932E-09
         0.44996E-09
         0.40536E-09
         0.36798E-09
         0.29883E-09
         0.25132E-09
         0.32859E-09
         0.43519E-09
         0.44963E-09
         0.36296E-09
         0.29465E-09
         0.36179E-09
         0.42758E-09
         0.91208E-09
         0.72218E-09
         0.77659E-09
         0.13399E-08
         0.71686E-09
         0.91576E-09
         0.50848E-09
         0.61058E-09
         0.10148E-08
         0.73903E-09
         0.29900E-09
         0.56882E-09
         0.62645E-09
         0.50408E-09
         0.64757E-09
         0.12072E-08
         0.94467E-09
         0.12014E-08
         0.70330E-09
         0.80401E-09
         0.75818E-09
         0.84059E-09
         0.64459E-09
         0.40031E-09
         0.75864E-09
         0.63277E-09
         0.65294E-09
         0.67143E-09
         0.58607E-09
         0.71527E-09
         0.91057E-09
         0.64200E-09
         0.10221E-08
         0.89164E-09
         0.40072E-09
         0.61719E-09
         0.70087E-09
         0.74103E-09
         0.71603E-09
         0.56262E-09
         0.35352E-09
         0.58348E-09
         0.77305E-09
         0.62354E-09
         0.54788E-09
         0.35889E-09
         0.61298E-09
         0.83282E-09
         0.87463E-09
         0.70626E-09
         0.43380E-09
         0.74897E-09
         0.27550E-09
         0.35137E-09
         0.32713E-09
         0.38782E-09
         0.37911E-09
         0.36810E-09
         0.39334E-09
         0.41655E-09
         0.39176E-09
         0.30491E-09
         0.24822E-09
         0.32010E-09
         0.42682E-09
         0.46942E-09
         0.45001E-09
         0.40534E-09
         0.36796E-09
         0.29881E-09
         0.25128E-09
         0.32857E-09
         0.43518E-09
         0.44963E-09
         0.36288E-09
         0.29459E-09
         0.36184E-09
         0.42757E-09
         0.91214E-09
         0.72204E-09
         0.77666E-09
         0.13405E-08
         0.71698E-09
         0.91604E-09
         0.50822E-09
         0.61022E-09
         0.10151E-08
         0.73855E-09
         0.29871E-09
         0.56872E-09
         0.62641E-09
         0.50337E-09
         0.64743E-09
         0.12075E-08
         0.94510E-09
         0.12020E-08
         0.70333E-09
         0.80411E-09
         0.75815E-09
         0.84063E-09
         0.64453E-09
         0.40027E-09
         0.75831E-09
         0.63272E-09
         0.65196E-09
         0.67077E-09
         0.58582E-09
         0.71511E-09
         0.91066E-09
         0.64192E-09
         0.10227E-08
         0.89245E-09
         0.40072E-09
         0.61707E-09
         0.70078E-09
         0.74098E-09
         0.71608E-09
         0.56265E-09
         0.35352E-09
         0.58340E-09
         0.77301E-09
         0.62345E-09
         0.54775E-09
         0.35880E-09
         0.61293E-09
         0.83283E-09
         0.87476E-09
         0.70641E-09
         0.43382E-09
         0.74935E-09
         0.27541E-09
         0.35136E-09
         0.32697E-09
         0.38784E-09
         0.37920E-09
         0.36818E-09
         0.39352E-09
         0.41685E-09
         0.39199E-09
         0.30498E-09
         0.24824E-09
         0.32011E-09
         0.42688E-09
         0.46953E-09
         0.45007E-09
         0.40533E-09
         0.36793E-09
         0.29878E-09
         0.25124E-09
         0.32855E-09
         0.43517E-09
         0.44963E-09
         0.36281E-09
         0.29452E-09
         0.36188E-09
         0.42756E-09
         0.91219E-09
         0.72188E-09
         0.77672E-09
         0.13412E-08
         0.71709E-09
         0.91632E-09
         0.50795E-09
         0.60986E-09
         0.10155E-08
         0.73806E-09
         0.29842E-09
         0.56862E-09
         0.62636E-09
         0.50266E-09
         0.64730E-09
         0.12079E-08
         0.94552E-09
         0.12026E-08
         0.70335E-09
         0.80421E-09
         0.75811E-09
         0.84066E-09
         0.64446E-09
         0.40023E-09
         0.75798E-09
         0.63267E-09
         0.65096E-09
         0.67010E-09
         0.58557E-09
         0.71494E-09
         0.91074E-09
         0.64184E-09
         0.10232E-08
         0.89325E-09
         0.40072E-09
         0.61695E-09
         0.70069E-09
         0.74092E-09
         0.71612E-09
         0.56268E-09
         0.35352E-09
         0.58332E-09
         0.77297E-09
         0.62336E-09
         0.54762E-09
         0.35871E-09
         0.61287E-09
         0.83284E-09
         0.87489E-09
         0.70655E-09
         0.43383E-09
         0.74972E-09
         0.27533E-09
         0.35136E-09
         0.32681E-09
         0.38785E-09
         0.37929E-09
         0.36825E-09
         0.39369E-09
         0.41715E-09
         0.39222E-09
         0.30505E-09
         0.24826E-09
         0.32011E-09
         0.42694E-09
         0.46963E-09
         0.45011E-09
         0.40532E-09
         0.36791E-09
         0.29876E-09
         0.25120E-09
         0.32853E-09
         0.43516E-09
         0.44962E-09
         0.36274E-09
         0.29445E-09
         0.36192E-09
         0.42755E-09
         0.91224E-09
         0.72173E-09
         0.77679E-09
         0.13418E-08
         0.71720E-09
         0.91660E-09
         0.50768E-09
         0.60949E-09
         0.10158E-08
         0.73758E-09
         0.29814E-09
         0.56852E-09
         0.62632E-09
         0.50195E-09
         0.64716E-09
         0.12082E-08
         0.94595E-09
         0.12032E-08
         0.70337E-09
         0.80431E-09
         0.75808E-09
         0.84069E-09
         0.64440E-09
         0.40018E-09
         0.75766E-09
         0.63262E-09
         0.64998E-09
         0.66943E-09
         0.58532E-09
         0.71478E-09
         0.91083E-09
         0.64176E-09
         0.10238E-08
         0.89406E-09
         0.40071E-09
         0.61683E-09
         0.70059E-09
         0.74087E-09
         0.71617E-09
         0.56270E-09
         0.35352E-09
         0.58324E-09
         0.77294E-09
         0.62327E-09
         0.54749E-09
         0.35861E-09
         0.61282E-09
         0.83284E-09
         0.87503E-09
         0.70669E-09
         0.43384E-09
         0.75009E-09
         0.27524E-09
         0.35135E-09
         0.32665E-09
         0.38786E-09
         0.37937E-09
         0.36833E-09
         0.39386E-09
         0.41745E-09
         0.39245E-09
         0.30512E-09
         0.24828E-09
         0.32012E-09
         0.42699E-09
         0.46974E-09
         0.45017E-09
         0.40531E-09
         0.36788E-09
         0.29873E-09
         0.25117E-09
         0.32850E-09
         0.43515E-09
         0.44962E-09
         0.36266E-09
         0.29439E-09
         0.36197E-09
         0.42754E-09
         0.91230E-09
         0.72159E-09
         0.77686E-09
         0.13425E-08
         0.71732E-09
         0.91688E-09
         0.50742E-09
         0.60913E-09
         0.10162E-08
         0.73710E-09
         0.29785E-09
         0.56842E-09
         0.62628E-09
         0.50125E-09
         0.64703E-09
         0.12086E-08
         0.94638E-09
         0.12038E-08
         0.70340E-09
         0.80441E-09
         0.75805E-09
         0.84073E-09
         0.64433E-09
         0.40014E-09
         0.75733E-09
         0.63257E-09
         0.64899E-09
         0.66877E-09
         0.58508E-09
         0.71462E-09
         0.91093E-09
         0.64169E-09
         0.10243E-08
         0.89487E-09
         0.40071E-09
         0.61671E-09
         0.70051E-09
         0.74082E-09
         0.71622E-09
         0.56273E-09
         0.35352E-09
         0.58316E-09
         0.77290E-09
         0.62318E-09
         0.54737E-09
         0.35852E-09
         0.61277E-09
         0.83286E-09
         0.87517E-09
         0.70684E-09
         0.43385E-09
         0.75047E-09
         0.27516E-09
         0.35135E-09
         0.32649E-09
         0.38788E-09
         0.37946E-09
         0.36841E-09
         0.39403E-09
         0.41775E-09
         0.39268E-09
         0.30519E-09
         0.24830E-09
         0.32013E-09
         0.42705E-09
         0.46985E-09
         0.45022E-09
         0.40530E-09
         0.36786E-09
         0.29871E-09
         0.25113E-09
         0.32848E-09
         0.43515E-09
         0.44962E-09
         0.36259E-09
         0.29433E-09
         0.36201E-09
         0.42753E-09
         0.91235E-09
         0.72143E-09
         0.77692E-09
         0.13431E-08
         0.71743E-09
         0.91716E-09
         0.50715E-09
         0.60877E-09
         0.10165E-08
         0.73661E-09
         0.29757E-09
         0.56832E-09
         0.62624E-09
         0.50054E-09
         0.64689E-09
         0.12089E-08
         0.94680E-09
         0.12044E-08
         0.70342E-09
         0.80450E-09
         0.75802E-09
         0.84076E-09
         0.64427E-09
         0.40010E-09
         0.75700E-09
         0.63251E-09
         0.64800E-09
         0.66810E-09
         0.58482E-09
         0.71445E-09
         0.91101E-09
         0.64161E-09
         0.10248E-08
         0.89567E-09
         0.40071E-09
         0.61659E-09
         0.70041E-09
         0.74077E-09
         0.71627E-09
         0.56276E-09
         0.35352E-09
         0.58308E-09
         0.77286E-09
         0.62309E-09
         0.54723E-09
         0.35843E-09
         0.61272E-09
         0.83287E-09
         0.87530E-09
         0.70698E-09
         0.43386E-09
         0.75084E-09
         0.27507E-09
         0.35134E-09
         0.32633E-09
         0.38789E-09
         0.37955E-09
         0.36849E-09
         0.39420E-09
         0.41804E-09
         0.39291E-09
         0.30525E-09
         0.24832E-09
         0.32014E-09
         0.42711E-09
         0.46995E-09
         0.45027E-09
         0.40528E-09
         0.36784E-09
         0.29869E-09
         0.25109E-09
         0.32845E-09
         0.43514E-09
         0.44962E-09
         0.36252E-09
         0.29426E-09
         0.36206E-09
         0.42751E-09
         0.91240E-09
         0.72128E-09
         0.77698E-09
         0.13437E-08
         0.71755E-09
         0.91744E-09
         0.50688E-09
         0.60841E-09
         0.10169E-08
         0.73612E-09
         0.29728E-09
         0.56822E-09
         0.62619E-09
         0.49984E-09
         0.64676E-09
         0.12093E-08
         0.94723E-09
         0.12050E-08
         0.70345E-09
         0.80460E-09
         0.75798E-09
         0.84080E-09
         0.64420E-09
         0.40006E-09
         0.75667E-09
         0.63246E-09
         0.64701E-09
         0.66744E-09
         0.58457E-09
         0.71429E-09
         0.91110E-09
         0.64153E-09
         0.10254E-08
         0.89648E-09
         0.40070E-09
         0.61647E-09
         0.70032E-09
         0.74071E-09
         0.71632E-09
         0.56279E-09
         0.35353E-09
         0.58300E-09
         0.77282E-09
         0.62300E-09
         0.54710E-09
         0.35834E-09
         0.61266E-09
         0.83288E-09
         0.87543E-09
         0.70713E-09
         0.43387E-09
         0.75122E-09
         0.27499E-09
         0.35133E-09
         0.32617E-09
         0.38790E-09
         0.37964E-09
         0.36857E-09
         0.39437E-09
         0.41834E-09
         0.39314E-09
         0.30532E-09
         0.24834E-09
         0.32014E-09
         0.42716E-09
         0.47005E-09
         0.45032E-09
         0.40527E-09
         0.36781E-09
         0.29866E-09
         0.25105E-09
         0.32843E-09
         0.43513E-09
         0.44962E-09
         0.36244E-09
         0.29419E-09
         0.36210E-09
         0.42750E-09
         0.91246E-09
         0.72114E-09
         0.77705E-09
         0.13444E-08
         0.71767E-09
         0.91773E-09
         0.50662E-09
         0.60805E-09
         0.10173E-08
         0.73564E-09
         0.29700E-09
         0.56812E-09
         0.62616E-09
         0.49914E-09
         0.64663E-09
         0.12097E-08
         0.94766E-09
         0.12056E-08
         0.70348E-09
         0.80471E-09
         0.75796E-09
         0.84084E-09
         0.64414E-09
         0.40002E-09
         0.75635E-09
         0.63241E-09
         0.64603E-09
         0.66678E-09
         0.58433E-09
         0.71413E-09
         0.91120E-09
         0.64146E-09
         0.10259E-08
         0.89729E-09
         0.40070E-09
         0.61636E-09
         0.70023E-09
         0.74067E-09
         0.71637E-09
         0.56282E-09
         0.35353E-09
         0.58293E-09
         0.77279E-09
         0.62291E-09
         0.54698E-09
         0.35825E-09
         0.61261E-09
         0.83289E-09
         0.87557E-09
         0.70728E-09
         0.43389E-09
         0.75160E-09
         0.27491E-09
         0.35133E-09
         0.32601E-09
         0.38792E-09
         0.37972E-09
         0.36865E-09
         0.39454E-09
         0.41864E-09
         0.39337E-09
         0.30539E-09
         0.24836E-09
         0.32015E-09
         0.42722E-09
         0.47016E-09
         0.45038E-09
         0.40526E-09
         0.36779E-09
         0.29864E-09
         0.25101E-09
         0.32841E-09
         0.43512E-09
         0.44962E-09
         0.36237E-09
         0.29413E-09
         0.36215E-09
         0.42750E-09
         0.91249E-09
         0.72097E-09
         0.77710E-09
         0.13450E-08
         0.71777E-09
         0.91799E-09
         0.50634E-09
         0.60767E-09
         0.10176E-08
         0.73514E-09
         0.29670E-09
         0.56801E-09
         0.62610E-09
         0.49842E-09
         0.64648E-09
         0.12100E-08
         0.94806E-09
         0.12062E-08
         0.70349E-09
         0.80479E-09
         0.75791E-09
         0.84086E-09
         0.64406E-09
         0.39997E-09
         0.75600E-09
         0.63234E-09
         0.64503E-09
         0.66610E-09
         0.58407E-09
         0.71395E-09
         0.91127E-09
         0.64136E-09
         0.10264E-08
         0.89808E-09
         0.40069E-09
         0.61622E-09
         0.70012E-09
         0.74060E-09
         0.71641E-09
         0.56283E-09
         0.35352E-09
         0.58283E-09
         0.77273E-09
         0.62281E-09
         0.54684E-09
         0.35815E-09
         0.61255E-09
         0.83288E-09
         0.87569E-09
         0.70741E-09
         0.43389E-09
         0.75195E-09
         0.27482E-09
         0.35132E-09
         0.32584E-09
         0.38793E-09
         0.37980E-09
         0.36872E-09
         0.39470E-09
         0.41893E-09
         0.39360E-09
         0.30545E-09
         0.24837E-09
         0.32016E-09
         0.42727E-09
         0.47026E-09
         0.45042E-09
         0.40524E-09
         0.36776E-09
         0.29861E-09
         0.25097E-09
         0.32838E-09
         0.43510E-09
         0.44961E-09
         0.36229E-09
         0.29406E-09
         0.36218E-09
         0.42748E-09
         0.91256E-09
         0.72083E-09
         0.77718E-09
         0.13457E-08
         0.71789E-09
         0.91829E-09
         0.50608E-09
         0.60732E-09
         0.10180E-08
         0.73467E-09
         0.29642E-09
         0.56792E-09
         0.62607E-09
         0.49772E-09
         0.64636E-09
         0.12103E-08
         0.94850E-09
         0.12068E-08
         0.70352E-09
         0.80490E-09
         0.75789E-09
         0.84091E-09
         0.64401E-09
         0.39993E-09
         0.75569E-09
         0.63230E-09
         0.64405E-09
         0.66544E-09
         0.58382E-09
         0.71379E-09
         0.91137E-09
         0.64129E-09
         0.10270E-08
         0.89890E-09
         0.40069E-09
         0.61611E-09
         0.70004E-09
         0.74056E-09
         0.71646E-09
         0.56287E-09
         0.35353E-09
         0.58276E-09
         0.77271E-09
         0.62273E-09
         0.54672E-09
         0.35806E-09
         0.61251E-09
         0.83291E-09
         0.87583E-09
         0.70756E-09
         0.43391E-09
         0.75234E-09
         0.27474E-09
         0.35132E-09
         0.32569E-09
         0.38794E-09
         0.37990E-09
         0.36881E-09
         0.39488E-09
         0.41923E-09
         0.39383E-09
         0.30553E-09
         0.24840E-09
         0.32017E-09
         0.42734E-09
         0.47037E-09
         0.45048E-09
         0.40524E-09
         0.36774E-09
         0.29859E-09
         0.25093E-09
         0.32836E-09
         0.43510E-09
         0.44962E-09
         0.36222E-09
         0.29400E-09
         0.36223E-09
         0.42747E-09
         0.45631E-09
         0.36039E-09
         0.38862E-09
         0.67302E-09
         0.35899E-09
         0.45923E-09
         0.25298E-09
         0.30358E-09
         0.50909E-09
         0.36723E-09
         0.14815E-09
         0.28394E-09
         0.31303E-09
         0.24869E-09
         0.32316E-09
         0.60528E-09
         0.47437E-09
         0.60357E-09
         0.35178E-09
         0.40249E-09
         0.37895E-09
         0.42048E-09
         0.32200E-09
         0.19996E-09
         0.37777E-09
         0.31615E-09
         0.32179E-09
         0.33257E-09
         0.29186E-09
         0.35687E-09
         0.45572E-09
         0.32064E-09
         0.51365E-09
         0.44967E-09
         0.20035E-09
         0.30804E-09
         0.35001E-09
         0.37028E-09
         0.35826E-09
         0.28145E-09
         0.17677E-09
         0.29137E-09
         0.38636E-09
         0.31135E-09
         0.27333E-09
         0.17901E-09
         0.30625E-09
         0.41647E-09
         0.43797E-09
         0.35383E-09
         0.21697E-09
         0.37628E-09
         0.13735E-09
         0.17566E-09
         0.16281E-09
         0.19398E-09
         0.18998E-09
         0.18443E-09
         0.19749E-09
         0.20970E-09
         0.19698E-09
         0.15279E-09
         0.12421E-09
         0.16009E-09
         0.21369E-09
         0.23522E-09
         0.22526E-09
         0.20262E-09
         0.18387E-09
         0.14930E-09
         0.12546E-09
         0.16418E-09
         0.21756E-09
         0.22482E-09
         0.18110E-09
         0.14699E-09
         0.18113E-09
         0.21374E-09
  
SCALARS               pre_disp_force_x  double 1
LOOKUP_TABLE default
         0.00000E+00
         0.00000E+00
         0.00000E+00
         0.00000E+00
         0.00000E+00
         0.00000E+00
         0.00000E+00
         0.00000E+00
         0.00000E+00
         0.00000E+00
         0.00000E+00
         0.00000E+00
         0.00000E+00
         0.00000E+00
         0.00000E+00
         0.00000E+00
         0.00000E+00
         0.00000E+00
         0.00000E+00
         0.00000E+00
         0.00000E+00
         0.00000E+00
         0.00000E+00
         0.00000E+00
         0.00000E+00
         0.00000E+00
         0.00000E+00
         0.00000E+00
         0.00000E+00
         0.00000E+00
         0.00000E+00
         0.00000E+00
         0.00000E+00
         0.00000E+00
         0.00000E+00
         0.00000E+00
         0.00000E+00
         0.00000E+00
         0.00000E+00
         0.00000E+00
         0.00000E+00
         0.00000E+00
         0.00000E+00
         0.00000E+00
         0.00000E+00
         0.00000E+00
         0.00000E+00
         0.00000E+00
         0.00000E+00
         0.00000E+00
         0.00000E+00
         0.00000E+00
         0.00000E+00
         0.00000E+00
         0.00000E+00
         0.00000E+00
         0.00000E+00
         0.00000E+00
         0.00000E+00
         0.00000E+00
         0.00000E+00
         0.00000E+00
         0.00000E+00
         0.00000E+00
         0.00000E+00
         0.00000E+00
         0.00000E+00
         0.00000E+00
         0.00000E+00
         0.00000E+00
         0.00000E+00
         0.00000E+00
         0.00000E+00
         0.00000E+00
         0.00000E+00
         0.00000E+00
         0.00000E+00
         0.00000E+00
         0.00000E+00
         0.00000E+00
         0.00000E+00
         0.00000E+00
         0.00000E+00
         0.00000E+00
         0.00000E+00
         0.00000E+00
         0.00000E+00
         0.00000E+00
         0.00000E+00
         0.00000E+00
         0.00000E+00
         0.00000E+00
         0.00000E+00
         0.00000E+00
         0.00000E+00
         0.00000E+00
         0.00000E+00
         0.00000E+00
         0.00000E+00
         0.00000E+00
         0.00000E+00
         0.00000E+00
         0.00000E+00
         0.00000E+00
         0.00000E+00
         0.00000E+00
         0.00000E+00
         0.00000E+00
         0.00000E+00
         0.00000E+00
         0.00000E+00
         0.00000E+00
         0.00000E+00
         0.00000E+00
         0.00000E+00
         0.00000E+00
         0.00000E+00
         0.00000E+00
         0.00000E+00
         0.00000E+00
         0.00000E+00
         0.00000E+00
         0.00000E+00
         0.00000E+00
         0.00000E+00
         0.00000E+00
         0.00000E+00
         0.00000E+00
         0.00000E+00
         0.00000E+00
         0.00000E+00
         0.00000E+00
         0.00000E+00
         0.00000E+00
         0.00000E+00
         0.00000E+00
         0.00000E+00
         0.00000E+00
         0.00000E+00
         0.00000E+00
         0.00000E+00
         0.00000E+00
         0.00000E+00
         0.00000E+00
         0.00000E+00
         0.00000E+00
         0.00000E+00
         0.00000E+00
         0.00000E+00
         0.00000E+00
         0.00000E+00
         0.00000E+00
         0.00000E+00
         0.00000E+00
         0.00000E+00
         0.00000E+00
         0.00000E+00
         0.00000E+00
         0.00000E+00
         0.00000E+00
         0.00000E+00
         0.00000E+00
         0.00000E+00
         0.00000E+00
         0.00000E+00
         0.00000E+00
         0.00000E+00
         0.00000E+00
         0.00000E+00
         0.00000E+00
         0.00000E+00
         0.00000E+00
         0.00000E+00
         0.00000E+00
         0.00000E+00
         0.00000E+00
         0.00000E+00
         0.00000E+00
         0.00000E+00
         0.00000E+00
         0.00000E+00
         0.00000E+00
         0.00000E+00
         0.00000E+00
         0.00000E+00
         0.00000E+00
         0.00000E+00
         0.00000E+00
         0.00000E+00
         0.00000E+00
         0.00000E+00
         0.00000E+00
         0.00000E+00
         0.00000E+00
         0.00000E+00
         0.00000E+00
         0.00000E+00
         0.00000E+00
         0.00000E+00
         0.00000E+00
         0.00000E+00
         0.00000E+00
         0.00000E+00
         0.00000E+00
         0.00000E+00
         0.00000E+00
         0.00000E+00
         0.00000E+00
         0.00000E+00
         0.00000E+00
         0.00000E+00
         0.00000E+00
         0.00000E+00
         0.00000E+00
         0.00000E+00
         0.00000E+00
         0.00000E+00
         0.00000E+00
         0.00000E+00
         0.00000E+00
         0.00000E+00
         0.00000E+00
         0.00000E+00
         0.00000E+00
         0.00000E+00
         0.00000E+00
         0.00000E+00
         0.00000E+00
         0.00000E+00
         0.00000E+00
         0.00000E+00
         0.00000E+00
         0.00000E+00
         0.00000E+00
         0.00000E+00
         0.00000E+00
         0.00000E+00
         0.00000E+00
         0.00000E+00
         0.00000E+00
         0.00000E+00
         0.00000E+00
         0.00000E+00
         0.00000E+00
         0.00000E+00
         0.00000E+00
         0.00000E+00
         0.00000E+00
         0.00000E+00
         0.00000E+00
         0.00000E+00
         0.00000E+00
         0.00000E+00
         0.00000E+00
         0.00000E+00
         0.00000E+00
         0.00000E+00
         0.00000E+00
         0.00000E+00
         0.00000E+00
         0.00000E+00
         0.00000E+00
         0.00000E+00
         0.00000E+00
         0.00000E+00
         0.00000E+00
         0.00000E+00
         0.00000E+00
         0.00000E+00
         0.00000E+00
         0.00000E+00
         0.00000E+00
         0.00000E+00
         0.00000E+00
         0.00000E+00
         0.00000E+00
         0.00000E+00
         0.00000E+00
         0.00000E+00
         0.00000E+00
         0.00000E+00
         0.00000E+00
         0.00000E+00
         0.00000E+00
         0.00000E+00
         0.00000E+00
         0.00000E+00
         0.00000E+00
         0.00000E+00
         0.00000E+00
         0.00000E+00
         0.00000E+00
         0.00000E+00
         0.00000E+00
         0.00000E+00
         0.00000E+00
         0.00000E+00
         0.00000E+00
         0.00000E+00
         0.00000E+00
         0.00000E+00
         0.00000E+00
         0.00000E+00
         0.00000E+00
         0.00000E+00
         0.00000E+00
         0.00000E+00
         0.00000E+00
         0.00000E+00
         0.00000E+00
         0.00000E+00
         0.00000E+00
         0.00000E+00
         0.00000E+00
         0.00000E+00
         0.00000E+00
         0.00000E+00
         0.00000E+00
         0.00000E+00
         0.00000E+00
         0.00000E+00
         0.00000E+00
         0.00000E+00
         0.00000E+00
         0.00000E+00
         0.00000E+00
         0.00000E+00
         0.00000E+00
         0.00000E+00
         0.00000E+00
         0.00000E+00
         0.00000E+00
         0.00000E+00
         0.00000E+00
         0.00000E+00
         0.00000E+00
         0.00000E+00
         0.00000E+00
         0.00000E+00
         0.00000E+00
         0.00000E+00
         0.00000E+00
         0.00000E+00
         0.00000E+00
         0.00000E+00
         0.00000E+00
         0.00000E+00
         0.00000E+00
         0.00000E+00
         0.00000E+00
         0.00000E+00
         0.00000E+00
         0.00000E+00
         0.00000E+00
         0.00000E+00
         0.00000E+00
         0.00000E+00
         0.00000E+00
         0.00000E+00
         0.00000E+00
         0.00000E+00
         0.00000E+00
         0.00000E+00
         0.00000E+00
         0.00000E+00
         0.00000E+00
         0.00000E+00
         0.00000E+00
         0.00000E+00
         0.00000E+00
         0.00000E+00
         0.00000E+00
         0.00000E+00
         0.00000E+00
         0.00000E+00
         0.00000E+00
         0.00000E+00
         0.00000E+00
         0.00000E+00
         0.00000E+00
         0.00000E+00
         0.00000E+00
         0.00000E+00
         0.00000E+00
         0.00000E+00
         0.00000E+00
         0.00000E+00
         0.00000E+00
         0.00000E+00
         0.00000E+00
         0.00000E+00
         0.00000E+00
         0.00000E+00
         0.00000E+00
         0.00000E+00
         0.00000E+00
         0.00000E+00
         0.00000E+00
         0.00000E+00
         0.00000E+00
         0.00000E+00
         0.00000E+00
         0.00000E+00
         0.00000E+00
         0.00000E+00
         0.00000E+00
         0.00000E+00
         0.00000E+00
         0.00000E+00
         0.00000E+00
         0.00000E+00
         0.00000E+00
         0.00000E+00
         0.00000E+00
         0.00000E+00
         0.00000E+00
         0.00000E+00
         0.00000E+00
         0.00000E+00
         0.00000E+00
         0.00000E+00
         0.00000E+00
         0.00000E+00
         0.00000E+00
         0.00000E+00
         0.00000E+00
         0.00000E+00
         0.00000E+00
         0.00000E+00
         0.00000E+00
         0.00000E+00
         0.00000E+00
         0.00000E+00
         0.00000E+00
         0.00000E+00
         0.00000E+00
         0.00000E+00
         0.00000E+00
         0.00000E+00
         0.00000E+00
         0.00000E+00
         0.00000E+00
         0.00000E+00
         0.00000E+00
         0.00000E+00
         0.00000E+00
         0.00000E+00
         0.00000E+00
         0.00000E+00
         0.00000E+00
         0.00000E+00
         0.00000E+00
         0.00000E+00
         0.00000E+00
         0.00000E+00
         0.00000E+00
         0.00000E+00
         0.00000E+00
         0.00000E+00
         0.00000E+00
         0.00000E+00
         0.00000E+00
         0.00000E+00
         0.00000E+00
         0.00000E+00
         0.00000E+00
         0.00000E+00
         0.00000E+00
         0.00000E+00
         0.00000E+00
         0.00000E+00
         0.00000E+00
         0.00000E+00
         0.00000E+00
         0.00000E+00
         0.00000E+00
         0.00000E+00
         0.00000E+00
         0.00000E+00
         0.00000E+00
         0.00000E+00
         0.00000E+00
         0.00000E+00
         0.00000E+00
         0.00000E+00
         0.00000E+00
         0.00000E+00
         0.00000E+00
         0.00000E+00
         0.00000E+00
         0.00000E+00
         0.00000E+00
         0.00000E+00
         0.00000E+00
         0.00000E+00
         0.00000E+00
         0.00000E+00
         0.00000E+00
         0.00000E+00
         0.00000E+00
         0.00000E+00
         0.00000E+00
         0.00000E+00
         0.00000E+00
         0.00000E+00
         0.00000E+00
         0.00000E+00
         0.00000E+00
         0.00000E+00
         0.00000E+00
         0.00000E+00
         0.00000E+00
         0.00000E+00
         0.00000E+00
         0.00000E+00
         0.00000E+00
         0.00000E+00
         0.00000E+00
         0.00000E+00
         0.00000E+00
         0.00000E+00
         0.00000E+00
         0.00000E+00
         0.00000E+00
         0.00000E+00
         0.00000E+00
         0.00000E+00
         0.00000E+00
         0.00000E+00
         0.00000E+00
         0.00000E+00
         0.00000E+00
         0.00000E+00
         0.00000E+00
         0.00000E+00
         0.00000E+00
         0.00000E+00
         0.00000E+00
         0.00000E+00
         0.00000E+00
         0.00000E+00
         0.00000E+00
         0.00000E+00
         0.00000E+00
         0.00000E+00
         0.00000E+00
         0.00000E+00
         0.00000E+00
         0.00000E+00
         0.00000E+00
         0.00000E+00
         0.00000E+00
         0.00000E+00
         0.00000E+00
         0.00000E+00
         0.00000E+00
         0.00000E+00
         0.00000E+00
         0.00000E+00
         0.00000E+00
         0.00000E+00
         0.00000E+00
         0.00000E+00
         0.00000E+00
         0.00000E+00
         0.00000E+00
         0.00000E+00
         0.00000E+00
         0.00000E+00
         0.00000E+00
         0.00000E+00
         0.00000E+00
         0.00000E+00
         0.00000E+00
         0.00000E+00
         0.00000E+00
         0.00000E+00
         0.00000E+00
         0.00000E+00
         0.00000E+00
         0.00000E+00
         0.00000E+00
         0.00000E+00
         0.00000E+00
         0.00000E+00
         0.00000E+00
         0.00000E+00
         0.00000E+00
         0.00000E+00
         0.00000E+00
         0.00000E+00
         0.00000E+00
         0.00000E+00
         0.00000E+00
         0.00000E+00
         0.00000E+00
         0.00000E+00
         0.00000E+00
         0.00000E+00
         0.00000E+00
         0.00000E+00
         0.00000E+00
         0.00000E+00
         0.00000E+00
         0.00000E+00
         0.00000E+00
         0.00000E+00
         0.00000E+00
         0.00000E+00
         0.00000E+00
         0.00000E+00
         0.00000E+00
         0.00000E+00
         0.00000E+00
         0.00000E+00
         0.00000E+00
         0.00000E+00
         0.00000E+00
         0.00000E+00
         0.00000E+00
         0.00000E+00
         0.00000E+00
         0.00000E+00
         0.00000E+00
         0.00000E+00
         0.00000E+00
         0.00000E+00
         0.00000E+00
         0.00000E+00
         0.00000E+00
         0.00000E+00
         0.00000E+00
         0.00000E+00
         0.00000E+00
         0.00000E+00
         0.00000E+00
         0.00000E+00
         0.00000E+00
         0.00000E+00
         0.00000E+00
         0.00000E+00
         0.00000E+00
         0.00000E+00
         0.00000E+00
         0.00000E+00
         0.00000E+00
         0.00000E+00
         0.00000E+00
         0.00000E+00
         0.00000E+00
         0.00000E+00
         0.00000E+00
         0.00000E+00
         0.00000E+00
         0.00000E+00
         0.00000E+00
         0.00000E+00
         0.00000E+00
         0.00000E+00
         0.00000E+00
         0.00000E+00
         0.00000E+00
         0.00000E+00
         0.00000E+00
         0.00000E+00
         0.00000E+00
         0.00000E+00
         0.00000E+00
         0.00000E+00
         0.00000E+00
         0.00000E+00
         0.00000E+00
         0.00000E+00
         0.00000E+00
         0.00000E+00
         0.00000E+00
         0.00000E+00
         0.00000E+00
         0.00000E+00
         0.00000E+00
         0.00000E+00
         0.00000E+00
         0.00000E+00
         0.00000E+00
         0.00000E+00
         0.00000E+00
         0.00000E+00
         0.00000E+00
         0.00000E+00
         0.00000E+00
         0.00000E+00
         0.00000E+00
         0.00000E+00
         0.00000E+00
         0.00000E+00
         0.00000E+00
         0.00000E+00
         0.00000E+00
         0.00000E+00
         0.00000E+00
         0.00000E+00
         0.00000E+00
         0.00000E+00
         0.00000E+00
         0.00000E+00
         0.00000E+00
         0.00000E+00
         0.00000E+00
         0.00000E+00
         0.00000E+00
         0.00000E+00
         0.00000E+00
         0.00000E+00
         0.00000E+00
         0.00000E+00
         0.00000E+00
         0.00000E+00
         0.00000E+00
         0.00000E+00
         0.00000E+00
         0.00000E+00
         0.00000E+00
         0.00000E+00
         0.00000E+00
         0.00000E+00
         0.00000E+00
         0.00000E+00
         0.00000E+00
         0.00000E+00
         0.00000E+00
         0.00000E+00
         0.00000E+00
         0.00000E+00
         0.00000E+00
         0.00000E+00
         0.00000E+00
         0.00000E+00
         0.00000E+00
         0.00000E+00
         0.00000E+00
         0.00000E+00
         0.00000E+00
         0.00000E+00
         0.00000E+00
         0.00000E+00
         0.00000E+00
         0.00000E+00
         0.00000E+00
         0.00000E+00
         0.00000E+00
         0.00000E+00
         0.00000E+00
         0.00000E+00
         0.00000E+00
         0.00000E+00
         0.00000E+00
         0.00000E+00
         0.00000E+00
         0.00000E+00
         0.00000E+00
         0.00000E+00
         0.00000E+00
         0.00000E+00
         0.00000E+00
         0.00000E+00
         0.00000E+00
         0.00000E+00
         0.00000E+00
         0.00000E+00
         0.00000E+00
         0.00000E+00
         0.00000E+00
         0.00000E+00
         0.00000E+00
         0.00000E+00
         0.00000E+00
         0.00000E+00
         0.00000E+00
         0.00000E+00
         0.00000E+00
         0.00000E+00
         0.00000E+00
         0.00000E+00
         0.00000E+00
         0.00000E+00
         0.00000E+00
         0.00000E+00
         0.00000E+00
         0.00000E+00
         0.00000E+00
         0.00000E+00
         0.00000E+00
         0.00000E+00
         0.00000E+00
         0.00000E+00
         0.00000E+00
         0.00000E+00
         0.00000E+00
         0.00000E+00
         0.00000E+00
         0.00000E+00
         0.00000E+00
         0.00000E+00
         0.00000E+00
         0.00000E+00
         0.00000E+00
         0.00000E+00
         0.00000E+00
         0.00000E+00
         0.00000E+00
         0.00000E+00
         0.00000E+00
         0.00000E+00
         0.00000E+00
         0.00000E+00
         0.00000E+00
         0.00000E+00
         0.00000E+00
         0.00000E+00
         0.00000E+00
         0.00000E+00
         0.00000E+00
         0.00000E+00
         0.00000E+00
         0.00000E+00
         0.00000E+00
         0.00000E+00
         0.00000E+00
         0.00000E+00
         0.00000E+00
         0.00000E+00
         0.00000E+00
         0.00000E+00
         0.00000E+00
         0.00000E+00
         0.00000E+00
         0.00000E+00
         0.00000E+00
         0.00000E+00
         0.00000E+00
         0.00000E+00
         0.00000E+00
         0.00000E+00
         0.00000E+00
         0.00000E+00
         0.00000E+00
         0.00000E+00
         0.00000E+00
         0.00000E+00
         0.00000E+00
         0.00000E+00
         0.00000E+00
         0.00000E+00
         0.00000E+00
         0.00000E+00
         0.00000E+00
         0.00000E+00
         0.00000E+00
         0.00000E+00
         0.00000E+00
         0.00000E+00
         0.00000E+00
         0.00000E+00
         0.00000E+00
         0.00000E+00
         0.00000E+00
         0.00000E+00
         0.00000E+00
         0.00000E+00
         0.00000E+00
         0.00000E+00
         0.00000E+00
         0.00000E+00
         0.00000E+00
         0.00000E+00
         0.00000E+00
         0.00000E+00
         0.00000E+00
         0.00000E+00
         0.00000E+00
         0.00000E+00
         0.00000E+00
         0.00000E+00
         0.00000E+00
         0.00000E+00
         0.00000E+00
         0.00000E+00
         0.00000E+00
         0.00000E+00
         0.00000E+00
         0.00000E+00
         0.00000E+00
         0.00000E+00
         0.00000E+00
         0.00000E+00
         0.00000E+00
         0.00000E+00
         0.00000E+00
         0.00000E+00
         0.00000E+00
         0.00000E+00
         0.00000E+00
         0.00000E+00
         0.00000E+00
         0.00000E+00
         0.00000E+00
         0.00000E+00
         0.00000E+00
         0.00000E+00
         0.00000E+00
         0.00000E+00
         0.00000E+00
         0.00000E+00
         0.00000E+00
         0.00000E+00
         0.00000E+00
         0.00000E+00
         0.00000E+00
         0.00000E+00
         0.00000E+00
         0.00000E+00
         0.00000E+00
         0.00000E+00
         0.00000E+00
         0.00000E+00
         0.00000E+00
         0.00000E+00
         0.00000E+00
         0.00000E+00
         0.00000E+00
         0.00000E+00
         0.00000E+00
         0.00000E+00
         0.00000E+00
         0.00000E+00
         0.00000E+00
         0.00000E+00
         0.00000E+00
         0.00000E+00
         0.00000E+00
         0.00000E+00
         0.00000E+00
         0.00000E+00
         0.00000E+00
         0.00000E+00
         0.00000E+00
         0.00000E+00
         0.00000E+00
         0.00000E+00
         0.00000E+00
         0.00000E+00
         0.00000E+00
         0.00000E+00
         0.00000E+00
         0.00000E+00
         0.00000E+00
         0.00000E+00
         0.00000E+00
         0.00000E+00
         0.00000E+00
         0.00000E+00
         0.00000E+00
         0.00000E+00
         0.00000E+00
         0.00000E+00
         0.00000E+00
         0.00000E+00
         0.00000E+00
         0.00000E+00
         0.00000E+00
         0.00000E+00
         0.00000E+00
         0.00000E+00
         0.00000E+00
         0.00000E+00
         0.00000E+00
         0.00000E+00
         0.00000E+00
         0.00000E+00
         0.00000E+00
         0.00000E+00
         0.00000E+00
         0.00000E+00
         0.00000E+00
         0.00000E+00
         0.00000E+00
         0.00000E+00
         0.00000E+00
         0.00000E+00
         0.00000E+00
         0.00000E+00
         0.00000E+00
         0.00000E+00
         0.00000E+00
         0.00000E+00
         0.00000E+00
         0.00000E+00
         0.00000E+00
         0.00000E+00
         0.00000E+00
         0.00000E+00
         0.00000E+00
         0.00000E+00
         0.00000E+00
         0.00000E+00
         0.00000E+00
         0.00000E+00
         0.00000E+00
         0.00000E+00
         0.00000E+00
         0.00000E+00
         0.00000E+00
         0.00000E+00
         0.00000E+00
         0.00000E+00
         0.00000E+00
         0.00000E+00
         0.00000E+00
         0.00000E+00
         0.00000E+00
         0.00000E+00
         0.00000E+00
         0.00000E+00
         0.00000E+00
         0.00000E+00
         0.00000E+00
         0.00000E+00
         0.00000E+00
         0.00000E+00
         0.00000E+00
         0.00000E+00
         0.00000E+00
         0.00000E+00
         0.00000E+00
         0.00000E+00
         0.00000E+00
         0.00000E+00
         0.00000E+00
         0.00000E+00
         0.00000E+00
         0.00000E+00
         0.00000E+00
         0.00000E+00
         0.00000E+00
         0.00000E+00
         0.00000E+00
         0.00000E+00
         0.00000E+00
         0.00000E+00
         0.00000E+00
         0.00000E+00
         0.00000E+00
         0.00000E+00
         0.00000E+00
         0.00000E+00
         0.00000E+00
         0.00000E+00
         0.00000E+00
         0.00000E+00
         0.00000E+00
         0.00000E+00
         0.00000E+00
         0.00000E+00
         0.00000E+00
         0.00000E+00
         0.00000E+00
         0.00000E+00
         0.00000E+00
         0.00000E+00
         0.00000E+00
         0.00000E+00
         0.00000E+00
         0.00000E+00
         0.00000E+00
         0.00000E+00
         0.00000E+00
         0.00000E+00
         0.00000E+00
         0.00000E+00
         0.00000E+00
         0.00000E+00
         0.00000E+00
         0.00000E+00
         0.00000E+00
         0.00000E+00
         0.00000E+00
         0.00000E+00
         0.00000E+00
         0.00000E+00
         0.00000E+00
         0.00000E+00
         0.00000E+00
         0.00000E+00
         0.00000E+00
         0.00000E+00
         0.00000E+00
         0.00000E+00
         0.00000E+00
         0.00000E+00
         0.00000E+00
         0.00000E+00
         0.00000E+00
         0.00000E+00
         0.00000E+00
         0.00000E+00
         0.00000E+00
         0.00000E+00
         0.00000E+00
         0.00000E+00
         0.00000E+00
         0.00000E+00
         0.00000E+00
         0.00000E+00
         0.00000E+00
         0.00000E+00
         0.00000E+00
         0.00000E+00
         0.00000E+00
         0.00000E+00
         0.00000E+00
         0.00000E+00
         0.00000E+00
         0.00000E+00
         0.00000E+00
         0.00000E+00
         0.00000E+00
         0.00000E+00
         0.00000E+00
         0.00000E+00
         0.00000E+00
         0.00000E+00
         0.00000E+00
         0.00000E+00
         0.00000E+00
         0.00000E+00
         0.00000E+00
         0.00000E+00
         0.00000E+00
         0.00000E+00
         0.00000E+00
         0.00000E+00
         0.00000E+00
         0.00000E+00
         0.00000E+00
         0.00000E+00
         0.00000E+00
         0.00000E+00
         0.00000E+00
         0.00000E+00
         0.00000E+00
         0.00000E+00
         0.00000E+00
         0.00000E+00
         0.00000E+00
         0.00000E+00
         0.00000E+00
         0.00000E+00
         0.00000E+00
         0.00000E+00
         0.00000E+00
         0.00000E+00
         0.00000E+00
         0.00000E+00
         0.00000E+00
         0.00000E+00
         0.00000E+00
         0.00000E+00
         0.00000E+00
         0.00000E+00
         0.00000E+00
         0.00000E+00
         0.00000E+00
         0.00000E+00
         0.00000E+00
         0.00000E+00
         0.00000E+00
         0.00000E+00
         0.00000E+00
         0.00000E+00
         0.00000E+00
         0.00000E+00
         0.00000E+00
         0.00000E+00
         0.00000E+00
         0.00000E+00
         0.00000E+00
         0.00000E+00
         0.00000E+00
         0.00000E+00
         0.00000E+00
         0.00000E+00
         0.00000E+00
         0.00000E+00
         0.00000E+00
         0.00000E+00
         0.00000E+00
         0.00000E+00
         0.00000E+00
         0.00000E+00
         0.00000E+00
         0.00000E+00
         0.00000E+00
         0.00000E+00
         0.00000E+00
         0.00000E+00
         0.00000E+00
         0.00000E+00
         0.00000E+00
         0.00000E+00
         0.00000E+00
         0.00000E+00
         0.00000E+00
         0.00000E+00
         0.00000E+00
         0.00000E+00
         0.00000E+00
         0.00000E+00
         0.00000E+00
         0.00000E+00
         0.00000E+00
         0.00000E+00
         0.00000E+00
         0.00000E+00
         0.00000E+00
         0.00000E+00
         0.00000E+00
         0.00000E+00
         0.00000E+00
         0.00000E+00
         0.00000E+00
         0.00000E+00
         0.00000E+00
         0.00000E+00
         0.00000E+00
         0.00000E+00
         0.00000E+00
         0.00000E+00
         0.00000E+00
         0.00000E+00
         0.00000E+00
         0.00000E+00
         0.00000E+00
         0.00000E+00
         0.00000E+00
         0.00000E+00
         0.00000E+00
         0.00000E+00
         0.00000E+00
         0.00000E+00
         0.00000E+00
         0.00000E+00
         0.00000E+00
         0.00000E+00
         0.00000E+00
         0.00000E+00
         0.00000E+00
         0.00000E+00
         0.00000E+00
         0.00000E+00
         0.00000E+00
         0.00000E+00
         0.00000E+00
         0.00000E+00
         0.00000E+00
         0.00000E+00
         0.00000E+00
         0.00000E+00
         0.00000E+00
         0.00000E+00
         0.00000E+00
         0.00000E+00
         0.00000E+00
         0.00000E+00
         0.00000E+00
         0.00000E+00
         0.00000E+00
         0.00000E+00
         0.00000E+00
         0.00000E+00
         0.00000E+00
         0.00000E+00
         0.00000E+00
         0.00000E+00
         0.00000E+00
         0.00000E+00
         0.00000E+00
         0.00000E+00
         0.00000E+00
         0.00000E+00
         0.00000E+00
         0.00000E+00
         0.00000E+00
         0.00000E+00
         0.00000E+00
         0.00000E+00
         0.00000E+00
         0.00000E+00
         0.00000E+00
         0.00000E+00
         0.00000E+00
         0.00000E+00
         0.00000E+00
         0.00000E+00
         0.00000E+00
         0.00000E+00
         0.00000E+00
         0.00000E+00
         0.00000E+00
         0.00000E+00
         0.00000E+00
         0.00000E+00
         0.00000E+00
         0.00000E+00
         0.00000E+00
         0.00000E+00
         0.00000E+00
         0.00000E+00
         0.00000E+00
         0.00000E+00
         0.00000E+00
         0.00000E+00
         0.00000E+00
         0.00000E+00
         0.00000E+00
         0.00000E+00
         0.00000E+00
         0.00000E+00
         0.00000E+00
         0.00000E+00
         0.00000E+00
         0.00000E+00
         0.00000E+00
         0.00000E+00
         0.00000E+00
         0.00000E+00
         0.00000E+00
         0.00000E+00
         0.00000E+00
         0.00000E+00
         0.00000E+00
         0.00000E+00
         0.00000E+00
         0.00000E+00
         0.00000E+00
         0.00000E+00
         0.00000E+00
         0.00000E+00
         0.00000E+00
         0.00000E+00
         0.00000E+00
         0.00000E+00
         0.00000E+00
         0.00000E+00
         0.00000E+00
         0.00000E+00
         0.00000E+00
         0.00000E+00
         0.00000E+00
         0.00000E+00
         0.00000E+00
         0.00000E+00
         0.00000E+00
         0.00000E+00
         0.00000E+00
         0.00000E+00
         0.00000E+00
         0.00000E+00
         0.00000E+00
         0.00000E+00
         0.00000E+00
         0.00000E+00
         0.00000E+00
         0.00000E+00
         0.00000E+00
         0.00000E+00
         0.00000E+00
         0.00000E+00
         0.00000E+00
         0.00000E+00
         0.00000E+00
         0.00000E+00
         0.00000E+00
         0.00000E+00
         0.00000E+00
         0.00000E+00
         0.00000E+00
         0.00000E+00
         0.00000E+00
         0.00000E+00
         0.00000E+00
         0.00000E+00
         0.00000E+00
         0.00000E+00
         0.00000E+00
         0.00000E+00
         0.00000E+00
         0.00000E+00
         0.00000E+00
         0.00000E+00
         0.00000E+00
         0.00000E+00
         0.00000E+00
         0.00000E+00
         0.00000E+00
         0.00000E+00
         0.00000E+00
         0.00000E+00
         0.00000E+00
         0.00000E+00
         0.00000E+00
         0.00000E+00
         0.00000E+00
         0.00000E+00
         0.00000E+00
         0.00000E+00
         0.00000E+00
         0.00000E+00
         0.00000E+00
         0.00000E+00
         0.00000E+00
         0.00000E+00
         0.00000E+00
         0.00000E+00
         0.00000E+00
         0.00000E+00
         0.00000E+00
         0.00000E+00
         0.00000E+00
         0.00000E+00
         0.00000E+00
         0.00000E+00
         0.00000E+00
         0.00000E+00
         0.00000E+00
         0.00000E+00
         0.00000E+00
         0.00000E+00
         0.00000E+00
         0.00000E+00
         0.00000E+00
         0.00000E+00
         0.00000E+00
         0.00000E+00
         0.00000E+00
         0.00000E+00
         0.00000E+00
         0.00000E+00
         0.00000E+00
         0.00000E+00
         0.00000E+00
         0.00000E+00
         0.00000E+00
         0.00000E+00
         0.00000E+00
         0.00000E+00
         0.00000E+00
         0.00000E+00
         0.00000E+00
         0.00000E+00
         0.00000E+00
         0.00000E+00
         0.00000E+00
         0.00000E+00
         0.00000E+00
         0.00000E+00
         0.00000E+00
         0.00000E+00
         0.00000E+00
         0.00000E+00
         0.00000E+00
         0.00000E+00
         0.00000E+00
         0.00000E+00
         0.00000E+00
         0.00000E+00
         0.00000E+00
         0.00000E+00
         0.00000E+00
         0.00000E+00
         0.00000E+00
         0.00000E+00
         0.00000E+00
         0.00000E+00
         0.00000E+00
         0.00000E+00
         0.00000E+00
         0.00000E+00
         0.00000E+00
         0.00000E+00
         0.00000E+00
         0.00000E+00
         0.00000E+00
         0.00000E+00
         0.00000E+00
         0.00000E+00
         0.00000E+00
         0.00000E+00
         0.00000E+00
         0.00000E+00
         0.00000E+00
         0.00000E+00
         0.00000E+00
         0.00000E+00
         0.00000E+00
         0.00000E+00
         0.00000E+00
         0.00000E+00
         0.00000E+00
         0.00000E+00
         0.00000E+00
         0.00000E+00
         0.00000E+00
         0.00000E+00
         0.00000E+00
         0.00000E+00
         0.00000E+00
         0.00000E+00
         0.00000E+00
         0.00000E+00
         0.00000E+00
         0.00000E+00
         0.00000E+00
         0.00000E+00
         0.00000E+00
         0.00000E+00
         0.00000E+00
         0.00000E+00
         0.00000E+00
         0.00000E+00
         0.00000E+00
         0.00000E+00
         0.00000E+00
         0.00000E+00
         0.00000E+00
         0.00000E+00
         0.00000E+00
         0.00000E+00
         0.00000E+00
         0.00000E+00
         0.00000E+00
         0.00000E+00
         0.00000E+00
         0.00000E+00
         0.00000E+00
         0.00000E+00
         0.00000E+00
         0.00000E+00
         0.00000E+00
         0.00000E+00
         0.00000E+00
         0.00000E+00
         0.00000E+00
         0.00000E+00
         0.00000E+00
         0.00000E+00
         0.00000E+00
         0.00000E+00
         0.00000E+00
         0.00000E+00
         0.00000E+00
         0.00000E+00
         0.00000E+00
         0.00000E+00
         0.00000E+00
         0.00000E+00
         0.00000E+00
         0.00000E+00
         0.00000E+00
         0.00000E+00
         0.00000E+00
         0.00000E+00
         0.00000E+00
         0.00000E+00
         0.00000E+00
         0.00000E+00
         0.00000E+00
         0.00000E+00
         0.00000E+00
         0.00000E+00
         0.00000E+00
         0.00000E+00
         0.00000E+00
         0.00000E+00
         0.00000E+00
         0.00000E+00
         0.00000E+00
         0.00000E+00
         0.00000E+00
         0.00000E+00
         0.00000E+00
         0.00000E+00
         0.00000E+00
         0.00000E+00
         0.00000E+00
         0.00000E+00
         0.00000E+00
         0.00000E+00
         0.00000E+00
         0.00000E+00
         0.00000E+00
         0.00000E+00
         0.00000E+00
         0.00000E+00
         0.00000E+00
         0.00000E+00
         0.00000E+00
         0.00000E+00
         0.00000E+00
         0.00000E+00
         0.00000E+00
         0.00000E+00
         0.00000E+00
         0.00000E+00
         0.00000E+00
         0.00000E+00
         0.00000E+00
         0.00000E+00
         0.00000E+00
         0.00000E+00
         0.00000E+00
         0.00000E+00
         0.00000E+00
         0.00000E+00
         0.00000E+00
         0.00000E+00
         0.00000E+00
         0.00000E+00
         0.00000E+00
         0.00000E+00
         0.00000E+00
         0.00000E+00
         0.00000E+00
         0.00000E+00
         0.00000E+00
         0.00000E+00
         0.00000E+00
         0.00000E+00
         0.00000E+00
         0.00000E+00
         0.00000E+00
         0.00000E+00
         0.00000E+00
         0.00000E+00
         0.00000E+00
         0.00000E+00
         0.00000E+00
         0.00000E+00
         0.00000E+00
         0.00000E+00
         0.00000E+00
         0.00000E+00
         0.00000E+00
         0.00000E+00
         0.00000E+00
         0.00000E+00
         0.00000E+00
         0.00000E+00
         0.00000E+00
         0.00000E+00
         0.00000E+00
         0.00000E+00
         0.00000E+00
         0.00000E+00
         0.00000E+00
         0.00000E+00
         0.00000E+00
         0.00000E+00
         0.00000E+00
         0.00000E+00
         0.00000E+00
         0.00000E+00
         0.00000E+00
         0.00000E+00
         0.00000E+00
         0.00000E+00
         0.00000E+00
         0.00000E+00
         0.00000E+00
         0.00000E+00
         0.00000E+00
         0.00000E+00
         0.00000E+00
         0.00000E+00
         0.00000E+00
         0.00000E+00
         0.00000E+00
         0.00000E+00
         0.00000E+00
         0.00000E+00
         0.00000E+00
         0.00000E+00
         0.00000E+00
         0.00000E+00
         0.00000E+00
         0.00000E+00
         0.00000E+00
         0.00000E+00
         0.00000E+00
         0.00000E+00
         0.00000E+00
         0.00000E+00
         0.00000E+00
         0.00000E+00
         0.00000E+00
         0.00000E+00
         0.00000E+00
         0.00000E+00
         0.00000E+00
         0.00000E+00
         0.00000E+00
         0.00000E+00
         0.00000E+00
         0.00000E+00
         0.00000E+00
         0.00000E+00
         0.00000E+00
         0.00000E+00
         0.00000E+00
         0.00000E+00
         0.00000E+00
         0.00000E+00
         0.00000E+00
         0.00000E+00
         0.00000E+00
         0.00000E+00
         0.00000E+00
         0.00000E+00
         0.00000E+00
         0.00000E+00
         0.00000E+00
         0.00000E+00
         0.00000E+00
         0.00000E+00
         0.00000E+00
         0.00000E+00
         0.00000E+00
         0.00000E+00
         0.00000E+00
         0.00000E+00
         0.00000E+00
         0.00000E+00
         0.00000E+00
         0.00000E+00
         0.00000E+00
         0.00000E+00
         0.00000E+00
         0.00000E+00
         0.00000E+00
         0.00000E+00
         0.00000E+00
         0.00000E+00
         0.00000E+00
         0.00000E+00
         0.00000E+00
         0.00000E+00
         0.00000E+00
         0.00000E+00
         0.00000E+00
         0.00000E+00
         0.00000E+00
         0.00000E+00
         0.00000E+00
         0.00000E+00
         0.00000E+00
         0.00000E+00
         0.00000E+00
         0.00000E+00
         0.00000E+00
         0.00000E+00
         0.00000E+00
         0.00000E+00
         0.00000E+00
         0.00000E+00
         0.00000E+00
         0.00000E+00
         0.00000E+00
         0.00000E+00
         0.00000E+00
         0.00000E+00
         0.00000E+00
         0.00000E+00
         0.00000E+00
         0.00000E+00
         0.00000E+00
         0.00000E+00
         0.00000E+00
         0.00000E+00
         0.00000E+00
         0.00000E+00
         0.00000E+00
         0.00000E+00
         0.00000E+00
         0.00000E+00
         0.00000E+00
         0.00000E+00
         0.00000E+00
         0.00000E+00
         0.00000E+00
         0.00000E+00
         0.00000E+00
         0.00000E+00
         0.00000E+00
         0.00000E+00
         0.00000E+00
         0.00000E+00
         0.00000E+00
         0.00000E+00
         0.00000E+00
         0.00000E+00
         0.00000E+00
         0.00000E+00
         0.00000E+00
         0.00000E+00
         0.00000E+00
         0.00000E+00
         0.00000E+00
         0.00000E+00
         0.00000E+00
         0.00000E+00
         0.00000E+00
         0.00000E+00
         0.00000E+00
         0.00000E+00
         0.00000E+00
         0.00000E+00
         0.00000E+00
         0.00000E+00
         0.00000E+00
         0.00000E+00
         0.00000E+00
         0.00000E+00
         0.00000E+00
         0.00000E+00
         0.00000E+00
         0.00000E+00
         0.00000E+00
         0.00000E+00
         0.00000E+00
         0.00000E+00
         0.00000E+00
         0.00000E+00
         0.00000E+00
         0.00000E+00
         0.00000E+00
         0.00000E+00
         0.00000E+00
         0.00000E+00
         0.00000E+00
         0.00000E+00
         0.00000E+00
         0.00000E+00
         0.00000E+00
         0.00000E+00
         0.00000E+00
         0.00000E+00
         0.00000E+00
         0.00000E+00
         0.00000E+00
         0.00000E+00
         0.00000E+00
         0.00000E+00
         0.00000E+00
         0.00000E+00
         0.00000E+00
         0.00000E+00
         0.00000E+00
         0.00000E+00
         0.00000E+00
         0.00000E+00
         0.00000E+00
         0.00000E+00
         0.00000E+00
         0.00000E+00
         0.00000E+00
         0.00000E+00
         0.00000E+00
         0.00000E+00
         0.00000E+00
         0.00000E+00
         0.00000E+00
         0.00000E+00
         0.00000E+00
         0.00000E+00
         0.00000E+00
         0.00000E+00
         0.00000E+00
         0.00000E+00
         0.00000E+00
         0.00000E+00
         0.00000E+00
         0.00000E+00
         0.00000E+00
         0.00000E+00
         0.00000E+00
         0.00000E+00
         0.00000E+00
         0.00000E+00
         0.00000E+00
         0.00000E+00
         0.00000E+00
         0.00000E+00
         0.00000E+00
         0.00000E+00
         0.00000E+00
         0.00000E+00
         0.00000E+00
         0.00000E+00
         0.00000E+00
         0.00000E+00
         0.00000E+00
         0.00000E+00
         0.00000E+00
         0.00000E+00
         0.00000E+00
         0.00000E+00
         0.00000E+00
         0.00000E+00
         0.00000E+00
         0.00000E+00
         0.00000E+00
         0.00000E+00
         0.00000E+00
         0.00000E+00
         0.00000E+00
         0.00000E+00
         0.00000E+00
         0.00000E+00
         0.00000E+00
         0.00000E+00
         0.00000E+00
         0.00000E+00
         0.00000E+00
         0.00000E+00
         0.00000E+00
         0.00000E+00
         0.00000E+00
         0.00000E+00
         0.00000E+00
         0.00000E+00
         0.00000E+00
         0.00000E+00
         0.00000E+00
         0.00000E+00
         0.00000E+00
         0.00000E+00
         0.00000E+00
         0.00000E+00
         0.00000E+00
         0.00000E+00
         0.00000E+00
  
SCALARS               pre_disp_force_y  double 1
LOOKUP_TABLE default
         0.00000E+00
         0.00000E+00
         0.00000E+00
         0.00000E+00
         0.00000E+00
         0.00000E+00
         0.00000E+00
         0.00000E+00
         0.00000E+00
         0.00000E+00
         0.00000E+00
         0.00000E+00
         0.00000E+00
         0.00000E+00
         0.00000E+00
         0.00000E+00
         0.00000E+00
         0.00000E+00
         0.00000E+00
         0.00000E+00
         0.00000E+00
         0.00000E+00
         0.00000E+00
         0.00000E+00
         0.00000E+00
         0.00000E+00
         0.00000E+00
         0.00000E+00
         0.00000E+00
         0.00000E+00
         0.00000E+00
         0.00000E+00
         0.00000E+00
         0.00000E+00
         0.00000E+00
         0.00000E+00
         0.00000E+00
         0.00000E+00
         0.00000E+00
         0.00000E+00
         0.00000E+00
         0.00000E+00
         0.00000E+00
         0.00000E+00
         0.00000E+00
         0.00000E+00
         0.00000E+00
         0.00000E+00
         0.00000E+00
         0.00000E+00
         0.00000E+00
         0.00000E+00
         0.00000E+00
         0.00000E+00
         0.00000E+00
         0.00000E+00
         0.00000E+00
         0.00000E+00
         0.00000E+00
         0.00000E+00
         0.00000E+00
         0.00000E+00
         0.00000E+00
         0.00000E+00
         0.00000E+00
         0.00000E+00
         0.00000E+00
         0.00000E+00
         0.00000E+00
         0.00000E+00
         0.00000E+00
         0.00000E+00
         0.00000E+00
         0.00000E+00
         0.00000E+00
         0.00000E+00
         0.00000E+00
         0.00000E+00
         0.00000E+00
         0.00000E+00
         0.00000E+00
         0.00000E+00
         0.00000E+00
         0.00000E+00
         0.00000E+00
         0.00000E+00
         0.00000E+00
         0.00000E+00
         0.00000E+00
         0.00000E+00
         0.00000E+00
         0.00000E+00
         0.00000E+00
         0.00000E+00
         0.00000E+00
         0.00000E+00
         0.00000E+00
         0.00000E+00
         0.00000E+00
         0.00000E+00
         0.00000E+00
         0.00000E+00
         0.00000E+00
         0.00000E+00
         0.00000E+00
         0.00000E+00
         0.00000E+00
         0.00000E+00
         0.00000E+00
         0.00000E+00
         0.00000E+00
         0.00000E+00
         0.00000E+00
         0.00000E+00
         0.00000E+00
         0.00000E+00
         0.00000E+00
         0.00000E+00
         0.00000E+00
         0.00000E+00
         0.00000E+00
         0.00000E+00
         0.00000E+00
         0.00000E+00
         0.00000E+00
         0.00000E+00
         0.00000E+00
         0.00000E+00
         0.00000E+00
         0.00000E+00
         0.00000E+00
         0.00000E+00
         0.00000E+00
         0.00000E+00
         0.00000E+00
         0.00000E+00
         0.00000E+00
         0.00000E+00
         0.00000E+00
         0.00000E+00
         0.00000E+00
         0.00000E+00
         0.00000E+00
         0.00000E+00
         0.00000E+00
         0.00000E+00
         0.00000E+00
         0.00000E+00
         0.00000E+00
         0.00000E+00
         0.00000E+00
         0.00000E+00
         0.00000E+00
         0.00000E+00
         0.00000E+00
         0.00000E+00
         0.00000E+00
         0.00000E+00
         0.00000E+00
         0.00000E+00
         0.00000E+00
         0.00000E+00
         0.00000E+00
         0.00000E+00
         0.00000E+00
         0.00000E+00
         0.00000E+00
         0.00000E+00
         0.00000E+00
         0.00000E+00
         0.00000E+00
         0.00000E+00
         0.00000E+00
         0.00000E+00
         0.00000E+00
         0.00000E+00
         0.00000E+00
         0.00000E+00
         0.00000E+00
         0.00000E+00
         0.00000E+00
         0.00000E+00
         0.00000E+00
         0.00000E+00
         0.00000E+00
         0.00000E+00
         0.00000E+00
         0.00000E+00
         0.00000E+00
         0.00000E+00
         0.00000E+00
         0.00000E+00
         0.00000E+00
         0.00000E+00
         0.00000E+00
         0.00000E+00
         0.00000E+00
         0.00000E+00
         0.00000E+00
         0.00000E+00
         0.00000E+00
         0.00000E+00
         0.00000E+00
         0.00000E+00
         0.00000E+00
         0.00000E+00
         0.00000E+00
         0.00000E+00
         0.00000E+00
         0.00000E+00
         0.00000E+00
         0.00000E+00
         0.00000E+00
         0.00000E+00
         0.00000E+00
         0.00000E+00
         0.00000E+00
         0.00000E+00
         0.00000E+00
         0.00000E+00
         0.00000E+00
         0.00000E+00
         0.00000E+00
         0.00000E+00
         0.00000E+00
         0.00000E+00
         0.00000E+00
         0.00000E+00
         0.00000E+00
         0.00000E+00
         0.00000E+00
         0.00000E+00
         0.00000E+00
         0.00000E+00
         0.00000E+00
         0.00000E+00
         0.00000E+00
         0.00000E+00
         0.00000E+00
         0.00000E+00
         0.00000E+00
         0.00000E+00
         0.00000E+00
         0.00000E+00
         0.00000E+00
         0.00000E+00
         0.00000E+00
         0.00000E+00
         0.00000E+00
         0.00000E+00
         0.00000E+00
         0.00000E+00
         0.00000E+00
         0.00000E+00
         0.00000E+00
         0.00000E+00
         0.00000E+00
         0.00000E+00
         0.00000E+00
         0.00000E+00
         0.00000E+00
         0.00000E+00
         0.00000E+00
         0.00000E+00
         0.00000E+00
         0.00000E+00
         0.00000E+00
         0.00000E+00
         0.00000E+00
         0.00000E+00
         0.00000E+00
         0.00000E+00
         0.00000E+00
         0.00000E+00
         0.00000E+00
         0.00000E+00
         0.00000E+00
         0.00000E+00
         0.00000E+00
         0.00000E+00
         0.00000E+00
         0.00000E+00
         0.00000E+00
         0.00000E+00
         0.00000E+00
         0.00000E+00
         0.00000E+00
         0.00000E+00
         0.00000E+00
         0.00000E+00
         0.00000E+00
         0.00000E+00
         0.00000E+00
         0.00000E+00
         0.00000E+00
         0.00000E+00
         0.00000E+00
         0.00000E+00
         0.00000E+00
         0.00000E+00
         0.00000E+00
         0.00000E+00
         0.00000E+00
         0.00000E+00
         0.00000E+00
         0.00000E+00
         0.00000E+00
         0.00000E+00
         0.00000E+00
         0.00000E+00
         0.00000E+00
         0.00000E+00
         0.00000E+00
         0.00000E+00
         0.00000E+00
         0.00000E+00
         0.00000E+00
         0.00000E+00
         0.00000E+00
         0.00000E+00
         0.00000E+00
         0.00000E+00
         0.00000E+00
         0.00000E+00
         0.00000E+00
         0.00000E+00
         0.00000E+00
         0.00000E+00
         0.00000E+00
         0.00000E+00
         0.00000E+00
         0.00000E+00
         0.00000E+00
         0.00000E+00
         0.00000E+00
         0.00000E+00
         0.00000E+00
         0.00000E+00
         0.00000E+00
         0.00000E+00
         0.00000E+00
         0.00000E+00
         0.00000E+00
         0.00000E+00
         0.00000E+00
         0.00000E+00
         0.00000E+00
         0.00000E+00
         0.00000E+00
         0.00000E+00
         0.00000E+00
         0.00000E+00
         0.00000E+00
         0.00000E+00
         0.00000E+00
         0.00000E+00
         0.00000E+00
         0.00000E+00
         0.00000E+00
         0.00000E+00
         0.00000E+00
         0.00000E+00
         0.00000E+00
         0.00000E+00
         0.00000E+00
         0.00000E+00
         0.00000E+00
         0.00000E+00
         0.00000E+00
         0.00000E+00
         0.00000E+00
         0.00000E+00
         0.00000E+00
         0.00000E+00
         0.00000E+00
         0.00000E+00
         0.00000E+00
         0.00000E+00
         0.00000E+00
         0.00000E+00
         0.00000E+00
         0.00000E+00
         0.00000E+00
         0.00000E+00
         0.00000E+00
         0.00000E+00
         0.00000E+00
         0.00000E+00
         0.00000E+00
         0.00000E+00
         0.00000E+00
         0.00000E+00
         0.00000E+00
         0.00000E+00
         0.00000E+00
         0.00000E+00
         0.00000E+00
         0.00000E+00
         0.00000E+00
         0.00000E+00
         0.00000E+00
         0.00000E+00
         0.00000E+00
         0.00000E+00
         0.00000E+00
         0.00000E+00
         0.00000E+00
         0.00000E+00
         0.00000E+00
         0.00000E+00
         0.00000E+00
         0.00000E+00
         0.00000E+00
         0.00000E+00
         0.00000E+00
         0.00000E+00
         0.00000E+00
         0.00000E+00
         0.00000E+00
         0.00000E+00
         0.00000E+00
         0.00000E+00
         0.00000E+00
         0.00000E+00
         0.00000E+00
         0.00000E+00
         0.00000E+00
         0.00000E+00
         0.00000E+00
         0.00000E+00
         0.00000E+00
         0.00000E+00
         0.00000E+00
         0.00000E+00
         0.00000E+00
         0.00000E+00
         0.00000E+00
         0.00000E+00
         0.00000E+00
         0.00000E+00
         0.00000E+00
         0.00000E+00
         0.00000E+00
         0.00000E+00
         0.00000E+00
         0.00000E+00
         0.00000E+00
         0.00000E+00
         0.00000E+00
         0.00000E+00
         0.00000E+00
         0.00000E+00
         0.00000E+00
         0.00000E+00
         0.00000E+00
         0.00000E+00
         0.00000E+00
         0.00000E+00
         0.00000E+00
         0.00000E+00
         0.00000E+00
         0.00000E+00
         0.00000E+00
         0.00000E+00
         0.00000E+00
         0.00000E+00
         0.00000E+00
         0.00000E+00
         0.00000E+00
         0.00000E+00
         0.00000E+00
         0.00000E+00
         0.00000E+00
         0.00000E+00
         0.00000E+00
         0.00000E+00
         0.00000E+00
         0.00000E+00
         0.00000E+00
         0.00000E+00
         0.00000E+00
         0.00000E+00
         0.00000E+00
         0.00000E+00
         0.00000E+00
         0.00000E+00
         0.00000E+00
         0.00000E+00
         0.00000E+00
         0.00000E+00
         0.00000E+00
         0.00000E+00
         0.00000E+00
         0.00000E+00
         0.00000E+00
         0.00000E+00
         0.00000E+00
         0.00000E+00
         0.00000E+00
         0.00000E+00
         0.00000E+00
         0.00000E+00
         0.00000E+00
         0.00000E+00
         0.00000E+00
         0.00000E+00
         0.00000E+00
         0.00000E+00
         0.00000E+00
         0.00000E+00
         0.00000E+00
         0.00000E+00
         0.00000E+00
         0.00000E+00
         0.00000E+00
         0.00000E+00
         0.00000E+00
         0.00000E+00
         0.00000E+00
         0.00000E+00
         0.00000E+00
         0.00000E+00
         0.00000E+00
         0.00000E+00
         0.00000E+00
         0.00000E+00
         0.00000E+00
         0.00000E+00
         0.00000E+00
         0.00000E+00
         0.00000E+00
         0.00000E+00
         0.00000E+00
         0.00000E+00
         0.00000E+00
         0.00000E+00
         0.00000E+00
         0.00000E+00
         0.00000E+00
         0.00000E+00
         0.00000E+00
         0.00000E+00
         0.00000E+00
         0.00000E+00
         0.00000E+00
         0.00000E+00
         0.00000E+00
         0.00000E+00
         0.00000E+00
         0.00000E+00
         0.00000E+00
         0.00000E+00
         0.00000E+00
         0.00000E+00
         0.00000E+00
         0.00000E+00
         0.00000E+00
         0.00000E+00
         0.00000E+00
         0.00000E+00
         0.00000E+00
         0.00000E+00
         0.00000E+00
         0.00000E+00
         0.00000E+00
         0.00000E+00
         0.00000E+00
         0.00000E+00
         0.00000E+00
         0.00000E+00
         0.00000E+00
         0.00000E+00
         0.00000E+00
         0.00000E+00
         0.00000E+00
         0.00000E+00
         0.00000E+00
         0.00000E+00
         0.00000E+00
         0.00000E+00
         0.00000E+00
         0.00000E+00
         0.00000E+00
         0.00000E+00
         0.00000E+00
         0.00000E+00
         0.00000E+00
         0.00000E+00
         0.00000E+00
         0.00000E+00
         0.00000E+00
         0.00000E+00
         0.00000E+00
         0.00000E+00
         0.00000E+00
         0.00000E+00
         0.00000E+00
         0.00000E+00
         0.00000E+00
         0.00000E+00
         0.00000E+00
         0.00000E+00
         0.00000E+00
         0.00000E+00
         0.00000E+00
         0.00000E+00
         0.00000E+00
         0.00000E+00
         0.00000E+00
         0.00000E+00
         0.00000E+00
         0.00000E+00
         0.00000E+00
         0.00000E+00
         0.00000E+00
         0.00000E+00
         0.00000E+00
         0.00000E+00
         0.00000E+00
         0.00000E+00
         0.00000E+00
         0.00000E+00
         0.00000E+00
         0.00000E+00
         0.00000E+00
         0.00000E+00
         0.00000E+00
         0.00000E+00
         0.00000E+00
         0.00000E+00
         0.00000E+00
         0.00000E+00
         0.00000E+00
         0.00000E+00
         0.00000E+00
         0.00000E+00
         0.00000E+00
         0.00000E+00
         0.00000E+00
         0.00000E+00
         0.00000E+00
         0.00000E+00
         0.00000E+00
         0.00000E+00
         0.00000E+00
         0.00000E+00
         0.00000E+00
         0.00000E+00
         0.00000E+00
         0.00000E+00
         0.00000E+00
         0.00000E+00
         0.00000E+00
         0.00000E+00
         0.00000E+00
         0.00000E+00
         0.00000E+00
         0.00000E+00
         0.00000E+00
         0.00000E+00
         0.00000E+00
         0.00000E+00
         0.00000E+00
         0.00000E+00
         0.00000E+00
         0.00000E+00
         0.00000E+00
         0.00000E+00
         0.00000E+00
         0.00000E+00
         0.00000E+00
         0.00000E+00
         0.00000E+00
         0.00000E+00
         0.00000E+00
         0.00000E+00
         0.00000E+00
         0.00000E+00
         0.00000E+00
         0.00000E+00
         0.00000E+00
         0.00000E+00
         0.00000E+00
         0.00000E+00
         0.00000E+00
         0.00000E+00
         0.00000E+00
         0.00000E+00
         0.00000E+00
         0.00000E+00
         0.00000E+00
         0.00000E+00
         0.00000E+00
         0.00000E+00
         0.00000E+00
         0.00000E+00
         0.00000E+00
         0.00000E+00
         0.00000E+00
         0.00000E+00
         0.00000E+00
         0.00000E+00
         0.00000E+00
         0.00000E+00
         0.00000E+00
         0.00000E+00
         0.00000E+00
         0.00000E+00
         0.00000E+00
         0.00000E+00
         0.00000E+00
         0.00000E+00
         0.00000E+00
         0.00000E+00
         0.00000E+00
         0.00000E+00
         0.00000E+00
         0.00000E+00
         0.00000E+00
         0.00000E+00
         0.00000E+00
         0.00000E+00
         0.00000E+00
         0.00000E+00
         0.00000E+00
         0.00000E+00
         0.00000E+00
         0.00000E+00
         0.00000E+00
         0.00000E+00
         0.00000E+00
         0.00000E+00
         0.00000E+00
         0.00000E+00
         0.00000E+00
         0.00000E+00
         0.00000E+00
         0.00000E+00
         0.00000E+00
         0.00000E+00
         0.00000E+00
         0.00000E+00
         0.00000E+00
         0.00000E+00
         0.00000E+00
         0.00000E+00
         0.00000E+00
         0.00000E+00
         0.00000E+00
         0.00000E+00
         0.00000E+00
         0.00000E+00
         0.00000E+00
         0.00000E+00
         0.00000E+00
         0.00000E+00
         0.00000E+00
         0.00000E+00
         0.00000E+00
         0.00000E+00
         0.00000E+00
         0.00000E+00
         0.00000E+00
         0.00000E+00
         0.00000E+00
         0.00000E+00
         0.00000E+00
         0.00000E+00
         0.00000E+00
         0.00000E+00
         0.00000E+00
         0.00000E+00
         0.00000E+00
         0.00000E+00
         0.00000E+00
         0.00000E+00
         0.00000E+00
         0.00000E+00
         0.00000E+00
         0.00000E+00
         0.00000E+00
         0.00000E+00
         0.00000E+00
         0.00000E+00
         0.00000E+00
         0.00000E+00
         0.00000E+00
         0.00000E+00
         0.00000E+00
         0.00000E+00
         0.00000E+00
         0.00000E+00
         0.00000E+00
         0.00000E+00
         0.00000E+00
         0.00000E+00
         0.00000E+00
         0.00000E+00
         0.00000E+00
         0.00000E+00
         0.00000E+00
         0.00000E+00
         0.00000E+00
         0.00000E+00
         0.00000E+00
         0.00000E+00
         0.00000E+00
         0.00000E+00
         0.00000E+00
         0.00000E+00
         0.00000E+00
         0.00000E+00
         0.00000E+00
         0.00000E+00
         0.00000E+00
         0.00000E+00
         0.00000E+00
         0.00000E+00
         0.00000E+00
         0.00000E+00
         0.00000E+00
         0.00000E+00
         0.00000E+00
         0.00000E+00
         0.00000E+00
         0.00000E+00
         0.00000E+00
         0.00000E+00
         0.00000E+00
         0.00000E+00
         0.00000E+00
         0.00000E+00
         0.00000E+00
         0.00000E+00
         0.00000E+00
         0.00000E+00
         0.00000E+00
         0.00000E+00
         0.00000E+00
         0.00000E+00
         0.00000E+00
         0.00000E+00
         0.00000E+00
         0.00000E+00
         0.00000E+00
         0.00000E+00
         0.00000E+00
         0.00000E+00
         0.00000E+00
         0.00000E+00
         0.00000E+00
         0.00000E+00
         0.00000E+00
         0.00000E+00
         0.00000E+00
         0.00000E+00
         0.00000E+00
         0.00000E+00
         0.00000E+00
         0.00000E+00
         0.00000E+00
         0.00000E+00
         0.00000E+00
         0.00000E+00
         0.00000E+00
         0.00000E+00
         0.00000E+00
         0.00000E+00
         0.00000E+00
         0.00000E+00
         0.00000E+00
         0.00000E+00
         0.00000E+00
         0.00000E+00
         0.00000E+00
         0.00000E+00
         0.00000E+00
         0.00000E+00
         0.00000E+00
         0.00000E+00
         0.00000E+00
         0.00000E+00
         0.00000E+00
         0.00000E+00
         0.00000E+00
         0.00000E+00
         0.00000E+00
         0.00000E+00
         0.00000E+00
         0.00000E+00
         0.00000E+00
         0.00000E+00
         0.00000E+00
         0.00000E+00
         0.00000E+00
         0.00000E+00
         0.00000E+00
         0.00000E+00
         0.00000E+00
         0.00000E+00
         0.00000E+00
         0.00000E+00
         0.00000E+00
         0.00000E+00
         0.00000E+00
         0.00000E+00
         0.00000E+00
         0.00000E+00
         0.00000E+00
         0.00000E+00
         0.00000E+00
         0.00000E+00
         0.00000E+00
         0.00000E+00
         0.00000E+00
         0.00000E+00
         0.00000E+00
         0.00000E+00
         0.00000E+00
         0.00000E+00
         0.00000E+00
         0.00000E+00
         0.00000E+00
         0.00000E+00
         0.00000E+00
         0.00000E+00
         0.00000E+00
         0.00000E+00
         0.00000E+00
         0.00000E+00
         0.00000E+00
         0.00000E+00
         0.00000E+00
         0.00000E+00
         0.00000E+00
         0.00000E+00
         0.00000E+00
         0.00000E+00
         0.00000E+00
         0.00000E+00
         0.00000E+00
         0.00000E+00
         0.00000E+00
         0.00000E+00
         0.00000E+00
         0.00000E+00
         0.00000E+00
         0.00000E+00
         0.00000E+00
         0.00000E+00
         0.00000E+00
         0.00000E+00
         0.00000E+00
         0.00000E+00
         0.00000E+00
         0.00000E+00
         0.00000E+00
         0.00000E+00
         0.00000E+00
         0.00000E+00
         0.00000E+00
         0.00000E+00
         0.00000E+00
         0.00000E+00
         0.00000E+00
         0.00000E+00
         0.00000E+00
         0.00000E+00
         0.00000E+00
         0.00000E+00
         0.00000E+00
         0.00000E+00
         0.00000E+00
         0.00000E+00
         0.00000E+00
         0.00000E+00
         0.00000E+00
         0.00000E+00
         0.00000E+00
         0.00000E+00
         0.00000E+00
         0.00000E+00
         0.00000E+00
         0.00000E+00
         0.00000E+00
         0.00000E+00
         0.00000E+00
         0.00000E+00
         0.00000E+00
         0.00000E+00
         0.00000E+00
         0.00000E+00
         0.00000E+00
         0.00000E+00
         0.00000E+00
         0.00000E+00
         0.00000E+00
         0.00000E+00
         0.00000E+00
         0.00000E+00
         0.00000E+00
         0.00000E+00
         0.00000E+00
         0.00000E+00
         0.00000E+00
         0.00000E+00
         0.00000E+00
         0.00000E+00
         0.00000E+00
         0.00000E+00
         0.00000E+00
         0.00000E+00
         0.00000E+00
         0.00000E+00
         0.00000E+00
         0.00000E+00
         0.00000E+00
         0.00000E+00
         0.00000E+00
         0.00000E+00
         0.00000E+00
         0.00000E+00
         0.00000E+00
         0.00000E+00
         0.00000E+00
         0.00000E+00
         0.00000E+00
         0.00000E+00
         0.00000E+00
         0.00000E+00
         0.00000E+00
         0.00000E+00
         0.00000E+00
         0.00000E+00
         0.00000E+00
         0.00000E+00
         0.00000E+00
         0.00000E+00
         0.00000E+00
         0.00000E+00
         0.00000E+00
         0.00000E+00
         0.00000E+00
         0.00000E+00
         0.00000E+00
         0.00000E+00
         0.00000E+00
         0.00000E+00
         0.00000E+00
         0.00000E+00
         0.00000E+00
         0.00000E+00
         0.00000E+00
         0.00000E+00
         0.00000E+00
         0.00000E+00
         0.00000E+00
         0.00000E+00
         0.00000E+00
         0.00000E+00
         0.00000E+00
         0.00000E+00
         0.00000E+00
         0.00000E+00
         0.00000E+00
         0.00000E+00
         0.00000E+00
         0.00000E+00
         0.00000E+00
         0.00000E+00
         0.00000E+00
         0.00000E+00
         0.00000E+00
         0.00000E+00
         0.00000E+00
         0.00000E+00
         0.00000E+00
         0.00000E+00
         0.00000E+00
         0.00000E+00
         0.00000E+00
         0.00000E+00
         0.00000E+00
         0.00000E+00
         0.00000E+00
         0.00000E+00
         0.00000E+00
         0.00000E+00
         0.00000E+00
         0.00000E+00
         0.00000E+00
         0.00000E+00
         0.00000E+00
         0.00000E+00
         0.00000E+00
         0.00000E+00
         0.00000E+00
         0.00000E+00
         0.00000E+00
         0.00000E+00
         0.00000E+00
         0.00000E+00
         0.00000E+00
         0.00000E+00
         0.00000E+00
         0.00000E+00
         0.00000E+00
         0.00000E+00
         0.00000E+00
         0.00000E+00
         0.00000E+00
         0.00000E+00
         0.00000E+00
         0.00000E+00
         0.00000E+00
         0.00000E+00
         0.00000E+00
         0.00000E+00
         0.00000E+00
         0.00000E+00
         0.00000E+00
         0.00000E+00
         0.00000E+00
         0.00000E+00
         0.00000E+00
         0.00000E+00
         0.00000E+00
         0.00000E+00
         0.00000E+00
         0.00000E+00
         0.00000E+00
         0.00000E+00
         0.00000E+00
         0.00000E+00
         0.00000E+00
         0.00000E+00
         0.00000E+00
         0.00000E+00
         0.00000E+00
         0.00000E+00
         0.00000E+00
         0.00000E+00
         0.00000E+00
         0.00000E+00
         0.00000E+00
         0.00000E+00
         0.00000E+00
         0.00000E+00
         0.00000E+00
         0.00000E+00
         0.00000E+00
         0.00000E+00
         0.00000E+00
         0.00000E+00
         0.00000E+00
         0.00000E+00
         0.00000E+00
         0.00000E+00
         0.00000E+00
         0.00000E+00
         0.00000E+00
         0.00000E+00
         0.00000E+00
         0.00000E+00
         0.00000E+00
         0.00000E+00
         0.00000E+00
         0.00000E+00
         0.00000E+00
         0.00000E+00
         0.00000E+00
         0.00000E+00
         0.00000E+00
         0.00000E+00
         0.00000E+00
         0.00000E+00
         0.00000E+00
         0.00000E+00
         0.00000E+00
         0.00000E+00
         0.00000E+00
         0.00000E+00
         0.00000E+00
         0.00000E+00
         0.00000E+00
         0.00000E+00
         0.00000E+00
         0.00000E+00
         0.00000E+00
         0.00000E+00
         0.00000E+00
         0.00000E+00
         0.00000E+00
         0.00000E+00
         0.00000E+00
         0.00000E+00
         0.00000E+00
         0.00000E+00
         0.00000E+00
         0.00000E+00
         0.00000E+00
         0.00000E+00
         0.00000E+00
         0.00000E+00
         0.00000E+00
         0.00000E+00
         0.00000E+00
         0.00000E+00
         0.00000E+00
         0.00000E+00
         0.00000E+00
         0.00000E+00
         0.00000E+00
         0.00000E+00
         0.00000E+00
         0.00000E+00
         0.00000E+00
         0.00000E+00
         0.00000E+00
         0.00000E+00
         0.00000E+00
         0.00000E+00
         0.00000E+00
         0.00000E+00
         0.00000E+00
         0.00000E+00
         0.00000E+00
         0.00000E+00
         0.00000E+00
         0.00000E+00
         0.00000E+00
         0.00000E+00
         0.00000E+00
         0.00000E+00
         0.00000E+00
         0.00000E+00
         0.00000E+00
         0.00000E+00
         0.00000E+00
         0.00000E+00
         0.00000E+00
         0.00000E+00
         0.00000E+00
         0.00000E+00
         0.00000E+00
         0.00000E+00
         0.00000E+00
         0.00000E+00
         0.00000E+00
         0.00000E+00
         0.00000E+00
         0.00000E+00
         0.00000E+00
         0.00000E+00
         0.00000E+00
         0.00000E+00
         0.00000E+00
         0.00000E+00
         0.00000E+00
         0.00000E+00
         0.00000E+00
         0.00000E+00
         0.00000E+00
         0.00000E+00
         0.00000E+00
         0.00000E+00
         0.00000E+00
         0.00000E+00
         0.00000E+00
         0.00000E+00
         0.00000E+00
         0.00000E+00
         0.00000E+00
         0.00000E+00
         0.00000E+00
         0.00000E+00
         0.00000E+00
         0.00000E+00
         0.00000E+00
         0.00000E+00
         0.00000E+00
         0.00000E+00
         0.00000E+00
         0.00000E+00
         0.00000E+00
         0.00000E+00
         0.00000E+00
         0.00000E+00
         0.00000E+00
         0.00000E+00
         0.00000E+00
         0.00000E+00
         0.00000E+00
         0.00000E+00
         0.00000E+00
         0.00000E+00
         0.00000E+00
         0.00000E+00
         0.00000E+00
         0.00000E+00
         0.00000E+00
         0.00000E+00
         0.00000E+00
         0.00000E+00
         0.00000E+00
         0.00000E+00
         0.00000E+00
         0.00000E+00
         0.00000E+00
         0.00000E+00
         0.00000E+00
         0.00000E+00
         0.00000E+00
         0.00000E+00
         0.00000E+00
         0.00000E+00
         0.00000E+00
         0.00000E+00
         0.00000E+00
         0.00000E+00
         0.00000E+00
         0.00000E+00
         0.00000E+00
         0.00000E+00
         0.00000E+00
         0.00000E+00
         0.00000E+00
         0.00000E+00
         0.00000E+00
         0.00000E+00
         0.00000E+00
         0.00000E+00
         0.00000E+00
         0.00000E+00
         0.00000E+00
         0.00000E+00
         0.00000E+00
         0.00000E+00
         0.00000E+00
         0.00000E+00
         0.00000E+00
         0.00000E+00
         0.00000E+00
         0.00000E+00
         0.00000E+00
         0.00000E+00
         0.00000E+00
         0.00000E+00
         0.00000E+00
         0.00000E+00
         0.00000E+00
         0.00000E+00
         0.00000E+00
         0.00000E+00
         0.00000E+00
         0.00000E+00
         0.00000E+00
         0.00000E+00
         0.00000E+00
         0.00000E+00
         0.00000E+00
         0.00000E+00
         0.00000E+00
         0.00000E+00
         0.00000E+00
         0.00000E+00
         0.00000E+00
         0.00000E+00
         0.00000E+00
         0.00000E+00
         0.00000E+00
         0.00000E+00
         0.00000E+00
         0.00000E+00
         0.00000E+00
         0.00000E+00
         0.00000E+00
         0.00000E+00
         0.00000E+00
         0.00000E+00
         0.00000E+00
         0.00000E+00
         0.00000E+00
         0.00000E+00
         0.00000E+00
         0.00000E+00
         0.00000E+00
         0.00000E+00
         0.00000E+00
         0.00000E+00
         0.00000E+00
         0.00000E+00
         0.00000E+00
         0.00000E+00
         0.00000E+00
         0.00000E+00
         0.00000E+00
         0.00000E+00
         0.00000E+00
         0.00000E+00
         0.00000E+00
         0.00000E+00
         0.00000E+00
         0.00000E+00
         0.00000E+00
         0.00000E+00
         0.00000E+00
         0.00000E+00
         0.00000E+00
         0.00000E+00
         0.00000E+00
         0.00000E+00
         0.00000E+00
         0.00000E+00
         0.00000E+00
         0.00000E+00
         0.00000E+00
         0.00000E+00
         0.00000E+00
         0.00000E+00
         0.00000E+00
         0.00000E+00
         0.00000E+00
         0.00000E+00
         0.00000E+00
         0.00000E+00
         0.00000E+00
         0.00000E+00
         0.00000E+00
         0.00000E+00
         0.00000E+00
         0.00000E+00
         0.00000E+00
         0.00000E+00
         0.00000E+00
         0.00000E+00
         0.00000E+00
         0.00000E+00
         0.00000E+00
         0.00000E+00
         0.00000E+00
         0.00000E+00
         0.00000E+00
         0.00000E+00
         0.00000E+00
         0.00000E+00
         0.00000E+00
         0.00000E+00
         0.00000E+00
         0.00000E+00
         0.00000E+00
         0.00000E+00
         0.00000E+00
         0.00000E+00
         0.00000E+00
         0.00000E+00
         0.00000E+00
         0.00000E+00
         0.00000E+00
         0.00000E+00
         0.00000E+00
         0.00000E+00
         0.00000E+00
         0.00000E+00
         0.00000E+00
         0.00000E+00
         0.00000E+00
         0.00000E+00
         0.00000E+00
         0.00000E+00
         0.00000E+00
         0.00000E+00
         0.00000E+00
         0.00000E+00
         0.00000E+00
         0.00000E+00
         0.00000E+00
         0.00000E+00
         0.00000E+00
         0.00000E+00
         0.00000E+00
         0.00000E+00
         0.00000E+00
         0.00000E+00
         0.00000E+00
         0.00000E+00
         0.00000E+00
         0.00000E+00
         0.00000E+00
         0.00000E+00
         0.00000E+00
         0.00000E+00
         0.00000E+00
         0.00000E+00
         0.00000E+00
         0.00000E+00
         0.00000E+00
         0.00000E+00
         0.00000E+00
         0.00000E+00
         0.00000E+00
         0.00000E+00
         0.00000E+00
         0.00000E+00
         0.00000E+00
         0.00000E+00
         0.00000E+00
         0.00000E+00
         0.00000E+00
         0.00000E+00
         0.00000E+00
         0.00000E+00
         0.00000E+00
         0.00000E+00
         0.00000E+00
         0.00000E+00
         0.00000E+00
         0.00000E+00
         0.00000E+00
         0.00000E+00
         0.00000E+00
         0.00000E+00
         0.00000E+00
         0.00000E+00
         0.00000E+00
         0.00000E+00
         0.00000E+00
         0.00000E+00
         0.00000E+00
         0.00000E+00
         0.00000E+00
         0.00000E+00
         0.00000E+00
         0.00000E+00
         0.00000E+00
         0.00000E+00
         0.00000E+00
         0.00000E+00
         0.00000E+00
         0.00000E+00
         0.00000E+00
         0.00000E+00
         0.00000E+00
         0.00000E+00
         0.00000E+00
         0.00000E+00
         0.00000E+00
         0.00000E+00
         0.00000E+00
         0.00000E+00
         0.00000E+00
         0.00000E+00
         0.00000E+00
         0.00000E+00
         0.00000E+00
         0.00000E+00
         0.00000E+00
         0.00000E+00
         0.00000E+00
         0.00000E+00
         0.00000E+00
         0.00000E+00
         0.00000E+00
         0.00000E+00
         0.00000E+00
         0.00000E+00
         0.00000E+00
         0.00000E+00
         0.00000E+00
         0.00000E+00
         0.00000E+00
         0.00000E+00
         0.00000E+00
         0.00000E+00
         0.00000E+00
         0.00000E+00
         0.00000E+00
         0.00000E+00
         0.00000E+00
         0.00000E+00
         0.00000E+00
         0.00000E+00
         0.00000E+00
         0.00000E+00
         0.00000E+00
         0.00000E+00
         0.00000E+00
         0.00000E+00
         0.00000E+00
         0.00000E+00
         0.00000E+00
         0.00000E+00
         0.00000E+00
         0.00000E+00
         0.00000E+00
         0.00000E+00
         0.00000E+00
         0.00000E+00
         0.00000E+00
         0.00000E+00
         0.00000E+00
         0.00000E+00
         0.00000E+00
         0.00000E+00
         0.00000E+00
         0.00000E+00
         0.00000E+00
         0.00000E+00
         0.00000E+00
         0.00000E+00
         0.00000E+00
         0.00000E+00
         0.00000E+00
         0.00000E+00
         0.00000E+00
         0.00000E+00
         0.00000E+00
         0.00000E+00
         0.00000E+00
         0.00000E+00
         0.00000E+00
         0.00000E+00
         0.00000E+00
         0.00000E+00
         0.00000E+00
         0.00000E+00
         0.00000E+00
         0.00000E+00
         0.00000E+00
         0.00000E+00
         0.00000E+00
         0.00000E+00
         0.00000E+00
         0.00000E+00
         0.00000E+00
         0.00000E+00
         0.00000E+00
         0.00000E+00
         0.00000E+00
         0.00000E+00
         0.00000E+00
         0.00000E+00
         0.00000E+00
         0.00000E+00
         0.00000E+00
         0.00000E+00
         0.00000E+00
         0.00000E+00
         0.00000E+00
         0.00000E+00
         0.00000E+00
         0.00000E+00
         0.00000E+00
         0.00000E+00
         0.00000E+00
         0.00000E+00
         0.00000E+00
         0.00000E+00
         0.00000E+00
         0.00000E+00
         0.00000E+00
         0.00000E+00
         0.00000E+00
         0.00000E+00
         0.00000E+00
         0.00000E+00
         0.00000E+00
         0.00000E+00
         0.00000E+00
         0.00000E+00
         0.00000E+00
         0.00000E+00
         0.00000E+00
         0.00000E+00
         0.00000E+00
         0.00000E+00
         0.00000E+00
         0.00000E+00
         0.00000E+00
         0.00000E+00
         0.00000E+00
         0.00000E+00
         0.00000E+00
         0.00000E+00
         0.00000E+00
         0.00000E+00
         0.00000E+00
         0.00000E+00
         0.00000E+00
         0.00000E+00
         0.00000E+00
         0.00000E+00
         0.00000E+00
         0.00000E+00
         0.00000E+00
         0.00000E+00
         0.00000E+00
         0.00000E+00
         0.00000E+00
         0.00000E+00
         0.00000E+00
         0.00000E+00
         0.00000E+00
         0.00000E+00
         0.00000E+00
         0.00000E+00
         0.00000E+00
         0.00000E+00
         0.00000E+00
         0.00000E+00
         0.00000E+00
         0.00000E+00
         0.00000E+00
         0.00000E+00
         0.00000E+00
         0.00000E+00
         0.00000E+00
         0.00000E+00
         0.00000E+00
         0.00000E+00
         0.00000E+00
         0.00000E+00
         0.00000E+00
         0.00000E+00
         0.00000E+00
         0.00000E+00
         0.00000E+00
         0.00000E+00
         0.00000E+00
         0.00000E+00
         0.00000E+00
         0.00000E+00
         0.00000E+00
         0.00000E+00
         0.00000E+00
         0.00000E+00
         0.00000E+00
         0.00000E+00
         0.00000E+00
         0.00000E+00
         0.00000E+00
         0.00000E+00
         0.00000E+00
         0.00000E+00
         0.00000E+00
         0.00000E+00
         0.00000E+00
         0.00000E+00
         0.00000E+00
         0.00000E+00
         0.00000E+00
         0.00000E+00
         0.00000E+00
         0.00000E+00
         0.00000E+00
         0.00000E+00
         0.00000E+00
         0.00000E+00
         0.00000E+00
         0.00000E+00
         0.00000E+00
         0.00000E+00
         0.00000E+00
         0.00000E+00
         0.00000E+00
         0.00000E+00
         0.00000E+00
         0.00000E+00
         0.00000E+00
         0.00000E+00
         0.00000E+00
         0.00000E+00
         0.00000E+00
         0.00000E+00
         0.00000E+00
         0.00000E+00
         0.00000E+00
         0.00000E+00
         0.00000E+00
         0.00000E+00
         0.00000E+00
         0.00000E+00
         0.00000E+00
         0.00000E+00
         0.00000E+00
         0.00000E+00
         0.00000E+00
         0.00000E+00
         0.00000E+00
         0.00000E+00
         0.00000E+00
         0.00000E+00
         0.00000E+00
         0.00000E+00
         0.00000E+00
         0.00000E+00
         0.00000E+00
         0.00000E+00
         0.00000E+00
         0.00000E+00
         0.00000E+00
         0.00000E+00
         0.00000E+00
         0.00000E+00
         0.00000E+00
         0.00000E+00
         0.00000E+00
         0.00000E+00
         0.00000E+00
         0.00000E+00
         0.00000E+00
         0.00000E+00
         0.00000E+00
         0.00000E+00
         0.00000E+00
         0.00000E+00
         0.00000E+00
         0.00000E+00
         0.00000E+00
         0.00000E+00
         0.00000E+00
         0.00000E+00
         0.00000E+00
         0.00000E+00
         0.00000E+00
         0.00000E+00
         0.00000E+00
         0.00000E+00
         0.00000E+00
         0.00000E+00
         0.00000E+00
         0.00000E+00
         0.00000E+00
         0.00000E+00
         0.00000E+00
         0.00000E+00
         0.00000E+00
         0.00000E+00
         0.00000E+00
         0.00000E+00
         0.00000E+00
         0.00000E+00
         0.00000E+00
         0.00000E+00
         0.00000E+00
         0.00000E+00
         0.00000E+00
         0.00000E+00
         0.00000E+00
         0.00000E+00
         0.00000E+00
         0.00000E+00
         0.00000E+00
         0.00000E+00
         0.00000E+00
         0.00000E+00
         0.00000E+00
         0.00000E+00
         0.00000E+00
         0.00000E+00
         0.00000E+00
         0.00000E+00
         0.00000E+00
         0.00000E+00
         0.00000E+00
         0.00000E+00
         0.00000E+00
         0.00000E+00
         0.00000E+00
         0.00000E+00
         0.00000E+00
         0.00000E+00
         0.00000E+00
         0.00000E+00
         0.00000E+00
         0.00000E+00
         0.00000E+00
         0.00000E+00
         0.00000E+00
         0.00000E+00
         0.00000E+00
         0.00000E+00
         0.00000E+00
         0.00000E+00
         0.00000E+00
         0.00000E+00
         0.00000E+00
         0.00000E+00
         0.00000E+00
         0.00000E+00
         0.00000E+00
         0.00000E+00
         0.00000E+00
         0.00000E+00
         0.00000E+00
         0.00000E+00
         0.00000E+00
         0.00000E+00
         0.00000E+00
         0.00000E+00
         0.00000E+00
         0.00000E+00
         0.00000E+00
         0.00000E+00
         0.00000E+00
         0.00000E+00
         0.00000E+00
         0.00000E+00
         0.00000E+00
         0.00000E+00
         0.00000E+00
         0.00000E+00
         0.00000E+00
         0.00000E+00
         0.00000E+00
         0.00000E+00
         0.00000E+00
         0.00000E+00
         0.00000E+00
         0.00000E+00
         0.00000E+00
         0.00000E+00
         0.00000E+00
         0.00000E+00
         0.00000E+00
         0.00000E+00
         0.00000E+00
         0.00000E+00
         0.00000E+00
         0.00000E+00
         0.00000E+00
         0.00000E+00
         0.00000E+00
         0.00000E+00
         0.00000E+00
         0.00000E+00
         0.00000E+00
         0.00000E+00
         0.00000E+00
         0.00000E+00
         0.00000E+00
         0.00000E+00
         0.00000E+00
         0.00000E+00
         0.00000E+00
         0.00000E+00
         0.00000E+00
         0.00000E+00
         0.00000E+00
         0.00000E+00
  
SCALARS               pre_disp_force_z  double 1
LOOKUP_TABLE default
         0.00000E+00
         0.00000E+00
         0.00000E+00
         0.00000E+00
        -0.00000E+00
        -0.00000E+00
        -0.00000E+00
        -0.00000E+00
         0.00000E+00
         0.00000E+00
        -0.00000E+00
        -0.00000E+00
         0.00000E+00
         0.00000E+00
        -0.00000E+00
        -0.00000E+00
         0.00000E+00
         0.00000E+00
        -0.00000E+00
        -0.00000E+00
         0.00000E+00
         0.00000E+00
         0.00000E+00
        -0.00000E+00
        -0.00000E+00
        -0.00000E+00
         0.00000E+00
         0.00000E+00
        -0.00000E+00
        -0.00000E+00
         0.00000E+00
         0.00000E+00
         0.00000E+00
        -0.00000E+00
        -0.00000E+00
        -0.00000E+00
         0.00000E+00
         0.00000E+00
        -0.00000E+00
        -0.00000E+00
         0.00000E+00
         0.00000E+00
        -0.00000E+00
        -0.00000E+00
         0.00000E+00
         0.00000E+00
        -0.00000E+00
        -0.00000E+00
         0.00000E+00
        -0.00000E+00
         0.00000E+00
        -0.00000E+00
         0.00000E+00
        -0.00000E+00
         0.00000E+00
        -0.00000E+00
         0.00000E+00
         0.00000E+00
        -0.00000E+00
        -0.00000E+00
         0.00000E+00
         0.00000E+00
        -0.00000E+00
        -0.00000E+00
         0.00000E+00
        -0.00000E+00
         0.00000E+00
        -0.00000E+00
         0.00000E+00
         0.00000E+00
        -0.00000E+00
        -0.00000E+00
         0.00000E+00
        -0.00000E+00
         0.00000E+00
        -0.00000E+00
         0.00000E+00
        -0.00000E+00
         0.00000E+00
        -0.00000E+00
         0.00000E+00
         0.00000E+00
        -0.00000E+00
        -0.00000E+00
         0.00000E+00
        -0.00000E+00
         0.00000E+00
        -0.00000E+00
         0.00000E+00
        -0.00000E+00
         0.00000E+00
         0.00000E+00
        -0.00000E+00
        -0.00000E+00
         0.00000E+00
        -0.00000E+00
         0.00000E+00
        -0.00000E+00
         0.00000E+00
        -0.00000E+00
         0.00000E+00
         0.00000E+00
        -0.00000E+00
        -0.00000E+00
         0.00000E+00
         0.00000E+00
        -0.00000E+00
        -0.00000E+00
         0.00000E+00
        -0.00000E+00
         0.00000E+00
        -0.00000E+00
         0.00000E+00
        -0.00000E+00
         0.00000E+00
        -0.00000E+00
         0.00000E+00
        -0.00000E+00
         0.00000E+00
        -0.00000E+00
         0.00000E+00
        -0.00000E+00
         0.00000E+00
        -0.00000E+00
         0.00000E+00
        -0.00000E+00
         0.00000E+00
        -0.00000E+00
         0.00000E+00
        -0.00000E+00
         0.00000E+00
        -0.00000E+00
         0.00000E+00
        -0.00000E+00
         0.00000E+00
        -0.00000E+00
         0.00000E+00
        -0.00000E+00
         0.00000E+00
        -0.00000E+00
         0.00000E+00
        -0.00000E+00
         0.00000E+00
        -0.00000E+00
         0.00000E+00
        -0.00000E+00
         0.00000E+00
        -0.00000E+00
         0.00000E+00
        -0.00000E+00
         0.00000E+00
        -0.00000E+00
         0.00000E+00
        -0.00000E+00
         0.00000E+00
        -0.00000E+00
         0.00000E+00
         0.00000E+00
         0.00000E+00
         0.00000E+00
         0.00000E+00
         0.00000E+00
         0.00000E+00
         0.00000E+00
         0.00000E+00
         0.00000E+00
         0.00000E+00
         0.00000E+00
         0.00000E+00
         0.00000E+00
         0.00000E+00
         0.00000E+00
         0.00000E+00
         0.00000E+00
         0.00000E+00
         0.00000E+00
         0.00000E+00
         0.00000E+00
         0.00000E+00
         0.00000E+00
         0.00000E+00
         0.00000E+00
         0.00000E+00
         0.00000E+00
         0.00000E+00
         0.00000E+00
         0.00000E+00
         0.00000E+00
         0.00000E+00
         0.00000E+00
         0.00000E+00
         0.00000E+00
         0.00000E+00
         0.00000E+00
         0.00000E+00
         0.00000E+00
         0.00000E+00
         0.00000E+00
         0.00000E+00
         0.00000E+00
         0.00000E+00
         0.00000E+00
         0.00000E+00
         0.00000E+00
         0.00000E+00
         0.00000E+00
         0.00000E+00
         0.00000E+00
         0.00000E+00
         0.00000E+00
         0.00000E+00
         0.00000E+00
         0.00000E+00
         0.00000E+00
         0.00000E+00
         0.00000E+00
         0.00000E+00
         0.00000E+00
         0.00000E+00
         0.00000E+00
         0.00000E+00
         0.00000E+00
         0.00000E+00
         0.00000E+00
         0.00000E+00
         0.00000E+00
         0.00000E+00
         0.00000E+00
         0.00000E+00
         0.00000E+00
         0.00000E+00
         0.00000E+00
         0.00000E+00
         0.00000E+00
         0.00000E+00
         0.00000E+00
         0.00000E+00
         0.00000E+00
         0.00000E+00
         0.00000E+00
         0.00000E+00
         0.00000E+00
         0.00000E+00
         0.00000E+00
         0.00000E+00
         0.00000E+00
         0.00000E+00
         0.00000E+00
         0.00000E+00
         0.00000E+00
         0.00000E+00
         0.00000E+00
         0.00000E+00
         0.00000E+00
         0.00000E+00
         0.00000E+00
         0.00000E+00
         0.00000E+00
         0.00000E+00
         0.00000E+00
         0.00000E+00
         0.00000E+00
         0.00000E+00
         0.00000E+00
         0.00000E+00
         0.00000E+00
         0.00000E+00
         0.00000E+00
         0.00000E+00
         0.00000E+00
         0.00000E+00
         0.00000E+00
         0.00000E+00
         0.00000E+00
         0.00000E+00
         0.00000E+00
         0.00000E+00
         0.00000E+00
         0.00000E+00
         0.00000E+00
         0.00000E+00
         0.00000E+00
         0.00000E+00
         0.00000E+00
         0.00000E+00
         0.00000E+00
         0.00000E+00
         0.00000E+00
         0.00000E+00
         0.00000E+00
         0.00000E+00
         0.00000E+00
         0.00000E+00
         0.00000E+00
         0.00000E+00
         0.00000E+00
         0.00000E+00
         0.00000E+00
         0.00000E+00
         0.00000E+00
         0.00000E+00
         0.00000E+00
         0.00000E+00
         0.00000E+00
         0.00000E+00
         0.00000E+00
         0.00000E+00
         0.00000E+00
         0.00000E+00
         0.00000E+00
         0.00000E+00
         0.00000E+00
         0.00000E+00
         0.00000E+00
         0.00000E+00
         0.00000E+00
         0.00000E+00
         0.00000E+00
         0.00000E+00
         0.00000E+00
         0.00000E+00
         0.00000E+00
         0.00000E+00
         0.00000E+00
         0.00000E+00
         0.00000E+00
         0.00000E+00
         0.00000E+00
         0.00000E+00
         0.00000E+00
         0.00000E+00
         0.00000E+00
         0.00000E+00
         0.00000E+00
         0.00000E+00
         0.00000E+00
         0.00000E+00
         0.00000E+00
         0.00000E+00
         0.00000E+00
         0.00000E+00
         0.00000E+00
         0.00000E+00
         0.00000E+00
         0.00000E+00
         0.00000E+00
         0.00000E+00
         0.00000E+00
         0.00000E+00
         0.00000E+00
         0.00000E+00
         0.00000E+00
         0.00000E+00
         0.00000E+00
         0.00000E+00
         0.00000E+00
         0.00000E+00
         0.00000E+00
         0.00000E+00
         0.00000E+00
         0.00000E+00
         0.00000E+00
         0.00000E+00
         0.00000E+00
         0.00000E+00
         0.00000E+00
         0.00000E+00
         0.00000E+00
         0.00000E+00
         0.00000E+00
         0.00000E+00
         0.00000E+00
         0.00000E+00
         0.00000E+00
         0.00000E+00
         0.00000E+00
         0.00000E+00
         0.00000E+00
         0.00000E+00
         0.00000E+00
         0.00000E+00
         0.00000E+00
         0.00000E+00
         0.00000E+00
         0.00000E+00
         0.00000E+00
         0.00000E+00
         0.00000E+00
         0.00000E+00
         0.00000E+00
         0.00000E+00
         0.00000E+00
         0.00000E+00
         0.00000E+00
         0.00000E+00
         0.00000E+00
         0.00000E+00
         0.00000E+00
         0.00000E+00
         0.00000E+00
         0.00000E+00
         0.00000E+00
         0.00000E+00
         0.00000E+00
         0.00000E+00
         0.00000E+00
         0.00000E+00
         0.00000E+00
         0.00000E+00
         0.00000E+00
         0.00000E+00
         0.00000E+00
         0.00000E+00
         0.00000E+00
         0.00000E+00
         0.00000E+00
         0.00000E+00
         0.00000E+00
         0.00000E+00
         0.00000E+00
         0.00000E+00
         0.00000E+00
         0.00000E+00
         0.00000E+00
         0.00000E+00
         0.00000E+00
         0.00000E+00
         0.00000E+00
         0.00000E+00
         0.00000E+00
         0.00000E+00
         0.00000E+00
         0.00000E+00
         0.00000E+00
         0.00000E+00
         0.00000E+00
         0.00000E+00
         0.00000E+00
         0.00000E+00
         0.00000E+00
         0.00000E+00
         0.00000E+00
         0.00000E+00
         0.00000E+00
         0.00000E+00
         0.00000E+00
         0.00000E+00
         0.00000E+00
         0.00000E+00
         0.00000E+00
         0.00000E+00
         0.00000E+00
         0.00000E+00
         0.00000E+00
         0.00000E+00
         0.00000E+00
         0.00000E+00
         0.00000E+00
         0.00000E+00
         0.00000E+00
         0.00000E+00
         0.00000E+00
         0.00000E+00
         0.00000E+00
         0.00000E+00
         0.00000E+00
         0.00000E+00
         0.00000E+00
         0.00000E+00
         0.00000E+00
         0.00000E+00
         0.00000E+00
         0.00000E+00
         0.00000E+00
         0.00000E+00
         0.00000E+00
         0.00000E+00
         0.00000E+00
         0.00000E+00
         0.00000E+00
         0.00000E+00
         0.00000E+00
         0.00000E+00
         0.00000E+00
         0.00000E+00
         0.00000E+00
         0.00000E+00
         0.00000E+00
         0.00000E+00
         0.00000E+00
         0.00000E+00
         0.00000E+00
         0.00000E+00
         0.00000E+00
         0.00000E+00
         0.00000E+00
         0.00000E+00
         0.00000E+00
         0.00000E+00
         0.00000E+00
         0.00000E+00
         0.00000E+00
         0.00000E+00
         0.00000E+00
         0.00000E+00
         0.00000E+00
         0.00000E+00
         0.00000E+00
         0.00000E+00
         0.00000E+00
         0.00000E+00
         0.00000E+00
         0.00000E+00
         0.00000E+00
         0.00000E+00
         0.00000E+00
         0.00000E+00
         0.00000E+00
         0.00000E+00
         0.00000E+00
         0.00000E+00
         0.00000E+00
         0.00000E+00
         0.00000E+00
         0.00000E+00
         0.00000E+00
         0.00000E+00
         0.00000E+00
         0.00000E+00
         0.00000E+00
         0.00000E+00
         0.00000E+00
         0.00000E+00
         0.00000E+00
         0.00000E+00
         0.00000E+00
         0.00000E+00
         0.00000E+00
         0.00000E+00
         0.00000E+00
         0.00000E+00
         0.00000E+00
         0.00000E+00
         0.00000E+00
         0.00000E+00
         0.00000E+00
         0.00000E+00
         0.00000E+00
         0.00000E+00
         0.00000E+00
         0.00000E+00
         0.00000E+00
         0.00000E+00
         0.00000E+00
         0.00000E+00
         0.00000E+00
         0.00000E+00
         0.00000E+00
         0.00000E+00
         0.00000E+00
         0.00000E+00
         0.00000E+00
         0.00000E+00
         0.00000E+00
         0.00000E+00
         0.00000E+00
         0.00000E+00
         0.00000E+00
         0.00000E+00
         0.00000E+00
         0.00000E+00
         0.00000E+00
         0.00000E+00
         0.00000E+00
         0.00000E+00
         0.00000E+00
         0.00000E+00
         0.00000E+00
         0.00000E+00
         0.00000E+00
         0.00000E+00
         0.00000E+00
         0.00000E+00
         0.00000E+00
         0.00000E+00
         0.00000E+00
         0.00000E+00
         0.00000E+00
         0.00000E+00
         0.00000E+00
         0.00000E+00
         0.00000E+00
         0.00000E+00
         0.00000E+00
         0.00000E+00
         0.00000E+00
         0.00000E+00
         0.00000E+00
         0.00000E+00
         0.00000E+00
         0.00000E+00
         0.00000E+00
         0.00000E+00
         0.00000E+00
         0.00000E+00
         0.00000E+00
         0.00000E+00
         0.00000E+00
         0.00000E+00
         0.00000E+00
         0.00000E+00
         0.00000E+00
         0.00000E+00
         0.00000E+00
         0.00000E+00
         0.00000E+00
         0.00000E+00
         0.00000E+00
         0.00000E+00
         0.00000E+00
         0.00000E+00
         0.00000E+00
         0.00000E+00
         0.00000E+00
         0.00000E+00
         0.00000E+00
         0.00000E+00
         0.00000E+00
         0.00000E+00
         0.00000E+00
         0.00000E+00
         0.00000E+00
         0.00000E+00
         0.00000E+00
         0.00000E+00
         0.00000E+00
         0.00000E+00
         0.00000E+00
         0.00000E+00
         0.00000E+00
         0.00000E+00
         0.00000E+00
         0.00000E+00
         0.00000E+00
         0.00000E+00
         0.00000E+00
         0.00000E+00
         0.00000E+00
         0.00000E+00
         0.00000E+00
         0.00000E+00
         0.00000E+00
         0.00000E+00
         0.00000E+00
         0.00000E+00
         0.00000E+00
         0.00000E+00
         0.00000E+00
         0.00000E+00
         0.00000E+00
         0.00000E+00
         0.00000E+00
         0.00000E+00
         0.00000E+00
         0.00000E+00
         0.00000E+00
         0.00000E+00
         0.00000E+00
         0.00000E+00
         0.00000E+00
         0.00000E+00
         0.00000E+00
         0.00000E+00
         0.00000E+00
         0.00000E+00
         0.00000E+00
         0.00000E+00
         0.00000E+00
         0.00000E+00
         0.00000E+00
         0.00000E+00
         0.00000E+00
         0.00000E+00
         0.00000E+00
         0.00000E+00
         0.00000E+00
         0.00000E+00
         0.00000E+00
         0.00000E+00
         0.00000E+00
         0.00000E+00
         0.00000E+00
         0.00000E+00
         0.00000E+00
         0.00000E+00
         0.00000E+00
         0.00000E+00
         0.00000E+00
         0.00000E+00
         0.00000E+00
         0.00000E+00
         0.00000E+00
         0.00000E+00
         0.00000E+00
         0.00000E+00
         0.00000E+00
         0.00000E+00
         0.00000E+00
         0.00000E+00
         0.00000E+00
         0.00000E+00
         0.00000E+00
         0.00000E+00
         0.00000E+00
         0.00000E+00
         0.00000E+00
         0.00000E+00
         0.00000E+00
         0.00000E+00
         0.00000E+00
         0.00000E+00
         0.00000E+00
         0.00000E+00
         0.00000E+00
         0.00000E+00
         0.00000E+00
         0.00000E+00
         0.00000E+00
         0.00000E+00
         0.00000E+00
         0.00000E+00
         0.00000E+00
         0.00000E+00
         0.00000E+00
         0.00000E+00
         0.00000E+00
         0.00000E+00
         0.00000E+00
         0.00000E+00
         0.00000E+00
         0.00000E+00
         0.00000E+00
         0.00000E+00
         0.00000E+00
         0.00000E+00
         0.00000E+00
         0.00000E+00
         0.00000E+00
         0.00000E+00
         0.00000E+00
         0.00000E+00
         0.00000E+00
         0.00000E+00
         0.00000E+00
         0.00000E+00
         0.00000E+00
         0.00000E+00
         0.00000E+00
         0.00000E+00
         0.00000E+00
         0.00000E+00
         0.00000E+00
         0.00000E+00
         0.00000E+00
         0.00000E+00
         0.00000E+00
         0.00000E+00
         0.00000E+00
         0.00000E+00
         0.00000E+00
         0.00000E+00
         0.00000E+00
         0.00000E+00
         0.00000E+00
         0.00000E+00
         0.00000E+00
         0.00000E+00
         0.00000E+00
         0.00000E+00
         0.00000E+00
         0.00000E+00
         0.00000E+00
         0.00000E+00
         0.00000E+00
         0.00000E+00
         0.00000E+00
         0.00000E+00
         0.00000E+00
         0.00000E+00
         0.00000E+00
         0.00000E+00
         0.00000E+00
         0.00000E+00
         0.00000E+00
         0.00000E+00
         0.00000E+00
         0.00000E+00
         0.00000E+00
         0.00000E+00
         0.00000E+00
         0.00000E+00
         0.00000E+00
         0.00000E+00
         0.00000E+00
         0.00000E+00
         0.00000E+00
         0.00000E+00
         0.00000E+00
         0.00000E+00
         0.00000E+00
         0.00000E+00
         0.00000E+00
         0.00000E+00
         0.00000E+00
         0.00000E+00
         0.00000E+00
         0.00000E+00
         0.00000E+00
         0.00000E+00
         0.00000E+00
         0.00000E+00
         0.00000E+00
         0.00000E+00
         0.00000E+00
         0.00000E+00
         0.00000E+00
         0.00000E+00
         0.00000E+00
         0.00000E+00
         0.00000E+00
         0.00000E+00
         0.00000E+00
         0.00000E+00
         0.00000E+00
         0.00000E+00
         0.00000E+00
         0.00000E+00
         0.00000E+00
         0.00000E+00
         0.00000E+00
         0.00000E+00
         0.00000E+00
         0.00000E+00
         0.00000E+00
         0.00000E+00
         0.00000E+00
         0.00000E+00
         0.00000E+00
         0.00000E+00
         0.00000E+00
         0.00000E+00
         0.00000E+00
         0.00000E+00
         0.00000E+00
         0.00000E+00
         0.00000E+00
         0.00000E+00
         0.00000E+00
         0.00000E+00
         0.00000E+00
         0.00000E+00
         0.00000E+00
         0.00000E+00
         0.00000E+00
         0.00000E+00
         0.00000E+00
         0.00000E+00
         0.00000E+00
         0.00000E+00
         0.00000E+00
         0.00000E+00
         0.00000E+00
         0.00000E+00
         0.00000E+00
         0.00000E+00
         0.00000E+00
         0.00000E+00
         0.00000E+00
         0.00000E+00
         0.00000E+00
         0.00000E+00
         0.00000E+00
         0.00000E+00
         0.00000E+00
         0.00000E+00
         0.00000E+00
         0.00000E+00
         0.00000E+00
         0.00000E+00
         0.00000E+00
         0.00000E+00
         0.00000E+00
         0.00000E+00
         0.00000E+00
         0.00000E+00
         0.00000E+00
         0.00000E+00
         0.00000E+00
         0.00000E+00
         0.00000E+00
         0.00000E+00
         0.00000E+00
         0.00000E+00
         0.00000E+00
         0.00000E+00
         0.00000E+00
         0.00000E+00
         0.00000E+00
         0.00000E+00
         0.00000E+00
         0.00000E+00
         0.00000E+00
         0.00000E+00
         0.00000E+00
         0.00000E+00
         0.00000E+00
         0.00000E+00
         0.00000E+00
         0.00000E+00
         0.00000E+00
         0.00000E+00
         0.00000E+00
         0.00000E+00
         0.00000E+00
         0.00000E+00
         0.00000E+00
         0.00000E+00
         0.00000E+00
         0.00000E+00
         0.00000E+00
         0.00000E+00
         0.00000E+00
         0.00000E+00
         0.00000E+00
         0.00000E+00
         0.00000E+00
         0.00000E+00
         0.00000E+00
         0.00000E+00
         0.00000E+00
         0.00000E+00
         0.00000E+00
         0.00000E+00
         0.00000E+00
         0.00000E+00
         0.00000E+00
         0.00000E+00
         0.00000E+00
         0.00000E+00
         0.00000E+00
         0.00000E+00
         0.00000E+00
         0.00000E+00
         0.00000E+00
         0.00000E+00
         0.00000E+00
         0.00000E+00
         0.00000E+00
         0.00000E+00
         0.00000E+00
         0.00000E+00
         0.00000E+00
         0.00000E+00
         0.00000E+00
         0.00000E+00
         0.00000E+00
         0.00000E+00
         0.00000E+00
         0.00000E+00
         0.00000E+00
         0.00000E+00
         0.00000E+00
         0.00000E+00
         0.00000E+00
         0.00000E+00
         0.00000E+00
         0.00000E+00
         0.00000E+00
         0.00000E+00
         0.00000E+00
         0.00000E+00
         0.00000E+00
         0.00000E+00
         0.00000E+00
         0.00000E+00
         0.00000E+00
         0.00000E+00
         0.00000E+00
         0.00000E+00
         0.00000E+00
         0.00000E+00
         0.00000E+00
         0.00000E+00
         0.00000E+00
         0.00000E+00
         0.00000E+00
         0.00000E+00
         0.00000E+00
         0.00000E+00
         0.00000E+00
         0.00000E+00
         0.00000E+00
         0.00000E+00
         0.00000E+00
         0.00000E+00
         0.00000E+00
         0.00000E+00
         0.00000E+00
         0.00000E+00
         0.00000E+00
         0.00000E+00
         0.00000E+00
         0.00000E+00
         0.00000E+00
         0.00000E+00
         0.00000E+00
         0.00000E+00
         0.00000E+00
         0.00000E+00
         0.00000E+00
         0.00000E+00
         0.00000E+00
         0.00000E+00
         0.00000E+00
         0.00000E+00
         0.00000E+00
         0.00000E+00
         0.00000E+00
         0.00000E+00
         0.00000E+00
         0.00000E+00
         0.00000E+00
         0.00000E+00
         0.00000E+00
         0.00000E+00
         0.00000E+00
         0.00000E+00
         0.00000E+00
         0.00000E+00
         0.00000E+00
         0.00000E+00
         0.00000E+00
         0.00000E+00
         0.00000E+00
         0.00000E+00
         0.00000E+00
         0.00000E+00
         0.00000E+00
         0.00000E+00
         0.00000E+00
         0.00000E+00
         0.00000E+00
         0.00000E+00
         0.00000E+00
         0.00000E+00
         0.00000E+00
         0.00000E+00
         0.00000E+00
         0.00000E+00
         0.00000E+00
         0.00000E+00
         0.00000E+00
         0.00000E+00
         0.00000E+00
         0.00000E+00
         0.00000E+00
         0.00000E+00
         0.00000E+00
         0.00000E+00
         0.00000E+00
         0.00000E+00
         0.00000E+00
         0.00000E+00
         0.00000E+00
         0.00000E+00
         0.00000E+00
         0.00000E+00
         0.00000E+00
         0.00000E+00
         0.00000E+00
         0.00000E+00
         0.00000E+00
         0.00000E+00
         0.00000E+00
         0.00000E+00
         0.00000E+00
         0.00000E+00
         0.00000E+00
         0.00000E+00
         0.00000E+00
         0.00000E+00
         0.00000E+00
         0.00000E+00
         0.00000E+00
         0.00000E+00
         0.00000E+00
         0.00000E+00
         0.00000E+00
         0.00000E+00
         0.00000E+00
         0.00000E+00
         0.00000E+00
         0.00000E+00
         0.00000E+00
         0.00000E+00
         0.00000E+00
         0.00000E+00
         0.00000E+00
         0.00000E+00
         0.00000E+00
         0.00000E+00
         0.00000E+00
         0.00000E+00
         0.00000E+00
         0.00000E+00
         0.00000E+00
         0.00000E+00
         0.00000E+00
         0.00000E+00
         0.00000E+00
         0.00000E+00
         0.00000E+00
         0.00000E+00
         0.00000E+00
         0.00000E+00
         0.00000E+00
         0.00000E+00
         0.00000E+00
         0.00000E+00
         0.00000E+00
         0.00000E+00
         0.00000E+00
         0.00000E+00
         0.00000E+00
         0.00000E+00
         0.00000E+00
         0.00000E+00
         0.00000E+00
         0.00000E+00
         0.00000E+00
         0.00000E+00
         0.00000E+00
         0.00000E+00
         0.00000E+00
         0.00000E+00
         0.00000E+00
         0.00000E+00
         0.00000E+00
         0.00000E+00
         0.00000E+00
         0.00000E+00
         0.00000E+00
         0.00000E+00
         0.00000E+00
         0.00000E+00
         0.00000E+00
         0.00000E+00
         0.00000E+00
         0.00000E+00
         0.00000E+00
         0.00000E+00
         0.00000E+00
         0.00000E+00
         0.00000E+00
         0.00000E+00
         0.00000E+00
         0.00000E+00
         0.00000E+00
         0.00000E+00
         0.00000E+00
         0.00000E+00
         0.00000E+00
         0.00000E+00
         0.00000E+00
         0.00000E+00
         0.00000E+00
         0.00000E+00
         0.00000E+00
         0.00000E+00
         0.00000E+00
         0.00000E+00
         0.00000E+00
         0.00000E+00
         0.00000E+00
         0.00000E+00
         0.00000E+00
         0.00000E+00
         0.00000E+00
         0.00000E+00
         0.00000E+00
         0.00000E+00
         0.00000E+00
         0.00000E+00
         0.00000E+00
         0.00000E+00
         0.00000E+00
         0.00000E+00
         0.00000E+00
         0.00000E+00
         0.00000E+00
         0.00000E+00
         0.00000E+00
         0.00000E+00
         0.00000E+00
         0.00000E+00
         0.00000E+00
         0.00000E+00
         0.00000E+00
         0.00000E+00
         0.00000E+00
         0.00000E+00
         0.00000E+00
         0.00000E+00
         0.00000E+00
         0.00000E+00
         0.00000E+00
         0.00000E+00
         0.00000E+00
         0.00000E+00
         0.00000E+00
         0.00000E+00
         0.00000E+00
         0.00000E+00
         0.00000E+00
         0.00000E+00
         0.00000E+00
         0.00000E+00
         0.00000E+00
         0.00000E+00
         0.00000E+00
         0.00000E+00
         0.00000E+00
         0.00000E+00
         0.00000E+00
         0.00000E+00
         0.00000E+00
         0.00000E+00
         0.00000E+00
         0.00000E+00
         0.00000E+00
         0.00000E+00
         0.00000E+00
         0.00000E+00
         0.00000E+00
         0.00000E+00
         0.00000E+00
         0.00000E+00
         0.00000E+00
         0.00000E+00
         0.00000E+00
         0.00000E+00
         0.00000E+00
         0.00000E+00
         0.00000E+00
         0.00000E+00
         0.00000E+00
         0.00000E+00
         0.00000E+00
         0.00000E+00
         0.00000E+00
         0.00000E+00
         0.00000E+00
         0.00000E+00
         0.00000E+00
         0.00000E+00
         0.00000E+00
         0.00000E+00
         0.00000E+00
         0.00000E+00
         0.00000E+00
         0.00000E+00
         0.00000E+00
         0.00000E+00
         0.00000E+00
         0.00000E+00
         0.00000E+00
         0.00000E+00
         0.00000E+00
         0.00000E+00
         0.00000E+00
         0.00000E+00
         0.00000E+00
         0.00000E+00
         0.00000E+00
         0.00000E+00
         0.00000E+00
         0.00000E+00
         0.00000E+00
         0.00000E+00
         0.00000E+00
         0.00000E+00
         0.00000E+00
         0.00000E+00
         0.00000E+00
         0.00000E+00
         0.00000E+00
         0.00000E+00
         0.00000E+00
         0.00000E+00
         0.00000E+00
         0.00000E+00
         0.00000E+00
         0.00000E+00
         0.00000E+00
         0.00000E+00
         0.00000E+00
         0.00000E+00
         0.00000E+00
         0.00000E+00
         0.00000E+00
         0.00000E+00
         0.00000E+00
         0.00000E+00
         0.00000E+00
         0.00000E+00
         0.00000E+00
         0.00000E+00
         0.00000E+00
         0.00000E+00
         0.00000E+00
         0.00000E+00
         0.00000E+00
         0.00000E+00
         0.00000E+00
         0.00000E+00
         0.00000E+00
         0.00000E+00
         0.00000E+00
         0.00000E+00
         0.00000E+00
         0.00000E+00
         0.00000E+00
         0.00000E+00
         0.00000E+00
         0.00000E+00
         0.00000E+00
         0.00000E+00
         0.00000E+00
         0.00000E+00
         0.00000E+00
         0.00000E+00
         0.00000E+00
         0.00000E+00
         0.00000E+00
         0.00000E+00
         0.00000E+00
         0.00000E+00
         0.00000E+00
         0.00000E+00
         0.00000E+00
         0.00000E+00
         0.00000E+00
         0.00000E+00
         0.00000E+00
         0.00000E+00
         0.00000E+00
         0.00000E+00
         0.00000E+00
         0.00000E+00
         0.00000E+00
         0.00000E+00
         0.00000E+00
         0.00000E+00
         0.00000E+00
         0.00000E+00
         0.00000E+00
         0.00000E+00
         0.00000E+00
         0.00000E+00
         0.00000E+00
         0.00000E+00
         0.00000E+00
         0.00000E+00
         0.00000E+00
         0.00000E+00
         0.00000E+00
         0.00000E+00
         0.00000E+00
         0.00000E+00
         0.00000E+00
         0.00000E+00
         0.00000E+00
         0.00000E+00
         0.00000E+00
         0.00000E+00
         0.00000E+00
         0.00000E+00
         0.00000E+00
         0.00000E+00
         0.00000E+00
         0.00000E+00
         0.00000E+00
         0.00000E+00
         0.00000E+00
         0.00000E+00
         0.00000E+00
         0.00000E+00
         0.00000E+00
         0.00000E+00
         0.00000E+00
         0.00000E+00
         0.00000E+00
         0.00000E+00
         0.00000E+00
         0.00000E+00
         0.00000E+00
         0.00000E+00
         0.00000E+00
         0.00000E+00
         0.00000E+00
         0.00000E+00
         0.00000E+00
         0.00000E+00
         0.00000E+00
         0.00000E+00
         0.00000E+00
         0.00000E+00
         0.00000E+00
         0.00000E+00
         0.00000E+00
         0.00000E+00
         0.00000E+00
         0.00000E+00
         0.00000E+00
         0.00000E+00
         0.00000E+00
         0.00000E+00
         0.00000E+00
         0.00000E+00
         0.00000E+00
         0.00000E+00
         0.00000E+00
         0.00000E+00
         0.00000E+00
         0.00000E+00
         0.00000E+00
         0.00000E+00
         0.00000E+00
         0.00000E+00
         0.00000E+00
         0.00000E+00
         0.00000E+00
         0.00000E+00
         0.00000E+00
         0.00000E+00
         0.00000E+00
         0.00000E+00
         0.00000E+00
         0.00000E+00
         0.00000E+00
         0.00000E+00
         0.00000E+00
         0.00000E+00
         0.00000E+00
         0.00000E+00
         0.00000E+00
         0.00000E+00
         0.00000E+00
         0.00000E+00
         0.00000E+00
         0.00000E+00
         0.00000E+00
         0.00000E+00
         0.00000E+00
         0.00000E+00
         0.00000E+00
         0.00000E+00
         0.00000E+00
         0.00000E+00
         0.00000E+00
         0.00000E+00
         0.00000E+00
         0.00000E+00
         0.00000E+00
         0.00000E+00
         0.00000E+00
         0.00000E+00
         0.00000E+00
         0.00000E+00
         0.00000E+00
         0.00000E+00
         0.00000E+00
         0.00000E+00
         0.00000E+00
         0.00000E+00
         0.00000E+00
         0.00000E+00
         0.00000E+00
         0.00000E+00
         0.00000E+00
         0.00000E+00
         0.00000E+00
         0.00000E+00
         0.00000E+00
         0.00000E+00
         0.00000E+00
         0.00000E+00
         0.00000E+00
         0.00000E+00
         0.00000E+00
         0.00000E+00
         0.00000E+00
         0.00000E+00
         0.00000E+00
         0.00000E+00
         0.00000E+00
         0.00000E+00
         0.00000E+00
         0.00000E+00
         0.00000E+00
         0.00000E+00
         0.00000E+00
         0.00000E+00
         0.00000E+00
         0.00000E+00
         0.00000E+00
         0.00000E+00
         0.00000E+00
         0.00000E+00
         0.00000E+00
         0.00000E+00
         0.00000E+00
         0.00000E+00
         0.00000E+00
         0.00000E+00
         0.00000E+00
         0.00000E+00
         0.00000E+00
         0.00000E+00
         0.00000E+00
         0.00000E+00
         0.00000E+00
         0.00000E+00
         0.00000E+00
         0.00000E+00
         0.00000E+00
         0.00000E+00
         0.00000E+00
         0.00000E+00
         0.00000E+00
         0.00000E+00
         0.00000E+00
         0.00000E+00
         0.00000E+00
         0.00000E+00
         0.00000E+00
         0.00000E+00
         0.00000E+00
         0.00000E+00
         0.00000E+00
         0.00000E+00
         0.00000E+00
         0.00000E+00
         0.00000E+00
         0.00000E+00
         0.00000E+00
         0.00000E+00
         0.00000E+00
         0.00000E+00
         0.00000E+00
         0.00000E+00
         0.00000E+00
         0.00000E+00
         0.00000E+00
         0.00000E+00
         0.00000E+00
         0.00000E+00
         0.00000E+00
         0.00000E+00
         0.00000E+00
         0.00000E+00
         0.00000E+00
         0.00000E+00
         0.00000E+00
         0.00000E+00
         0.00000E+00
         0.00000E+00
         0.00000E+00
         0.00000E+00
         0.00000E+00
         0.00000E+00
         0.00000E+00
         0.00000E+00
         0.00000E+00
         0.00000E+00
         0.00000E+00
         0.00000E+00
         0.00000E+00
         0.00000E+00
         0.00000E+00
         0.00000E+00
         0.00000E+00
         0.00000E+00
         0.00000E+00
         0.00000E+00
         0.00000E+00
         0.00000E+00
         0.00000E+00
         0.00000E+00
         0.00000E+00
         0.00000E+00
         0.00000E+00
         0.00000E+00
         0.00000E+00
         0.00000E+00
         0.00000E+00
         0.00000E+00
         0.00000E+00
         0.00000E+00
         0.00000E+00
         0.00000E+00
         0.00000E+00
         0.00000E+00
         0.00000E+00
         0.00000E+00
         0.00000E+00
         0.00000E+00
         0.00000E+00
         0.00000E+00
         0.00000E+00
         0.00000E+00
         0.00000E+00
         0.00000E+00
         0.00000E+00
         0.00000E+00
         0.00000E+00
         0.00000E+00
         0.00000E+00
         0.00000E+00
         0.00000E+00
         0.00000E+00
         0.00000E+00
         0.00000E+00
         0.00000E+00
         0.00000E+00
         0.00000E+00
         0.00000E+00
         0.00000E+00
         0.00000E+00
         0.00000E+00
         0.00000E+00
         0.00000E+00
         0.00000E+00
         0.00000E+00
         0.00000E+00
         0.00000E+00
         0.00000E+00
         0.00000E+00
         0.00000E+00
         0.00000E+00
         0.00000E+00
         0.00000E+00
         0.00000E+00
         0.00000E+00
         0.00000E+00
         0.00000E+00
         0.00000E+00
         0.00000E+00
         0.00000E+00
         0.00000E+00
         0.00000E+00
         0.00000E+00
         0.00000E+00
         0.00000E+00
         0.00000E+00
         0.00000E+00
         0.00000E+00
         0.00000E+00
         0.00000E+00
         0.00000E+00
         0.00000E+00
         0.00000E+00
         0.00000E+00
         0.00000E+00
         0.00000E+00
         0.00000E+00
         0.00000E+00
         0.00000E+00
         0.00000E+00
         0.00000E+00
         0.00000E+00
         0.00000E+00
         0.00000E+00
         0.00000E+00
         0.00000E+00
         0.00000E+00
         0.00000E+00
         0.00000E+00
         0.00000E+00
         0.00000E+00
         0.00000E+00
         0.00000E+00
         0.00000E+00
         0.00000E+00
         0.00000E+00
         0.00000E+00
         0.00000E+00
         0.00000E+00
         0.00000E+00
         0.00000E+00
         0.00000E+00
         0.00000E+00
         0.00000E+00
         0.00000E+00
         0.00000E+00
         0.00000E+00
         0.00000E+00
         0.00000E+00
         0.00000E+00
         0.00000E+00
         0.00000E+00
         0.00000E+00
         0.00000E+00
         0.00000E+00
         0.00000E+00
         0.00000E+00
         0.00000E+00
         0.00000E+00
         0.00000E+00
         0.00000E+00
         0.00000E+00
         0.00000E+00
         0.00000E+00
         0.00000E+00
         0.00000E+00
         0.00000E+00
         0.00000E+00
         0.00000E+00
         0.00000E+00
         0.00000E+00
         0.00000E+00
         0.00000E+00
         0.00000E+00
         0.00000E+00
         0.00000E+00
         0.00000E+00
         0.00000E+00
         0.00000E+00
         0.00000E+00
         0.00000E+00
         0.00000E+00
         0.00000E+00
         0.00000E+00
         0.00000E+00
         0.00000E+00
         0.00000E+00
         0.00000E+00
         0.00000E+00
         0.00000E+00
         0.00000E+00
         0.00000E+00
         0.00000E+00
         0.00000E+00
         0.00000E+00
         0.00000E+00
         0.00000E+00
         0.00000E+00
         0.00000E+00
         0.00000E+00
         0.00000E+00
         0.00000E+00
         0.00000E+00
         0.00000E+00
         0.00000E+00
         0.00000E+00
         0.00000E+00
         0.00000E+00
         0.00000E+00
         0.00000E+00
         0.00000E+00
         0.00000E+00
         0.00000E+00
         0.00000E+00
         0.00000E+00
         0.00000E+00
         0.00000E+00
         0.00000E+00
         0.00000E+00
         0.00000E+00
         0.00000E+00
         0.00000E+00
         0.00000E+00
         0.00000E+00
         0.00000E+00
         0.00000E+00
         0.00000E+00
         0.00000E+00
         0.00000E+00
         0.00000E+00
         0.00000E+00
         0.00000E+00
         0.00000E+00
         0.00000E+00
         0.00000E+00
         0.00000E+00
         0.00000E+00
         0.00000E+00
         0.00000E+00
         0.00000E+00
         0.00000E+00
         0.00000E+00
         0.00000E+00
         0.00000E+00
         0.00000E+00
         0.00000E+00
         0.00000E+00
         0.00000E+00
         0.00000E+00
         0.00000E+00
         0.00000E+00
         0.00000E+00
         0.00000E+00
         0.00000E+00
         0.00000E+00
         0.00000E+00
         0.00000E+00
         0.00000E+00
         0.00000E+00
         0.00000E+00
         0.00000E+00
         0.00000E+00
         0.00000E+00
         0.00000E+00
         0.00000E+00
         0.00000E+00
         0.00000E+00
         0.00000E+00
         0.00000E+00
         0.00000E+00
         0.00000E+00
         0.00000E+00
         0.00000E+00
         0.00000E+00
         0.00000E+00
         0.00000E+00
         0.00000E+00
         0.00000E+00
         0.00000E+00
         0.00000E+00
         0.00000E+00
         0.00000E+00
         0.00000E+00
         0.00000E+00
         0.00000E+00
         0.00000E+00
         0.00000E+00
         0.00000E+00
         0.00000E+00
         0.00000E+00
         0.00000E+00
         0.00000E+00
         0.00000E+00
         0.00000E+00
         0.00000E+00
         0.00000E+00
         0.00000E+00
         0.00000E+00
         0.00000E+00
         0.00000E+00
         0.00000E+00
         0.00000E+00
         0.00000E+00
         0.00000E+00
         0.00000E+00
         0.00000E+00
         0.00000E+00
         0.00000E+00
         0.00000E+00
         0.00000E+00
         0.00000E+00
         0.00000E+00
         0.00000E+00
         0.00000E+00
         0.00000E+00
         0.00000E+00
         0.00000E+00
         0.00000E+00
         0.00000E+00
         0.00000E+00
         0.00000E+00
         0.00000E+00
         0.00000E+00
         0.00000E+00
         0.00000E+00
         0.00000E+00
         0.00000E+00
         0.00000E+00
         0.00000E+00
         0.00000E+00
         0.00000E+00
         0.00000E+00
         0.00000E+00
         0.00000E+00
         0.00000E+00
         0.00000E+00
         0.00000E+00
         0.00000E+00
         0.00000E+00
         0.00000E+00
         0.00000E+00
         0.00000E+00
         0.00000E+00
         0.00000E+00
         0.00000E+00
         0.00000E+00
         0.00000E+00
         0.00000E+00
         0.00000E+00
         0.00000E+00
         0.00000E+00
         0.00000E+00
         0.00000E+00
         0.00000E+00
         0.00000E+00
         0.00000E+00
         0.00000E+00
         0.00000E+00
         0.00000E+00
         0.00000E+00
         0.00000E+00
         0.00000E+00
         0.00000E+00
         0.00000E+00
         0.00000E+00
         0.00000E+00
         0.00000E+00
         0.00000E+00
         0.00000E+00
         0.00000E+00
         0.00000E+00
         0.00000E+00
         0.00000E+00
         0.00000E+00
         0.00000E+00
         0.00000E+00
         0.00000E+00
         0.00000E+00
         0.00000E+00
         0.00000E+00
         0.00000E+00
         0.00000E+00
         0.00000E+00
         0.00000E+00
         0.00000E+00
         0.00000E+00
         0.00000E+00
         0.00000E+00
         0.00000E+00
         0.00000E+00
         0.00000E+00
  
SCALARS                      stress_xx  double 1
LOOKUP_TABLE default
         0.55528E+12
         0.54755E+12
         0.55245E+12
         0.56124E+12
        -0.13460E+03
        -0.15093E+03
        -0.14452E+03
        -0.13129E+03
         0.54728E+12
         0.54990E+12
        -0.13572E+03
        -0.13135E+03
         0.53635E+12
         0.53594E+12
        -0.16127E+03
        -0.15163E+03
         0.55995E+12
         0.53654E+12
        -0.11916E+03
        -0.13217E+03
         0.52793E+12
         0.52124E+12
         0.53189E+12
        -0.15984E+03
        -0.13959E+03
        -0.14414E+03
         0.52150E+12
         0.51173E+12
        -0.15334E+03
        -0.12932E+03
         0.55953E+12
         0.54935E+12
         0.56939E+12
        -0.13085E+03
        -0.12165E+03
        -0.11827E+03
         0.55364E+12
         0.54066E+12
        -0.13844E+03
        -0.12632E+03
         0.54850E+12
         0.53849E+12
        -0.11965E+03
        -0.10592E+03
         0.55697E+12
         0.56073E+12
        -0.13112E+03
        -0.14651E+03
         0.53045E+12
        -0.12809E+03
         0.55999E+12
        -0.15051E+03
         0.51869E+12
        -0.13527E+03
         0.51561E+12
        -0.12975E+03
         0.51566E+12
         0.52658E+12
        -0.13220E+03
        -0.12875E+03
         0.55932E+12
         0.55541E+12
        -0.13256E+03
        -0.14986E+03
         0.56176E+12
        -0.12792E+03
         0.55711E+12
        -0.13960E+03
         0.54487E+12
         0.54365E+12
        -0.13438E+03
        -0.14081E+03
         0.54088E+12
        -0.14199E+03
         0.50825E+12
        -0.11218E+03
         0.50654E+12
        -0.10889E+03
         0.50739E+12
        -0.11481E+03
         0.51212E+12
         0.51704E+12
        -0.10939E+03
        -0.11405E+03
         0.52693E+12
        -0.10622E+03
         0.55677E+12
        -0.13929E+03
         0.55212E+12
        -0.14256E+03
         0.54830E+12
         0.54621E+12
        -0.13691E+03
        -0.13850E+03
         0.54879E+12
        -0.12580E+03
         0.55063E+12
        -0.12401E+03
         0.54897E+12
        -0.13275E+03
         0.54838E+12
         0.55006E+12
        -0.13018E+03
        -0.13400E+03
         0.53916E+12
         0.54358E+12
        -0.10107E+03
        -0.95065E+02
         0.53833E+12
        -0.96512E+02
         0.54343E+12
        -0.92539E+02
         0.53839E+12
        -0.91250E+02
         0.52724E+12
        -0.86232E+02
         0.51641E+12
        -0.76607E+02
         0.50992E+12
        -0.68981E+02
         0.50926E+12
        -0.68502E+02
         0.50947E+12
        -0.74286E+02
         0.51651E+12
        -0.78072E+02
         0.52964E+12
        -0.71288E+02
         0.54405E+12
        -0.64259E+02
         0.55249E+12
        -0.64186E+02
         0.56081E+12
        -0.71744E+02
         0.56631E+12
        -0.81804E+02
         0.56611E+12
        -0.87883E+02
         0.55275E+12
        -0.94913E+02
         0.54343E+12
        -0.10169E+03
         0.54023E+12
        -0.93151E+02
         0.54522E+12
        -0.81718E+02
         0.54783E+12
        -0.81466E+02
         0.54346E+12
        -0.89133E+02
         0.54353E+12
        -0.95022E+02
         0.54683E+12
        -0.90176E+02
         0.55112E+12
        -0.87178E+02
        -0.32310E+11
        -0.32320E+11
        -0.32320E+11
        -0.32298E+11
        -0.32310E+11
        -0.32320E+11
        -0.32304E+11
        -0.32317E+11
        -0.32305E+11
        -0.32320E+11
        -0.32279E+11
        -0.32269E+11
        -0.32293E+11
        -0.32295E+11
        -0.32280E+11
        -0.32300E+11
        -0.32307E+11
        -0.32284E+11
        -0.32320E+11
        -0.32320E+11
        -0.32319E+11
        -0.32320E+11
        -0.32317E+11
        -0.32318E+11
        -0.32320E+11
        -0.32320E+11
        -0.32312E+11
        -0.32314E+11
        -0.32298E+11
        -0.32318E+11
        -0.32304E+11
        -0.32320E+11
        -0.32304E+11
        -0.32319E+11
        -0.32262E+11
        -0.32296E+11
        -0.32307E+11
        -0.32293E+11
        -0.32291E+11
        -0.32259E+11
        -0.32228E+11
        -0.32293E+11
        -0.32319E+11
        -0.32318E+11
        -0.32306E+11
        -0.32263E+11
        -0.32301E+11
        -0.32320E+11
        -0.32319E+11
        -0.32306E+11
        -0.32278E+11
        -0.32312E+11
        -0.32129E+11
        -0.32207E+11
        -0.32195E+11
        -0.32212E+11
        -0.32208E+11
        -0.32168E+11
        -0.32122E+11
        -0.32105E+11
        -0.32112E+11
        -0.32107E+11
        -0.32085E+11
        -0.32204E+11
        -0.32238E+11
        -0.32250E+11
        -0.32268E+11
        -0.32280E+11
        -0.32279E+11
        -0.32258E+11
        -0.32157E+11
        -0.32185E+11
        -0.32222E+11
        -0.32221E+11
        -0.32215E+11
        -0.32180E+11
        -0.32230E+11
        -0.32246E+11
         0.97460E+06
         0.43253E+06
         0.54392E+06
         0.50533E+06
         0.28534E+06
         0.59782E+06
        -0.35577E+06
        -0.78735E+06
         0.12198E+07
        -0.86354E+06
        -0.93851E+06
        -0.39699E+05
        -0.10154E+06
        -0.29582E+07
        -0.93467E+06
        -0.24985E+06
         0.16593E+06
         0.61920E+06
        -0.18620E+05
        -0.94589E+05
        -0.11205E+07
        -0.57765E+06
        -0.15597E+07
        -0.56051E+06
        -0.93983E+06
        -0.13612E+06
        -0.37549E+07
        -0.20247E+07
        -0.12052E+07
        -0.93090E+06
        -0.14061E+06
        -0.35874E+06
         0.49563E+06
         0.94652E+06
        -0.94619E+06
        -0.63315E+06
        -0.32256E+06
        -0.11867E+07
        -0.75790E+06
        -0.48347E+06
        -0.74179E+06
        -0.12570E+07
        -0.10742E+07
        -0.12638E+07
        -0.94536E+06
        -0.40619E+06
        -0.19716E+06
        -0.23567E+06
         0.52244E+06
         0.86843E+06
         0.28311E+06
         0.37921E+06
        -0.25983E+07
        -0.60694E+06
        -0.15268E+07
         0.29066E+06
         0.18449E+07
         0.29569E+07
         0.24488E+07
         0.26582E+07
         0.21068E+07
         0.11000E+07
         0.19565E+06
        -0.50392E+06
        -0.11098E+07
        -0.31454E+06
        -0.16864E+07
        -0.25649E+07
        -0.21365E+07
        -0.18654E+07
        -0.98038E+06
         0.52122E+06
         0.51053E+06
         0.38450E+05
        -0.81667E+06
        -0.13437E+07
        -0.93862E+06
        -0.16767E+06
         0.91413E+06
         0.37509E+06
         0.48792E+06
         0.46115E+06
         0.21376E+06
         0.53460E+06
        -0.41106E+06
        -0.85571E+06
         0.11610E+07
        -0.93798E+06
        -0.10030E+07
        -0.13521E+06
        -0.18373E+06
        -0.30290E+07
        -0.10293E+07
        -0.31277E+06
         0.10929E+06
         0.57656E+06
        -0.82292E+05
        -0.15413E+06
        -0.12017E+07
        -0.65676E+06
        -0.16431E+07
        -0.61927E+06
        -0.10169E+07
        -0.19228E+06
        -0.38249E+07
        -0.20842E+07
        -0.12726E+07
        -0.10110E+07
        -0.19979E+06
        -0.41166E+06
         0.45049E+06
         0.90176E+06
        -0.10293E+07
        -0.70132E+06
        -0.39352E+06
        -0.12822E+07
        -0.84599E+06
        -0.57000E+06
        -0.83577E+06
        -0.13487E+07
        -0.11611E+07
        -0.13433E+07
        -0.10200E+07
        -0.48996E+06
        -0.27165E+06
        -0.30502E+06
         0.46135E+06
         0.80531E+06
         0.20690E+06
         0.31196E+06
        -0.27534E+07
        -0.75826E+06
        -0.16757E+07
         0.14791E+06
         0.16940E+07
         0.27887E+07
         0.22808E+07
         0.24883E+07
         0.19352E+07
         0.92456E+06
         0.20986E+05
        -0.66537E+06
        -0.12445E+07
        -0.44032E+06
        -0.18184E+07
        -0.27058E+07
        -0.22804E+07
        -0.20159E+07
        -0.11314E+07
         0.36146E+06
         0.35990E+06
        -0.97612E+05
        -0.95286E+06
        -0.14832E+07
        -0.10797E+07
        -0.31139E+06
         0.92815E+06
         0.38635E+06
         0.49981E+06
         0.47379E+06
         0.23327E+06
         0.55235E+06
        -0.40158E+06
        -0.83919E+06
         0.11713E+07
        -0.93442E+06
        -0.98914E+06
        -0.11708E+06
        -0.16835E+06
        -0.30088E+07
        -0.10057E+07
        -0.32589E+06
         0.10621E+06
         0.58913E+06
        -0.97925E+05
        -0.16485E+06
        -0.12149E+07
        -0.66178E+06
        -0.16979E+07
        -0.66167E+06
        -0.10506E+07
        -0.23169E+06
        -0.38114E+07
        -0.20910E+07
        -0.13013E+07
        -0.10670E+07
        -0.20043E+06
        -0.42362E+06
         0.46462E+06
         0.91621E+06
        -0.10080E+07
        -0.68368E+06
        -0.37757E+06
        -0.12661E+07
        -0.83240E+06
        -0.56580E+06
        -0.83823E+06
        -0.13822E+07
        -0.12079E+07
        -0.13965E+07
        -0.10326E+07
        -0.47832E+06
        -0.25802E+06
        -0.28981E+06
         0.47813E+06
         0.82469E+06
         0.22878E+06
         0.33138E+06
        -0.27071E+07
        -0.71669E+06
        -0.16296E+07
         0.18328E+06
         0.17203E+07
         0.28148E+07
         0.23141E+07
         0.25216E+07
         0.19692E+07
         0.95974E+06
         0.41652E+05
        -0.66611E+06
        -0.12423E+07
        -0.41712E+06
        -0.18031E+07
        -0.27343E+07
        -0.23113E+07
        -0.20079E+07
        -0.10898E+07
         0.40951E+06
         0.40293E+06
        -0.54171E+05
        -0.90395E+06
        -0.14422E+07
        -0.10464E+07
        -0.27927E+06
         0.91943E+06
         0.38145E+06
         0.49511E+06
         0.46732E+06
         0.22708E+06
         0.54748E+06
        -0.40773E+06
        -0.84737E+06
         0.11547E+07
        -0.96608E+06
        -0.99521E+06
        -0.12707E+06
        -0.17514E+06
        -0.30152E+07
        -0.10172E+07
        -0.37615E+06
         0.72659E+05
         0.58219E+06
        -0.15359E+06
        -0.21484E+06
        -0.12764E+07
        -0.71642E+06
        -0.18253E+07
        -0.75646E+06
        -0.11422E+07
        -0.32126E+06
        -0.38306E+07
        -0.21391E+07
        -0.13836E+07
        -0.12013E+07
        -0.22965E+06
        -0.47144E+06
         0.45901E+06
         0.90878E+06
        -0.10189E+07
        -0.69021E+06
        -0.38307E+06
        -0.12841E+07
        -0.85444E+06
        -0.60542E+06
        -0.89148E+06
        -0.14861E+07
        -0.13349E+07
        -0.15221E+07
        -0.10942E+07
        -0.51198E+06
        -0.28190E+06
        -0.30299E+06
         0.46780E+06
         0.81274E+06
         0.21746E+06
         0.32429E+06
        -0.27287E+07
        -0.73152E+06
        -0.16531E+07
         0.16269E+06
         0.17065E+07
         0.27989E+07
         0.22873E+07
         0.24925E+07
         0.19412E+07
         0.92581E+06
        -0.12153E+05
        -0.75295E+06
        -0.13239E+07
        -0.45581E+06
        -0.18467E+07
        -0.28542E+07
        -0.24381E+07
        -0.20673E+07
        -0.11180E+07
         0.38258E+06
         0.38250E+06
        -0.78354E+05
        -0.92906E+06
        -0.14593E+07
        -0.10594E+07
        -0.29230E+06
         0.90369E+06
         0.37154E+06
         0.48695E+06
         0.46062E+06
         0.21983E+06
         0.54048E+06
        -0.41649E+06
        -0.86150E+06
         0.11346E+07
        -0.99907E+06
        -0.10018E+07
        -0.13333E+06
        -0.18269E+06
        -0.30225E+07
        -0.10225E+07
        -0.41040E+06
         0.45978E+05
         0.57580E+06
        -0.19022E+06
        -0.25062E+06
        -0.13159E+07
        -0.75567E+06
        -0.19036E+07
        -0.81519E+06
        -0.12086E+07
        -0.37872E+06
        -0.38472E+07
        -0.21734E+07
        -0.14412E+07
        -0.12905E+07
        -0.26021E+06
        -0.50628E+06
         0.44654E+06
         0.89848E+06
        -0.10302E+07
        -0.69867E+06
        -0.39143E+06
        -0.12975E+07
        -0.87281E+06
        -0.63561E+06
        -0.92903E+06
        -0.15561E+07
        -0.14183E+07
        -0.16018E+07
        -0.11346E+07
        -0.53414E+06
        -0.30308E+06
        -0.32390E+06
         0.44977E+06
         0.79507E+06
         0.19968E+06
         0.31262E+06
        -0.27482E+07
        -0.74445E+06
        -0.16730E+07
         0.14666E+06
         0.17001E+07
         0.27942E+07
         0.22759E+07
         0.24733E+07
         0.19175E+07
         0.90483E+06
        -0.44900E+05
        -0.81302E+06
        -0.13796E+07
        -0.48571E+06
        -0.18775E+07
        -0.29318E+07
        -0.25271E+07
        -0.21098E+07
        -0.11308E+07
         0.35811E+06
         0.35541E+06
        -0.10611E+06
        -0.96145E+06
        -0.14872E+07
        -0.10767E+07
        -0.30530E+06
         0.86574E+06
         0.35256E+06
         0.47888E+06
         0.46749E+06
         0.23021E+06
         0.55303E+06
        -0.42307E+06
        -0.88687E+06
         0.11063E+07
        -0.10438E+07
        -0.99560E+06
        -0.11212E+06
        -0.17473E+06
        -0.30173E+07
        -0.99551E+06
        -0.40500E+06
         0.39572E+05
         0.58866E+06
        -0.18266E+06
        -0.24457E+06
        -0.13041E+07
        -0.74178E+06
        -0.19019E+07
        -0.81639E+06
        -0.12377E+07
        -0.38696E+06
        -0.38512E+07
        -0.21763E+07
        -0.14408E+07
        -0.12939E+07
        -0.29658E+06
        -0.52467E+06
         0.42464E+06
         0.89584E+06
        -0.10210E+07
        -0.69738E+06
        -0.39282E+06
        -0.12812E+07
        -0.85897E+06
        -0.62028E+06
        -0.91078E+06
        -0.15455E+07
        -0.14094E+07
        -0.16065E+07
        -0.11394E+07
        -0.53773E+06
        -0.32138E+06
        -0.36563E+06
         0.40551E+06
         0.77106E+06
         0.19396E+06
         0.31859E+06
        -0.27101E+07
        -0.70508E+06
        -0.16408E+07
         0.16810E+06
         0.17227E+07
         0.28248E+07
         0.23105E+07
         0.25065E+07
         0.19558E+07
         0.95537E+06
        -0.75448E+03
        -0.78636E+06
        -0.13502E+07
        -0.45507E+06
        -0.18479E+07
        -0.29082E+07
        -0.25099E+07
        -0.20928E+07
        -0.11102E+07
         0.37227E+06
         0.35239E+06
        -0.12540E+06
        -0.97404E+06
        -0.14806E+07
        -0.10576E+07
        -0.27801E+06
         0.80804E+06
         0.31899E+06
         0.45959E+06
         0.46371E+06
         0.22305E+06
         0.55293E+06
        -0.44640E+06
        -0.93718E+06
         0.10582E+07
        -0.11101E+07
        -0.10107E+07
        -0.12039E+06
        -0.18820E+06
        -0.30382E+07
        -0.10010E+07
        -0.41577E+06
         0.17584E+05
         0.58732E+06
        -0.18905E+06
        -0.25232E+06
        -0.13094E+07
        -0.74559E+06
        -0.19081E+07
        -0.82357E+06
        -0.12783E+07
        -0.40160E+06
        -0.38796E+07
        -0.21933E+07
        -0.14494E+07
        -0.13049E+07
        -0.34707E+06
        -0.55464E+06
         0.39045E+06
         0.88220E+06
        -0.10342E+07
        -0.71137E+06
        -0.40939E+06
        -0.12953E+07
        -0.87242E+06
        -0.62784E+06
        -0.91403E+06
        -0.15475E+07
        -0.14103E+07
        -0.16184E+07
        -0.11616E+07
        -0.56915E+06
        -0.36364E+06
        -0.42813E+06
         0.34237E+06
         0.72914E+06
         0.17011E+06
         0.31077E+06
        -0.27259E+07
        -0.71736E+06
        -0.16502E+07
         0.15729E+06
         0.17071E+07
         0.28060E+07
         0.22950E+07
         0.24931E+07
         0.19425E+07
         0.94542E+06
        -0.87076E+04
        -0.79602E+06
        -0.13519E+07
        -0.45745E+06
        -0.18545E+07
        -0.29120E+07
        -0.25174E+07
        -0.21197E+07
        -0.11501E+07
         0.32817E+06
         0.30291E+06
        -0.18655E+06
        -0.10276E+07
        -0.15090E+07
        -0.10729E+07
        -0.29008E+06
         0.79111E+06
         0.30648E+06
         0.45167E+06
         0.45837E+06
         0.21529E+06
         0.54617E+06
        -0.45910E+06
        -0.95397E+06
         0.10444E+07
        -0.11298E+07
        -0.10214E+07
        -0.13198E+06
        -0.20147E+06
        -0.30487E+07
        -0.10105E+07
        -0.42553E+06
         0.85555E+04
         0.58256E+06
        -0.19490E+06
        -0.25827E+06
        -0.13179E+07
        -0.75459E+06
        -0.19163E+07
        -0.82906E+06
        -0.12934E+07
        -0.40999E+06
        -0.38918E+07
        -0.22019E+07
        -0.14623E+07
        -0.13153E+07
        -0.36412E+06
        -0.56642E+06
         0.38065E+06
         0.87454E+06
        -0.10454E+07
        -0.71880E+06
        -0.41943E+06
        -0.13130E+07
        -0.88789E+06
        -0.64332E+06
        -0.92983E+06
        -0.15603E+07
        -0.14183E+07
        -0.16290E+07
        -0.11747E+07
        -0.58381E+06
        -0.37746E+06
        -0.44381E+06
         0.32683E+06
         0.71458E+06
         0.15542E+06
         0.30091E+06
        -0.27477E+07
        -0.73871E+06
        -0.16647E+07
         0.14234E+06
         0.16891E+07
         0.27901E+07
         0.22786E+07
         0.24704E+07
         0.19127E+07
         0.91410E+06
        -0.37094E+05
        -0.80885E+06
        -0.13620E+07
        -0.47919E+06
        -0.18775E+07
        -0.29338E+07
        -0.25456E+07
        -0.21468E+07
        -0.11728E+07
         0.30972E+06
         0.28789E+06
        -0.20691E+06
        -0.10544E+07
        -0.15340E+07
        -0.10941E+07
        -0.31111E+06
         0.80164E+06
         0.31481E+06
         0.45776E+06
         0.46102E+06
         0.22491E+06
         0.54902E+06
        -0.45333E+06
        -0.94013E+06
         0.10541E+07
        -0.11168E+07
        -0.10130E+07
        -0.12054E+06
        -0.19329E+06
        -0.30331E+07
        -0.99195E+06
        -0.41444E+06
         0.16752E+05
         0.58893E+06
        -0.18381E+06
        -0.24890E+06
        -0.13058E+07
        -0.74346E+06
        -0.19043E+07
        -0.81945E+06
        -0.12844E+07
        -0.40108E+06
        -0.38746E+07
        -0.21895E+07
        -0.14568E+07
        -0.13059E+07
        -0.35553E+06
        -0.55949E+06
         0.38818E+06
         0.87708E+06
        -0.10334E+07
        -0.70955E+06
        -0.41133E+06
        -0.13009E+07
        -0.87864E+06
        -0.63521E+06
        -0.91909E+06
        -0.15491E+07
        -0.14064E+07
        -0.16181E+07
        -0.11656E+07
        -0.57431E+06
        -0.36814E+06
        -0.43326E+06
         0.33729E+06
         0.72270E+06
         0.16187E+06
         0.30369E+06
        -0.27152E+07
        -0.70669E+06
        -0.16455E+07
         0.15017E+06
         0.17050E+07
         0.28149E+07
         0.23062E+07
         0.24900E+07
         0.19204E+07
         0.92579E+06
        -0.16122E+05
        -0.77908E+06
        -0.13360E+07
        -0.46233E+06
        -0.18616E+07
        -0.29155E+07
        -0.25269E+07
        -0.21237E+07
        -0.11509E+07
         0.33540E+06
         0.31445E+06
        -0.18325E+06
        -0.10345E+07
        -0.15164E+07
        -0.10765E+07
        -0.29211E+06
         0.79876E+06
         0.31400E+06
         0.45617E+06
         0.45770E+06
         0.22377E+06
         0.54566E+06
        -0.45642E+06
        -0.94394E+06
         0.10475E+07
        -0.11242E+07
        -0.10174E+07
        -0.12760E+06
        -0.19550E+06
        -0.30372E+07
        -0.10020E+07
        -0.42074E+06
         0.10834E+05
         0.58374E+06
        -0.18863E+06
        -0.25338E+06
        -0.13101E+07
        -0.74918E+06
        -0.19085E+07
        -0.82310E+06
        -0.12896E+07
        -0.40463E+06
        -0.38786E+07
        -0.21895E+07
        -0.14623E+07
        -0.13109E+07
        -0.36143E+06
        -0.56301E+06
         0.38366E+06
         0.87142E+06
        -0.10377E+07
        -0.71272E+06
        -0.41354E+06
        -0.13163E+07
        -0.88755E+06
        -0.64332E+06
        -0.92679E+06
        -0.15543E+07
        -0.14133E+07
        -0.16209E+07
        -0.11683E+07
        -0.57892E+06
        -0.37446E+06
        -0.44053E+06
         0.33125E+06
         0.71699E+06
         0.15619E+06
         0.29815E+06
        -0.27245E+07
        -0.71405E+06
        -0.16606E+07
         0.13722E+06
         0.17033E+07
         0.28058E+07
         0.22850E+07
         0.24663E+07
         0.19066E+07
         0.90496E+06
        -0.38876E+05
        -0.79040E+06
        -0.13494E+07
        -0.46966E+06
        -0.18686E+07
        -0.29220E+07
        -0.25278E+07
        -0.21283E+07
        -0.11573E+07
         0.31802E+06
         0.29302E+06
        -0.19979E+06
        -0.10428E+07
        -0.15204E+07
        -0.10860E+07
        -0.30557E+06
         0.79091E+06
         0.30757E+06
         0.45163E+06
         0.45612E+06
         0.21849E+06
         0.54373E+06
        -0.46266E+06
        -0.95005E+06
         0.10415E+07
        -0.11316E+07
        -0.10223E+07
        -0.13695E+06
        -0.20165E+06
        -0.30398E+07
        -0.10122E+07
        -0.42923E+06
         0.61020E+04
         0.58113E+06
        -0.19458E+06
        -0.25656E+06
        -0.13156E+07
        -0.75499E+06
        -0.19150E+07
        -0.82876E+06
        -0.12948E+07
        -0.41122E+06
        -0.38815E+07
        -0.21909E+07
        -0.14683E+07
        -0.13147E+07
        -0.36955E+06
        -0.56886E+06
         0.38187E+06
         0.87037E+06
        -0.10476E+07
        -0.71848E+06
        -0.41885E+06
        -0.13311E+07
        -0.89745E+06
        -0.65047E+06
        -0.93122E+06
        -0.15588E+07
        -0.14196E+07
        -0.16264E+07
        -0.11736E+07
        -0.58517E+06
        -0.38035E+06
        -0.44686E+06
         0.32549E+06
         0.71198E+06
         0.15081E+06
         0.29586E+06
        -0.27433E+07
        -0.72964E+06
        -0.16721E+07
         0.13329E+06
         0.16983E+07
         0.27873E+07
         0.22583E+07
         0.24448E+07
         0.18923E+07
         0.89000E+06
        -0.48175E+05
        -0.80157E+06
        -0.13655E+07
        -0.48058E+06
        -0.18802E+07
        -0.29354E+07
        -0.25366E+07
        -0.21387E+07
        -0.11701E+07
         0.30369E+06
         0.27676E+06
        -0.21671E+06
        -0.10548E+07
        -0.15319E+07
        -0.11005E+07
        -0.32088E+06
         0.79583E+06
         0.31012E+06
         0.45387E+06
         0.46033E+06
         0.22518E+06
         0.54986E+06
        -0.45959E+06
        -0.94014E+06
         0.10463E+07
        -0.11260E+07
        -0.10145E+07
        -0.12916E+06
        -0.19930E+06
        -0.30253E+07
        -0.99501E+06
        -0.42332E+06
         0.92594E+04
         0.58746E+06
        -0.18789E+06
        -0.24894E+06
        -0.13059E+07
        -0.74504E+06
        -0.19069E+07
        -0.82288E+06
        -0.12911E+07
        -0.40563E+06
        -0.38706E+07
        -0.21827E+07
        -0.14618E+07
        -0.13044E+07
        -0.36294E+06
        -0.56411E+06
         0.39059E+06
         0.87669E+06
        -0.10403E+07
        -0.71244E+06
        -0.41536E+06
        -0.13215E+07
        -0.88825E+06
        -0.63831E+06
        -0.91924E+06
        -0.15503E+07
        -0.14100E+07
        -0.16196E+07
        -0.11679E+07
        -0.57985E+06
        -0.37460E+06
        -0.44054E+06
         0.33243E+06
         0.71889E+06
         0.15757E+06
         0.30306E+06
        -0.27195E+07
        -0.70383E+06
        -0.16477E+07
         0.14515E+06
         0.16945E+07
         0.27885E+07
         0.22774E+07
         0.24658E+07
         0.19067E+07
         0.91172E+06
        -0.27571E+05
        -0.79177E+06
        -0.13481E+07
        -0.46291E+06
        -0.18642E+07
        -0.29231E+07
        -0.25282E+07
        -0.21282E+07
        -0.11601E+07
         0.31914E+06
         0.29510E+06
        -0.19911E+06
        -0.10394E+07
        -0.15189E+07
        -0.10814E+07
        -0.29859E+06
         0.79211E+06
         0.30496E+06
         0.44947E+06
         0.45650E+06
         0.21979E+06
         0.54484E+06
        -0.46703E+06
        -0.94558E+06
         0.10416E+07
        -0.11351E+07
        -0.10218E+07
        -0.14075E+06
        -0.21151E+06
        -0.30312E+07
        -0.10022E+07
        -0.43031E+06
         0.32182E+04
         0.58188E+06
        -0.19518E+06
        -0.25433E+06
        -0.13162E+07
        -0.75559E+06
        -0.19179E+07
        -0.82942E+06
        -0.13005E+07
        -0.41143E+06
        -0.38810E+07
        -0.21909E+07
        -0.14723E+07
        -0.13109E+07
        -0.37057E+06
        -0.56963E+06
         0.38478E+06
         0.87156E+06
        -0.10497E+07
        -0.71923E+06
        -0.42425E+06
        -0.13376E+07
        -0.90383E+06
        -0.65176E+06
        -0.93400E+06
        -0.15643E+07
        -0.14207E+07
        -0.16313E+07
        -0.11778E+07
        -0.58898E+06
        -0.38309E+06
        -0.45035E+06
         0.32495E+06
         0.71325E+06
         0.15035E+06
         0.29671E+06
        -0.27380E+07
        -0.71981E+06
        -0.16660E+07
         0.12400E+06
         0.16699E+07
         0.27650E+07
         0.22629E+07
         0.24472E+07
         0.18825E+07
         0.88764E+06
        -0.56935E+05
        -0.82076E+06
        -0.13674E+07
        -0.48284E+06
        -0.18815E+07
        -0.29428E+07
        -0.25585E+07
        -0.21554E+07
        -0.11737E+07
         0.30020E+06
         0.27571E+06
        -0.20907E+06
        -0.10460E+07
        -0.15331E+07
        -0.11009E+07
        -0.31808E+06
         0.79136E+06
         0.30319E+06
         0.44814E+06
         0.45585E+06
         0.21967E+06
         0.54384E+06
        -0.46977E+06
        -0.94513E+06
         0.10424E+07
        -0.11351E+07
        -0.10226E+07
        -0.14243E+06
        -0.21365E+06
        -0.30279E+07
        -0.10014E+07
        -0.43220E+06
         0.32642E+04
         0.58138E+06
        -0.19586E+06
        -0.25414E+06
        -0.13182E+07
        -0.75716E+06
        -0.19203E+07
        -0.83070E+06
        -0.13023E+07
        -0.41320E+06
        -0.38790E+07
        -0.21911E+07
        -0.14772E+07
        -0.13125E+07
        -0.37501E+06
        -0.57173E+06
         0.38350E+06
         0.87048E+06
        -0.10522E+07
        -0.72115E+06
        -0.42679E+06
        -0.13455E+07
        -0.91295E+06
        -0.65752E+06
        -0.93567E+06
        -0.15659E+07
        -0.14222E+07
        -0.16330E+07
        -0.11793E+07
        -0.59109E+06
        -0.38570E+06
        -0.45431E+06
         0.32212E+06
         0.71207E+06
         0.14912E+06
         0.29543E+06
        -0.27384E+07
        -0.71939E+06
        -0.16708E+07
         0.11585E+06
         0.16695E+07
         0.27645E+07
         0.22571E+07
         0.24316E+07
         0.18650E+07
         0.87801E+06
        -0.57879E+05
        -0.82359E+06
        -0.13722E+07
        -0.49057E+06
        -0.18905E+07
        -0.29492E+07
        -0.25626E+07
        -0.21590E+07
        -0.11774E+07
         0.29337E+06
         0.26719E+06
        -0.21453E+06
        -0.10464E+07
        -0.15349E+07
        -0.11096E+07
        -0.32602E+06
         0.80712E+06
         0.31911E+06
         0.46140E+06
         0.46563E+06
         0.23816E+06
         0.55719E+06
        -0.45552E+06
        -0.92532E+06
         0.10539E+07
        -0.11202E+07
        -0.10045E+07
        -0.11755E+06
        -0.19232E+06
        -0.30049E+07
        -0.97583E+06
        -0.41861E+06
         0.14649E+05
         0.59245E+06
        -0.18123E+06
        -0.23917E+06
        -0.12970E+07
        -0.73752E+06
        -0.19006E+07
        -0.81788E+06
        -0.12866E+07
        -0.40057E+06
        -0.38573E+07
        -0.21709E+07
        -0.14619E+07
        -0.12932E+07
        -0.36080E+06
        -0.55856E+06
         0.39599E+06
         0.87891E+06
        -0.10320E+07
        -0.70429E+06
        -0.40918E+06
        -0.13301E+07
        -0.89420E+06
        -0.63734E+06
        -0.91560E+06
        -0.15462E+07
        -0.14044E+07
        -0.16126E+07
        -0.11589E+07
        -0.57027E+06
        -0.36771E+06
        -0.43799E+06
         0.33598E+06
         0.72455E+06
         0.16306E+06
         0.30772E+06
        -0.26952E+07
        -0.67631E+06
        -0.16345E+07
         0.14208E+06
         0.17016E+07
         0.28051E+07
         0.22911E+07
         0.24574E+07
         0.18941E+07
         0.90980E+06
        -0.29230E+05
        -0.79001E+06
        -0.13456E+07
        -0.46102E+06
        -0.18569E+07
        -0.29142E+07
        -0.25229E+07
        -0.21164E+07
        -0.11408E+07
         0.33157E+06
         0.29983E+06
        -0.19028E+06
        -0.10195E+07
        -0.15029E+07
        -0.10751E+07
        -0.29120E+06
         0.80036E+06
         0.31445E+06
         0.45731E+06
         0.46074E+06
         0.23125E+06
         0.55200E+06
        -0.46236E+06
        -0.93266E+06
         0.10470E+07
        -0.11317E+07
        -0.10117E+07
        -0.12648E+06
        -0.19784E+06
        -0.30113E+07
        -0.98634E+06
        -0.42741E+06
         0.70835E+04
         0.58803E+06
        -0.19089E+06
        -0.24596E+06
        -0.13038E+07
        -0.74714E+06
        -0.19073E+07
        -0.82576E+06
        -0.12975E+07
        -0.40871E+06
        -0.38666E+07
        -0.21763E+07
        -0.14664E+07
        -0.12978E+07
        -0.36659E+06
        -0.56484E+06
         0.39255E+06
         0.87269E+06
        -0.10442E+07
        -0.71040E+06
        -0.41341E+06
        -0.13483E+07
        -0.90700E+06
        -0.64356E+06
        -0.92491E+06
        -0.15571E+07
        -0.14166E+07
        -0.16212E+07
        -0.11675E+07
        -0.57886E+06
        -0.37473E+06
        -0.44357E+06
         0.32973E+06
         0.71608E+06
         0.15437E+06
         0.30119E+06
        -0.27226E+07
        -0.69939E+06
        -0.16555E+07
         0.13090E+06
         0.16978E+07
         0.27946E+07
         0.22679E+07
         0.24294E+07
         0.18672E+07
         0.88583E+06
        -0.57534E+05
        -0.82241E+06
        -0.13685E+07
        -0.47238E+06
        -0.18623E+07
        -0.29177E+07
        -0.25339E+07
        -0.21356E+07
        -0.11550E+07
         0.31455E+06
         0.28430E+06
        -0.20779E+06
        -0.10381E+07
        -0.15148E+07
        -0.10862E+07
        -0.30964E+06
         0.78913E+06
         0.30269E+06
         0.44607E+06
         0.45392E+06
         0.21981E+06
         0.54163E+06
        -0.47258E+06
        -0.94156E+06
         0.10368E+07
        -0.11524E+07
        -0.10206E+07
        -0.14088E+06
        -0.20978E+06
        -0.30179E+07
        -0.99975E+06
        -0.43806E+06
        -0.43554E+04
         0.58279E+06
        -0.19880E+06
        -0.24884E+06
        -0.13123E+07
        -0.75841E+06
        -0.19155E+07
        -0.83255E+06
        -0.13161E+07
        -0.41670E+06
        -0.38881E+07
        -0.21856E+07
        -0.14479E+07
        -0.12841E+07
        -0.37640E+06
        -0.57373E+06
         0.38916E+06
         0.86838E+06
        -0.10578E+07
        -0.72073E+06
        -0.42386E+06
        -0.13751E+07
        -0.91961E+06
        -0.62497E+06
        -0.92574E+06
        -0.15690E+07
        -0.14330E+07
        -0.16305E+07
        -0.11785E+07
        -0.59268E+06
        -0.38714E+06
        -0.45339E+06
         0.32249E+06
         0.70929E+06
         0.14669E+06
         0.29310E+06
        -0.27409E+07
        -0.71617E+06
        -0.16698E+07
         0.11832E+06
         0.16804E+07
         0.27660E+07
         0.22352E+07
         0.23982E+07
         0.18402E+07
         0.87957E+06
        -0.10694E+06
        -0.90008E+06
        -0.14007E+07
        -0.49024E+06
        -0.18784E+07
        -0.29321E+07
        -0.25515E+07
        -0.21558E+07
        -0.11784E+07
         0.28793E+06
         0.26648E+06
        -0.22451E+06
        -0.10571E+07
        -0.15288E+07
        -0.11080E+07
        -0.33418E+06
         0.80414E+06
         0.31731E+06
         0.46047E+06
         0.46568E+06
         0.23942E+06
         0.55601E+06
        -0.46031E+06
        -0.92205E+06
         0.10449E+07
        -0.11556E+07
        -0.10043E+07
        -0.12232E+06
        -0.19403E+06
        -0.29960E+07
        -0.97688E+06
        -0.42431E+06
         0.34273E+04
         0.59322E+06
        -0.18193E+06
        -0.22474E+06
        -0.12946E+07
        -0.74124E+06
        -0.18996E+07
        -0.81870E+06
        -0.13129E+07
        -0.40293E+06
        -0.38916E+07
        -0.21726E+07
        -0.13844E+07
        -0.12239E+07
        -0.36439E+06
        -0.56034E+06
         0.40139E+06
         0.87958E+06
        -0.10361E+07
        -0.70198E+06
        -0.40721E+06
        -0.13740E+07
        -0.89802E+06
        -0.55342E+06
        -0.88711E+06
        -0.15489E+07
        -0.14226E+07
        -0.16129E+07
        -0.11586E+07
        -0.56954E+06
        -0.36838E+06
        -0.43847E+06
         0.33767E+06
         0.72627E+06
         0.16521E+06
         0.30762E+06
        -0.26964E+07
        -0.67241E+06
        -0.16250E+07
         0.14957E+06
         0.17004E+07
         0.27890E+07
         0.22671E+07
         0.24304E+07
         0.18757E+07
         0.94877E+06
        -0.12295E+06
        -0.96259E+06
        -0.13984E+07
        -0.46574E+06
        -0.18579E+07
        -0.29149E+07
        -0.25300E+07
        -0.21202E+07
        -0.11346E+07
         0.32880E+06
         0.30187E+06
        -0.18809E+06
        -0.10159E+07
        -0.14908E+07
        -0.10772E+07
        -0.30193E+06
         0.74761E+06
         0.26321E+06
         0.40864E+06
         0.42194E+06
         0.17236E+06
         0.49597E+06
        -0.51289E+06
        -0.98706E+06
         0.98785E+06
        -0.12368E+07
        -0.10658E+07
        -0.21111E+06
        -0.27608E+06
        -0.30650E+07
        -0.10670E+07
        -0.47930E+06
        -0.50030E+05
         0.55071E+06
        -0.23847E+06
        -0.27220E+06
        -0.13709E+07
        -0.81609E+06
        -0.19735E+07
        -0.86786E+06
        -0.13863E+07
        -0.44963E+06
        -0.39762E+07
        -0.22301E+07
        -0.14136E+07
        -0.12652E+07
        -0.41773E+06
        -0.60852E+06
         0.35664E+06
         0.83168E+06
        -0.11171E+07
        -0.76919E+06
        -0.47988E+06
        -0.14779E+07
        -0.97905E+06
        -0.60109E+06
        -0.96283E+06
        -0.16307E+07
        -0.15043E+07
        -0.16839E+07
        -0.12320E+07
        -0.65592E+06
        -0.44038E+06
        -0.50269E+06
         0.27724E+06
         0.65883E+06
         0.83237E+05
         0.23880E+06
        -0.28512E+07
        -0.82261E+06
        -0.17813E+07
        -0.96167E+04
         0.15418E+07
         0.26361E+07
         0.21116E+07
         0.22635E+07
         0.17194E+07
         0.80631E+06
        -0.32142E+06
        -0.11785E+07
        -0.15512E+07
        -0.59248E+06
        -0.19909E+07
        -0.30532E+07
        -0.26728E+07
        -0.22799E+07
        -0.12987E+07
         0.17138E+06
         0.15603E+06
        -0.32773E+06
        -0.11588E+07
        -0.16376E+07
        -0.12183E+07
        -0.44217E+06
         0.77978E+06
         0.26687E+06
         0.41833E+06
         0.43959E+06
         0.19561E+06
         0.51633E+06
        -0.50740E+06
        -0.94602E+06
         0.10258E+07
        -0.11777E+07
        -0.10486E+07
        -0.20954E+06
        -0.29719E+06
        -0.30164E+07
        -0.10259E+07
        -0.43767E+06
        -0.15532E+05
         0.57503E+06
        -0.20790E+06
        -0.24292E+06
        -0.13359E+07
        -0.79030E+06
        -0.19204E+07
        -0.83117E+06
        -0.13239E+07
        -0.41556E+06
        -0.39038E+07
        -0.21621E+07
        -0.13611E+07
        -0.12043E+07
        -0.38622E+06
        -0.58712E+06
         0.37156E+06
         0.82465E+06
        -0.11051E+07
        -0.77399E+06
        -0.50036E+06
        -0.14303E+07
        -0.92219E+06
        -0.55164E+06
        -0.92864E+06
        -0.15848E+07
        -0.14555E+07
        -0.16351E+07
        -0.12048E+07
        -0.64259E+06
        -0.42933E+06
        -0.47553E+06
         0.29767E+06
         0.65998E+06
         0.88663E+05
         0.24046E+06
        -0.27916E+07
        -0.74507E+06
        -0.17616E+07
        -0.43967E+05
         0.14706E+07
         0.25926E+07
         0.21827E+07
         0.23365E+07
         0.17776E+07
         0.84088E+06
        -0.31174E+06
        -0.11490E+07
        -0.14934E+07
        -0.56387E+06
        -0.19306E+07
        -0.29670E+07
        -0.25991E+07
        -0.22236E+07
        -0.12743E+07
         0.16854E+06
         0.18854E+06
        -0.28132E+06
        -0.10850E+07
        -0.15481E+07
        -0.11479E+07
        -0.36928E+06
         0.22228E+09
         0.21596E+09
         0.21275E+09
         0.18114E+09
         0.26641E+09
         0.23795E+09
         0.21300E+09
         0.25224E+09
         0.20576E+09
         0.25211E+09
         0.25092E+09
         0.33983E+09
         0.29926E+09
         0.27381E+09
         0.35024E+09
         0.20410E+09
         0.19857E+09
         0.15666E+09
         0.21613E+09
         0.20439E+09
         0.27462E+09
         0.27596E+09
         0.26102E+09
         0.19447E+09
         0.23985E+09
         0.17028E+09
         0.26986E+09
         0.21478E+09
         0.23247E+09
         0.24980E+09
         0.20152E+09
         0.18900E+09
         0.18129E+09
         0.18730E+09
         0.30283E+09
         0.25722E+09
         0.26548E+09
         0.32812E+09
         0.31061E+09
         0.30385E+09
         0.32058E+09
         0.30012E+09
         0.28445E+09
         0.25020E+09
         0.25869E+09
         0.30692E+09
         0.26724E+09
         0.24382E+09
         0.23169E+09
         0.24681E+09
         0.28832E+09
         0.25203E+09
         0.56485E+09
         0.55347E+09
         0.56393E+09
         0.54626E+09
         0.56406E+09
         0.59220E+09
         0.59463E+09
         0.58777E+09
         0.59224E+09
         0.60865E+09
         0.58953E+09
         0.55531E+09
         0.49191E+09
         0.46420E+09
         0.47125E+09
         0.48246E+09
         0.48909E+09
         0.53341E+09
         0.57174E+09
         0.57460E+09
         0.52666E+09
         0.50778E+09
         0.52590E+09
         0.51981E+09
         0.51602E+09
         0.51707E+09
         0.25990E+10
         0.27218E+10
         0.26824E+10
         0.24465E+10
         0.30149E+10
         0.28308E+10
         0.29448E+10
         0.29690E+10
         0.25404E+10
         0.29674E+10
         0.32346E+10
         0.36272E+10
         0.32875E+10
         0.33290E+10
         0.37541E+10
         0.24894E+10
         0.26755E+10
         0.23334E+10
         0.27637E+10
         0.29079E+10
         0.30106E+10
         0.30763E+10
         0.28895E+10
         0.26574E+10
         0.30015E+10
         0.25637E+10
         0.33169E+10
         0.32603E+10
         0.32751E+10
         0.31079E+10
         0.25160E+10
         0.26458E+10
         0.24661E+10
         0.25794E+10
         0.33017E+10
         0.30284E+10
         0.30388E+10
         0.36348E+10
         0.35412E+10
         0.34986E+10
         0.35608E+10
         0.33812E+10
         0.31975E+10
         0.28205E+10
         0.29369E+10
         0.33007E+10
         0.30513E+10
         0.28686E+10
         0.28114E+10
         0.29154E+10
         0.31664E+10
         0.29240E+10
         0.52371E+10
         0.51026E+10
         0.52092E+10
         0.50462E+10
         0.51965E+10
         0.54632E+10
         0.55514E+10
         0.55397E+10
         0.55789E+10
         0.57062E+10
         0.55408E+10
         0.52089E+10
         0.46697E+10
         0.44134E+10
         0.44253E+10
         0.44819E+10
         0.45255E+10
         0.49077E+10
         0.52595E+10
         0.52808E+10
         0.48876E+10
         0.47365E+10
         0.48929E+10
         0.48578E+10
         0.48023E+10
         0.47889E+10
  
SCALARS                      stress_yy  double 1
LOOKUP_TABLE default
         0.55528E+12
         0.54755E+12
         0.55245E+12
         0.56124E+12
        -0.13460E+03
        -0.15093E+03
        -0.14452E+03
        -0.13129E+03
         0.54728E+12
         0.54990E+12
        -0.13572E+03
        -0.13135E+03
         0.53635E+12
         0.53594E+12
        -0.16127E+03
        -0.15163E+03
         0.55995E+12
         0.53654E+12
        -0.11916E+03
        -0.13217E+03
         0.52793E+12
         0.52124E+12
         0.53189E+12
        -0.15984E+03
        -0.13959E+03
        -0.14414E+03
         0.52150E+12
         0.51173E+12
        -0.15334E+03
        -0.12932E+03
         0.55953E+12
         0.54935E+12
         0.56939E+12
        -0.13085E+03
        -0.12165E+03
        -0.11827E+03
         0.55364E+12
         0.54066E+12
        -0.13844E+03
        -0.12632E+03
         0.54850E+12
         0.53849E+12
        -0.11965E+03
        -0.10592E+03
         0.55697E+12
         0.56073E+12
        -0.13112E+03
        -0.14651E+03
         0.53045E+12
        -0.12809E+03
         0.55999E+12
        -0.15051E+03
         0.51869E+12
        -0.13527E+03
         0.51561E+12
        -0.12975E+03
         0.51566E+12
         0.52658E+12
        -0.13220E+03
        -0.12875E+03
         0.55932E+12
         0.55541E+12
        -0.13256E+03
        -0.14986E+03
         0.56176E+12
        -0.12792E+03
         0.55711E+12
        -0.13960E+03
         0.54487E+12
         0.54365E+12
        -0.13438E+03
        -0.14081E+03
         0.54088E+12
        -0.14199E+03
         0.50825E+12
        -0.11218E+03
         0.50654E+12
        -0.10889E+03
         0.50739E+12
        -0.11481E+03
         0.51212E+12
         0.51704E+12
        -0.10939E+03
        -0.11405E+03
         0.52693E+12
        -0.10622E+03
         0.55677E+12
        -0.13929E+03
         0.55212E+12
        -0.14256E+03
         0.54830E+12
         0.54621E+12
        -0.13691E+03
        -0.13850E+03
         0.54879E+12
        -0.12580E+03
         0.55063E+12
        -0.12401E+03
         0.54897E+12
        -0.13275E+03
         0.54838E+12
         0.55006E+12
        -0.13018E+03
        -0.13400E+03
         0.53916E+12
         0.54358E+12
        -0.10107E+03
        -0.95065E+02
         0.53833E+12
        -0.96512E+02
         0.54343E+12
        -0.92539E+02
         0.53839E+12
        -0.91250E+02
         0.52724E+12
        -0.86232E+02
         0.51641E+12
        -0.76607E+02
         0.50992E+12
        -0.68981E+02
         0.50926E+12
        -0.68502E+02
         0.50947E+12
        -0.74286E+02
         0.51651E+12
        -0.78072E+02
         0.52964E+12
        -0.71288E+02
         0.54405E+12
        -0.64259E+02
         0.55249E+12
        -0.64186E+02
         0.56081E+12
        -0.71744E+02
         0.56631E+12
        -0.81804E+02
         0.56611E+12
        -0.87883E+02
         0.55275E+12
        -0.94913E+02
         0.54343E+12
        -0.10169E+03
         0.54023E+12
        -0.93151E+02
         0.54522E+12
        -0.81718E+02
         0.54783E+12
        -0.81466E+02
         0.54346E+12
        -0.89133E+02
         0.54353E+12
        -0.95022E+02
         0.54683E+12
        -0.90176E+02
         0.55112E+12
        -0.87178E+02
        -0.32310E+11
        -0.32320E+11
        -0.32320E+11
        -0.32298E+11
        -0.32310E+11
        -0.32320E+11
        -0.32304E+11
        -0.32317E+11
        -0.32305E+11
        -0.32320E+11
        -0.32279E+11
        -0.32269E+11
        -0.32293E+11
        -0.32295E+11
        -0.32280E+11
        -0.32300E+11
        -0.32307E+11
        -0.32284E+11
        -0.32320E+11
        -0.32320E+11
        -0.32319E+11
        -0.32320E+11
        -0.32317E+11
        -0.32318E+11
        -0.32320E+11
        -0.32320E+11
        -0.32312E+11
        -0.32314E+11
        -0.32298E+11
        -0.32318E+11
        -0.32304E+11
        -0.32320E+11
        -0.32304E+11
        -0.32319E+11
        -0.32262E+11
        -0.32296E+11
        -0.32307E+11
        -0.32293E+11
        -0.32291E+11
        -0.32259E+11
        -0.32228E+11
        -0.32293E+11
        -0.32319E+11
        -0.32318E+11
        -0.32306E+11
        -0.32263E+11
        -0.32301E+11
        -0.32320E+11
        -0.32319E+11
        -0.32306E+11
        -0.32278E+11
        -0.32312E+11
        -0.32129E+11
        -0.32207E+11
        -0.32195E+11
        -0.32212E+11
        -0.32208E+11
        -0.32168E+11
        -0.32122E+11
        -0.32105E+11
        -0.32112E+11
        -0.32107E+11
        -0.32085E+11
        -0.32204E+11
        -0.32238E+11
        -0.32250E+11
        -0.32268E+11
        -0.32280E+11
        -0.32279E+11
        -0.32258E+11
        -0.32157E+11
        -0.32185E+11
        -0.32222E+11
        -0.32221E+11
        -0.32215E+11
        -0.32180E+11
        -0.32230E+11
        -0.32246E+11
         0.24784E+06
        -0.25380E+06
        -0.65427E+05
         0.88588E+06
         0.32671E+06
         0.10648E+07
        -0.46147E+06
        -0.13844E+07
         0.63715E+06
        -0.14407E+07
        -0.14707E+07
        -0.10975E+07
        -0.29981E+06
        -0.22398E+07
        -0.17513E+07
         0.15384E+06
         0.55074E+06
         0.73508E+06
        -0.52210E+06
         0.91032E+05
        -0.21918E+06
         0.37016E+06
        -0.56602E+06
        -0.23872E+06
        -0.14982E+07
        -0.14699E+06
        -0.29875E+07
        -0.20099E+07
        -0.10552E+07
        -0.13145E+07
         0.19286E+05
        -0.54161E+05
         0.61062E+06
         0.10384E+07
         0.52609E+05
        -0.58317E+05
        -0.17485E+05
        -0.17248E+07
        -0.17312E+07
        -0.12360E+07
        -0.17804E+06
        -0.24681E+06
        -0.18005E+06
        -0.66262E+06
        -0.75600E+06
        -0.12129E+07
        -0.55945E+06
        -0.10866E+06
        -0.20913E+06
         0.67905E+05
         0.49238E+06
         0.12434E+07
        -0.13302E+07
         0.58429E+06
        -0.10010E+07
         0.22870E+06
         0.11067E+07
         0.16719E+07
         0.10619E+07
         0.13986E+07
         0.93926E+06
         0.28903E+06
         0.67136E+06
         0.76267E+06
         0.18556E+06
         0.97266E+06
        -0.36117E+06
        -0.14254E+07
        -0.15557E+07
        -0.17665E+07
        -0.19372E+07
        -0.82752E+06
        -0.68087E+06
        -0.11198E+07
        -0.16712E+07
        -0.11376E+07
         0.12220E+06
         0.91713E+06
         0.18759E+06
        -0.31122E+06
        -0.12150E+06
         0.84091E+06
         0.25413E+06
         0.10006E+07
        -0.51579E+06
        -0.14552E+07
         0.57756E+06
        -0.15182E+07
        -0.15366E+07
        -0.11928E+07
        -0.38167E+06
        -0.23118E+07
        -0.18470E+07
         0.91659E+05
         0.49418E+06
         0.69171E+06
        -0.58623E+06
         0.31056E+05
        -0.30106E+06
         0.29087E+06
        -0.64953E+06
        -0.29737E+06
        -0.15774E+07
        -0.20271E+06
        -0.30574E+07
        -0.20706E+07
        -0.11194E+07
        -0.13958E+07
        -0.38920E+05
        -0.10701E+06
         0.56220E+06
         0.99338E+06
        -0.30113E+05
        -0.12705E+06
        -0.88697E+05
        -0.18204E+07
        -0.18196E+07
        -0.13221E+07
        -0.27205E+06
        -0.33812E+06
        -0.26720E+06
        -0.74257E+06
        -0.83101E+06
        -0.12969E+07
        -0.63416E+06
        -0.17726E+06
        -0.26985E+06
         0.52302E+04
         0.41592E+06
         0.11758E+07
        -0.14853E+07
         0.43282E+06
        -0.11503E+07
         0.85940E+05
         0.95561E+06
         0.15037E+07
         0.89399E+06
         0.12289E+07
         0.76752E+06
         0.11350E+06
         0.49675E+06
         0.60114E+06
         0.50847E+05
         0.84679E+06
        -0.49301E+06
        -0.15663E+07
        -0.16999E+07
        -0.19171E+07
        -0.20884E+07
        -0.98724E+06
        -0.83167E+06
        -0.12560E+07
        -0.18077E+07
        -0.12770E+07
        -0.18711E+05
         0.77373E+06
         0.20182E+06
        -0.29995E+06
        -0.10968E+06
         0.85273E+06
         0.27261E+06
         0.10173E+07
        -0.50533E+06
        -0.14411E+07
         0.58704E+06
        -0.15177E+07
        -0.15240E+07
        -0.11744E+07
        -0.36596E+06
        -0.22930E+07
        -0.18245E+07
         0.79304E+05
         0.49119E+06
         0.70355E+06
        -0.60232E+06
         0.19926E+05
        -0.31490E+06
         0.28566E+06
        -0.70431E+06
        -0.33965E+06
        -0.16132E+07
        -0.24163E+06
        -0.30439E+07
        -0.20788E+07
        -0.11449E+07
        -0.14530E+07
        -0.38542E+05
        -0.11884E+06
         0.57304E+06
         0.10075E+07
        -0.84454E+04
        -0.10997E+06
        -0.72995E+05
        -0.18045E+07
        -0.18063E+07
        -0.13174E+07
        -0.27455E+06
        -0.37126E+06
        -0.31419E+06
        -0.79620E+06
        -0.84400E+06
        -0.12855E+07
        -0.62074E+06
        -0.16128E+06
        -0.25272E+06
         0.25064E+05
         0.43757E+06
         0.11948E+07
        -0.14390E+07
         0.47423E+06
        -0.11045E+07
         0.12131E+06
         0.98178E+06
         0.15300E+07
         0.92744E+06
         0.12625E+07
         0.80130E+06
         0.14862E+06
         0.51747E+06
         0.60032E+06
         0.53031E+05
         0.86991E+06
        -0.47763E+06
        -0.15950E+07
        -0.17311E+07
        -0.19091E+07
        -0.20470E+07
        -0.93915E+06
        -0.78881E+06
        -0.12126E+07
        -0.17591E+07
        -0.12359E+07
         0.14826E+05
         0.80615E+06
         0.19332E+06
        -0.30483E+06
        -0.11445E+06
         0.84544E+06
         0.26538E+06
         0.10114E+07
        -0.51053E+06
        -0.14517E+07
         0.56954E+06
        -0.15524E+07
        -0.15314E+07
        -0.11841E+07
        -0.37242E+06
        -0.23007E+07
        -0.18371E+07
         0.29872E+05
         0.45775E+06
         0.69586E+06
        -0.65847E+06
        -0.30482E+05
        -0.37713E+06
         0.23086E+06
        -0.83181E+06
        -0.43426E+06
        -0.17068E+07
        -0.33058E+06
        -0.30630E+07
        -0.21280E+07
        -0.12238E+07
        -0.15883E+07
        -0.66611E+05
        -0.16633E+06
         0.56413E+06
         0.99979E+06
        -0.19048E+05
        -0.11706E+06
        -0.78735E+05
        -0.18226E+07
        -0.18287E+07
        -0.13566E+07
        -0.32793E+06
        -0.47465E+06
        -0.44137E+06
        -0.92243E+06
        -0.90625E+06
        -0.13194E+07
        -0.64488E+06
        -0.17368E+06
        -0.26270E+06
         0.13559E+05
         0.42602E+06
         0.11874E+07
        -0.14606E+07
         0.45925E+06
        -0.11282E+07
         0.10072E+06
         0.96783E+06
         0.15141E+07
         0.90079E+06
         0.12336E+07
         0.77320E+06
         0.11463E+06
         0.46369E+06
         0.51339E+06
        -0.28625E+05
         0.83113E+06
        -0.52113E+06
        -0.17148E+07
        -0.18583E+07
        -0.19687E+07
        -0.20753E+07
        -0.96604E+06
        -0.80941E+06
        -0.12369E+07
        -0.17845E+07
        -0.12529E+07
         0.19835E+04
         0.79343E+06
         0.17779E+06
        -0.31472E+06
        -0.12268E+06
         0.83791E+06
         0.25713E+06
         0.10034E+07
        -0.51827E+06
        -0.14682E+07
         0.54862E+06
        -0.15884E+07
        -0.15392E+07
        -0.11902E+07
        -0.37964E+06
        -0.23092E+07
        -0.18436E+07
        -0.35012E+04
         0.43121E+06
         0.68874E+06
        -0.69560E+06
        -0.66679E+05
        -0.41733E+06
         0.19149E+06
        -0.91018E+06
        -0.49276E+06
        -0.17749E+07
        -0.38728E+06
        -0.30797E+07
        -0.21636E+07
        -0.12779E+07
        -0.16785E+07
        -0.95895E+05
        -0.20067E+06
         0.54835E+06
         0.98919E+06
        -0.30005E+05
        -0.12608E+06
        -0.87339E+05
        -0.18362E+07
        -0.18474E+07
        -0.13865E+07
        -0.36567E+06
        -0.54411E+06
        -0.52480E+06
        -0.10029E+07
        -0.94749E+06
        -0.13418E+07
        -0.66632E+06
        -0.19384E+06
        -0.28038E+06
        -0.36544E+04
         0.40802E+06
         0.11753E+07
        -0.14801E+07
         0.44616E+06
        -0.11485E+07
         0.84688E+05
         0.96127E+06
         0.15095E+07
         0.88948E+06
         0.12146E+07
         0.74933E+06
         0.93584E+05
         0.43094E+06
         0.45321E+06
        -0.84294E+05
         0.80116E+06
        -0.55185E+06
        -0.17926E+07
        -0.19477E+07
        -0.20113E+07
        -0.20883E+07
        -0.99046E+06
        -0.83668E+06
        -0.12648E+07
        -0.18173E+07
        -0.12806E+07
        -0.15077E+05
         0.78073E+06
         0.14006E+06
        -0.33364E+06
        -0.13083E+06
         0.84392E+06
         0.26648E+06
         0.10149E+07
        -0.52377E+06
        -0.14959E+07
         0.51942E+06
        -0.16362E+07
        -0.15344E+07
        -0.11687E+07
        -0.37136E+06
        -0.23053E+07
        -0.18176E+07
         0.27812E+04
         0.42492E+06
         0.70086E+06
        -0.68855E+06
        -0.60990E+05
        -0.40618E+06
         0.20525E+06
        -0.90851E+06
        -0.49369E+06
        -0.18056E+07
        -0.39473E+06
        -0.30837E+07
        -0.21678E+07
        -0.12739E+07
        -0.16827E+07
        -0.13096E+06
        -0.21855E+06
         0.52309E+06
         0.98619E+06
        -0.20426E+05
        -0.12535E+06
        -0.88987E+05
        -0.18201E+07
        -0.18339E+07
        -0.13708E+07
        -0.34764E+06
        -0.53301E+06
        -0.51598E+06
        -0.10085E+07
        -0.95318E+06
        -0.13457E+07
        -0.68494E+06
        -0.23492E+06
        -0.32434E+06
        -0.27211E+05
         0.40208E+06
         0.11809E+07
        -0.14420E+07
         0.48538E+06
        -0.11167E+07
         0.10612E+06
         0.98369E+06
         0.15402E+07
         0.92424E+06
         0.12481E+07
         0.78741E+06
         0.14406E+06
         0.47506E+06
         0.47974E+06
        -0.54903E+05
         0.83172E+06
        -0.52224E+06
        -0.17690E+07
        -0.19309E+07
        -0.19944E+07
        -0.20679E+07
        -0.97626E+06
        -0.83987E+06
        -0.12842E+07
        -0.18302E+07
        -0.12740E+07
         0.41895E+04
         0.80833E+06
         0.82548E+05
        -0.36706E+06
        -0.15025E+06
         0.83925E+06
         0.25832E+06
         0.10138E+07
        -0.54588E+06
        -0.15485E+07
         0.47039E+06
        -0.17053E+07
        -0.15509E+07
        -0.11767E+07
        -0.38456E+06
        -0.23277E+07
        -0.18242E+07
        -0.71350E+04
         0.40295E+06
         0.69878E+06
        -0.69544E+06
        -0.69097E+05
        -0.41216E+06
         0.20133E+06
        -0.91475E+06
        -0.50057E+06
        -0.18479E+07
        -0.40862E+06
        -0.31121E+07
        -0.21861E+07
        -0.12789E+07
        -0.16944E+07
        -0.18019E+06
        -0.24810E+06
         0.48545E+06
         0.97211E+06
        -0.33276E+05
        -0.13988E+06
        -0.10583E+06
        -0.18344E+07
        -0.18477E+07
        -0.13780E+07
        -0.35113E+06
        -0.53441E+06
        -0.51688E+06
        -0.10212E+07
        -0.97626E+06
        -0.13774E+07
        -0.72771E+06
        -0.29700E+06
        -0.38728E+06
        -0.68668E+05
         0.37809E+06
         0.11727E+07
        -0.14578E+07
         0.47295E+06
        -0.11264E+07
         0.95300E+05
         0.96796E+06
         0.15215E+07
         0.90884E+06
         0.12349E+07
         0.77398E+06
         0.13406E+06
         0.46709E+06
         0.46996E+06
        -0.56614E+05
         0.82926E+06
        -0.52872E+06
        -0.17728E+07
        -0.19388E+07
        -0.20215E+07
        -0.21080E+07
        -0.10203E+07
        -0.88954E+06
        -0.13454E+07
        -0.18841E+07
        -0.13022E+07
        -0.10917E+05
         0.79657E+06
         0.65812E+05
        -0.37939E+06
        -0.15832E+06
         0.83297E+06
         0.24957E+06
         0.10060E+07
        -0.55723E+06
        -0.15675E+07
         0.45564E+06
        -0.17278E+07
        -0.15629E+07
        -0.11881E+07
        -0.39756E+06
        -0.23396E+07
        -0.18349E+07
        -0.16056E+05
         0.39390E+06
         0.69327E+06
        -0.70180E+06
        -0.75361E+05
        -0.42132E+06
         0.19220E+06
        -0.92295E+06
        -0.50579E+06
        -0.18647E+07
        -0.41626E+06
        -0.31243E+07
        -0.21959E+07
        -0.12881E+07
        -0.17055E+07
        -0.19601E+06
        -0.25951E+06
         0.47216E+06
         0.96396E+06
        -0.44123E+05
        -0.14786E+06
        -0.11615E+06
        -0.18523E+07
        -0.18635E+07
        -0.13931E+07
        -0.36717E+06
        -0.54671E+06
        -0.52492E+06
        -0.10327E+07
        -0.99026E+06
        -0.13923E+07
        -0.74212E+06
        -0.31235E+06
        -0.40268E+06
        -0.82759E+05
         0.36325E+06
         0.11625E+07
        -0.14795E+07
         0.45145E+06
        -0.11411E+07
         0.80352E+05
         0.94975E+06
         0.15057E+07
         0.89263E+06
         0.12125E+07
         0.74405E+06
         0.10269E+06
         0.43869E+06
         0.45702E+06
        -0.66816E+05
         0.80744E+06
        -0.55157E+06
        -0.17947E+07
        -0.19674E+07
        -0.20488E+07
        -0.21308E+07
        -0.10387E+07
        -0.90475E+06
        -0.13659E+07
        -0.19112E+07
        -0.13272E+07
        -0.31885E+05
         0.77585E+06
         0.76526E+05
        -0.37088E+06
        -0.15237E+06
         0.83467E+06
         0.25820E+06
         0.10078E+07
        -0.55012E+06
        -0.15558E+07
         0.46448E+06
        -0.17175E+07
        -0.15559E+07
        -0.11764E+07
        -0.38911E+06
        -0.23255E+07
        -0.18174E+07
        -0.41377E+04
         0.40206E+06
         0.69890E+06
        -0.69122E+06
        -0.66331E+05
        -0.40992E+06
         0.20321E+06
        -0.91108E+06
        -0.49587E+06
        -0.18573E+07
        -0.40662E+06
        -0.31072E+07
        -0.21848E+07
        -0.12790E+07
        -0.16968E+07
        -0.18617E+06
        -0.25223E+06
         0.47619E+06
         0.96603E+06
        -0.31695E+05
        -0.13916E+06
        -0.10831E+06
        -0.18405E+07
        -0.18546E+07
        -0.13847E+07
        -0.35666E+06
        -0.53489E+06
        -0.51305E+06
        -0.10226E+07
        -0.98197E+06
        -0.13831E+07
        -0.73335E+06
        -0.30149E+06
        -0.39208E+06
        -0.74166E+05
         0.36957E+06
         0.11649E+07
        -0.14470E+07
         0.48331E+06
        -0.11223E+07
         0.88173E+05
         0.96556E+06
         0.15306E+07
         0.92037E+06
         0.12324E+07
         0.75154E+06
         0.11433E+06
         0.45964E+06
         0.48667E+06
        -0.40837E+05
         0.82422E+06
        -0.53567E+06
        -0.17765E+07
        -0.19491E+07
        -0.20259E+07
        -0.21091E+07
        -0.10130E+07
        -0.87839E+06
        -0.13423E+07
        -0.18916E+07
        -0.13094E+07
        -0.14092E+05
         0.79515E+06
         0.73837E+05
        -0.37149E+06
        -0.15409E+06
         0.83043E+06
         0.25606E+06
         0.10035E+07
        -0.55185E+06
        -0.15619E+07
         0.45694E+06
        -0.17276E+07
        -0.15616E+07
        -0.11832E+07
        -0.39106E+06
        -0.23310E+07
        -0.18285E+07
        -0.95998E+04
         0.39610E+06
         0.69299E+06
        -0.69655E+06
        -0.71125E+05
        -0.41486E+06
         0.19736E+06
        -0.91535E+06
        -0.49922E+06
        -0.18642E+07
        -0.40945E+06
        -0.31112E+07
        -0.21861E+07
        -0.12809E+07
        -0.17025E+07
        -0.19085E+06
        -0.25540E+06
         0.46820E+06
         0.95988E+06
        -0.35629E+05
        -0.14287E+06
        -0.11079E+06
        -0.18561E+07
        -0.18638E+07
        -0.13924E+07
        -0.36460E+06
        -0.53956E+06
        -0.51993E+06
        -0.10262E+07
        -0.98561E+06
        -0.13880E+07
        -0.74026E+06
        -0.30846E+06
        -0.39796E+06
        -0.79408E+05
         0.36375E+06
         0.11590E+07
        -0.14563E+07
         0.47581E+06
        -0.11377E+07
         0.75214E+05
         0.96367E+06
         0.15215E+07
         0.89925E+06
         0.12089E+07
         0.73759E+06
         0.93455E+05
         0.43687E+06
         0.47524E+06
        -0.54248E+05
         0.81682E+06
        -0.54257E+06
        -0.17831E+07
        -0.19504E+07
        -0.20306E+07
        -0.21157E+07
        -0.10304E+07
        -0.90002E+06
        -0.13590E+07
        -0.19001E+07
        -0.13133E+07
        -0.23391E+05
         0.78200E+06
         0.66185E+05
        -0.37773E+06
        -0.15877E+06
         0.82789E+06
         0.24980E+06
         0.10005E+07
        -0.55676E+06
        -0.15701E+07
         0.45004E+06
        -0.17377E+07
        -0.15678E+07
        -0.11923E+07
        -0.39693E+06
        -0.23350E+07
        -0.18399E+07
        -0.17273E+05
         0.39130E+06
         0.68965E+06
        -0.70298E+06
        -0.74653E+05
        -0.42111E+06
         0.19143E+06
        -0.92181E+06
        -0.50458E+06
        -0.18710E+07
        -0.41531E+06
        -0.31142E+07
        -0.21887E+07
        -0.12831E+07
        -0.17070E+07
        -0.19774E+06
        -0.26091E+06
         0.46292E+06
         0.95835E+06
        -0.45193E+05
        -0.14917E+06
        -0.11639E+06
        -0.18711E+07
        -0.18740E+07
        -0.13992E+07
        -0.36925E+06
        -0.54352E+06
        -0.52622E+06
        -0.10326E+07
        -0.99172E+06
        -0.13945E+07
        -0.74674E+06
        -0.31446E+06
        -0.40357E+06
        -0.83949E+05
         0.35823E+06
         0.11563E+07
        -0.14751E+07
         0.46006E+06
        -0.11495E+07
         0.71270E+05
         0.95847E+06
         0.15031E+07
         0.87270E+06
         0.11876E+07
         0.72314E+06
         0.78438E+05
         0.42756E+06
         0.46395E+06
        -0.70353E+05
         0.80582E+06
        -0.55405E+06
        -0.17965E+07
        -0.19596E+07
        -0.20412E+07
        -0.21286E+07
        -0.10447E+07
        -0.91647E+06
        -0.13760E+07
        -0.19125E+07
        -0.13247E+07
        -0.37664E+05
         0.76700E+06
         0.71292E+05
        -0.37499E+06
        -0.15667E+06
         0.83114E+06
         0.25549E+06
         0.10056E+07
        -0.55231E+06
        -0.15624E+07
         0.45388E+06
        -0.17347E+07
        -0.15613E+07
        -0.11843E+07
        -0.39431E+06
        -0.23219E+07
        -0.18238E+07
        -0.10533E+05
         0.39438E+06
         0.69526E+06
        -0.69679E+06
        -0.67356E+05
        -0.41208E+06
         0.20127E+06
        -0.91381E+06
        -0.49840E+06
        -0.18689E+07
        -0.40899E+06
        -0.31033E+07
        -0.21817E+07
        -0.12730E+07
        -0.16974E+07
        -0.18989E+06
        -0.25581E+06
         0.46814E+06
         0.96417E+06
        -0.37501E+05
        -0.14368E+06
        -0.11316E+06
        -0.18618E+07
        -0.18651E+07
        -0.13867E+07
        -0.35750E+06
        -0.53450E+06
        -0.51668E+06
        -0.10267E+07
        -0.98689E+06
        -0.13895E+07
        -0.74155E+06
        -0.30785E+06
        -0.39649E+06
        -0.76563E+05
         0.36485E+06
         0.11631E+07
        -0.14513E+07
         0.48572E+06
        -0.11254E+07
         0.83123E+05
         0.95451E+06
         0.15045E+07
         0.89196E+06
         0.12089E+07
         0.73735E+06
         0.10011E+06
         0.44816E+06
         0.47363E+06
        -0.52984E+05
         0.82340E+06
        -0.53798E+06
        -0.17843E+07
        -0.19516E+07
        -0.20309E+07
        -0.21188E+07
        -0.10292E+07
        -0.89833E+06
        -0.13585E+07
        -0.18974E+07
        -0.13115E+07
        -0.18370E+05
         0.78960E+06
         0.67774E+05
        -0.37996E+06
        -0.16121E+06
         0.82633E+06
         0.24911E+06
         0.99955E+06
        -0.55837E+06
        -0.15700E+07
         0.44825E+06
        -0.17465E+07
        -0.15698E+07
        -0.11957E+07
        -0.40626E+06
        -0.23293E+07
        -0.18321E+07
        -0.16702E+05
         0.38826E+06
         0.68896E+06
        -0.70458E+06
        -0.73081E+05
        -0.42306E+06
         0.19060E+06
        -0.92482E+06
        -0.50463E+06
        -0.18799E+07
        -0.41406E+06
        -0.31138E+07
        -0.21911E+07
        -0.12798E+07
        -0.17045E+07
        -0.19628E+06
        -0.26098E+06
         0.45882E+06
         0.95856E+06
        -0.46634E+05
        -0.15101E+06
        -0.12231E+06
        -0.18781E+07
        -0.18810E+07
        -0.13998E+07
        -0.37249E+06
        -0.54798E+06
        -0.52734E+06
        -0.10392E+07
        -0.99768E+06
        -0.13989E+07
        -0.75063E+06
        -0.31734E+06
        -0.40382E+06
        -0.81735E+05
         0.35749E+06
         0.11564E+07
        -0.14698E+07
         0.46959E+06
        -0.11440E+07
         0.61963E+05
         0.92976E+06
         0.14810E+07
         0.87764E+06
         0.11906E+07
         0.71294E+06
         0.75987E+05
         0.41878E+06
         0.44452E+06
        -0.72238E+05
         0.80340E+06
        -0.55514E+06
        -0.18041E+07
        -0.19824E+07
        -0.20583E+07
        -0.21325E+07
        -0.10481E+07
        -0.91792E+06
        -0.13686E+07
        -0.19043E+07
        -0.13256E+07
        -0.37697E+05
         0.77042E+06
         0.67215E+05
        -0.38154E+06
        -0.16269E+06
         0.82469E+06
         0.24801E+06
         0.99751E+06
        -0.55977E+06
        -0.15717E+07
         0.44814E+06
        -0.17492E+07
        -0.15719E+07
        -0.11971E+07
        -0.40813E+06
        -0.23275E+07
        -0.18324E+07
        -0.17764E+05
         0.38821E+06
         0.68774E+06
        -0.70574E+06
        -0.73222E+05
        -0.42570E+06
         0.18891E+06
        -0.92730E+06
        -0.50561E+06
        -0.18834E+07
        -0.41512E+06
        -0.31118E+07
        -0.21925E+07
        -0.12810E+07
        -0.17068E+07
        -0.19950E+06
        -0.26275E+06
         0.45403E+06
         0.95698E+06
        -0.48743E+05
        -0.15348E+06
        -0.12511E+06
        -0.18863E+07
        -0.18904E+07
        -0.14051E+07
        -0.37439E+06
        -0.54906E+06
        -0.52887E+06
        -0.10417E+07
        -0.10001E+07
        -0.14013E+07
        -0.75382E+06
        -0.32098E+06
        -0.40649E+06
        -0.82446E+05
         0.35611E+06
         0.11547E+07
        -0.14702E+07
         0.46987E+06
        -0.11491E+07
         0.53798E+05
         0.92918E+06
         0.14807E+07
         0.87191E+06
         0.11752E+07
         0.69529E+06
         0.66311E+05
         0.41782E+06
         0.44157E+06
        -0.77076E+05
         0.79558E+06
        -0.56409E+06
        -0.18105E+07
        -0.19868E+07
        -0.20620E+07
        -0.21365E+07
        -0.10549E+07
        -0.92663E+06
        -0.13742E+07
        -0.19050E+07
        -0.13272E+07
        -0.46202E+05
         0.76279E+06
         0.83177E+05
        -0.36543E+06
        -0.14957E+06
         0.83350E+06
         0.26551E+06
         0.10098E+07
        -0.54412E+06
        -0.15541E+07
         0.45880E+06
        -0.17369E+07
        -0.15550E+07
        -0.11720E+07
        -0.38653E+06
        -0.23059E+07
        -0.18079E+07
        -0.33547E+04
         0.39948E+06
         0.69809E+06
        -0.69161E+06
        -0.58593E+05
        -0.40524E+06
         0.20843E+06
        -0.90761E+06
        -0.49250E+06
        -0.18694E+07
        -0.40176E+06
        -0.30902E+07
        -0.21735E+07
        -0.12620E+07
        -0.16882E+07
        -0.18406E+06
        -0.24925E+06
         0.46300E+06
         0.96491E+06
        -0.28212E+05
        -0.13716E+06
        -0.10776E+06
        -0.18712E+07
        -0.18720E+07
        -0.13846E+07
        -0.35456E+06
        -0.52880E+06
        -0.51105E+06
        -0.10221E+07
        -0.98061E+06
        -0.13807E+07
        -0.73639E+06
        -0.30437E+06
        -0.39248E+06
        -0.69487E+05
         0.36990E+06
         0.11666E+07
        -0.14270E+07
         0.51280E+06
        -0.11131E+07
         0.80018E+05
         0.96110E+06
         0.15214E+07
         0.90603E+06
         0.12012E+07
         0.72423E+06
         0.98061E+05
         0.44646E+06
         0.47504E+06
        -0.50533E+05
         0.82506E+06
        -0.53042E+06
        -0.17755E+07
        -0.19476E+07
        -0.20196E+07
        -0.21000E+07
        -0.10166E+07
        -0.89419E+06
        -0.13500E+07
        -0.18784E+07
        -0.12952E+07
        -0.11489E+05
         0.79792E+06
         0.76621E+05
        -0.36988E+06
        -0.15380E+06
         0.82761E+06
         0.25760E+06
         0.10036E+07
        -0.54958E+06
        -0.15636E+07
         0.45093E+06
        -0.17510E+07
        -0.15634E+07
        -0.11807E+07
        -0.39179E+06
        -0.23138E+07
        -0.18195E+07
        -0.11339E+05
         0.39178E+06
         0.69297E+06
        -0.70176E+06
        -0.65715E+05
        -0.41271E+06
         0.19870E+06
        -0.91442E+06
        -0.50008E+06
        -0.18819E+07
        -0.40918E+06
        -0.30996E+07
        -0.21799E+07
        -0.12628E+07
        -0.16935E+07
        -0.18863E+06
        -0.25520E+06
         0.45607E+06
         0.95819E+06
        -0.39986E+05
        -0.14381E+06
        -0.11225E+06
        -0.18897E+07
        -0.18851E+07
        -0.13904E+07
        -0.36410E+06
        -0.53923E+06
        -0.52333E+06
        -0.10315E+07
        -0.99007E+06
        -0.13896E+07
        -0.74400E+06
        -0.30964E+06
        -0.39857E+06
        -0.77477E+05
         0.36108E+06
         0.11597E+07
        -0.14544E+07
         0.48957E+06
        -0.11345E+07
         0.68833E+05
         0.95720E+06
         0.15109E+07
         0.88299E+06
         0.11735E+07
         0.69719E+06
         0.74042E+05
         0.41814E+06
         0.44253E+06
        -0.73452E+05
         0.81361E+06
        -0.53573E+06
        -0.17791E+07
        -0.19590E+07
        -0.20390E+07
        -0.21144E+07
        -0.10336E+07
        -0.90991E+06
        -0.13676E+07
        -0.18973E+07
        -0.13069E+07
        -0.22399E+05
         0.77979E+06
         0.65599E+05
        -0.38146E+06
        -0.16518E+06
         0.81979E+06
         0.24520E+06
         0.99222E+06
        -0.55841E+06
        -0.15746E+07
         0.43982E+06
        -0.17743E+07
        -0.15735E+07
        -0.11948E+07
        -0.40346E+06
        -0.23218E+07
        -0.18341E+07
        -0.21175E+05
         0.38020E+06
         0.68702E+06
        -0.71016E+06
        -0.68940E+05
        -0.42185E+06
         0.18732E+06
        -0.92263E+06
        -0.50655E+06
        -0.19021E+07
        -0.41644E+06
        -0.31211E+07
        -0.21904E+07
        -0.12407E+07
        -0.16805E+07
        -0.19720E+06
        -0.26375E+06
         0.44917E+06
         0.95338E+06
        -0.53246E+05
        -0.15469E+06
        -0.12296E+06
        -0.19167E+07
        -0.18980E+07
        -0.13714E+07
        -0.36518E+06
        -0.55054E+06
        -0.53972E+06
        -0.10417E+07
        -0.10020E+07
        -0.14037E+07
        -0.75699E+06
        -0.31915E+06
        -0.40566E+06
        -0.83798E+05
         0.35326E+06
         0.11512E+07
        -0.14726E+07
         0.47265E+06
        -0.11491E+07
         0.56241E+05
         0.93955E+06
         0.14824E+07
         0.85047E+06
         0.11426E+07
         0.66994E+06
         0.67747E+05
         0.36872E+06
         0.36474E+06
        -0.10567E+06
         0.79568E+06
        -0.55171E+06
        -0.17935E+07
        -0.19770E+07
        -0.20594E+07
        -0.21380E+07
        -0.10602E+07
        -0.92793E+06
        -0.13845E+07
        -0.19166E+07
        -0.13209E+07
        -0.44052E+05
         0.75556E+06
         0.80805E+05
        -0.36664E+06
        -0.15093E+06
         0.83053E+06
         0.26381E+06
         0.10056E+07
        -0.54474E+06
        -0.15572E+07
         0.44702E+06
        -0.17801E+07
        -0.15584E+07
        -0.11760E+07
        -0.38743E+06
        -0.23014E+07
        -0.18123E+07
        -0.66046E+04
         0.38781E+06
         0.69675E+06
        -0.69375E+06
        -0.45177E+05
        -0.40488E+06
         0.20438E+06
        -0.90681E+06
        -0.49242E+06
        -0.19005E+07
        -0.40196E+06
        -0.31247E+07
        -0.21785E+07
        -0.11734E+07
        -0.16209E+07
        -0.18396E+06
        -0.25003E+06
         0.45788E+06
         0.96408E+06
        -0.31249E+05
        -0.13648E+06
        -0.10659E+06
        -0.19160E+07
        -0.18767E+07
        -0.12995E+07
        -0.32682E+06
        -0.53002E+06
        -0.52937E+06
        -0.10250E+07
        -0.98297E+06
        -0.13808E+07
        -0.73880E+06
        -0.30392E+06
        -0.39031E+06
        -0.66341E+05
         0.37163E+06
         0.11653E+07
        -0.14281E+07
         0.51626E+06
        -0.11046E+07
         0.87477E+05
         0.95945E+06
         0.15056E+07
         0.88245E+06
         0.11750E+07
         0.70534E+06
         0.13691E+06
         0.35266E+06
         0.30213E+06
        -0.10333E+06
         0.82010E+06
        -0.53116E+06
        -0.17764E+07
        -0.19560E+07
        -0.20238E+07
        -0.20944E+07
        -0.10193E+07
        -0.89273E+06
        -0.13482E+07
        -0.18757E+07
        -0.12827E+07
        -0.13056E+05
         0.78811E+06
         0.24485E+05
        -0.42055E+06
        -0.20290E+06
         0.78576E+06
         0.19576E+06
         0.94449E+06
        -0.59591E+06
        -0.16243E+07
         0.38897E+06
        -0.18640E+07
        -0.16210E+07
        -0.12646E+07
        -0.46923E+06
        -0.23719E+07
        -0.19036E+07
        -0.60777E+05
         0.33414E+06
         0.65355E+06
        -0.75078E+06
        -0.93012E+05
        -0.48187E+06
         0.12942E+06
        -0.98076E+06
        -0.54127E+06
        -0.19756E+07
        -0.44794E+06
        -0.32095E+07
        -0.22371E+07
        -0.11990E+07
        -0.16627E+07
        -0.23606E+06
        -0.29789E+06
         0.40962E+06
         0.91569E+06
        -0.11186E+06
        -0.20423E+06
        -0.17950E+06
        -0.20202E+07
        -0.19579E+07
        -0.13467E+07
        -0.40285E+06
        -0.61126E+06
        -0.61116E+06
        -0.10967E+07
        -0.10573E+07
        -0.14675E+07
        -0.81139E+06
        -0.36783E+06
        -0.45058E+06
        -0.13330E+06
         0.28951E+06
         0.10960E+07
        -0.15829E+07
         0.36591E+06
        -0.12612E+07
        -0.71714E+05
         0.80065E+06
         0.13527E+07
         0.72710E+06
         0.10084E+07
         0.54884E+06
        -0.55729E+04
         0.15412E+06
         0.86069E+05
        -0.25615E+06
         0.69328E+06
        -0.66409E+06
        -0.19148E+07
        -0.20991E+07
        -0.21838E+07
        -0.22587E+07
        -0.11767E+07
        -0.10388E+07
        -0.14879E+07
        -0.20189E+07
        -0.14294E+07
        -0.15403E+06
         0.64819E+06
         0.56853E+05
        -0.41669E+06
        -0.19337E+06
         0.80240E+06
         0.21802E+06
         0.96383E+06
        -0.58904E+06
        -0.15854E+07
         0.42599E+06
        -0.18076E+07
        -0.16049E+07
        -0.12628E+07
        -0.49008E+06
        -0.23248E+07
        -0.18635E+07
        -0.18347E+05
         0.36841E+06
         0.67718E+06
        -0.72071E+06
        -0.64099E+05
        -0.44759E+06
         0.15509E+06
        -0.92775E+06
        -0.50430E+06
        -0.19149E+07
        -0.41317E+06
        -0.31373E+07
        -0.21702E+07
        -0.11427E+07
        -0.16023E+07
        -0.20334E+06
        -0.27617E+06
         0.42103E+06
         0.90814E+06
        -0.99581E+05
        -0.20955E+06
        -0.20022E+06
        -0.19730E+07
        -0.19013E+07
        -0.12968E+07
        -0.36896E+06
        -0.56494E+06
        -0.56239E+06
        -0.10488E+07
        -0.10309E+07
        -0.14544E+07
        -0.80090E+06
        -0.34035E+06
        -0.42999E+06
        -0.13167E+06
         0.29480E+06
         0.10973E+07
        -0.15233E+07
         0.44331E+06
        -0.12417E+07
        -0.10607E+06
         0.72927E+06
         0.13093E+07
         0.79834E+06
         0.10816E+07
         0.60693E+06
         0.28971E+05
         0.16372E+06
         0.11557E+06
        -0.19835E+06
         0.72181E+06
        -0.60373E+06
        -0.18286E+07
        -0.20259E+07
        -0.21276E+07
        -0.22344E+07
        -0.11795E+07
        -0.10064E+07
        -0.14416E+07
        -0.19453E+07
        -0.13398E+07
        -0.83397E+05
         0.72138E+06
         0.22160E+09
         0.21538E+09
         0.21223E+09
         0.18143E+09
         0.26643E+09
         0.23834E+09
         0.21294E+09
         0.25165E+09
         0.20523E+09
         0.25153E+09
         0.25051E+09
         0.33881E+09
         0.29907E+09
         0.27439E+09
         0.34943E+09
         0.20448E+09
         0.19886E+09
         0.15677E+09
         0.21571E+09
         0.20455E+09
         0.27547E+09
         0.27686E+09
         0.26197E+09
         0.19472E+09
         0.23935E+09
         0.17029E+09
         0.27050E+09
         0.21477E+09
         0.23265E+09
         0.24947E+09
         0.20169E+09
         0.18926E+09
         0.18132E+09
         0.18737E+09
         0.30377E+09
         0.25772E+09
         0.26575E+09
         0.32761E+09
         0.30970E+09
         0.30316E+09
         0.32111E+09
         0.30109E+09
         0.28530E+09
         0.25075E+09
         0.25885E+09
         0.30615E+09
         0.26691E+09
         0.24394E+09
         0.23107E+09
         0.24611E+09
         0.28851E+09
         0.25280E+09
         0.56610E+09
         0.55465E+09
         0.56444E+09
         0.54620E+09
         0.56333E+09
         0.59093E+09
         0.59325E+09
         0.58653E+09
         0.59108E+09
         0.60784E+09
         0.59000E+09
         0.55656E+09
         0.49319E+09
         0.46547E+09
         0.47257E+09
         0.48358E+09
         0.48966E+09
         0.53350E+09
         0.57079E+09
         0.57327E+09
         0.52548E+09
         0.50663E+09
         0.52505E+09
         0.52001E+09
         0.51707E+09
         0.51815E+09
         0.25988E+10
         0.27217E+10
         0.26823E+10
         0.24466E+10
         0.30149E+10
         0.28308E+10
         0.29448E+10
         0.29689E+10
         0.25403E+10
         0.29673E+10
         0.32346E+10
         0.36268E+10
         0.32874E+10
         0.33290E+10
         0.37538E+10
         0.24894E+10
         0.26756E+10
         0.23334E+10
         0.27636E+10
         0.29079E+10
         0.30109E+10
         0.30766E+10
         0.28899E+10
         0.26575E+10
         0.30014E+10
         0.25637E+10
         0.33169E+10
         0.32603E+10
         0.32751E+10
         0.31078E+10
         0.25160E+10
         0.26458E+10
         0.24661E+10
         0.25794E+10
         0.33019E+10
         0.30284E+10
         0.30388E+10
         0.36346E+10
         0.35409E+10
         0.34984E+10
         0.35610E+10
         0.33815E+10
         0.31978E+10
         0.28207E+10
         0.29369E+10
         0.33005E+10
         0.30513E+10
         0.28686E+10
         0.28113E+10
         0.29152E+10
         0.31664E+10
         0.29242E+10
         0.52379E+10
         0.51034E+10
         0.52096E+10
         0.50462E+10
         0.51960E+10
         0.54623E+10
         0.55505E+10
         0.55389E+10
         0.55781E+10
         0.57057E+10
         0.55411E+10
         0.52098E+10
         0.46705E+10
         0.44142E+10
         0.44262E+10
         0.44827E+10
         0.45259E+10
         0.49078E+10
         0.52588E+10
         0.52799E+10
         0.48868E+10
         0.47357E+10
         0.48923E+10
         0.48579E+10
         0.48030E+10
         0.47896E+10
  
SCALARS                      stress_zz  double 1
LOOKUP_TABLE default
         0.55584E+12
         0.54812E+12
         0.55302E+12
         0.56180E+12
        -0.31406E+03
        -0.35217E+03
        -0.33722E+03
        -0.30635E+03
         0.54784E+12
         0.55046E+12
        -0.31669E+03
        -0.30648E+03
         0.53691E+12
         0.53650E+12
        -0.37629E+03
        -0.35381E+03
         0.56052E+12
         0.53711E+12
        -0.27804E+03
        -0.30839E+03
         0.52849E+12
         0.52181E+12
         0.53245E+12
        -0.37295E+03
        -0.32570E+03
        -0.33633E+03
         0.52206E+12
         0.51229E+12
        -0.35779E+03
        -0.30174E+03
         0.56009E+12
         0.54991E+12
         0.56995E+12
        -0.30533E+03
        -0.28385E+03
        -0.27597E+03
         0.55420E+12
         0.54123E+12
        -0.32302E+03
        -0.29476E+03
         0.54907E+12
         0.53905E+12
        -0.27918E+03
        -0.24715E+03
         0.55754E+12
         0.56129E+12
        -0.30595E+03
        -0.34185E+03
         0.53101E+12
        -0.29888E+03
         0.56056E+12
        -0.35120E+03
         0.51925E+12
        -0.31563E+03
         0.51617E+12
        -0.30275E+03
         0.51622E+12
         0.52714E+12
        -0.30847E+03
        -0.30042E+03
         0.55988E+12
         0.55597E+12
        -0.30932E+03
        -0.34968E+03
         0.56233E+12
        -0.29847E+03
         0.55768E+12
        -0.32574E+03
         0.54543E+12
         0.54421E+12
        -0.31356E+03
        -0.32855E+03
         0.54144E+12
        -0.33131E+03
         0.50881E+12
        -0.26176E+03
         0.50710E+12
        -0.25408E+03
         0.50795E+12
        -0.26790E+03
         0.51268E+12
         0.51760E+12
        -0.25525E+03
        -0.26611E+03
         0.52749E+12
        -0.24784E+03
         0.55734E+12
        -0.32501E+03
         0.55269E+12
        -0.33265E+03
         0.54887E+12
         0.54677E+12
        -0.31945E+03
        -0.32318E+03
         0.54936E+12
        -0.29354E+03
         0.55119E+12
        -0.28935E+03
         0.54953E+12
        -0.30975E+03
         0.54895E+12
         0.55063E+12
        -0.30376E+03
        -0.31267E+03
         0.53973E+12
         0.54415E+12
        -0.23584E+03
        -0.22182E+03
         0.53889E+12
        -0.22519E+03
         0.54399E+12
        -0.21592E+03
         0.53896E+12
        -0.21292E+03
         0.52780E+12
        -0.20121E+03
         0.51697E+12
        -0.17875E+03
         0.51049E+12
        -0.16096E+03
         0.50982E+12
        -0.15984E+03
         0.51003E+12
        -0.17333E+03
         0.51707E+12
        -0.18217E+03
         0.53020E+12
        -0.16634E+03
         0.54462E+12
        -0.14994E+03
         0.55305E+12
        -0.14977E+03
         0.56138E+12
        -0.16740E+03
         0.56688E+12
        -0.19088E+03
         0.56668E+12
        -0.20506E+03
         0.55332E+12
        -0.22146E+03
         0.54399E+12
        -0.23727E+03
         0.54079E+12
        -0.21735E+03
         0.54579E+12
        -0.19068E+03
         0.54840E+12
        -0.19009E+03
         0.54402E+12
        -0.20798E+03
         0.54409E+12
        -0.22172E+03
         0.54739E+12
        -0.21041E+03
         0.55169E+12
        -0.20342E+03
        -0.32732E+11
        -0.32742E+11
        -0.32742E+11
        -0.32720E+11
        -0.32721E+11
        -0.32741E+11
        -0.32708E+11
        -0.32736E+11
        -0.32726E+11
        -0.32742E+11
        -0.32652E+11
        -0.32630E+11
        -0.32684E+11
        -0.32687E+11
        -0.32655E+11
        -0.32722E+11
        -0.32729E+11
        -0.32706E+11
        -0.32741E+11
        -0.32741E+11
        -0.32740E+11
        -0.32742E+11
        -0.32735E+11
        -0.32738E+11
        -0.32741E+11
        -0.32742E+11
        -0.32726E+11
        -0.32729E+11
        -0.32695E+11
        -0.32738E+11
        -0.32725E+11
        -0.32742E+11
        -0.32726E+11
        -0.32740E+11
        -0.32613E+11
        -0.32689E+11
        -0.32714E+11
        -0.32684E+11
        -0.32680E+11
        -0.32607E+11
        -0.32537E+11
        -0.32682E+11
        -0.32740E+11
        -0.32737E+11
        -0.32712E+11
        -0.32617E+11
        -0.32702E+11
        -0.32741E+11
        -0.32740E+11
        -0.32712E+11
        -0.32649E+11
        -0.32725E+11
        -0.32308E+11
        -0.32487E+11
        -0.32460E+11
        -0.32497E+11
        -0.32488E+11
        -0.32397E+11
        -0.32291E+11
        -0.32253E+11
        -0.32269E+11
        -0.32258E+11
        -0.32207E+11
        -0.32480E+11
        -0.32558E+11
        -0.32585E+11
        -0.32626E+11
        -0.32652E+11
        -0.32651E+11
        -0.32603E+11
        -0.32373E+11
        -0.32437E+11
        -0.32520E+11
        -0.32519E+11
        -0.32506E+11
        -0.32425E+11
        -0.32540E+11
        -0.32576E+11
         0.24182E+07
         0.14589E+07
         0.16940E+07
         0.25951E+07
         0.20000E+07
         0.27182E+07
        -0.20212E+06
         0.19649E+05
         0.28915E+07
        -0.13055E+06
        -0.12865E+07
         0.10863E+07
         0.14415E+07
        -0.26410E+07
         0.17720E+06
         0.13345E+07
         0.18428E+07
         0.19926E+07
         0.66661E+06
         0.52065E+06
         0.86220E+06
         0.15552E+07
         0.31337E+06
         0.58930E+05
        -0.79013E+06
        -0.59790E+05
        -0.40064E+07
        -0.46109E+07
        -0.21488E+07
        -0.50623E+06
         0.12220E+07
         0.33367E+06
         0.22676E+07
         0.32206E+07
         0.10869E+07
         0.93779E+06
         0.13395E+07
        -0.75147E+05
         0.17116E+05
         0.47707E+06
         0.11660E+07
         0.75930E+06
         0.91958E+06
         0.34104E+06
         0.41353E+06
         0.66153E+06
         0.10023E+07
         0.12077E+07
         0.16224E+07
         0.21659E+07
         0.21627E+07
         0.26924E+07
        -0.27587E+05
         0.20778E+07
         0.75421E+06
         0.23809E+07
         0.36990E+07
         0.46093E+07
         0.40047E+07
         0.42677E+07
         0.37199E+07
         0.28518E+07
         0.25663E+07
         0.22361E+07
         0.15310E+07
         0.23738E+07
         0.93978E+06
        -0.76909E+05
         0.10116E+06
         0.17529E+06
         0.53913E+06
         0.19463E+07
         0.19813E+07
         0.14716E+07
         0.74047E+06
         0.73418E+06
         0.16408E+07
         0.24792E+07
         0.23335E+07
         0.13606E+07
         0.15954E+07
         0.24949E+07
         0.18997E+07
         0.26174E+07
        -0.32543E+06
        -0.77685E+05
         0.27911E+07
        -0.23685E+06
        -0.14177E+07
         0.97134E+06
         0.13375E+07
        -0.27577E+07
         0.63934E+05
         0.12365E+07
         0.17113E+07
         0.18901E+07
         0.54487E+06
         0.37890E+06
         0.75946E+06
         0.14540E+07
         0.20600E+06
        -0.78091E+05
        -0.91718E+06
        -0.19044E+06
        -0.41174E+07
        -0.47533E+07
        -0.22977E+07
        -0.63700E+06
         0.11236E+07
         0.20976E+06
         0.21661E+07
         0.31175E+07
         0.97953E+06
         0.83403E+06
         0.12407E+07
        -0.19258E+06
        -0.97037E+05
         0.36263E+06
         0.10501E+07
         0.64426E+06
         0.81012E+06
         0.23450E+06
         0.31028E+06
         0.55469E+06
         0.89607E+06
         0.11038E+07
         0.15226E+07
         0.20699E+07
         0.20627E+07
         0.25939E+07
        -0.19438E+06
         0.19154E+07
         0.59476E+06
         0.22282E+07
         0.35380E+07
         0.44307E+07
         0.38259E+07
         0.40857E+07
         0.35356E+07
         0.26642E+07
         0.23794E+07
         0.20632E+07
         0.13849E+07
         0.22368E+07
         0.79724E+06
        -0.22844E+06
        -0.53339E+05
         0.14688E+05
         0.37740E+06
         0.17756E+07
         0.18192E+07
         0.13247E+07
         0.59378E+06
         0.58376E+06
         0.14891E+07
         0.23247E+07
         0.23535E+07
         0.13800E+07
         0.16165E+07
         0.25215E+07
         0.19260E+07
         0.26447E+07
        -0.29756E+06
        -0.55178E+05
         0.28076E+07
        -0.23096E+06
        -0.13911E+07
         0.99332E+06
         0.13574E+07
        -0.27324E+07
         0.92021E+05
         0.12170E+07
         0.17044E+07
         0.19165E+07
         0.51512E+06
         0.35115E+06
         0.74248E+06
         0.14474E+07
         0.13556E+06
        -0.17698E+06
        -0.96952E+06
        -0.28199E+06
        -0.40948E+07
        -0.47727E+07
        -0.23562E+07
        -0.72794E+06
         0.11240E+07
         0.18146E+06
         0.21937E+07
         0.31525E+07
         0.10076E+07
         0.86011E+06
         0.12625E+07
        -0.17179E+06
        -0.77715E+05
         0.36949E+06
         0.10473E+07
         0.60253E+06
         0.75118E+06
         0.16317E+06
         0.29255E+06
         0.56937E+06
         0.91533E+06
         0.11273E+07
         0.15495E+07
         0.20994E+07
         0.20910E+07
         0.26218E+07
        -0.14483E+06
         0.19598E+07
         0.64389E+06
         0.22660E+07
         0.35659E+07
         0.44584E+07
         0.38613E+07
         0.41215E+07
         0.35719E+07
         0.27017E+07
         0.24014E+07
         0.20624E+07
         0.13872E+07
         0.22620E+07
         0.81388E+06
        -0.25908E+06
        -0.86546E+05
         0.23302E+05
         0.42178E+06
         0.18270E+07
         0.18653E+07
         0.13715E+07
         0.64601E+06
         0.62770E+06
         0.15248E+07
         0.23592E+07
         0.23415E+07
         0.13718E+07
         0.16084E+07
         0.25055E+07
         0.19165E+07
         0.26362E+07
        -0.30615E+06
        -0.67531E+05
         0.27786E+07
        -0.27571E+06
        -0.14046E+07
         0.98142E+06
         0.13491E+07
        -0.27486E+07
         0.78158E+05
         0.11392E+07
         0.16272E+07
         0.18974E+07
         0.40886E+06
         0.23165E+06
         0.66454E+06
         0.13774E+07
        -0.28307E+05
        -0.39814E+06
        -0.11206E+07
        -0.49051E+06
        -0.41247E+07
        -0.48879E+07
        -0.25399E+07
        -0.94780E+06
         0.10764E+07
         0.69856E+05
         0.21781E+07
         0.31365E+07
         0.99385E+06
         0.84960E+06
         0.12546E+07
        -0.19312E+06
        -0.10509E+06
         0.31784E+06
         0.98170E+06
         0.47228E+06
         0.59132E+06
        -0.49167E+04
         0.20711E+06
         0.52635E+06
         0.88119E+06
         0.11080E+07
         0.15323E+07
         0.20812E+07
         0.20759E+07
         0.26111E+07
        -0.16822E+06
         0.19437E+07
         0.61866E+06
         0.22440E+07
         0.35511E+07
         0.44414E+07
         0.38328E+07
         0.40904E+07
         0.35417E+07
         0.26653E+07
         0.23438E+07
         0.19694E+07
         0.12987E+07
         0.22198E+07
         0.76685E+06
        -0.38791E+06
        -0.22278E+06
        -0.40118E+05
         0.39149E+06
         0.17982E+07
         0.18432E+07
         0.13453E+07
         0.61869E+06
         0.60903E+06
         0.15107E+07
         0.23452E+07
         0.23197E+07
         0.13549E+07
         0.15942E+07
         0.24890E+07
         0.19056E+07
         0.26243E+07
        -0.32077E+06
        -0.88269E+05
         0.27438E+07
        -0.32236E+06
        -0.14190E+07
         0.97401E+06
         0.13399E+07
        -0.27662E+07
         0.71657E+05
         0.10867E+07
         0.15663E+07
         0.18795E+07
         0.33906E+06
         0.14526E+06
         0.61436E+06
         0.13272E+07
        -0.12897E+06
        -0.53521E+06
        -0.12282E+07
        -0.62405E+06
        -0.41507E+07
        -0.49709E+07
        -0.26661E+07
        -0.10934E+07
         0.10268E+07
        -0.11200E+05
         0.21476E+07
         0.31137E+07
         0.97962E+06
         0.83618E+06
         0.12427E+07
        -0.20888E+06
        -0.12761E+06
         0.27885E+06
         0.93551E+06
         0.38476E+06
         0.48650E+06
        -0.11168E+06
         0.15081E+06
         0.49797E+06
         0.85092E+06
         0.10771E+07
         0.15025E+07
         0.20542E+07
         0.20524E+07
         0.25936E+07
        -0.18927E+06
         0.19297E+07
         0.59718E+06
         0.22268E+07
         0.35442E+07
         0.44364E+07
         0.38206E+07
         0.40699E+07
         0.35161E+07
         0.26427E+07
         0.23087E+07
         0.19050E+07
         0.12383E+07
         0.21872E+07
         0.73366E+06
        -0.47135E+06
        -0.31839E+06
        -0.85436E+05
         0.37770E+06
         0.17720E+07
         0.18140E+07
         0.13153E+07
         0.58355E+06
         0.57880E+06
         0.14921E+07
         0.23312E+07
         0.22668E+07
         0.13226E+07
         0.15802E+07
         0.25027E+07
         0.19192E+07
         0.26433E+07
        -0.33035E+06
        -0.12488E+06
         0.26952E+07
        -0.38582E+06
        -0.14077E+07
         0.99971E+06
         0.13504E+07
        -0.27642E+07
         0.10383E+06
         0.10965E+07
         0.15523E+07
         0.19066E+07
         0.35375E+06
         0.15662E+06
         0.62893E+06
         0.13449E+07
        -0.12671E+06
        -0.53801E+06
        -0.12719E+07
        -0.64278E+06
        -0.41564E+07
        -0.49805E+07
        -0.26567E+07
        -0.10975E+07
         0.96742E+06
        -0.53985E+05
         0.20962E+07
         0.31088E+07
         0.99203E+06
         0.83754E+06
         0.12405E+07
        -0.18781E+06
        -0.10794E+06
         0.30063E+06
         0.95824E+06
         0.39873E+06
         0.49774E+06
        -0.11840E+06
         0.14360E+06
         0.49327E+06
         0.82473E+06
         0.10147E+07
         0.14299E+07
         0.20176E+07
         0.20446E+07
         0.26019E+07
        -0.14854E+06
         0.19717E+07
         0.63137E+06
         0.22498E+07
         0.35681E+07
         0.44688E+07
         0.38574E+07
         0.41055E+07
         0.35570E+07
         0.26966E+07
         0.23559E+07
         0.19335E+07
         0.12701E+07
         0.22206E+07
         0.76568E+06
        -0.44582E+06
        -0.29996E+06
        -0.67185E+05
         0.39961E+06
         0.17872E+07
         0.18106E+07
         0.12943E+07
         0.56969E+06
         0.58563E+06
         0.15124E+07
         0.23606E+07
         0.21861E+07
         0.12652E+07
         0.15463E+07
         0.24926E+07
         0.19084E+07
         0.26423E+07
        -0.37899E+06
        -0.19669E+06
         0.26132E+07
        -0.48005E+06
        -0.14388E+07
         0.98988E+06
         0.13336E+07
        -0.28035E+07
         0.97163E+05
         0.10809E+07
         0.15024E+07
         0.19005E+07
         0.34181E+06
         0.13581E+06
         0.62191E+06
         0.13399E+07
        -0.13463E+06
        -0.55466E+06
        -0.13354E+07
        -0.67654E+06
        -0.42010E+07
        -0.50230E+07
        -0.26684E+07
        -0.11139E+07
         0.88427E+06
        -0.12423E+06
         0.20177E+07
         0.30780E+07
         0.97535E+06
         0.81582E+06
         0.12172E+07
        -0.20436E+06
        -0.12398E+06
         0.29188E+06
         0.95441E+06
         0.39696E+06
         0.49676E+06
        -0.13464E+06
         0.11245E+06
         0.45314E+06
         0.76433E+06
         0.92101E+06
         0.13263E+07
         0.19536E+07
         0.20132E+07
         0.25901E+07
        -0.16572E+06
         0.19584E+07
         0.62116E+06
         0.22382E+07
         0.35514E+07
         0.44489E+07
         0.38408E+07
         0.40913E+07
         0.35426E+07
         0.26858E+07
         0.23473E+07
         0.19231E+07
         0.12683E+07
         0.22179E+07
         0.75869E+06
        -0.44970E+06
        -0.30801E+06
        -0.95873E+05
         0.35676E+06
         0.17400E+07
         0.17572E+07
         0.12283E+07
         0.51179E+06
         0.55486E+06
         0.14959E+07
         0.23476E+07
         0.21626E+07
         0.12440E+07
         0.15324E+07
         0.24791E+07
         0.18968E+07
         0.26308E+07
        -0.40280E+06
        -0.22126E+06
         0.25891E+07
        -0.50744E+06
        -0.14609E+07
         0.97606E+06
         0.13171E+07
        -0.28264E+07
         0.85664E+05
         0.10669E+07
         0.14824E+07
         0.18864E+07
         0.33088E+06
         0.11936E+06
         0.61088E+06
         0.13283E+07
        -0.14506E+06
        -0.56741E+06
        -0.13557E+07
        -0.69576E+06
        -0.42197E+07
        -0.50457E+07
        -0.26898E+07
        -0.11294E+07
         0.85734E+06
        -0.15226E+06
         0.19925E+07
         0.30612E+07
         0.96128E+06
         0.80405E+06
         0.12030E+07
        -0.22533E+06
        -0.14264E+06
         0.27257E+06
         0.93509E+06
         0.38146E+06
         0.48679E+06
        -0.14916E+06
         0.93846E+05
         0.43438E+06
         0.74440E+06
         0.89776E+06
         0.13004E+07
         0.19314E+07
         0.19937E+07
         0.25753E+07
        -0.18926E+06
         0.19353E+07
         0.60555E+06
         0.22222E+07
         0.35320E+07
         0.44320E+07
         0.38233E+07
         0.40670E+07
         0.35105E+07
         0.26522E+07
         0.23169E+07
         0.19093E+07
         0.12572E+07
         0.21942E+07
         0.73401E+06
        -0.47305E+06
        -0.33835E+06
        -0.12481E+06
         0.33233E+06
         0.17203E+07
         0.17409E+07
         0.12062E+07
         0.48262E+06
         0.52764E+06
         0.14730E+07
         0.23250E+07
         0.21776E+07
         0.12584E+07
         0.15433E+07
         0.24833E+07
         0.19094E+07
         0.26345E+07
        -0.38350E+06
        -0.20265E+06
         0.26046E+07
        -0.48810E+06
        -0.14448E+07
         0.98999E+06
         0.13278E+07
        -0.28083E+07
         0.10773E+06
         0.10856E+07
         0.15019E+07
         0.18983E+07
         0.35231E+06
         0.13857E+06
         0.62576E+06
         0.13425E+07
        -0.12969E+06
        -0.54480E+06
        -0.13350E+07
        -0.67462E+06
        -0.41915E+07
        -0.50195E+07
        -0.26685E+07
        -0.11123E+07
         0.87355E+06
        -0.13663E+06
         0.20053E+07
         0.30681E+07
         0.97740E+06
         0.81750E+06
         0.12140E+07
        -0.20955E+06
        -0.12898E+06
         0.28472E+06
         0.94854E+06
         0.39633E+06
         0.50187E+06
        -0.13487E+06
         0.10596E+06
         0.44640E+06
         0.75744E+06
         0.91398E+06
         0.13170E+07
         0.19438E+07
         0.20020E+07
         0.25789E+07
        -0.15449E+06
         0.19695E+07
         0.62588E+06
         0.22306E+07
         0.35489E+07
         0.44582E+07
         0.38527E+07
         0.40881E+07
         0.35186E+07
         0.26646E+07
         0.23393E+07
         0.19412E+07
         0.12854E+07
         0.22125E+07
         0.75121E+06
        -0.45322E+06
        -0.31830E+06
        -0.10017E+06
         0.35570E+06
         0.17478E+07
         0.17694E+07
         0.12317E+07
         0.50372E+06
         0.54639E+06
         0.14918E+07
         0.23454E+07
         0.21739E+07
         0.12572E+07
         0.15406E+07
         0.24743E+07
         0.19070E+07
         0.26283E+07
        -0.38484E+06
        -0.20891E+06
         0.25927E+07
        -0.49793E+06
        -0.14539E+07
         0.98162E+06
         0.13254E+07
        -0.28210E+07
         0.95637E+05
         0.10770E+07
         0.14891E+07
         0.18832E+07
         0.34334E+06
         0.12554E+06
         0.62006E+06
         0.13351E+07
        -0.13507E+06
        -0.55316E+06
        -0.13385E+07
        -0.68257E+06
        -0.41971E+07
        -0.50221E+07
        -0.26725E+07
        -0.11190E+07
         0.86537E+06
        -0.14541E+06
         0.19917E+07
         0.30560E+07
         0.97230E+06
         0.81219E+06
         0.12107E+07
        -0.22761E+06
        -0.13904E+06
         0.27526E+06
         0.93923E+06
         0.39045E+06
         0.49337E+06
        -0.13895E+06
         0.10162E+06
         0.44044E+06
         0.74819E+06
         0.90338E+06
         0.13066E+07
         0.19350E+07
         0.19943E+07
         0.25704E+07
        -0.16471E+06
         0.19615E+07
         0.60955E+06
         0.22167E+07
         0.35469E+07
         0.44485E+07
         0.38300E+07
         0.40627E+07
         0.35037E+07
         0.26422E+07
         0.23148E+07
         0.19290E+07
         0.12708E+07
         0.22045E+07
         0.74378E+06
        -0.46012E+06
        -0.31937E+06
        -0.10501E+06
         0.34868E+06
         0.17292E+07
         0.17462E+07
         0.12138E+07
         0.49454E+06
         0.54184E+06
         0.14815E+07
         0.23309E+07
         0.21632E+07
         0.12463E+07
         0.15327E+07
         0.24691E+07
         0.18988E+07
         0.26245E+07
        -0.39348E+06
        -0.21840E+06
         0.25818E+07
        -0.50772E+06
        -0.14642E+07
         0.97051E+06
         0.13179E+07
        -0.28315E+07
         0.83262E+05
         0.10650E+07
         0.14790E+07
         0.18742E+07
         0.33226E+06
         0.11544E+06
         0.61270E+06
         0.13276E+07
        -0.14327E+06
        -0.56619E+06
        -0.13419E+07
        -0.69759E+06
        -0.42009E+07
        -0.50279E+07
        -0.26775E+07
        -0.11235E+07
         0.85348E+06
        -0.15963E+06
         0.19840E+07
         0.30545E+07
         0.95990E+06
         0.80294E+06
         0.12031E+07
        -0.24507E+06
        -0.15039E+06
         0.26706E+06
         0.93396E+06
         0.38547E+06
         0.48561E+06
        -0.14671E+06
         0.93898E+05
         0.43240E+06
         0.73956E+06
         0.89421E+06
         0.12967E+07
         0.19273E+07
         0.19870E+07
         0.25666E+07
        -0.18504E+06
         0.19446E+07
         0.59712E+06
         0.22125E+07
         0.35414E+07
         0.44288E+07
         0.38016E+07
         0.40398E+07
         0.34882E+07
         0.26261E+07
         0.23048E+07
         0.19170E+07
         0.12534E+07
         0.21925E+07
         0.73138E+06
        -0.47440E+06
        -0.32884E+06
        -0.11614E+06
         0.33488E+06
         0.17139E+07
         0.17286E+07
         0.11954E+07
         0.48131E+06
         0.52927E+06
         0.14659E+07
         0.23144E+07
         0.21703E+07
         0.12508E+07
         0.15367E+07
         0.24767E+07
         0.19073E+07
         0.26334E+07
        -0.38038E+06
        -0.20533E+06
         0.25890E+07
        -0.49888E+06
        -0.14490E+07
         0.98005E+06
         0.13212E+07
        -0.28151E+07
         0.10372E+06
         0.10756E+07
         0.14869E+07
         0.18861E+07
         0.34528E+06
         0.13064E+06
         0.62459E+06
         0.13402E+07
        -0.13286E+06
        -0.55228E+06
        -0.13304E+07
        -0.68417E+06
        -0.41827E+07
        -0.50111E+07
        -0.26537E+07
        -0.11050E+07
         0.86634E+06
        -0.14908E+06
         0.19995E+07
         0.30703E+07
         0.96988E+06
         0.81155E+06
         0.12077E+07
        -0.23232E+06
        -0.13682E+06
         0.28459E+06
         0.94893E+06
         0.39682E+06
         0.49775E+06
        -0.13794E+06
         0.10124E+06
         0.43909E+06
         0.74750E+06
         0.90406E+06
         0.13076E+07
         0.19378E+07
         0.19957E+07
         0.25768E+07
        -0.15965E+06
         0.19721E+07
         0.62297E+06
         0.22252E+07
         0.35372E+07
         0.44301E+07
         0.38219E+07
         0.40624E+07
         0.35035E+07
         0.26492E+07
         0.23268E+07
         0.19275E+07
         0.12722E+07
         0.22117E+07
         0.74877E+06
        -0.46099E+06
        -0.31983E+06
        -0.10487E+06
         0.34546E+06
         0.17304E+07
         0.17481E+07
         0.12143E+07
         0.49754E+06
         0.54303E+06
         0.14863E+07
         0.23384E+07
         0.21654E+07
         0.12421E+07
         0.15291E+07
         0.24666E+07
         0.18990E+07
         0.26246E+07
        -0.39179E+06
        -0.21387E+06
         0.25802E+07
        -0.51118E+06
        -0.14639E+07
         0.96622E+06
         0.13061E+07
        -0.28309E+07
         0.94999E+05
         0.10659E+07
         0.14739E+07
         0.18701E+07
         0.33163E+06
         0.11546E+06
         0.61129E+06
         0.13267E+07
        -0.14692E+06
        -0.56734E+06
        -0.13410E+07
        -0.69734E+06
        -0.41986E+07
        -0.50327E+07
        -0.26692E+07
        -0.11140E+07
         0.85528E+06
        -0.16253E+06
         0.19829E+07
         0.30594E+07
         0.95804E+06
         0.80077E+06
         0.11951E+07
        -0.25137E+06
        -0.15557E+06
         0.26802E+06
         0.93091E+06
         0.37985E+06
         0.48449E+06
        -0.15384E+06
         0.87068E+05
         0.42736E+06
         0.73517E+06
         0.88965E+06
         0.12949E+07
         0.19292E+07
         0.19860E+07
         0.25670E+07
        -0.17973E+06
         0.19548E+07
         0.60330E+06
         0.22026E+07
         0.35109E+07
         0.44051E+07
         0.38064E+07
         0.40425E+07
         0.34773E+07
         0.26233E+07
         0.22953E+07
         0.18964E+07
         0.12513E+07
         0.21900E+07
         0.73024E+06
        -0.48209E+06
        -0.35243E+06
        -0.13395E+06
         0.33082E+06
         0.17101E+07
         0.17271E+07
         0.12035E+07
         0.49007E+06
         0.52751E+06
         0.14652E+07
         0.23174E+07
         0.21646E+07
         0.12393E+07
         0.15269E+07
         0.24635E+07
         0.18980E+07
         0.26222E+07
        -0.39220E+06
        -0.21410E+06
         0.25808E+07
        -0.51038E+06
        -0.14659E+07
         0.96434E+06
         0.13037E+07
        -0.28322E+07
         0.95899E+05
         0.10642E+07
         0.14747E+07
         0.18661E+07
         0.33062E+06
         0.11333E+06
         0.60847E+06
         0.13246E+07
        -0.14999E+06
        -0.57014E+06
        -0.13390E+07
        -0.70113E+06
        -0.41945E+07
        -0.50356E+07
        -0.26716E+07
        -0.11151E+07
         0.84957E+06
        -0.16800E+06
         0.19763E+07
         0.30579E+07
         0.95532E+06
         0.79733E+06
         0.11913E+07
        -0.26031E+06
        -0.16589E+06
         0.26169E+06
         0.92904E+06
         0.37849E+06
         0.48271E+06
        -0.15645E+06
         0.84476E+05
         0.42461E+06
         0.73122E+06
         0.88404E+06
         0.12897E+07
         0.19273E+07
         0.19842E+07
         0.25647E+07
        -0.18035E+06
         0.19551E+07
         0.59796E+06
         0.21938E+07
         0.35103E+07
         0.44046E+07
         0.38002E+07
         0.40259E+07
         0.34584E+07
         0.26129E+07
         0.22943E+07
         0.18933E+07
         0.12461E+07
         0.21815E+07
         0.72058E+06
        -0.48883E+06
        -0.35683E+06
        -0.13775E+06
         0.32665E+06
         0.17028E+07
         0.17178E+07
         0.11975E+07
         0.48932E+06
         0.52541E+06
         0.14557E+07
         0.23089E+07
         0.21870E+07
         0.12667E+07
         0.15503E+07
         0.24833E+07
         0.19229E+07
         0.26425E+07
        -0.35291E+06
        -0.18709E+06
         0.25994E+07
        -0.48841E+06
        -0.14298E+07
         0.99448E+06
         0.13311E+07
        -0.28023E+07
         0.12627E+06
         0.10868E+07
         0.15011E+07
         0.18890E+07
         0.35872E+06
         0.14565E+06
         0.63478E+06
         0.13496E+07
        -0.12458E+06
        -0.54004E+06
        -0.13076E+07
        -0.67129E+06
        -0.41591E+07
        -0.49907E+07
        -0.26268E+07
        -0.10818E+07
         0.87513E+06
        -0.13784E+06
         0.20002E+07
         0.30786E+07
         0.98193E+06
         0.82235E+06
         0.12155E+07
        -0.24045E+06
        -0.13989E+06
         0.28986E+06
         0.95398E+06
         0.40399E+06
         0.50527E+06
        -0.12950E+06
         0.11198E+06
         0.45103E+06
         0.75658E+06
         0.90895E+06
         0.13120E+07
         0.19464E+07
         0.20022E+07
         0.25823E+07
        -0.13411E+06
         0.20011E+07
         0.63664E+06
         0.22219E+07
         0.35444E+07
         0.44476E+07
         0.38363E+07
         0.40535E+07
         0.34895E+07
         0.26468E+07
         0.23249E+07
         0.19292E+07
         0.12748E+07
         0.22136E+07
         0.75700E+06
        -0.45102E+06
        -0.31433E+06
        -0.92215E+05
         0.36576E+06
         0.17436E+07
         0.17528E+07
         0.12236E+07
         0.51793E+06
         0.55955E+06
         0.14927E+07
         0.23463E+07
         0.21778E+07
         0.12589E+07
         0.15432E+07
         0.24708E+07
         0.19125E+07
         0.26335E+07
        -0.36286E+06
        -0.19829E+06
         0.25869E+07
        -0.50403E+06
        -0.14445E+07
         0.98386E+06
         0.13244E+07
        -0.28189E+07
         0.11361E+06
         0.10743E+07
         0.14847E+07
         0.18758E+07
         0.34060E+06
         0.12724E+06
         0.62589E+06
         0.13372E+07
        -0.13322E+06
        -0.55821E+06
        -0.13207E+07
        -0.68991E+06
        -0.41732E+07
        -0.50054E+07
        -0.26281E+07
        -0.10879E+07
         0.86715E+06
        -0.15305E+06
         0.19888E+07
         0.30651E+07
         0.96669E+06
         0.81257E+06
         0.12094E+07
        -0.26206E+06
        -0.15500E+06
         0.28289E+06
         0.94268E+06
         0.39087E+06
         0.48998E+06
        -0.14133E+06
         0.99646E+05
         0.44000E+06
         0.74633E+06
         0.90089E+06
         0.13013E+07
         0.19334E+07
         0.19907E+07
         0.25723E+07
        -0.16372E+06
         0.19762E+07
         0.61393E+06
         0.22099E+07
         0.35403E+07
         0.44364E+07
         0.38116E+07
         0.40237E+07
         0.34605E+07
         0.26210E+07
         0.22945E+07
         0.18945E+07
         0.12500E+07
         0.22012E+07
         0.75127E+06
        -0.45462E+06
        -0.32619E+06
        -0.11274E+06
         0.35042E+06
         0.17254E+07
         0.17360E+07
         0.12047E+07
         0.49759E+06
         0.54660E+06
         0.14807E+07
         0.23265E+07
         0.21623E+07
         0.12389E+07
         0.15236E+07
         0.24542E+07
         0.18958E+07
         0.26162E+07
        -0.38060E+06
        -0.21167E+06
         0.25691E+07
        -0.53270E+06
        -0.14624E+07
         0.96665E+06
         0.13096E+07
        -0.28359E+07
         0.97485E+05
         0.10589E+07
         0.14597E+07
         0.18608E+07
         0.32581E+06
         0.11794E+06
         0.61490E+06
         0.13228E+07
        -0.14366E+06
        -0.57378E+06
        -0.13467E+07
        -0.70819E+06
        -0.42068E+07
        -0.50294E+07
        -0.25759E+07
        -0.10639E+07
         0.85248E+06
        -0.17432E+06
         0.19776E+07
         0.30561E+07
         0.94953E+06
         0.79640E+06
         0.11946E+07
        -0.29420E+06
        -0.16985E+06
         0.30891E+06
         0.94183E+06
         0.37664E+06
         0.46951E+06
        -0.15413E+06
         0.83930E+05
         0.42233E+06
         0.72845E+06
         0.88647E+06
         0.12889E+07
         0.19229E+07
         0.19804E+07
         0.25600E+07
        -0.18349E+06
         0.19580E+07
         0.59847E+06
         0.21965E+07
         0.35215E+07
         0.44060E+07
         0.37767E+07
         0.39903E+07
         0.34312E+07
         0.26142E+07
         0.22416E+07
         0.18113E+07
         0.12150E+07
         0.21817E+07
         0.73402E+06
        -0.46995E+06
        -0.34513E+06
        -0.13428E+06
         0.32522E+06
         0.16970E+07
         0.17167E+07
         0.11865E+07
         0.47686E+06
         0.53120E+06
         0.14571E+07
         0.23000E+07
         0.21836E+07
         0.12641E+07
         0.15489E+07
         0.24783E+07
         0.19222E+07
         0.26382E+07
        -0.34589E+06
        -0.18508E+06
         0.25819E+07
        -0.53644E+06
        -0.14298E+07
         0.98917E+06
         0.13299E+07
        -0.28077E+07
         0.12465E+06
         0.10817E+07
         0.14778E+07
         0.18822E+07
         0.35819E+06
         0.17169E+06
         0.63680E+06
         0.13446E+07
        -0.12321E+06
        -0.54132E+06
        -0.13365E+07
        -0.67567E+06
        -0.42120E+07
        -0.50013E+07
        -0.24183E+07
        -0.96402E+06
         0.87432E+06
        -0.14366E+06
         0.20010E+07
         0.30833E+07
         0.97803E+06
         0.82429E+06
         0.12175E+07
        -0.29206E+06
        -0.14020E+06
         0.40520E+06
         0.98960E+06
         0.40244E+06
         0.48268E+06
        -0.13100E+06
         0.11083E+06
         0.45170E+06
         0.75489E+06
         0.90927E+06
         0.13133E+07
         0.19490E+07
         0.20044E+07
         0.25809E+07
        -0.13590E+06
         0.20048E+07
         0.64620E+06
         0.22299E+07
         0.35427E+07
         0.44305E+07
         0.38106E+07
         0.40249E+07
         0.34693E+07
         0.26880E+07
         0.22244E+07
         0.17444E+07
         0.12176E+07
         0.22084E+07
         0.75625E+06
        -0.45137E+06
        -0.32214E+06
        -0.96157E+05
         0.37198E+06
         0.17407E+07
         0.17546E+07
         0.12258E+07
         0.52085E+06
         0.57201E+06
         0.14901E+07
         0.23347E+07
         0.21048E+07
         0.11716E+07
         0.14580E+07
         0.23808E+07
         0.18281E+07
         0.25420E+07
        -0.46246E+06
        -0.27734E+06
         0.24858E+07
        -0.65092E+06
        -0.15530E+07
         0.88231E+06
         0.12262E+07
        -0.29241E+07
         0.16997E+05
         0.99708E+06
         0.13590E+07
         0.17802E+07
         0.25097E+06
         0.58415E+05
         0.54034E+06
         0.12489E+07
        -0.21813E+06
        -0.65577E+06
        -0.14536E+07
        -0.78427E+06
        -0.43469E+07
        -0.51375E+07
        -0.24773E+07
        -0.10300E+07
         0.78681E+06
        -0.25665E+06
         0.18976E+07
         0.29726E+07
         0.87364E+06
         0.72197E+06
         0.11163E+07
        -0.41933E+06
        -0.24396E+06
         0.34317E+06
         0.89635E+06
         0.30025E+06
         0.37997E+06
        -0.22596E+06
         0.91869E+04
         0.34166E+06
         0.65222E+06
         0.81299E+06
         0.12136E+07
         0.18454E+07
         0.18967E+07
         0.24791E+07
        -0.30239E+06
         0.18435E+07
         0.47893E+06
         0.20596E+07
         0.33735E+07
         0.42680E+07
         0.36450E+07
         0.38461E+07
         0.33013E+07
         0.25356E+07
         0.20119E+07
         0.15131E+07
         0.10518E+07
         0.20703E+07
         0.61257E+06
        -0.59998E+06
        -0.47538E+06
        -0.26672E+06
         0.19621E+06
         0.15724E+07
         0.15976E+07
         0.10750E+07
         0.36694E+06
         0.41356E+06
         0.13382E+07
         0.21839E+07
         0.21501E+07
         0.11781E+07
         0.14752E+07
         0.24178E+07
         0.18596E+07
         0.25735E+07
        -0.44350E+06
        -0.22048E+06
         0.25484E+07
        -0.56651E+06
        -0.15185E+07
         0.88436E+06
         0.11998E+07
        -0.28537E+07
         0.65979E+05
         0.10634E+07
         0.14367E+07
         0.18341E+07
         0.30936E+06
         0.12427E+06
         0.58405E+06
         0.12818E+07
        -0.14990E+06
        -0.56994E+06
        -0.13451E+07
        -0.70438E+06
        -0.42312E+07
        -0.49810E+07
        -0.23454E+07
        -0.92926E+06
         0.84127E+06
        -0.20727E+06
         0.19269E+07
         0.29573E+07
         0.88958E+06
         0.71420E+06
         0.10876E+07
        -0.35985E+06
        -0.16849E+06
         0.41000E+06
         0.93859E+06
         0.35846E+06
         0.44145E+06
        -0.16125E+06
         0.46168E+05
         0.35856E+06
         0.66772E+06
         0.85423E+06
         0.12466E+07
         0.18471E+07
         0.19036E+07
         0.24811E+07
        -0.23852E+06
         0.19265E+07
         0.49986E+06
         0.20229E+07
         0.32975E+07
         0.42218E+07
         0.37207E+07
         0.39244E+07
         0.33636E+07
         0.25724E+07
         0.20221E+07
         0.15448E+07
         0.11145E+07
         0.21014E+07
         0.67784E+06
        -0.50706E+06
        -0.39638E+06
        -0.20652E+06
         0.22226E+06
         0.15694E+07
         0.16324E+07
         0.11250E+07
         0.44597E+06
         0.50974E+06
         0.14139E+07
         0.22623E+07
         0.30790E+09
         0.35078E+09
         0.35181E+09
         0.34835E+09
         0.36607E+09
         0.36463E+09
         0.41805E+09
         0.34953E+09
         0.32900E+09
         0.35149E+09
         0.43610E+09
         0.40875E+09
         0.37797E+09
         0.41596E+09
         0.41704E+09
         0.31149E+09
         0.37851E+09
         0.36604E+09
         0.37458E+09
         0.43514E+09
         0.34602E+09
         0.35229E+09
         0.33525E+09
         0.38110E+09
         0.37774E+09
         0.39760E+09
         0.41123E+09
         0.49463E+09
         0.46433E+09
         0.38819E+09
         0.32417E+09
         0.38576E+09
         0.35206E+09
         0.37326E+09
         0.39038E+09
         0.37878E+09
         0.36440E+09
         0.40328E+09
         0.39993E+09
         0.39886E+09
         0.39475E+09
         0.37698E+09
         0.35757E+09
         0.33235E+09
         0.35271E+09
         0.38856E+09
         0.37343E+09
         0.35796E+09
         0.36386E+09
         0.36729E+09
         0.37592E+09
         0.36402E+09
         0.60906E+09
         0.59586E+09
         0.60495E+09
         0.58602E+09
         0.60259E+09
         0.62996E+09
         0.63393E+09
         0.63080E+09
         0.63660E+09
         0.65179E+09
         0.63270E+09
         0.59688E+09
         0.53574E+09
         0.50758E+09
         0.51175E+09
         0.52127E+09
         0.52687E+09
         0.57120E+09
         0.61307E+09
         0.61497E+09
         0.56750E+09
         0.54905E+09
         0.56660E+09
         0.56165E+09
         0.55695E+09
         0.55838E+09
         0.29016E+10
         0.30453E+10
         0.30063E+10
         0.27720E+10
         0.33291E+10
         0.31532E+10
         0.32784E+10
         0.32821E+10
         0.28593E+10
         0.32815E+10
         0.35694E+10
         0.39204E+10
         0.35893E+10
         0.36592E+10
         0.40450E+10
         0.28026E+10
         0.30046E+10
         0.26616E+10
         0.30914E+10
         0.32424E+10
         0.33026E+10
         0.33741E+10
         0.31840E+10
         0.29870E+10
         0.33281E+10
         0.28953E+10
         0.36469E+10
         0.35996E+10
         0.36130E+10
         0.34355E+10
         0.28345E+10
         0.29760E+10
         0.27922E+10
         0.29081E+10
         0.36105E+10
         0.33512E+10
         0.33530E+10
         0.39354E+10
         0.38535E+10
         0.38142E+10
         0.38595E+10
         0.36816E+10
         0.34928E+10
         0.31221E+10
         0.32477E+10
         0.36053E+10
         0.33691E+10
         0.31878E+10
         0.31351E+10
         0.32369E+10
         0.34744E+10
         0.32428E+10
         0.54789E+10
         0.53376E+10
         0.54407E+10
         0.52734E+10
         0.54200E+10
         0.56848E+10
         0.57794E+10
         0.57810E+10
         0.58246E+10
         0.59477E+10
         0.57805E+10
         0.54413E+10
         0.49092E+10
         0.46508E+10
         0.46526E+10
         0.47033E+10
         0.47437E+10
         0.51271E+10
         0.54943E+10
         0.55126E+10
         0.51203E+10
         0.49706E+10
         0.51249E+10
         0.50923E+10
         0.50320E+10
         0.50196E+10
  
SCALARS                      stress_yz  double 1
LOOKUP_TABLE default
         0.35518E+06
        -0.11814E+06
        -0.30695E+06
        -0.15787E+06
        -0.69414E+01
        -0.19132E+01
        -0.86025E+01
        -0.65614E+01
        -0.11505E+07
         0.75672E+06
        -0.12802E+02
        -0.11271E+02
        -0.10093E+07
        -0.51320E+05
         0.91620E+01
        -0.58741E+00
         0.34699E+06
         0.12933E+07
         0.13479E+00
         0.13792E+01
        -0.67111E+06
        -0.25262E+07
        -0.26261E+07
         0.21002E+02
         0.36271E+02
         0.30317E+02
        -0.24900E+06
        -0.25611E+07
         0.15107E+02
         0.29308E+02
         0.39656E+06
         0.34567E+06
        -0.29360E+06
         0.78319E+01
         0.79951E+01
        -0.16599E+00
         0.11785E+07
         0.11357E+07
         0.14412E+02
         0.11213E+02
         0.11585E+07
         0.73745E+06
         0.10892E+02
         0.99537E+01
         0.10507E+07
         0.36224E+06
        -0.36131E+00
         0.55886E+01
         0.97558E+06
         0.26313E+01
         0.96148E+05
        -0.21311E+00
         0.57476E+05
         0.10178E+02
        -0.38091E+06
         0.59208E+01
        -0.12423E+07
         0.22060E+06
         0.16063E+00
        -0.32601E+00
         0.48091E+06
         0.17547E+07
        -0.21885E+01
        -0.81861E+01
         0.29040E+06
        -0.44176E+01
         0.12467E+07
        -0.53816E+01
        -0.10125E+07
        -0.53633E+06
        -0.66507E+00
         0.87813E+01
        -0.18753E+07
         0.19282E+02
        -0.32509E+07
         0.18670E+02
        -0.32808E+07
         0.14173E+02
        -0.27025E+07
         0.11879E+02
        -0.39637E+07
        -0.30422E+07
         0.76205E+01
        -0.16896E+01
        -0.42547E+06
        -0.18905E+00
         0.16420E+07
        -0.11843E+02
         0.38807E+07
        -0.20733E+02
         0.54229E+07
         0.33615E+07
        -0.30751E+02
        -0.24890E+02
         0.23642E+07
        -0.19321E+02
         0.21213E+07
        -0.19767E+02
         0.20643E+07
        -0.21253E+02
         0.34351E+07
         0.28547E+07
        -0.19764E+02
        -0.94702E+01
        -0.23044E+07
         0.87225E+06
         0.69495E+01
        -0.86361E+01
        -0.56651E+07
         0.23119E+02
        -0.81098E+07
         0.33818E+02
        -0.99291E+07
         0.41765E+02
        -0.11645E+08
         0.41428E+02
        -0.13709E+08
         0.32785E+02
        -0.14013E+08
         0.25371E+02
        -0.13195E+08
         0.23598E+02
        -0.11741E+08
         0.22452E+02
        -0.85628E+07
         0.14348E+02
        -0.57829E+07
         0.47372E+01
        -0.29011E+07
         0.30610E+01
         0.20869E+06
         0.46009E+01
         0.27682E+07
         0.23763E+01
         0.49660E+07
        -0.71864E+01
         0.76853E+07
        -0.20284E+02
         0.86475E+07
        -0.31675E+02
         0.94589E+07
        -0.41525E+02
         0.12084E+08
        -0.41489E+02
         0.12517E+08
        -0.36218E+02
         0.11567E+08
        -0.35298E+02
         0.94072E+07
        -0.35518E+02
         0.63957E+07
        -0.28087E+02
         0.45300E+07
        -0.16609E+02
         0.32577E+07
        -0.12842E+02
        -0.28818E+07
        -0.14890E+07
        -0.13000E+07
        -0.40430E+06
        -0.12976E+07
        -0.14165E+07
        -0.14289E+06
        -0.22798E+07
        -0.19721E+07
        -0.28891E+07
         0.13322E+07
         0.54922E+07
         0.40676E+07
         0.47391E+06
         0.57640E+07
         0.76370E+06
        -0.67641E+06
         0.43588E+06
         0.56734E+06
        -0.42918E+06
         0.39311E+06
         0.32485E+06
        -0.10824E+07
         0.91604E+05
        -0.19727E+07
         0.29162E+06
         0.14800E+05
         0.25978E+06
         0.30093E+06
        -0.15398E+07
         0.74533E+06
        -0.80702E+06
         0.54202E+06
        -0.13186E+06
         0.18068E+06
         0.10987E+07
         0.25497E+07
         0.52867E+07
         0.47990E+07
         0.36266E+07
         0.30268E+07
         0.95202E+06
        -0.84311E+06
        -0.23034E+07
        -0.36797E+07
        -0.52191E+07
        -0.38898E+07
        -0.29392E+07
        -0.31325E+07
        -0.32049E+07
        -0.34339E+07
        -0.17507E+07
         0.14275E+07
        -0.26795E+07
         0.68685E+07
         0.10235E+08
         0.12809E+08
         0.12433E+08
         0.92276E+07
         0.73148E+07
         0.73944E+07
         0.66961E+07
         0.35012E+07
         0.34741E+07
         0.17738E+07
         0.81864E+06
        -0.13393E+07
        -0.55178E+07
        -0.10122E+08
        -0.12248E+08
        -0.92544E+07
        -0.12400E+08
        -0.13838E+08
        -0.13064E+08
        -0.11844E+08
        -0.69423E+07
        -0.51326E+07
        -0.48044E+07
        -0.16690E+09
        -0.17013E+09
        -0.16642E+09
        -0.56600E+08
        -0.12213E+09
        -0.77695E+08
        -0.11682E+09
        -0.16022E+09
        -0.16326E+09
        -0.15932E+09
         0.16632E+09
         0.18283E+09
         0.13971E+09
         0.38380E+08
         0.17262E+09
         0.85457E+08
        -0.49503E+08
         0.47412E+08
         0.16221E+09
         0.41316E+08
         0.47844E+08
         0.36040E+08
        -0.21414E+08
         0.63993E+08
        -0.16219E+09
         0.63979E+08
         0.86998E+07
         0.29846E+08
        -0.47673E+08
        -0.14979E+09
         0.10690E+09
         0.46522E+08
         0.10455E+09
         0.99115E+08
        -0.13870E+08
         0.68344E+08
         0.10242E+09
         0.15836E+09
         0.17813E+09
         0.16783E+09
         0.89024E+08
        -0.24090E+08
        -0.49315E+08
        -0.78142E+08
        -0.11183E+09
        -0.17064E+09
        -0.14719E+09
        -0.11335E+09
        -0.17088E+09
        -0.17243E+09
        -0.11277E+09
        -0.12024E+08
         0.36182E+08
        -0.50656E+08
         0.11324E+09
         0.14731E+09
         0.17941E+09
         0.20185E+09
         0.20525E+09
         0.19940E+09
         0.19562E+09
         0.18198E+09
         0.11639E+09
         0.38840E+08
         0.18399E+08
         0.16509E+08
        -0.70194E+07
        -0.55942E+08
        -0.10836E+09
        -0.13923E+09
        -0.18770E+09
        -0.20314E+09
        -0.19621E+09
        -0.19445E+09
        -0.18286E+09
        -0.13143E+09
        -0.66522E+08
        -0.63474E+08
        -0.16689E+09
        -0.17013E+09
        -0.16641E+09
        -0.56937E+08
        -0.12219E+09
        -0.77798E+08
        -0.11697E+09
        -0.16034E+09
        -0.16329E+09
        -0.15948E+09
         0.16642E+09
         0.18282E+09
         0.13969E+09
         0.38466E+08
         0.17267E+09
         0.85398E+08
        -0.49819E+08
         0.47341E+08
         0.16223E+09
         0.41086E+08
         0.47959E+08
         0.36077E+08
        -0.21420E+08
         0.63962E+08
        -0.16226E+09
         0.63863E+08
         0.87996E+07
         0.30013E+08
        -0.47359E+08
        -0.14986E+09
         0.10682E+09
         0.46420E+08
         0.10495E+09
         0.99277E+08
        -0.13734E+08
         0.68407E+08
         0.10244E+09
         0.15837E+09
         0.17814E+09
         0.16781E+09
         0.89038E+08
        -0.24013E+08
        -0.49360E+08
        -0.78183E+08
        -0.11185E+09
        -0.17065E+09
        -0.14720E+09
        -0.11328E+09
        -0.17089E+09
        -0.17242E+09
        -0.11278E+09
        -0.11859E+08
         0.36160E+08
        -0.50670E+08
         0.11326E+09
         0.14731E+09
         0.17941E+09
         0.20184E+09
         0.20524E+09
         0.19938E+09
         0.19563E+09
         0.18198E+09
         0.11638E+09
         0.38857E+08
         0.18399E+08
         0.16543E+08
        -0.69614E+07
        -0.55959E+08
        -0.10838E+09
        -0.13923E+09
        -0.18770E+09
        -0.20314E+09
        -0.19622E+09
        -0.19445E+09
        -0.18287E+09
        -0.13141E+09
        -0.66483E+08
        -0.63421E+08
        -0.16687E+09
        -0.17012E+09
        -0.16641E+09
        -0.57277E+08
        -0.12226E+09
        -0.77903E+08
        -0.11712E+09
        -0.16047E+09
        -0.16332E+09
        -0.15963E+09
         0.16652E+09
         0.18281E+09
         0.13968E+09
         0.38548E+08
         0.17273E+09
         0.85338E+08
        -0.50136E+08
         0.47269E+08
         0.16225E+09
         0.40851E+08
         0.48074E+08
         0.36113E+08
        -0.21430E+08
         0.63923E+08
        -0.16233E+09
         0.63730E+08
         0.89064E+07
         0.30190E+08
        -0.47016E+08
        -0.14992E+09
         0.10674E+09
         0.46297E+08
         0.10535E+09
         0.99437E+08
        -0.13597E+08
         0.68470E+08
         0.10246E+09
         0.15839E+09
         0.17815E+09
         0.16778E+09
         0.89054E+08
        -0.23930E+08
        -0.49402E+08
        -0.78232E+08
        -0.11188E+09
        -0.17066E+09
        -0.14721E+09
        -0.11322E+09
        -0.17089E+09
        -0.17241E+09
        -0.11279E+09
        -0.11695E+08
         0.36138E+08
        -0.50684E+08
         0.11328E+09
         0.14731E+09
         0.17942E+09
         0.20183E+09
         0.20523E+09
         0.19937E+09
         0.19563E+09
         0.18198E+09
         0.11637E+09
         0.38875E+08
         0.18399E+08
         0.16578E+08
        -0.69032E+07
        -0.55977E+08
        -0.10841E+09
        -0.13924E+09
        -0.18771E+09
        -0.20314E+09
        -0.19622E+09
        -0.19445E+09
        -0.18288E+09
        -0.13140E+09
        -0.66444E+08
        -0.63368E+08
        -0.16686E+09
        -0.17012E+09
        -0.16640E+09
        -0.57618E+08
        -0.12232E+09
        -0.78008E+08
        -0.11727E+09
        -0.16059E+09
        -0.16334E+09
        -0.15979E+09
         0.16662E+09
         0.18280E+09
         0.13966E+09
         0.38634E+08
         0.17278E+09
         0.85273E+08
        -0.50454E+08
         0.47196E+08
         0.16227E+09
         0.40603E+08
         0.48191E+08
         0.36144E+08
        -0.21448E+08
         0.63860E+08
        -0.16239E+09
         0.63556E+08
         0.90172E+07
         0.30425E+08
        -0.46590E+08
        -0.14998E+09
         0.10664E+09
         0.46131E+08
         0.10576E+09
         0.99598E+08
        -0.13462E+08
         0.68533E+08
         0.10247E+09
         0.15841E+09
         0.17816E+09
         0.16776E+09
         0.89077E+08
        -0.23827E+08
        -0.49432E+08
        -0.78301E+08
        -0.11193E+09
        -0.17067E+09
        -0.14723E+09
        -0.11316E+09
        -0.17089E+09
        -0.17241E+09
        -0.11280E+09
        -0.11530E+08
         0.36116E+08
        -0.50698E+08
         0.11330E+09
         0.14731E+09
         0.17942E+09
         0.20183E+09
         0.20522E+09
         0.19936E+09
         0.19563E+09
         0.18198E+09
         0.11637E+09
         0.38896E+08
         0.18401E+08
         0.16612E+08
        -0.68445E+07
        -0.55995E+08
        -0.10844E+09
        -0.13924E+09
        -0.18772E+09
        -0.20314E+09
        -0.19623E+09
        -0.19446E+09
        -0.18289E+09
        -0.13138E+09
        -0.66405E+08
        -0.63315E+08
        -0.16685E+09
        -0.17011E+09
        -0.16639E+09
        -0.57955E+08
        -0.12239E+09
        -0.78112E+08
        -0.11741E+09
        -0.16072E+09
        -0.16337E+09
        -0.15994E+09
         0.16672E+09
         0.18279E+09
         0.13965E+09
         0.38722E+08
         0.17284E+09
         0.85203E+08
        -0.50772E+08
         0.47122E+08
         0.16229E+09
         0.40341E+08
         0.48308E+08
         0.36172E+08
        -0.21475E+08
         0.63771E+08
        -0.16243E+09
         0.63337E+08
         0.91410E+07
         0.30712E+08
        -0.46079E+08
        -0.15003E+09
         0.10654E+09
         0.45913E+08
         0.10616E+09
         0.99760E+08
        -0.13325E+08
         0.68596E+08
         0.10249E+09
         0.15842E+09
         0.17818E+09
         0.16775E+09
         0.89109E+08
        -0.23703E+08
        -0.49452E+08
        -0.78390E+08
        -0.11199E+09
        -0.17068E+09
        -0.14724E+09
        -0.11310E+09
        -0.17089E+09
        -0.17240E+09
        -0.11281E+09
        -0.11364E+08
         0.36094E+08
        -0.50712E+08
         0.11332E+09
         0.14731E+09
         0.17943E+09
         0.20182E+09
         0.20521E+09
         0.19935E+09
         0.19564E+09
         0.18198E+09
         0.11637E+09
         0.38921E+08
         0.18403E+08
         0.16645E+08
        -0.67855E+07
        -0.56015E+08
        -0.10847E+09
        -0.13926E+09
        -0.18772E+09
        -0.20314E+09
        -0.19623E+09
        -0.19446E+09
        -0.18290E+09
        -0.13137E+09
        -0.66366E+08
        -0.63262E+08
        -0.16683E+09
        -0.17011E+09
        -0.16639E+09
        -0.58297E+08
        -0.12246E+09
        -0.78216E+08
        -0.11754E+09
        -0.16084E+09
        -0.16340E+09
        -0.16010E+09
         0.16681E+09
         0.18278E+09
         0.13963E+09
         0.38815E+08
         0.17289E+09
         0.85134E+08
        -0.51097E+08
         0.47049E+08
         0.16231E+09
         0.40073E+08
         0.48424E+08
         0.36198E+08
        -0.21505E+08
         0.63672E+08
        -0.16248E+09
         0.63103E+08
         0.92743E+07
         0.31030E+08
        -0.45532E+08
        -0.15007E+09
         0.10643E+09
         0.45671E+08
         0.10658E+09
         0.99929E+08
        -0.13187E+08
         0.68660E+08
         0.10251E+09
         0.15844E+09
         0.17819E+09
         0.16773E+09
         0.89142E+08
        -0.23572E+08
        -0.49466E+08
        -0.78486E+08
        -0.11205E+09
        -0.17069E+09
        -0.14726E+09
        -0.11305E+09
        -0.17090E+09
        -0.17239E+09
        -0.11282E+09
        -0.11196E+08
         0.36072E+08
        -0.50725E+08
         0.11334E+09
         0.14731E+09
         0.17944E+09
         0.20181E+09
         0.20520E+09
         0.19934E+09
         0.19564E+09
         0.18198E+09
         0.11637E+09
         0.38947E+08
         0.18407E+08
         0.16678E+08
        -0.67266E+07
        -0.56034E+08
        -0.10851E+09
        -0.13927E+09
        -0.18773E+09
        -0.20313E+09
        -0.19624E+09
        -0.19446E+09
        -0.18291E+09
        -0.13135E+09
        -0.66327E+08
        -0.63209E+08
        -0.16682E+09
        -0.17010E+09
        -0.16639E+09
        -0.58648E+08
        -0.12252E+09
        -0.78321E+08
        -0.11765E+09
        -0.16096E+09
        -0.16344E+09
        -0.16024E+09
         0.16691E+09
         0.18277E+09
         0.13962E+09
         0.38931E+08
         0.17295E+09
         0.85069E+08
        -0.51434E+08
         0.46977E+08
         0.16234E+09
         0.39806E+08
         0.48541E+08
         0.36225E+08
        -0.21536E+08
         0.63576E+08
        -0.16253E+09
         0.62867E+08
         0.94315E+07
         0.31368E+08
        -0.44975E+08
        -0.15011E+09
         0.10632E+09
         0.45411E+08
         0.10700E+09
         0.10011E+09
        -0.13049E+08
         0.68725E+08
         0.10253E+09
         0.15846E+09
         0.17821E+09
         0.16771E+09
         0.89177E+08
        -0.23438E+08
        -0.49479E+08
        -0.78581E+08
        -0.11212E+09
        -0.17071E+09
        -0.14729E+09
        -0.11301E+09
        -0.17090E+09
        -0.17238E+09
        -0.11282E+09
        -0.11027E+08
         0.36050E+08
        -0.50739E+08
         0.11336E+09
         0.14731E+09
         0.17944E+09
         0.20181E+09
         0.20519E+09
         0.19932E+09
         0.19565E+09
         0.18198E+09
         0.11636E+09
         0.38974E+08
         0.18410E+08
         0.16711E+08
        -0.66677E+07
        -0.56054E+08
        -0.10854E+09
        -0.13928E+09
        -0.18774E+09
        -0.20313E+09
        -0.19624E+09
        -0.19447E+09
        -0.18292E+09
        -0.13134E+09
        -0.66288E+08
        -0.63155E+08
        -0.16681E+09
        -0.17008E+09
        -0.16639E+09
        -0.59004E+08
        -0.12259E+09
        -0.78427E+08
        -0.11772E+09
        -0.16107E+09
        -0.16347E+09
        -0.16038E+09
         0.16700E+09
         0.18276E+09
         0.13961E+09
         0.39052E+08
         0.17301E+09
         0.85005E+08
        -0.51777E+08
         0.46902E+08
         0.16236E+09
         0.39538E+08
         0.48657E+08
         0.36252E+08
        -0.21566E+08
         0.63483E+08
        -0.16258E+09
         0.62633E+08
         0.95947E+07
         0.31715E+08
        -0.44415E+08
        -0.15014E+09
         0.10622E+09
         0.45141E+08
         0.10743E+09
         0.10029E+09
        -0.12910E+08
         0.68791E+08
         0.10255E+09
         0.15848E+09
         0.17822E+09
         0.16769E+09
         0.89212E+08
        -0.23304E+08
        -0.49491E+08
        -0.78675E+08
        -0.11219E+09
        -0.17072E+09
        -0.14733E+09
        -0.11299E+09
        -0.17091E+09
        -0.17237E+09
        -0.11283E+09
        -0.10856E+08
         0.36028E+08
        -0.50753E+08
         0.11339E+09
         0.14731E+09
         0.17945E+09
         0.20180E+09
         0.20519E+09
         0.19931E+09
         0.19565E+09
         0.18198E+09
         0.11636E+09
         0.39000E+08
         0.18413E+08
         0.16745E+08
        -0.66086E+07
        -0.56073E+08
        -0.10858E+09
        -0.13929E+09
        -0.18774E+09
        -0.20313E+09
        -0.19625E+09
        -0.19447E+09
        -0.18293E+09
        -0.13132E+09
        -0.66249E+08
        -0.63102E+08
        -0.16680E+09
        -0.17007E+09
        -0.16639E+09
        -0.59359E+08
        -0.12265E+09
        -0.78532E+08
        -0.11780E+09
        -0.16119E+09
        -0.16350E+09
        -0.16052E+09
         0.16709E+09
         0.18275E+09
         0.13959E+09
         0.39178E+08
         0.17306E+09
         0.84942E+08
        -0.52120E+08
         0.46827E+08
         0.16238E+09
         0.39269E+08
         0.48774E+08
         0.36279E+08
        -0.21596E+08
         0.63390E+08
        -0.16262E+09
         0.62400E+08
         0.97618E+07
         0.32058E+08
        -0.43858E+08
        -0.15018E+09
         0.10611E+09
         0.44873E+08
         0.10785E+09
         0.10047E+09
        -0.12770E+08
         0.68855E+08
         0.10257E+09
         0.15850E+09
         0.17823E+09
         0.16768E+09
         0.89246E+08
        -0.23171E+08
        -0.49503E+08
        -0.78769E+08
        -0.11225E+09
        -0.17073E+09
        -0.14736E+09
        -0.11297E+09
        -0.17092E+09
        -0.17236E+09
        -0.11283E+09
        -0.10684E+08
         0.36006E+08
        -0.50766E+08
         0.11341E+09
         0.14731E+09
         0.17945E+09
         0.20179E+09
         0.20518E+09
         0.19930E+09
         0.19566E+09
         0.18198E+09
         0.11636E+09
         0.39026E+08
         0.18417E+08
         0.16779E+08
        -0.65497E+07
        -0.56093E+08
        -0.10861E+09
        -0.13931E+09
        -0.18775E+09
        -0.20313E+09
        -0.19626E+09
        -0.19448E+09
        -0.18294E+09
        -0.13130E+09
        -0.66210E+08
        -0.63049E+08
        -0.16678E+09
        -0.17006E+09
        -0.16638E+09
        -0.59710E+08
        -0.12271E+09
        -0.78636E+08
        -0.11788E+09
        -0.16130E+09
        -0.16353E+09
        -0.16066E+09
         0.16718E+09
         0.18274E+09
         0.13958E+09
         0.39299E+08
         0.17312E+09
         0.84879E+08
        -0.52463E+08
         0.46752E+08
         0.16240E+09
         0.38997E+08
         0.48890E+08
         0.36305E+08
        -0.21625E+08
         0.63298E+08
        -0.16267E+09
         0.62168E+08
         0.99243E+07
         0.32397E+08
        -0.43301E+08
        -0.15022E+09
         0.10601E+09
         0.44604E+08
         0.10828E+09
         0.10065E+09
        -0.12631E+08
         0.68921E+08
         0.10259E+09
         0.15852E+09
         0.17825E+09
         0.16766E+09
         0.89281E+08
        -0.23039E+08
        -0.49516E+08
        -0.78862E+08
        -0.11232E+09
        -0.17075E+09
        -0.14739E+09
        -0.11294E+09
        -0.17093E+09
        -0.17235E+09
        -0.11284E+09
        -0.10513E+08
         0.35983E+08
        -0.50780E+08
         0.11343E+09
         0.14731E+09
         0.17946E+09
         0.20179E+09
         0.20517E+09
         0.19929E+09
         0.19566E+09
         0.18198E+09
         0.11636E+09
         0.39052E+08
         0.18420E+08
         0.16813E+08
        -0.64910E+07
        -0.56112E+08
        -0.10865E+09
        -0.13932E+09
        -0.18775E+09
        -0.20313E+09
        -0.19627E+09
        -0.19448E+09
        -0.18295E+09
        -0.13129E+09
        -0.66171E+08
        -0.62995E+08
        -0.16677E+09
        -0.17005E+09
        -0.16638E+09
        -0.60060E+08
        -0.12278E+09
        -0.78739E+08
        -0.11797E+09
        -0.16141E+09
        -0.16356E+09
        -0.16079E+09
         0.16727E+09
         0.18273E+09
         0.13957E+09
         0.39424E+08
         0.17317E+09
         0.84817E+08
        -0.52805E+08
         0.46678E+08
         0.16242E+09
         0.38725E+08
         0.49007E+08
         0.36331E+08
        -0.21655E+08
         0.63207E+08
        -0.16272E+09
         0.61935E+08
         0.10089E+08
         0.32732E+08
        -0.42746E+08
        -0.15025E+09
         0.10591E+09
         0.44337E+08
         0.10871E+09
         0.10084E+09
        -0.12491E+08
         0.68987E+08
         0.10261E+09
         0.15854E+09
         0.17826E+09
         0.16764E+09
         0.89315E+08
        -0.22907E+08
        -0.49528E+08
        -0.78955E+08
        -0.11239E+09
        -0.17076E+09
        -0.14743E+09
        -0.11292E+09
        -0.17094E+09
        -0.17234E+09
        -0.11284E+09
        -0.10340E+08
         0.35961E+08
        -0.50793E+08
         0.11345E+09
         0.14731E+09
         0.17946E+09
         0.20178E+09
         0.20516E+09
         0.19928E+09
         0.19566E+09
         0.18197E+09
         0.11636E+09
         0.39078E+08
         0.18424E+08
         0.16847E+08
        -0.64321E+07
        -0.56132E+08
        -0.10868E+09
        -0.13933E+09
        -0.18776E+09
        -0.20312E+09
        -0.19627E+09
        -0.19448E+09
        -0.18295E+09
        -0.13127E+09
        -0.66132E+08
        -0.62942E+08
        -0.16676E+09
        -0.17004E+09
        -0.16638E+09
        -0.60412E+08
        -0.12284E+09
        -0.78844E+08
        -0.11805E+09
        -0.16153E+09
        -0.16359E+09
        -0.16093E+09
         0.16736E+09
         0.18272E+09
         0.13956E+09
         0.39549E+08
         0.17323E+09
         0.84755E+08
        -0.53145E+08
         0.46601E+08
         0.16245E+09
         0.38454E+08
         0.49123E+08
         0.36357E+08
        -0.21685E+08
         0.63117E+08
        -0.16277E+09
         0.61705E+08
         0.10251E+08
         0.33064E+08
        -0.42190E+08
        -0.15029E+09
         0.10580E+09
         0.44068E+08
         0.10913E+09
         0.10102E+09
        -0.12350E+08
         0.69052E+08
         0.10263E+09
         0.15857E+09
         0.17827E+09
         0.16762E+09
         0.89349E+08
        -0.22776E+08
        -0.49540E+08
        -0.79048E+08
        -0.11245E+09
        -0.17077E+09
        -0.14746E+09
        -0.11290E+09
        -0.17095E+09
        -0.17233E+09
        -0.11284E+09
        -0.10168E+08
         0.35938E+08
        -0.50806E+08
         0.11347E+09
         0.14731E+09
         0.17947E+09
         0.20177E+09
         0.20515E+09
         0.19926E+09
         0.19567E+09
         0.18197E+09
         0.11636E+09
         0.39104E+08
         0.18427E+08
         0.16880E+08
        -0.63730E+07
        -0.56151E+08
        -0.10872E+09
        -0.13934E+09
        -0.18777E+09
        -0.20312E+09
        -0.19628E+09
        -0.19449E+09
        -0.18296E+09
        -0.13125E+09
        -0.66094E+08
        -0.62888E+08
        -0.16675E+09
        -0.17003E+09
        -0.16638E+09
        -0.60765E+08
        -0.12291E+09
        -0.78949E+08
        -0.11813E+09
        -0.16164E+09
        -0.16362E+09
        -0.16106E+09
         0.16744E+09
         0.18271E+09
         0.13955E+09
         0.39670E+08
         0.17329E+09
         0.84692E+08
        -0.53484E+08
         0.46524E+08
         0.16247E+09
         0.38185E+08
         0.49240E+08
         0.36383E+08
        -0.21714E+08
         0.63027E+08
        -0.16282E+09
         0.61472E+08
         0.10417E+08
         0.33393E+08
        -0.41636E+08
        -0.15032E+09
         0.10570E+09
         0.43797E+08
         0.10956E+09
         0.10120E+09
        -0.12210E+08
         0.69118E+08
         0.10265E+09
         0.15859E+09
         0.17829E+09
         0.16761E+09
         0.89383E+08
        -0.22644E+08
        -0.49551E+08
        -0.79142E+08
        -0.11252E+09
        -0.17079E+09
        -0.14750E+09
        -0.11288E+09
        -0.17096E+09
        -0.17232E+09
        -0.11285E+09
        -0.99948E+07
         0.35916E+08
        -0.50819E+08
         0.11349E+09
         0.14731E+09
         0.17947E+09
         0.20177E+09
         0.20514E+09
         0.19925E+09
         0.19567E+09
         0.18197E+09
         0.11635E+09
         0.39130E+08
         0.18431E+08
         0.16914E+08
        -0.63140E+07
        -0.56171E+08
        -0.10875E+09
        -0.13936E+09
        -0.18777E+09
        -0.20312E+09
        -0.19629E+09
        -0.19449E+09
        -0.18297E+09
        -0.13124E+09
        -0.66055E+08
        -0.62835E+08
        -0.16674E+09
        -0.17002E+09
        -0.16638E+09
        -0.61115E+08
        -0.12297E+09
        -0.79055E+08
        -0.11822E+09
        -0.16175E+09
        -0.16365E+09
        -0.16119E+09
         0.16752E+09
         0.18270E+09
         0.13954E+09
         0.39796E+08
         0.17334E+09
         0.84630E+08
        -0.53823E+08
         0.46448E+08
         0.16249E+09
         0.37915E+08
         0.49357E+08
         0.36408E+08
        -0.21744E+08
         0.62937E+08
        -0.16287E+09
         0.61239E+08
         0.10579E+08
         0.33718E+08
        -0.41084E+08
        -0.15036E+09
         0.10560E+09
         0.43529E+08
         0.10999E+09
         0.10139E+09
        -0.12069E+08
         0.69183E+08
         0.10267E+09
         0.15861E+09
         0.17830E+09
         0.16759E+09
         0.89418E+08
        -0.22512E+08
        -0.49563E+08
        -0.79234E+08
        -0.11259E+09
        -0.17080E+09
        -0.14753E+09
        -0.11285E+09
        -0.17097E+09
        -0.17231E+09
        -0.11285E+09
        -0.98226E+07
         0.35893E+08
        -0.50832E+08
         0.11351E+09
         0.14731E+09
         0.17948E+09
         0.20176E+09
         0.20513E+09
         0.19924E+09
         0.19568E+09
         0.18197E+09
         0.11635E+09
         0.39156E+08
         0.18434E+08
         0.16948E+08
        -0.62553E+07
        -0.56190E+08
        -0.10879E+09
        -0.13937E+09
        -0.18778E+09
        -0.20312E+09
        -0.19629E+09
        -0.19450E+09
        -0.18298E+09
        -0.13122E+09
        -0.66017E+08
        -0.62781E+08
        -0.16672E+09
        -0.17000E+09
        -0.16638E+09
        -0.61464E+08
        -0.12303E+09
        -0.79159E+08
        -0.11830E+09
        -0.16186E+09
        -0.16368E+09
        -0.16132E+09
         0.16760E+09
         0.18269E+09
         0.13952E+09
         0.39916E+08
         0.17340E+09
         0.84568E+08
        -0.54161E+08
         0.46373E+08
         0.16251E+09
         0.37643E+08
         0.49473E+08
         0.36434E+08
        -0.21773E+08
         0.62850E+08
        -0.16292E+09
         0.61006E+08
         0.10743E+08
         0.34037E+08
        -0.40534E+08
        -0.15039E+09
         0.10549E+09
         0.43259E+08
         0.11042E+09
         0.10157E+09
        -0.11928E+08
         0.69248E+08
         0.10269E+09
         0.15863E+09
         0.17831E+09
         0.16757E+09
         0.89452E+08
        -0.22381E+08
        -0.49576E+08
        -0.79327E+08
        -0.11265E+09
        -0.17081E+09
        -0.14756E+09
        -0.11283E+09
        -0.17097E+09
        -0.17230E+09
        -0.11286E+09
        -0.96488E+07
         0.35871E+08
        -0.50845E+08
         0.11353E+09
         0.14731E+09
         0.17948E+09
         0.20175E+09
         0.20512E+09
         0.19923E+09
         0.19568E+09
         0.18197E+09
         0.11635E+09
         0.39182E+08
         0.18438E+08
         0.16982E+08
        -0.61965E+07
        -0.56209E+08
        -0.10882E+09
        -0.13938E+09
        -0.18779E+09
        -0.20312E+09
        -0.19630E+09
        -0.19450E+09
        -0.18299E+09
        -0.13120E+09
        -0.65979E+08
        -0.62727E+08
        -0.16671E+09
        -0.16999E+09
        -0.16638E+09
        -0.61810E+08
        -0.12310E+09
        -0.79263E+08
        -0.11838E+09
        -0.16197E+09
        -0.16371E+09
        -0.16146E+09
         0.16768E+09
         0.18268E+09
         0.13951E+09
         0.40042E+08
         0.17345E+09
         0.84506E+08
        -0.54500E+08
         0.46297E+08
         0.16253E+09
         0.37373E+08
         0.49589E+08
         0.36458E+08
        -0.21802E+08
         0.62763E+08
        -0.16297E+09
         0.60773E+08
         0.10903E+08
         0.34352E+08
        -0.39987E+08
        -0.15043E+09
         0.10539E+09
         0.42990E+08
         0.11085E+09
         0.10176E+09
        -0.11786E+08
         0.69313E+08
         0.10271E+09
         0.15865E+09
         0.17833E+09
         0.16755E+09
         0.89487E+08
        -0.22250E+08
        -0.49589E+08
        -0.79419E+08
        -0.11272E+09
        -0.17083E+09
        -0.14760E+09
        -0.11281E+09
        -0.17098E+09
        -0.17229E+09
        -0.11286E+09
        -0.94744E+07
         0.35848E+08
        -0.50858E+08
         0.11355E+09
         0.14731E+09
         0.17949E+09
         0.20175E+09
         0.20511E+09
         0.19922E+09
         0.19568E+09
         0.18197E+09
         0.11635E+09
         0.39208E+08
         0.18441E+08
         0.17015E+08
        -0.61376E+07
        -0.56228E+08
        -0.10886E+09
        -0.13939E+09
        -0.18779E+09
        -0.20312E+09
        -0.19631E+09
        -0.19450E+09
        -0.18300E+09
        -0.13119E+09
        -0.65941E+08
        -0.62674E+08
        -0.16670E+09
        -0.16998E+09
        -0.16638E+09
        -0.62157E+08
        -0.12316E+09
        -0.79367E+08
        -0.11847E+09
        -0.16208E+09
        -0.16374E+09
        -0.16159E+09
         0.16775E+09
         0.18267E+09
         0.13950E+09
         0.40163E+08
         0.17351E+09
         0.84444E+08
        -0.54839E+08
         0.46219E+08
         0.16255E+09
         0.37105E+08
         0.49705E+08
         0.36482E+08
        -0.21831E+08
         0.62675E+08
        -0.16302E+09
         0.60539E+08
         0.11068E+08
         0.34664E+08
        -0.39438E+08
        -0.15046E+09
         0.10529E+09
         0.42721E+08
         0.11128E+09
         0.10194E+09
        -0.11644E+08
         0.69379E+08
         0.10272E+09
         0.15868E+09
         0.17834E+09
         0.16753E+09
         0.89522E+08
        -0.22121E+08
        -0.49602E+08
        -0.79512E+08
        -0.11279E+09
        -0.17084E+09
        -0.14763E+09
        -0.11279E+09
        -0.17099E+09
        -0.17228E+09
        -0.11287E+09
        -0.93009E+07
         0.35825E+08
        -0.50871E+08
         0.11357E+09
         0.14731E+09
         0.17949E+09
         0.20174E+09
         0.20510E+09
         0.19920E+09
         0.19569E+09
         0.18197E+09
         0.11635E+09
         0.39234E+08
         0.18443E+08
         0.17048E+08
        -0.60791E+07
        -0.56247E+08
        -0.10889E+09
        -0.13941E+09
        -0.18780E+09
        -0.20311E+09
        -0.19631E+09
        -0.19451E+09
        -0.18301E+09
        -0.13117E+09
        -0.65904E+08
        -0.62620E+08
        -0.16669E+09
        -0.16997E+09
        -0.16638E+09
        -0.62505E+08
        -0.12322E+09
        -0.79472E+08
        -0.11855E+09
        -0.16219E+09
        -0.16377E+09
        -0.16172E+09
         0.16782E+09
         0.18266E+09
         0.13949E+09
         0.40289E+08
         0.17356E+09
         0.84382E+08
        -0.55181E+08
         0.46141E+08
         0.16257E+09
         0.36850E+08
         0.49821E+08
         0.36505E+08
        -0.21861E+08
         0.62587E+08
        -0.16307E+09
         0.60307E+08
         0.11231E+08
         0.34974E+08
        -0.38891E+08
        -0.15049E+09
         0.10518E+09
         0.42447E+08
         0.11170E+09
         0.10213E+09
        -0.11503E+08
         0.69444E+08
         0.10274E+09
         0.15870E+09
         0.17835E+09
         0.16751E+09
         0.89559E+08
        -0.21991E+08
        -0.49617E+08
        -0.79604E+08
        -0.11285E+09
        -0.17085E+09
        -0.14766E+09
        -0.11276E+09
        -0.17100E+09
        -0.17227E+09
        -0.11287E+09
        -0.91269E+07
         0.35803E+08
        -0.50884E+08
         0.11359E+09
         0.14732E+09
         0.17950E+09
         0.20173E+09
         0.20509E+09
         0.19919E+09
         0.19569E+09
         0.18196E+09
         0.11635E+09
         0.39259E+08
         0.18444E+08
         0.17082E+08
        -0.60207E+07
        -0.56266E+08
        -0.10893E+09
        -0.13942E+09
        -0.18781E+09
        -0.20311E+09
        -0.19632E+09
        -0.19451E+09
        -0.18302E+09
        -0.13115E+09
        -0.65867E+08
        -0.62566E+08
        -0.16667E+09
        -0.16996E+09
        -0.16638E+09
        -0.62851E+08
        -0.12329E+09
        -0.79575E+08
        -0.11864E+09
        -0.16230E+09
        -0.16381E+09
        -0.16185E+09
         0.16789E+09
         0.18265E+09
         0.13948E+09
         0.40416E+08
         0.17362E+09
         0.84321E+08
        -0.55530E+08
         0.46063E+08
         0.16259E+09
         0.36606E+08
         0.49937E+08
         0.36528E+08
        -0.21890E+08
         0.62501E+08
        -0.16313E+09
         0.60073E+08
         0.11403E+08
         0.35280E+08
        -0.38346E+08
        -0.15052E+09
         0.10508E+09
         0.42178E+08
         0.11213E+09
         0.10231E+09
        -0.11360E+08
         0.69509E+08
         0.10276E+09
         0.15873E+09
         0.17836E+09
         0.16749E+09
         0.89598E+08
        -0.21863E+08
        -0.49635E+08
        -0.79696E+08
        -0.11292E+09
        -0.17087E+09
        -0.14770E+09
        -0.11274E+09
        -0.17101E+09
        -0.17226E+09
        -0.11287E+09
        -0.89511E+07
         0.35780E+08
        -0.50896E+08
         0.11361E+09
         0.14732E+09
         0.17950E+09
         0.20173E+09
         0.20509E+09
         0.19918E+09
         0.19570E+09
         0.18196E+09
         0.11635E+09
         0.39284E+08
         0.18444E+08
         0.17115E+08
        -0.59619E+07
        -0.56285E+08
        -0.10896E+09
        -0.13943E+09
        -0.18781E+09
        -0.20311E+09
        -0.19633E+09
        -0.19451E+09
        -0.18303E+09
        -0.13114E+09
        -0.65830E+08
        -0.62512E+08
        -0.16666E+09
        -0.16995E+09
        -0.16638E+09
        -0.63193E+08
        -0.12335E+09
        -0.79679E+08
        -0.11873E+09
        -0.16241E+09
        -0.16384E+09
        -0.16199E+09
         0.16796E+09
         0.18264E+09
         0.13947E+09
         0.40539E+08
         0.17367E+09
         0.84260E+08
        -0.55878E+08
         0.45985E+08
         0.16261E+09
         0.36368E+08
         0.50054E+08
         0.36551E+08
        -0.21917E+08
         0.62421E+08
        -0.16318E+09
         0.59847E+08
         0.11570E+08
         0.35573E+08
        -0.37807E+08
        -0.15054E+09
         0.10498E+09
         0.41913E+08
         0.11256E+09
         0.10250E+09
        -0.11219E+08
         0.69572E+08
         0.10278E+09
         0.15876E+09
         0.17837E+09
         0.16747E+09
         0.89636E+08
        -0.21737E+08
        -0.49655E+08
        -0.79785E+08
        -0.11299E+09
        -0.17088E+09
        -0.14773E+09
        -0.11272E+09
        -0.17102E+09
        -0.17225E+09
        -0.11288E+09
        -0.87757E+07
         0.35757E+08
        -0.50910E+08
         0.11363E+09
         0.14732E+09
         0.17951E+09
         0.20172E+09
         0.20508E+09
         0.19917E+09
         0.19570E+09
         0.18196E+09
         0.11635E+09
         0.39307E+08
         0.18442E+08
         0.17148E+08
        -0.59031E+07
        -0.56303E+08
        -0.10900E+09
        -0.13944E+09
        -0.18782E+09
        -0.20311E+09
        -0.19633E+09
        -0.19452E+09
        -0.18303E+09
        -0.13112E+09
        -0.65793E+08
        -0.62458E+08
        -0.16042E+09
        -0.15246E+09
        -0.14800E+09
        -0.52683E+08
        -0.11720E+09
        -0.72803E+08
        -0.93903E+08
        -0.15461E+09
        -0.15002E+09
        -0.15385E+09
         0.13257E+09
         0.17870E+09
         0.13537E+09
         0.36124E+08
         0.17027E+09
         0.79018E+08
        -0.44901E+08
         0.46047E+08
         0.13848E+09
         0.32161E+08
         0.48985E+08
         0.35577E+08
        -0.21363E+08
         0.49095E+08
        -0.14582E+09
         0.59871E+08
         0.10430E+08
         0.35316E+08
        -0.30327E+08
        -0.13448E+09
         0.96154E+08
         0.34923E+08
         0.92664E+08
         0.82975E+08
        -0.10687E+08
         0.64127E+08
         0.97699E+08
         0.15464E+09
         0.17143E+09
         0.15995E+09
         0.87422E+08
        -0.21049E+08
        -0.48461E+08
        -0.77223E+08
        -0.10801E+09
        -0.16543E+09
        -0.13913E+09
        -0.10487E+09
        -0.15434E+09
        -0.15870E+09
        -0.10868E+09
        -0.80386E+07
         0.35494E+08
        -0.50626E+08
         0.11301E+09
         0.14654E+09
         0.17862E+09
         0.20076E+09
         0.20400E+09
         0.19787E+09
         0.19435E+09
         0.18080E+09
         0.11563E+09
         0.39101E+08
         0.18313E+08
         0.17065E+08
        -0.58152E+07
        -0.56035E+08
        -0.10851E+09
        -0.13880E+09
        -0.18672E+09
        -0.20196E+09
        -0.19518E+09
        -0.19333E+09
        -0.18198E+09
        -0.13031E+09
        -0.65391E+08
        -0.62052E+08
        -0.79642E+08
        -0.50921E+08
        -0.48049E+08
        -0.14403E+08
        -0.51936E+08
        -0.26026E+08
        -0.21181E+08
        -0.69405E+08
        -0.54375E+08
        -0.67840E+08
         0.33178E+08
         0.10670E+09
         0.73061E+08
         0.11652E+08
         0.10428E+09
         0.32328E+08
        -0.11520E+08
         0.10031E+08
         0.39802E+08
         0.64451E+07
         0.28463E+08
         0.19693E+08
        -0.11989E+08
         0.12032E+08
        -0.47985E+08
         0.12081E+08
         0.34048E+07
         0.58977E+07
        -0.60762E+07
        -0.44249E+08
         0.34894E+08
         0.81179E+07
         0.24709E+08
         0.20486E+08
        -0.52583E+07
         0.23830E+08
         0.43533E+08
         0.86824E+08
         0.83741E+08
         0.74263E+08
         0.49857E+08
        -0.11635E+08
        -0.27769E+08
        -0.39919E+08
        -0.50028E+08
        -0.86411E+08
        -0.58148E+08
        -0.40989E+08
        -0.52609E+08
        -0.59079E+08
        -0.53877E+08
        -0.31712E+07
         0.28314E+08
        -0.41171E+08
         0.92839E+08
         0.12149E+09
         0.14965E+09
         0.16944E+09
         0.16975E+09
         0.15882E+09
         0.15395E+09
         0.14529E+09
         0.93349E+08
         0.32110E+08
         0.14624E+08
         0.13688E+08
        -0.47626E+07
        -0.46899E+08
        -0.91528E+08
        -0.11713E+09
        -0.15179E+09
        -0.16561E+09
        -0.15898E+09
        -0.15660E+09
        -0.14862E+09
        -0.10574E+09
        -0.53758E+08
        -0.50831E+08
  
SCALARS                      stress_xz  double 1
LOOKUP_TABLE default
         0.58610E+05
        -0.41335E+06
        -0.13646E+07
         0.93741E+05
        -0.71846E+01
         0.25475E+01
         0.85182E+01
         0.17012E+01
        -0.38395E+07
        -0.25652E+07
         0.25479E+02
         0.22950E+02
         0.16371E+06
        -0.66800E+06
        -0.31424E+01
        -0.14721E+02
        -0.13706E+06
        -0.64105E+06
        -0.10633E+02
        -0.15836E+02
        -0.93946E+06
        -0.15830E+07
        -0.14991E+07
        -0.10575E+02
        -0.48763E+01
         0.85192E+01
        -0.16721E+07
        -0.13577E+07
        -0.19795E+02
        -0.15702E+02
         0.32069E+06
        -0.71237E+06
         0.68175E+05
         0.20153E+01
        -0.77881E+01
        -0.47980E+01
         0.95145E+06
         0.45859E+06
        -0.11563E+02
        -0.12311E+02
         0.18964E+07
         0.26870E+07
        -0.26082E+02
        -0.19234E+02
         0.20290E+07
         0.10806E+07
        -0.28643E+02
        -0.13787E+02
        -0.58241E+06
        -0.86538E+01
         0.13871E+07
        -0.24089E+01
        -0.60752E+06
        -0.16910E+02
         0.45383E+06
        -0.44730E+01
         0.19856E+07
         0.54473E+06
        -0.38318E+01
        -0.92619E+01
        -0.34243E+05
         0.94466E+06
         0.76639E+01
         0.52555E+01
        -0.24534E+06
        -0.77089E+00
        -0.82128E+06
         0.50706E+01
        -0.54032E+07
        -0.37026E+07
         0.31693E+02
         0.22986E+02
        -0.23813E+07
         0.16737E+02
         0.56122E+06
        -0.11578E+02
         0.17562E+07
        -0.22723E+01
         0.37232E+07
        -0.35253E+01
         0.49263E+07
         0.34982E+07
        -0.12919E+02
        -0.14775E+02
         0.30900E+07
        -0.15890E+02
         0.24605E+07
        -0.22878E+02
         0.15323E+07
        -0.14592E+02
         0.24122E+07
         0.17740E+07
        -0.62278E+01
         0.85406E+01
        -0.40554E+06
         0.10018E+02
        -0.11132E+07
         0.42064E+01
        -0.26729E+07
         0.10387E+02
        -0.39512E+07
        -0.27117E+07
         0.23950E+02
         0.24992E+02
        -0.96769E+07
        -0.10715E+08
         0.44255E+02
         0.43612E+02
        -0.95841E+07
         0.37807E+02
        -0.87350E+07
         0.28254E+02
        -0.62667E+07
         0.15527E+02
        -0.45532E+07
         0.16603E+01
        -0.16894E+07
        -0.59135E+01
         0.21766E+07
        -0.47312E+01
         0.51942E+07
        -0.46502E+01
         0.77177E+07
        -0.10487E+02
         0.10382E+08
        -0.19951E+02
         0.12616E+08
        -0.23808E+02
         0.13411E+08
        -0.22463E+02
         0.12774E+08
        -0.24427E+02
         0.11707E+08
        -0.31702E+02
         0.10529E+08
        -0.37383E+02
         0.92861E+07
        -0.34752E+02
         0.73845E+07
        -0.28243E+02
         0.43328E+07
        -0.13333E+02
         0.37144E+06
         0.25460E+01
        -0.24231E+07
         0.61812E+01
        -0.37924E+07
         0.10108E+02
        -0.57037E+07
         0.19781E+02
        -0.75202E+07
         0.32460E+02
        -0.98842E+07
         0.38999E+02
        -0.11356E+08
         0.39888E+02
        -0.89243E+06
         0.46414E+06
         0.54460E+06
        -0.10981E+07
         0.41371E+07
         0.32841E+07
         0.47466E+06
        -0.72360E+06
        -0.37615E+06
        -0.66855E+06
         0.32428E+06
         0.13570E+07
         0.30716E+07
        -0.98699E+06
        -0.11331E+07
         0.14613E+07
         0.12259E+07
        -0.56884E+06
        -0.88294E+06
        -0.95040E+06
        -0.51837E+07
        -0.55305E+07
        -0.49547E+07
        -0.15460E+07
         0.62253E+06
        -0.46388E+06
        -0.14614E+07
        -0.16450E+06
        -0.16074E+07
        -0.11711E+07
         0.13044E+07
         0.25565E+06
        -0.61468E+06
        -0.19858E+06
         0.52223E+07
         0.37306E+07
         0.34928E+07
        -0.23460E+07
        -0.13276E+07
        -0.25414E+07
        -0.46373E+07
        -0.54671E+07
        -0.58372E+07
        -0.42746E+07
        -0.29662E+07
        -0.20171E+07
         0.42990E+06
         0.18902E+07
         0.54607E+06
         0.16683E+07
         0.40738E+07
         0.38241E+07
         0.77988E+07
         0.12776E+08
         0.10809E+08
         0.99169E+07
         0.72500E+07
         0.30197E+07
        -0.13230E+06
        -0.13909E+07
        -0.22513E+07
        -0.37034E+07
        -0.48863E+07
        -0.13427E+08
        -0.14268E+08
        -0.14322E+08
        -0.16159E+08
        -0.16833E+08
        -0.15263E+08
        -0.12397E+08
        -0.39239E+07
         0.72468E+06
         0.32988E+07
         0.36722E+07
         0.60601E+07
         0.81589E+07
         0.13390E+08
         0.15002E+08
        -0.56672E+08
         0.18802E+08
        -0.37838E+08
        -0.15797E+09
         0.12769E+09
         0.15435E+09
         0.85271E+08
        -0.73026E+08
        -0.52140E+08
        -0.73403E+08
        -0.29278E+08
         0.27133E+08
         0.11513E+09
        -0.16878E+09
        -0.67944E+08
         0.15033E+09
         0.15997E+09
        -0.96118E+08
        -0.49099E+08
        -0.11360E+09
        -0.17508E+09
        -0.17703E+09
        -0.17904E+09
        -0.15332E+09
         0.54602E+08
         0.58635E+08
        -0.17231E+09
         0.42222E+08
        -0.10642E+09
        -0.84246E+08
         0.13405E+09
         0.14331E+09
        -0.13156E+09
        -0.12397E+09
         0.17925E+09
         0.15992E+09
         0.14399E+09
        -0.90952E+08
        -0.19424E+08
        -0.60208E+08
        -0.15971E+09
        -0.17991E+09
        -0.17478E+09
        -0.16031E+09
        -0.13720E+09
        -0.59966E+08
         0.96072E+08
         0.13208E+09
        -0.20943E+08
         0.21553E+08
         0.13944E+09
         0.17456E+09
         0.19938E+09
         0.19665E+09
         0.16957E+09
         0.14079E+09
         0.99133E+08
         0.42807E+08
        -0.11033E+08
        -0.39769E+08
        -0.53632E+08
        -0.92437E+08
        -0.16722E+09
        -0.19974E+09
        -0.19912E+09
        -0.19837E+09
        -0.20064E+09
        -0.19412E+09
        -0.17131E+09
        -0.14960E+09
        -0.78956E+08
         0.20030E+08
         0.48726E+08
         0.51746E+08
         0.86776E+08
         0.15337E+09
         0.19127E+09
         0.19214E+09
        -0.56740E+08
         0.18868E+08
        -0.37889E+08
        -0.15786E+09
         0.12762E+09
         0.15429E+09
         0.85813E+08
        -0.72775E+08
        -0.52111E+08
        -0.73143E+08
        -0.28686E+08
         0.27200E+08
         0.11516E+09
        -0.16874E+09
        -0.67843E+08
         0.15037E+09
         0.15989E+09
        -0.95853E+08
        -0.49048E+08
        -0.11340E+09
        -0.17505E+09
        -0.17702E+09
        -0.17904E+09
        -0.15333E+09
         0.54503E+08
         0.58733E+08
        -0.17231E+09
         0.41428E+08
        -0.10717E+09
        -0.84159E+08
         0.13413E+09
         0.14329E+09
        -0.13122E+09
        -0.12403E+09
         0.17927E+09
         0.15989E+09
         0.14398E+09
        -0.90967E+08
        -0.19569E+08
        -0.60319E+08
        -0.15971E+09
        -0.17993E+09
        -0.17477E+09
        -0.16029E+09
        -0.13718E+09
        -0.59938E+08
         0.96052E+08
         0.13213E+09
        -0.20818E+08
         0.21507E+08
         0.13943E+09
         0.17455E+09
         0.19937E+09
         0.19665E+09
         0.16956E+09
         0.14079E+09
         0.99117E+08
         0.42807E+08
        -0.11050E+08
        -0.39803E+08
        -0.53599E+08
        -0.92426E+08
        -0.16722E+09
        -0.19973E+09
        -0.19912E+09
        -0.19837E+09
        -0.20064E+09
        -0.19412E+09
        -0.17130E+09
        -0.14960E+09
        -0.78938E+08
         0.20040E+08
         0.48695E+08
         0.51729E+08
         0.86739E+08
         0.15337E+09
         0.19128E+09
         0.19215E+09
        -0.56806E+08
         0.18933E+08
        -0.37940E+08
        -0.15775E+09
         0.12755E+09
         0.15423E+09
         0.86358E+08
        -0.72525E+08
        -0.52079E+08
        -0.72882E+08
        -0.28095E+08
         0.27267E+08
         0.11519E+09
        -0.16870E+09
        -0.67743E+08
         0.15041E+09
         0.15981E+09
        -0.95584E+08
        -0.48995E+08
        -0.11321E+09
        -0.17502E+09
        -0.17701E+09
        -0.17904E+09
        -0.15334E+09
         0.54414E+08
         0.58839E+08
        -0.17231E+09
         0.40644E+08
        -0.10792E+09
        -0.84077E+08
         0.13420E+09
         0.14328E+09
        -0.13088E+09
        -0.12408E+09
         0.17929E+09
         0.15986E+09
         0.14396E+09
        -0.90981E+08
        -0.19714E+08
        -0.60432E+08
        -0.15972E+09
        -0.17995E+09
        -0.17476E+09
        -0.16027E+09
        -0.13715E+09
        -0.59910E+08
         0.96034E+08
         0.13218E+09
        -0.20689E+08
         0.21459E+08
         0.13941E+09
         0.17455E+09
         0.19937E+09
         0.19664E+09
         0.16954E+09
         0.14079E+09
         0.99101E+08
         0.42807E+08
        -0.11067E+08
        -0.39837E+08
        -0.53566E+08
        -0.92414E+08
        -0.16722E+09
        -0.19973E+09
        -0.19912E+09
        -0.19836E+09
        -0.20064E+09
        -0.19412E+09
        -0.17129E+09
        -0.14960E+09
        -0.78920E+08
         0.20050E+08
         0.48664E+08
         0.51712E+08
         0.86703E+08
         0.15337E+09
         0.19128E+09
         0.19216E+09
        -0.56874E+08
         0.19000E+08
        -0.37989E+08
        -0.15764E+09
         0.12748E+09
         0.15417E+09
         0.86896E+08
        -0.72275E+08
        -0.52042E+08
        -0.72617E+08
        -0.27505E+08
         0.27335E+08
         0.11522E+09
        -0.16865E+09
        -0.67642E+08
         0.15046E+09
         0.15973E+09
        -0.95314E+08
        -0.48945E+08
        -0.11300E+09
        -0.17499E+09
        -0.17700E+09
        -0.17904E+09
        -0.15334E+09
         0.54356E+08
         0.58969E+08
        -0.17230E+09
         0.39885E+08
        -0.10867E+09
        -0.84004E+08
         0.13429E+09
         0.14329E+09
        -0.13054E+09
        -0.12414E+09
         0.17930E+09
         0.15983E+09
         0.14395E+09
        -0.90995E+08
        -0.19856E+08
        -0.60538E+08
        -0.15971E+09
        -0.17997E+09
        -0.17475E+09
        -0.16024E+09
        -0.13711E+09
        -0.59879E+08
         0.96013E+08
         0.13223E+09
        -0.20559E+08
         0.21411E+08
         0.13939E+09
         0.17454E+09
         0.19937E+09
         0.19663E+09
         0.16953E+09
         0.14079E+09
         0.99086E+08
         0.42807E+08
        -0.11084E+08
        -0.39871E+08
        -0.53533E+08
        -0.92403E+08
        -0.16722E+09
        -0.19973E+09
        -0.19912E+09
        -0.19836E+09
        -0.20065E+09
        -0.19412E+09
        -0.17128E+09
        -0.14959E+09
        -0.78902E+08
         0.20061E+08
         0.48633E+08
         0.51694E+08
         0.86666E+08
         0.15336E+09
         0.19128E+09
         0.19216E+09
        -0.56940E+08
         0.19067E+08
        -0.38039E+08
        -0.15752E+09
         0.12741E+09
         0.15412E+09
         0.87442E+08
        -0.72025E+08
        -0.51998E+08
        -0.72346E+08
        -0.26914E+08
         0.27402E+08
         0.11524E+09
        -0.16861E+09
        -0.67542E+08
         0.15051E+09
         0.15965E+09
        -0.95043E+08
        -0.48887E+08
        -0.11280E+09
        -0.17496E+09
        -0.17700E+09
        -0.17903E+09
        -0.15335E+09
         0.54327E+08
         0.59118E+08
        -0.17230E+09
         0.39149E+08
        -0.10942E+09
        -0.83940E+08
         0.13439E+09
         0.14333E+09
        -0.13020E+09
        -0.12419E+09
         0.17932E+09
         0.15980E+09
         0.14393E+09
        -0.91007E+08
        -0.19997E+08
        -0.60643E+08
        -0.15971E+09
        -0.17999E+09
        -0.17475E+09
        -0.16019E+09
        -0.13706E+09
        -0.59841E+08
         0.95992E+08
         0.13228E+09
        -0.20430E+08
         0.21364E+08
         0.13938E+09
         0.17454E+09
         0.19937E+09
         0.19662E+09
         0.16952E+09
         0.14079E+09
         0.99070E+08
         0.42807E+08
        -0.11100E+08
        -0.39906E+08
        -0.53500E+08
        -0.92391E+08
        -0.16722E+09
        -0.19972E+09
        -0.19912E+09
        -0.19836E+09
        -0.20065E+09
        -0.19412E+09
        -0.17127E+09
        -0.14959E+09
        -0.78883E+08
         0.20071E+08
         0.48603E+08
         0.51677E+08
         0.86629E+08
         0.15336E+09
         0.19128E+09
         0.19217E+09
        -0.57004E+08
         0.19141E+08
        -0.38081E+08
        -0.15741E+09
         0.12734E+09
         0.15406E+09
         0.87986E+08
        -0.71776E+08
        -0.51952E+08
        -0.72079E+08
        -0.26319E+08
         0.27469E+08
         0.11527E+09
        -0.16857E+09
        -0.67441E+08
         0.15056E+09
         0.15957E+09
        -0.94772E+08
        -0.48829E+08
        -0.11261E+09
        -0.17493E+09
        -0.17699E+09
        -0.17903E+09
        -0.15337E+09
         0.54302E+08
         0.59272E+08
        -0.17230E+09
         0.38418E+08
        -0.11017E+09
        -0.83888E+08
         0.13448E+09
         0.14336E+09
        -0.12984E+09
        -0.12424E+09
         0.17933E+09
         0.15977E+09
         0.14392E+09
        -0.91019E+08
        -0.20136E+08
        -0.60745E+08
        -0.15970E+09
        -0.18002E+09
        -0.17475E+09
        -0.16015E+09
        -0.13701E+09
        -0.59806E+08
         0.95965E+08
         0.13233E+09
        -0.20294E+08
         0.21322E+08
         0.13936E+09
         0.17453E+09
         0.19936E+09
         0.19661E+09
         0.16950E+09
         0.14079E+09
         0.99054E+08
         0.42807E+08
        -0.11117E+08
        -0.39940E+08
        -0.53467E+08
        -0.92380E+08
        -0.16721E+09
        -0.19972E+09
        -0.19911E+09
        -0.19835E+09
        -0.20066E+09
        -0.19412E+09
        -0.17125E+09
        -0.14958E+09
        -0.78865E+08
         0.20080E+08
         0.48571E+08
         0.51659E+08
         0.86592E+08
         0.15336E+09
         0.19129E+09
         0.19218E+09
        -0.57063E+08
         0.19232E+08
        -0.38110E+08
        -0.15729E+09
         0.12727E+09
         0.15400E+09
         0.88541E+08
        -0.71532E+08
        -0.51907E+08
        -0.71826E+08
        -0.25719E+08
         0.27535E+08
         0.11529E+09
        -0.16852E+09
        -0.67339E+08
         0.15061E+09
         0.15948E+09
        -0.94499E+08
        -0.48776E+08
        -0.11241E+09
        -0.17490E+09
        -0.17699E+09
        -0.17903E+09
        -0.15338E+09
         0.54263E+08
         0.59408E+08
        -0.17229E+09
         0.37670E+08
        -0.11093E+09
        -0.83845E+08
         0.13458E+09
         0.14337E+09
        -0.12948E+09
        -0.12428E+09
         0.17935E+09
         0.15974E+09
         0.14390E+09
        -0.91029E+08
        -0.20276E+08
        -0.60851E+08
        -0.15969E+09
        -0.18004E+09
        -0.17475E+09
        -0.16011E+09
        -0.13696E+09
        -0.59772E+08
         0.95924E+08
         0.13236E+09
        -0.20140E+08
         0.21294E+08
         0.13935E+09
         0.17453E+09
         0.19936E+09
         0.19661E+09
         0.16949E+09
         0.14079E+09
         0.99038E+08
         0.42808E+08
        -0.11133E+08
        -0.39974E+08
        -0.53435E+08
        -0.92369E+08
        -0.16721E+09
        -0.19972E+09
        -0.19911E+09
        -0.19835E+09
        -0.20066E+09
        -0.19412E+09
        -0.17124E+09
        -0.14958E+09
        -0.78847E+08
         0.20088E+08
         0.48538E+08
         0.51642E+08
         0.86557E+08
         0.15336E+09
         0.19129E+09
         0.19219E+09
        -0.57119E+08
         0.19329E+08
        -0.38133E+08
        -0.15716E+09
         0.12720E+09
         0.15394E+09
         0.89103E+08
        -0.71291E+08
        -0.51863E+08
        -0.71581E+08
        -0.25115E+08
         0.27601E+08
         0.11532E+09
        -0.16846E+09
        -0.67237E+08
         0.15065E+09
         0.15939E+09
        -0.94224E+08
        -0.48719E+08
        -0.11224E+09
        -0.17487E+09
        -0.17698E+09
        -0.17903E+09
        -0.15340E+09
         0.54218E+08
         0.59535E+08
        -0.17228E+09
         0.36918E+08
        -0.11170E+09
        -0.83807E+08
         0.13467E+09
         0.14336E+09
        -0.12911E+09
        -0.12431E+09
         0.17937E+09
         0.15971E+09
         0.14388E+09
        -0.91037E+08
        -0.20415E+08
        -0.60954E+08
        -0.15969E+09
        -0.18007E+09
        -0.17475E+09
        -0.16007E+09
        -0.13690E+09
        -0.59741E+08
         0.95877E+08
         0.13238E+09
        -0.19979E+08
         0.21273E+08
         0.13934E+09
         0.17452E+09
         0.19936E+09
         0.19660E+09
         0.16947E+09
         0.14079E+09
         0.99023E+08
         0.42808E+08
        -0.11150E+08
        -0.40008E+08
        -0.53402E+08
        -0.92358E+08
        -0.16721E+09
        -0.19971E+09
        -0.19911E+09
        -0.19835E+09
        -0.20067E+09
        -0.19412E+09
        -0.17122E+09
        -0.14957E+09
        -0.78829E+08
         0.20095E+08
         0.48504E+08
         0.51624E+08
         0.86523E+08
         0.15336E+09
         0.19129E+09
         0.19219E+09
        -0.57175E+08
         0.19428E+08
        -0.38155E+08
        -0.15704E+09
         0.12713E+09
         0.15388E+09
         0.89661E+08
        -0.71050E+08
        -0.51819E+08
        -0.71339E+08
        -0.24514E+08
         0.27668E+08
         0.11534E+09
        -0.16841E+09
        -0.67134E+08
         0.15070E+09
         0.15930E+09
        -0.93951E+08
        -0.48662E+08
        -0.11205E+09
        -0.17484E+09
        -0.17698E+09
        -0.17902E+09
        -0.15342E+09
         0.54172E+08
         0.59661E+08
        -0.17228E+09
         0.36167E+08
        -0.11247E+09
        -0.83768E+08
         0.13476E+09
         0.14335E+09
        -0.12874E+09
        -0.12434E+09
         0.17938E+09
         0.15968E+09
         0.14387E+09
        -0.91045E+08
        -0.20554E+08
        -0.61058E+08
        -0.15968E+09
        -0.18009E+09
        -0.17475E+09
        -0.16002E+09
        -0.13685E+09
        -0.59710E+08
         0.95831E+08
         0.13240E+09
        -0.19818E+08
         0.21253E+08
         0.13933E+09
         0.17452E+09
         0.19935E+09
         0.19659E+09
         0.16946E+09
         0.14079E+09
         0.99007E+08
         0.42808E+08
        -0.11166E+08
        -0.40042E+08
        -0.53369E+08
        -0.92348E+08
        -0.16721E+09
        -0.19971E+09
        -0.19911E+09
        -0.19835E+09
        -0.20067E+09
        -0.19412E+09
        -0.17121E+09
        -0.14957E+09
        -0.78810E+08
         0.20103E+08
         0.48469E+08
         0.51606E+08
         0.86489E+08
         0.15335E+09
         0.19130E+09
         0.19220E+09
        -0.57232E+08
         0.19527E+08
        -0.38178E+08
        -0.15692E+09
         0.12706E+09
         0.15382E+09
         0.90222E+08
        -0.70810E+08
        -0.51775E+08
        -0.71097E+08
        -0.23912E+08
         0.27734E+08
         0.11536E+09
        -0.16836E+09
        -0.67033E+08
         0.15075E+09
         0.15920E+09
        -0.93681E+08
        -0.48605E+08
        -0.11187E+09
        -0.17481E+09
        -0.17697E+09
        -0.17902E+09
        -0.15344E+09
         0.54127E+08
         0.59786E+08
        -0.17227E+09
         0.35420E+08
        -0.11324E+09
        -0.83729E+08
         0.13486E+09
         0.14334E+09
        -0.12836E+09
        -0.12437E+09
         0.17940E+09
         0.15965E+09
         0.14385E+09
        -0.91052E+08
        -0.20693E+08
        -0.61163E+08
        -0.15967E+09
        -0.18012E+09
        -0.17475E+09
        -0.15998E+09
        -0.13680E+09
        -0.59677E+08
         0.95784E+08
         0.13242E+09
        -0.19657E+08
         0.21231E+08
         0.13932E+09
         0.17451E+09
         0.19935E+09
         0.19658E+09
         0.16944E+09
         0.14079E+09
         0.98991E+08
         0.42808E+08
        -0.11183E+08
        -0.40076E+08
        -0.53336E+08
        -0.92337E+08
        -0.16720E+09
        -0.19970E+09
        -0.19911E+09
        -0.19834E+09
        -0.20068E+09
        -0.19412E+09
        -0.17119E+09
        -0.14956E+09
        -0.78792E+08
         0.20110E+08
         0.48435E+08
         0.51588E+08
         0.86454E+08
         0.15335E+09
         0.19130E+09
         0.19221E+09
        -0.57288E+08
         0.19626E+08
        -0.38201E+08
        -0.15680E+09
         0.12699E+09
         0.15376E+09
         0.90778E+08
        -0.70570E+08
        -0.51731E+08
        -0.70857E+08
        -0.23309E+08
         0.27801E+08
         0.11539E+09
        -0.16831E+09
        -0.66930E+08
         0.15079E+09
         0.15911E+09
        -0.93410E+08
        -0.48553E+08
        -0.11168E+09
        -0.17478E+09
        -0.17697E+09
        -0.17902E+09
        -0.15346E+09
         0.54082E+08
         0.59911E+08
        -0.17226E+09
         0.34673E+08
        -0.11400E+09
        -0.83689E+08
         0.13495E+09
         0.14333E+09
        -0.12799E+09
        -0.12440E+09
         0.17941E+09
         0.15962E+09
         0.14384E+09
        -0.91060E+08
        -0.20832E+08
        -0.61266E+08
        -0.15967E+09
        -0.18014E+09
        -0.17475E+09
        -0.15994E+09
        -0.13674E+09
        -0.59646E+08
         0.95736E+08
         0.13245E+09
        -0.19495E+08
         0.21209E+08
         0.13931E+09
         0.17451E+09
         0.19935E+09
         0.19657E+09
         0.16943E+09
         0.14079E+09
         0.98975E+08
         0.42808E+08
        -0.11199E+08
        -0.40110E+08
        -0.53303E+08
        -0.92326E+08
        -0.16720E+09
        -0.19970E+09
        -0.19911E+09
        -0.19834E+09
        -0.20068E+09
        -0.19412E+09
        -0.17118E+09
        -0.14956E+09
        -0.78774E+08
         0.20118E+08
         0.48401E+08
         0.51570E+08
         0.86420E+08
         0.15335E+09
         0.19130E+09
         0.19221E+09
        -0.57344E+08
         0.19724E+08
        -0.38222E+08
        -0.15667E+09
         0.12692E+09
         0.15370E+09
         0.91338E+08
        -0.70330E+08
        -0.51687E+08
        -0.70619E+08
        -0.22708E+08
         0.27868E+08
         0.11541E+09
        -0.16826E+09
        -0.66829E+08
         0.15084E+09
         0.15902E+09
        -0.93137E+08
        -0.48498E+08
        -0.11150E+09
        -0.17475E+09
        -0.17696E+09
        -0.17902E+09
        -0.15349E+09
         0.54036E+08
         0.60040E+08
        -0.17226E+09
         0.33929E+08
        -0.11476E+09
        -0.83652E+08
         0.13504E+09
         0.14332E+09
        -0.12761E+09
        -0.12443E+09
         0.17943E+09
         0.15959E+09
         0.14382E+09
        -0.91067E+08
        -0.20970E+08
        -0.61371E+08
        -0.15966E+09
        -0.18017E+09
        -0.17475E+09
        -0.15990E+09
        -0.13669E+09
        -0.59615E+08
         0.95691E+08
         0.13247E+09
        -0.19331E+08
         0.21190E+08
         0.13930E+09
         0.17450E+09
         0.19935E+09
         0.19657E+09
         0.16942E+09
         0.14079E+09
         0.98959E+08
         0.42808E+08
        -0.11216E+08
        -0.40144E+08
        -0.53270E+08
        -0.92315E+08
        -0.16720E+09
        -0.19970E+09
        -0.19911E+09
        -0.19834E+09
        -0.20069E+09
        -0.19413E+09
        -0.17116E+09
        -0.14955E+09
        -0.78756E+08
         0.20125E+08
         0.48367E+08
         0.51553E+08
         0.86385E+08
         0.15335E+09
         0.19130E+09
         0.19222E+09
        -0.57400E+08
         0.19824E+08
        -0.38243E+08
        -0.15654E+09
         0.12685E+09
         0.15364E+09
         0.91896E+08
        -0.70091E+08
        -0.51642E+08
        -0.70380E+08
        -0.22109E+08
         0.27934E+08
         0.11544E+09
        -0.16820E+09
        -0.66726E+08
         0.15089E+09
         0.15892E+09
        -0.92864E+08
        -0.48444E+08
        -0.11132E+09
        -0.17472E+09
        -0.17696E+09
        -0.17902E+09
        -0.15351E+09
         0.53990E+08
         0.60164E+08
        -0.17225E+09
         0.33183E+08
        -0.11552E+09
        -0.83614E+08
         0.13513E+09
         0.14331E+09
        -0.12722E+09
        -0.12446E+09
         0.17945E+09
         0.15956E+09
         0.14380E+09
        -0.91073E+08
        -0.21108E+08
        -0.61474E+08
        -0.15965E+09
        -0.18019E+09
        -0.17475E+09
        -0.15985E+09
        -0.13664E+09
        -0.59582E+08
         0.95643E+08
         0.13249E+09
        -0.19167E+08
         0.21168E+08
         0.13928E+09
         0.17449E+09
         0.19934E+09
         0.19656E+09
         0.16940E+09
         0.14079E+09
         0.98943E+08
         0.42808E+08
        -0.11232E+08
        -0.40178E+08
        -0.53237E+08
        -0.92305E+08
        -0.16720E+09
        -0.19969E+09
        -0.19911E+09
        -0.19833E+09
        -0.20069E+09
        -0.19413E+09
        -0.17115E+09
        -0.14955E+09
        -0.78738E+08
         0.20132E+08
         0.48332E+08
         0.51535E+08
         0.86351E+08
         0.15335E+09
         0.19130E+09
         0.19223E+09
        -0.57457E+08
         0.19922E+08
        -0.38264E+08
        -0.15642E+09
         0.12679E+09
         0.15358E+09
         0.92447E+08
        -0.69852E+08
        -0.51597E+08
        -0.70143E+08
        -0.21511E+08
         0.28000E+08
         0.11546E+09
        -0.16815E+09
        -0.66625E+08
         0.15093E+09
         0.15883E+09
        -0.92592E+08
        -0.48394E+08
        -0.11114E+09
        -0.17469E+09
        -0.17695E+09
        -0.17901E+09
        -0.15353E+09
         0.53944E+08
         0.60289E+08
        -0.17224E+09
         0.32442E+08
        -0.11629E+09
        -0.83574E+08
         0.13522E+09
         0.14330E+09
        -0.12684E+09
        -0.12449E+09
         0.17946E+09
         0.15953E+09
         0.14379E+09
        -0.91078E+08
        -0.21245E+08
        -0.61580E+08
        -0.15965E+09
        -0.18022E+09
        -0.17475E+09
        -0.15981E+09
        -0.13658E+09
        -0.59551E+08
         0.95595E+08
         0.13251E+09
        -0.19003E+08
         0.21146E+08
         0.13927E+09
         0.17449E+09
         0.19934E+09
         0.19655E+09
         0.16939E+09
         0.14079E+09
         0.98927E+08
         0.42808E+08
        -0.11249E+08
        -0.40211E+08
        -0.53203E+08
        -0.92294E+08
        -0.16719E+09
        -0.19969E+09
        -0.19911E+09
        -0.19833E+09
        -0.20070E+09
        -0.19413E+09
        -0.17114E+09
        -0.14954E+09
        -0.78719E+08
         0.20139E+08
         0.48298E+08
         0.51518E+08
         0.86317E+08
         0.15334E+09
         0.19131E+09
         0.19223E+09
        -0.57514E+08
         0.20019E+08
        -0.38286E+08
        -0.15629E+09
         0.12672E+09
         0.15352E+09
         0.93004E+08
        -0.69613E+08
        -0.51553E+08
        -0.69908E+08
        -0.20914E+08
         0.28068E+08
         0.11548E+09
        -0.16810E+09
        -0.66522E+08
         0.15098E+09
         0.15874E+09
        -0.92321E+08
        -0.48339E+08
        -0.11095E+09
        -0.17466E+09
        -0.17695E+09
        -0.17901E+09
        -0.15355E+09
         0.53897E+08
         0.60414E+08
        -0.17223E+09
         0.31702E+08
        -0.11705E+09
        -0.83535E+08
         0.13531E+09
         0.14328E+09
        -0.12645E+09
        -0.12452E+09
         0.17948E+09
         0.15950E+09
         0.14377E+09
        -0.91082E+08
        -0.21382E+08
        -0.61684E+08
        -0.15964E+09
        -0.18024E+09
        -0.17475E+09
        -0.15977E+09
        -0.13653E+09
        -0.59520E+08
         0.95549E+08
         0.13253E+09
        -0.18836E+08
         0.21126E+08
         0.13926E+09
         0.17448E+09
         0.19934E+09
         0.19654E+09
         0.16937E+09
         0.14079E+09
         0.98912E+08
         0.42808E+08
        -0.11265E+08
        -0.40244E+08
        -0.53170E+08
        -0.92284E+08
        -0.16719E+09
        -0.19969E+09
        -0.19911E+09
        -0.19833E+09
        -0.20070E+09
        -0.19413E+09
        -0.17112E+09
        -0.14953E+09
        -0.78701E+08
         0.20146E+08
         0.48264E+08
         0.51500E+08
         0.86282E+08
         0.15334E+09
         0.19131E+09
         0.19224E+09
        -0.57571E+08
         0.20119E+08
        -0.38307E+08
        -0.15617E+09
         0.12665E+09
         0.15346E+09
         0.93558E+08
        -0.69374E+08
        -0.51508E+08
        -0.69674E+08
        -0.20316E+08
         0.28134E+08
         0.11551E+09
        -0.16805E+09
        -0.66420E+08
         0.15102E+09
         0.15864E+09
        -0.92053E+08
        -0.48285E+08
        -0.11077E+09
        -0.17463E+09
        -0.17694E+09
        -0.17901E+09
        -0.15358E+09
         0.53849E+08
         0.60540E+08
        -0.17223E+09
         0.30961E+08
        -0.11781E+09
        -0.83495E+08
         0.13540E+09
         0.14327E+09
        -0.12606E+09
        -0.12455E+09
         0.17949E+09
         0.15947E+09
         0.14376E+09
        -0.91086E+08
        -0.21519E+08
        -0.61788E+08
        -0.15963E+09
        -0.18027E+09
        -0.17475E+09
        -0.15973E+09
        -0.13648E+09
        -0.59487E+08
         0.95501E+08
         0.13255E+09
        -0.18670E+08
         0.21103E+08
         0.13925E+09
         0.17448E+09
         0.19933E+09
         0.19653E+09
         0.16936E+09
         0.14079E+09
         0.98896E+08
         0.42808E+08
        -0.11281E+08
        -0.40278E+08
        -0.53137E+08
        -0.92274E+08
        -0.16719E+09
        -0.19968E+09
        -0.19910E+09
        -0.19832E+09
        -0.20070E+09
        -0.19413E+09
        -0.17111E+09
        -0.14953E+09
        -0.78683E+08
         0.20153E+08
         0.48229E+08
         0.51483E+08
         0.86248E+08
         0.15334E+09
         0.19131E+09
         0.19225E+09
        -0.57627E+08
         0.20217E+08
        -0.38329E+08
        -0.15604E+09
         0.12658E+09
         0.15340E+09
         0.94113E+08
        -0.69136E+08
        -0.51461E+08
        -0.69438E+08
        -0.19720E+08
         0.28201E+08
         0.11553E+09
        -0.16799E+09
        -0.66317E+08
         0.15107E+09
         0.15854E+09
        -0.91784E+08
        -0.48232E+08
        -0.11058E+09
        -0.17460E+09
        -0.17693E+09
        -0.17901E+09
        -0.15360E+09
         0.53799E+08
         0.60664E+08
        -0.17222E+09
         0.30214E+08
        -0.11856E+09
        -0.83458E+08
         0.13549E+09
         0.14326E+09
        -0.12567E+09
        -0.12458E+09
         0.17951E+09
         0.15944E+09
         0.14374E+09
        -0.91089E+08
        -0.21658E+08
        -0.61894E+08
        -0.15963E+09
        -0.18029E+09
        -0.17475E+09
        -0.15969E+09
        -0.13642E+09
        -0.59456E+08
         0.95454E+08
         0.13258E+09
        -0.18504E+08
         0.21081E+08
         0.13924E+09
         0.17447E+09
         0.19933E+09
         0.19653E+09
         0.16935E+09
         0.14078E+09
         0.98880E+08
         0.42809E+08
        -0.11297E+08
        -0.40311E+08
        -0.53105E+08
        -0.92264E+08
        -0.16719E+09
        -0.19968E+09
        -0.19910E+09
        -0.19832E+09
        -0.20071E+09
        -0.19413E+09
        -0.17109E+09
        -0.14952E+09
        -0.78664E+08
         0.20160E+08
         0.48195E+08
         0.51465E+08
         0.86214E+08
         0.15334E+09
         0.19131E+09
         0.19226E+09
        -0.57684E+08
         0.20315E+08
        -0.38349E+08
        -0.15591E+09
         0.12651E+09
         0.15334E+09
         0.94665E+08
        -0.68899E+08
        -0.51411E+08
        -0.69196E+08
        -0.19124E+08
         0.28268E+08
         0.11555E+09
        -0.16794E+09
        -0.66215E+08
         0.15111E+09
         0.15845E+09
        -0.91513E+08
        -0.48185E+08
        -0.11041E+09
        -0.17457E+09
        -0.17693E+09
        -0.17900E+09
        -0.15362E+09
         0.53741E+08
         0.60793E+08
        -0.17221E+09
         0.29449E+08
        -0.11932E+09
        -0.83429E+08
         0.13559E+09
         0.14325E+09
        -0.12527E+09
        -0.12461E+09
         0.17952E+09
         0.15941E+09
         0.14373E+09
        -0.91088E+08
        -0.21801E+08
        -0.62000E+08
        -0.15962E+09
        -0.18031E+09
        -0.17475E+09
        -0.15964E+09
        -0.13637E+09
        -0.59423E+08
         0.95408E+08
         0.13260E+09
        -0.18339E+08
         0.21059E+08
         0.13923E+09
         0.17446E+09
         0.19933E+09
         0.19652E+09
         0.16933E+09
         0.14078E+09
         0.98864E+08
         0.42809E+08
        -0.11313E+08
        -0.40344E+08
        -0.53072E+08
        -0.92254E+08
        -0.16718E+09
        -0.19967E+09
        -0.19910E+09
        -0.19832E+09
        -0.20071E+09
        -0.19413E+09
        -0.17108E+09
        -0.14952E+09
        -0.78646E+08
         0.20167E+08
         0.48161E+08
         0.51447E+08
         0.86180E+08
         0.15334E+09
         0.19132E+09
         0.19226E+09
        -0.57741E+08
         0.20412E+08
        -0.38369E+08
        -0.15578E+09
         0.12644E+09
         0.15328E+09
         0.95219E+08
        -0.68662E+08
        -0.51356E+08
        -0.68948E+08
        -0.18530E+08
         0.28334E+08
         0.11558E+09
        -0.16789E+09
        -0.66110E+08
         0.15116E+09
         0.15835E+09
        -0.91243E+08
        -0.48133E+08
        -0.11022E+09
        -0.17454E+09
        -0.17692E+09
        -0.17900E+09
        -0.15365E+09
         0.53675E+08
         0.60916E+08
        -0.17220E+09
         0.28660E+08
        -0.12008E+09
        -0.83403E+08
         0.13568E+09
         0.14324E+09
        -0.12487E+09
        -0.12464E+09
         0.17954E+09
         0.15938E+09
         0.14371E+09
        -0.91084E+08
        -0.21949E+08
        -0.62108E+08
        -0.15961E+09
        -0.18034E+09
        -0.17475E+09
        -0.15960E+09
        -0.13632E+09
        -0.59392E+08
         0.95360E+08
         0.13262E+09
        -0.18171E+08
         0.21038E+08
         0.13922E+09
         0.17445E+09
         0.19933E+09
         0.19651E+09
         0.16932E+09
         0.14078E+09
         0.98848E+08
         0.42810E+08
        -0.11329E+08
        -0.40377E+08
        -0.53041E+08
        -0.92245E+08
        -0.16718E+09
        -0.19967E+09
        -0.19910E+09
        -0.19831E+09
        -0.20072E+09
        -0.19413E+09
        -0.17106E+09
        -0.14951E+09
        -0.78628E+08
         0.20174E+08
         0.48127E+08
         0.51429E+08
         0.86146E+08
         0.15334E+09
         0.19132E+09
         0.19227E+09
        -0.57797E+08
         0.20510E+08
        -0.38389E+08
        -0.15566E+09
         0.12637E+09
         0.15322E+09
         0.95766E+08
        -0.68425E+08
        -0.51300E+08
        -0.68699E+08
        -0.17941E+08
         0.28400E+08
         0.11560E+09
        -0.16783E+09
        -0.66007E+08
         0.15120E+09
         0.15824E+09
        -0.90975E+08
        -0.48079E+08
        -0.11005E+09
        -0.17450E+09
        -0.17692E+09
        -0.17900E+09
        -0.15367E+09
         0.53607E+08
         0.61040E+08
        -0.17219E+09
         0.27868E+08
        -0.12083E+09
        -0.83378E+08
         0.13577E+09
         0.14323E+09
        -0.12447E+09
        -0.12467E+09
         0.17955E+09
         0.15936E+09
         0.14370E+09
        -0.91078E+08
        -0.22099E+08
        -0.62214E+08
        -0.15960E+09
        -0.18036E+09
        -0.17475E+09
        -0.15956E+09
        -0.13626E+09
        -0.59361E+08
         0.95315E+08
         0.13264E+09
        -0.18005E+08
         0.21014E+08
         0.13921E+09
         0.17445E+09
         0.19932E+09
         0.19650E+09
         0.16930E+09
         0.14078E+09
         0.98832E+08
         0.42809E+08
        -0.11344E+08
        -0.40409E+08
        -0.53009E+08
        -0.92234E+08
        -0.16717E+09
        -0.19967E+09
        -0.19910E+09
        -0.19831E+09
        -0.20072E+09
        -0.19413E+09
        -0.17105E+09
        -0.14951E+09
        -0.78609E+08
         0.20181E+08
         0.48094E+08
         0.51412E+08
         0.86112E+08
         0.15333E+09
         0.19132E+09
         0.19228E+09
        -0.55688E+08
         0.18467E+08
        -0.34163E+08
        -0.12898E+09
         0.11992E+09
         0.13976E+09
         0.76055E+08
        -0.64901E+08
        -0.46910E+08
        -0.64992E+08
        -0.13751E+08
         0.27837E+08
         0.11223E+09
        -0.14910E+09
        -0.64603E+08
         0.14190E+09
         0.12634E+09
        -0.90995E+08
        -0.40883E+08
        -0.97701E+08
        -0.17036E+09
        -0.17208E+09
        -0.17436E+09
        -0.12094E+09
         0.47822E+08
         0.61324E+08
        -0.15322E+09
         0.26764E+08
        -0.98614E+08
        -0.74430E+08
         0.12452E+09
         0.11984E+09
        -0.10180E+09
        -0.10077E+09
         0.17300E+09
         0.14678E+09
         0.13657E+09
        -0.88702E+08
        -0.21367E+08
        -0.59516E+08
        -0.15559E+09
        -0.17545E+09
        -0.17043E+09
        -0.15428E+09
        -0.13017E+09
        -0.57437E+08
         0.89728E+08
         0.12351E+09
        -0.16118E+08
         0.19340E+08
         0.13401E+09
         0.16301E+09
         0.19802E+09
         0.19532E+09
         0.16835E+09
         0.14004E+09
         0.98327E+08
         0.42600E+08
        -0.11304E+08
        -0.40172E+08
        -0.52609E+08
        -0.91632E+08
        -0.16613E+09
        -0.19854E+09
        -0.19778E+09
        -0.19700E+09
        -0.19961E+09
        -0.19316E+09
        -0.17023E+09
        -0.14880E+09
        -0.78127E+08
         0.20080E+08
         0.47785E+08
         0.51082E+08
         0.85584E+08
         0.15241E+09
         0.19025E+09
         0.19119E+09
        -0.27660E+08
         0.61874E+07
        -0.11092E+08
        -0.35086E+08
         0.53080E+08
         0.49880E+08
         0.17195E+08
        -0.29081E+08
        -0.16983E+08
        -0.28613E+08
        -0.33911E+07
         0.16628E+08
         0.60570E+08
        -0.48003E+08
        -0.39532E+08
         0.58069E+08
         0.32234E+08
        -0.19819E+08
        -0.11744E+08
        -0.19619E+08
        -0.98811E+08
        -0.95203E+08
        -0.97898E+08
        -0.29642E+08
         0.15714E+08
         0.12386E+08
        -0.49544E+08
         0.43818E+07
        -0.19935E+08
        -0.24468E+08
         0.45216E+08
         0.27884E+08
        -0.27014E+08
        -0.24856E+08
         0.86248E+08
         0.54521E+08
         0.60855E+08
        -0.49827E+08
        -0.10473E+08
        -0.27657E+08
        -0.88718E+08
        -0.97154E+08
        -0.97565E+08
        -0.79726E+08
        -0.60279E+08
        -0.29996E+08
         0.37493E+08
         0.48331E+08
        -0.54631E+07
         0.71961E+07
         0.66415E+08
         0.65252E+08
         0.15808E+09
         0.15877E+09
         0.13829E+09
         0.11610E+09
         0.82367E+08
         0.35943E+08
        -0.94200E+07
        -0.32252E+08
        -0.41653E+08
        -0.73626E+08
        -0.13411E+09
        -0.16304E+09
        -0.15802E+09
        -0.15784E+09
        -0.16454E+09
        -0.16166E+09
        -0.14357E+09
        -0.12557E+09
        -0.63502E+08
         0.16477E+08
         0.38918E+08
         0.41369E+08
         0.69885E+08
         0.12368E+09
         0.15646E+09
         0.15670E+09
  
SCALARS                      stress_xy  double 1
LOOKUP_TABLE default
        -0.67573E+00
        -0.15858E+01
        -0.13598E+02
         0.48025E+00
        -0.82671E-09
         0.80792E-10
         0.12147E-08
         0.18504E-09
        -0.14345E+03
         0.63028E+02
         0.54071E-08
         0.42878E-08
         0.53683E+01
        -0.11139E+01
         0.47726E-09
        -0.14334E-09
         0.15434E+01
         0.26938E+02
         0.23760E-10
         0.36207E-09
        -0.20494E+02
        -0.13002E+03
        -0.12794E+03
         0.36816E-08
         0.29319E-08
        -0.42815E-08
        -0.13537E+02
        -0.11311E+03
         0.49572E-08
         0.76287E-08
        -0.41272E+01
         0.79956E+01
         0.64927E+00
        -0.26165E-09
         0.10322E-08
        -0.13202E-10
        -0.36402E+02
        -0.16919E+02
         0.27625E-08
         0.22884E-08
        -0.71341E+02
        -0.64376E+02
         0.47092E-08
         0.31737E-08
        -0.69194E+02
        -0.12703E+02
        -0.17155E-09
         0.12772E-08
         0.18467E+02
         0.37747E-09
        -0.43281E+01
        -0.85102E-11
         0.11355E+01
         0.28530E-08
         0.56226E+01
         0.43902E-09
         0.80230E+02
        -0.39062E+01
         0.10203E-10
        -0.50054E-10
         0.53444E+00
        -0.53807E+02
         0.27804E-09
         0.71317E-09
         0.23120E+01
        -0.56452E-10
         0.33233E+02
         0.45235E-09
        -0.17768E+03
        -0.64498E+02
         0.34940E-09
        -0.33459E-08
        -0.14506E+03
        -0.53498E-08
         0.59363E+02
         0.35832E-08
         0.18749E+03
         0.53384E-09
         0.32740E+03
         0.69420E-09
         0.63519E+03
         0.34611E+03
         0.16320E-08
        -0.41383E-09
         0.42736E+02
        -0.49799E-10
        -0.13113E+03
        -0.44915E-08
        -0.19306E+03
        -0.50151E-08
        -0.42476E+03
        -0.19366E+03
        -0.31746E-08
         0.35238E-08
         0.31132E+02
         0.32085E-08
         0.76672E+02
         0.13783E-08
         0.17916E+03
         0.36596E-08
         0.44072E+03
         0.25134E+03
         0.78470E-08
         0.39235E-08
        -0.72441E+03
         0.30355E+03
        -0.50983E-08
         0.62435E-08
        -0.17639E+04
        -0.14489E-07
        -0.23008E+04
        -0.15839E-07
        -0.20214E+04
        -0.10750E-07
        -0.17235E+04
        -0.11402E-08
        -0.75320E+03
         0.32138E-08
         0.99225E+03
         0.19898E-08
         0.22297E+04
         0.18191E-08
         0.29480E+04
         0.39028E-08
         0.28911E+04
         0.47452E-08
         0.23711E+04
         0.18696E-08
         0.12636E+04
         0.11398E-08
        -0.86540E+02
         0.18630E-08
        -0.10516E+04
         0.12488E-08
        -0.16962E+04
        -0.44534E-08
        -0.23152E+04
        -0.11685E-07
        -0.20730E+04
        -0.14830E-07
        -0.13311E+04
        -0.91780E-08
        -0.14580E+03
         0.17510E-08
         0.98493E+03
         0.37112E-08
         0.14244E+04
         0.59144E-08
         0.17427E+04
         0.11647E-07
         0.15621E+04
         0.15113E-07
         0.14540E+04
         0.10737E-07
         0.12010E+04
         0.84915E-08
        -0.84800E+02
         0.22788E+02
         0.23344E+02
        -0.14639E+02
         0.18145E+03
         0.15339E+03
         0.23339E+01
        -0.54710E+02
        -0.24460E+02
        -0.63689E+02
        -0.16182E+02
        -0.29000E+03
        -0.44528E+03
         0.16592E+02
         0.24359E+03
        -0.36798E+02
         0.27342E+02
         0.81756E+01
         0.16521E+02
        -0.13450E+02
         0.67306E+02
         0.59240E+02
        -0.17816E+03
         0.46867E+01
         0.40493E+02
         0.44605E+01
         0.72655E+00
         0.14301E+01
         0.16960E+02
        -0.59658E+02
        -0.32058E+02
         0.68029E+01
         0.10986E+02
        -0.86337E+00
        -0.37846E+02
        -0.14493E+03
        -0.30407E+03
         0.44192E+03
         0.22859E+03
         0.37426E+03
         0.66020E+03
         0.18601E+03
        -0.16249E+03
        -0.32627E+03
        -0.37376E+03
        -0.41965E+03
         0.58068E+02
         0.18333E+03
         0.56498E+02
         0.18314E+03
         0.52701E+03
         0.22509E+03
        -0.11692E+04
         0.18245E+04
        -0.42687E+04
        -0.52610E+04
        -0.49340E+04
        -0.26638E+04
         0.14114E+03
         0.14793E+04
         0.21785E+04
         0.34953E+04
         0.35191E+04
         0.25345E+04
         0.11327E+04
         0.49635E+03
        -0.84829E+03
        -0.34770E+04
        -0.57952E+04
        -0.62033E+04
        -0.28321E+04
         0.55482E+03
         0.22334E+04
         0.23514E+04
         0.36394E+04
         0.36466E+04
         0.32048E+04
         0.31045E+04
        -0.27894E+06
         0.76788E+05
        -0.14610E+06
        -0.15642E+06
         0.46431E+06
         0.31485E+06
         0.16513E+06
        -0.34350E+06
        -0.20719E+06
        -0.33756E+06
         0.96686E+05
        -0.16052E+06
        -0.50922E+06
         0.17227E+06
         0.38036E+06
        -0.33906E+06
         0.13169E+06
         0.75545E+05
         0.16777E+06
         0.77803E+05
         0.26618E+06
         0.20130E+06
        -0.12057E+06
         0.16264E+06
         0.21201E+06
        -0.62188E+05
         0.38846E+05
        -0.20889E+05
        -0.84100E+05
        -0.31561E+06
        -0.35020E+06
        -0.11052E+06
         0.24800E+06
         0.20369E+06
         0.77748E+05
        -0.30054E+06
        -0.43927E+06
         0.46118E+06
         0.10741E+06
         0.30984E+06
         0.45587E+06
        -0.13774E+06
        -0.27411E+06
        -0.38436E+06
        -0.45978E+06
        -0.32345E+06
         0.41199E+06
         0.41361E+06
        -0.91025E+05
         0.10165E+06
         0.48916E+06
         0.59811E+05
        -0.23796E+06
         0.32865E+06
        -0.63368E+06
        -0.68439E+06
        -0.58715E+06
        -0.28536E+06
         0.74773E+05
         0.26164E+06
         0.34611E+06
         0.55518E+06
         0.64223E+06
         0.25598E+06
         0.12072E+06
         0.10787E+06
        -0.46422E+05
        -0.35813E+06
        -0.61236E+06
        -0.68744E+06
        -0.48902E+06
         0.13429E+06
         0.31531E+06
         0.33173E+06
         0.52337E+06
         0.66476E+06
         0.41970E+06
         0.40226E+06
        -0.27930E+06
         0.77064E+05
        -0.14634E+06
        -0.15745E+06
         0.46425E+06
         0.31507E+06
         0.16639E+06
        -0.34268E+06
        -0.20730E+06
        -0.33699E+06
         0.94788E+05
        -0.16091E+06
        -0.50931E+06
         0.17244E+06
         0.37993E+06
        -0.33904E+06
         0.13282E+06
         0.75223E+05
         0.16769E+06
         0.77233E+05
         0.26678E+06
         0.20149E+06
        -0.12060E+06
         0.16257E+06
         0.21224E+06
        -0.62178E+05
         0.39297E+05
        -0.20611E+05
        -0.84133E+05
        -0.31571E+06
        -0.35032E+06
        -0.11026E+06
         0.24796E+06
         0.20412E+06
         0.76998E+05
        -0.30073E+06
        -0.43927E+06
         0.46136E+06
         0.10826E+06
         0.31045E+06
         0.45598E+06
        -0.13732E+06
        -0.27435E+06
        -0.38451E+06
        -0.45978E+06
        -0.32331E+06
         0.41195E+06
         0.41353E+06
        -0.90421E+05
         0.10138E+06
         0.48910E+06
         0.58960E+05
        -0.23781E+06
         0.32873E+06
        -0.63374E+06
        -0.68439E+06
        -0.58707E+06
        -0.28535E+06
         0.74882E+05
         0.26185E+06
         0.34590E+06
         0.55511E+06
         0.64219E+06
         0.25609E+06
         0.12072E+06
         0.10809E+06
        -0.46040E+05
        -0.35824E+06
        -0.61246E+06
        -0.68746E+06
        -0.48893E+06
         0.13436E+06
         0.31512E+06
         0.33162E+06
         0.52318E+06
         0.66467E+06
         0.41946E+06
         0.40194E+06
        -0.27966E+06
         0.77335E+05
        -0.14658E+06
        -0.15848E+06
         0.46419E+06
         0.31530E+06
         0.16766E+06
        -0.34186E+06
        -0.20741E+06
        -0.33641E+06
         0.92891E+05
        -0.16129E+06
        -0.50939E+06
         0.17259E+06
         0.37951E+06
        -0.33902E+06
         0.13396E+06
         0.74899E+05
         0.16760E+06
         0.76661E+05
         0.26737E+06
         0.20168E+06
        -0.12065E+06
         0.16248E+06
         0.21249E+06
        -0.62161E+05
         0.39779E+05
        -0.20340E+05
        -0.84110E+05
        -0.31581E+06
        -0.35043E+06
        -0.10996E+06
         0.24790E+06
         0.20454E+06
         0.76244E+05
        -0.30093E+06
        -0.43927E+06
         0.46154E+06
         0.10911E+06
         0.31107E+06
         0.45609E+06
        -0.13687E+06
        -0.27457E+06
        -0.38470E+06
        -0.45979E+06
        -0.32318E+06
         0.41190E+06
         0.41346E+06
        -0.89798E+05
         0.10109E+06
         0.48904E+06
         0.58110E+05
        -0.23766E+06
         0.32881E+06
        -0.63381E+06
        -0.68439E+06
        -0.58699E+06
        -0.28534E+06
         0.74993E+05
         0.26206E+06
         0.34570E+06
         0.55504E+06
         0.64216E+06
         0.25620E+06
         0.12072E+06
         0.10832E+06
        -0.45656E+05
        -0.35835E+06
        -0.61257E+06
        -0.68750E+06
        -0.48883E+06
         0.13443E+06
         0.31493E+06
         0.33152E+06
         0.52298E+06
         0.66458E+06
         0.41921E+06
         0.40161E+06
        -0.28003E+06
         0.77616E+05
        -0.14681E+06
        -0.15952E+06
         0.46413E+06
         0.31552E+06
         0.16893E+06
        -0.34104E+06
        -0.20748E+06
        -0.33579E+06
         0.90994E+05
        -0.16168E+06
        -0.50948E+06
         0.17276E+06
         0.37909E+06
        -0.33900E+06
         0.13512E+06
         0.74571E+05
         0.16752E+06
         0.76060E+05
         0.26798E+06
         0.20185E+06
        -0.12075E+06
         0.16233E+06
         0.21282E+06
        -0.62128E+05
         0.40278E+05
        -0.20115E+05
        -0.83927E+05
        -0.31590E+06
        -0.35054E+06
        -0.10958E+06
         0.24783E+06
         0.20496E+06
         0.75494E+05
        -0.30111E+06
        -0.43926E+06
         0.46171E+06
         0.10995E+06
         0.31167E+06
         0.45623E+06
        -0.13630E+06
        -0.27473E+06
        -0.38496E+06
        -0.45984E+06
        -0.32303E+06
         0.41186E+06
         0.41339E+06
        -0.89174E+05
         0.10080E+06
         0.48898E+06
         0.57261E+05
        -0.23751E+06
         0.32888E+06
        -0.63388E+06
        -0.68440E+06
        -0.58691E+06
        -0.28533E+06
         0.75104E+05
         0.26227E+06
         0.34549E+06
         0.55497E+06
         0.64213E+06
         0.25634E+06
         0.12073E+06
         0.10854E+06
        -0.45268E+05
        -0.35847E+06
        -0.61270E+06
        -0.68753E+06
        -0.48873E+06
         0.13449E+06
         0.31474E+06
         0.33141E+06
         0.52279E+06
         0.66449E+06
         0.41897E+06
         0.40129E+06
        -0.28039E+06
         0.77897E+05
        -0.14705E+06
        -0.16054E+06
         0.46408E+06
         0.31574E+06
         0.17019E+06
        -0.34020E+06
        -0.20754E+06
        -0.33514E+06
         0.89090E+05
        -0.16207E+06
        -0.50956E+06
         0.17293E+06
         0.37866E+06
        -0.33898E+06
         0.13630E+06
         0.74243E+05
         0.16743E+06
         0.75432E+05
         0.26859E+06
         0.20200E+06
        -0.12090E+06
         0.16211E+06
         0.21325E+06
        -0.62070E+05
         0.40835E+05
        -0.19931E+05
        -0.83577E+05
        -0.31599E+06
        -0.35064E+06
        -0.10909E+06
         0.24775E+06
         0.20538E+06
         0.74739E+05
        -0.30130E+06
        -0.43927E+06
         0.46189E+06
         0.11077E+06
         0.31226E+06
         0.45640E+06
        -0.13561E+06
        -0.27484E+06
        -0.38532E+06
        -0.45991E+06
        -0.32286E+06
         0.41183E+06
         0.41333E+06
        -0.88552E+05
         0.10052E+06
         0.48892E+06
         0.56405E+05
        -0.23736E+06
         0.32896E+06
        -0.63394E+06
        -0.68440E+06
        -0.58684E+06
        -0.28533E+06
         0.75213E+05
         0.26247E+06
         0.34528E+06
         0.55490E+06
         0.64211E+06
         0.25649E+06
         0.12075E+06
         0.10875E+06
        -0.44880E+05
        -0.35860E+06
        -0.61284E+06
        -0.68757E+06
        -0.48864E+06
         0.13456E+06
         0.31455E+06
         0.33130E+06
         0.52259E+06
         0.66439E+06
         0.41873E+06
         0.40097E+06
        -0.28073E+06
         0.78203E+05
        -0.14726E+06
        -0.16158E+06
         0.46402E+06
         0.31596E+06
         0.17144E+06
        -0.33937E+06
        -0.20759E+06
        -0.33449E+06
         0.87180E+05
        -0.16246E+06
        -0.50965E+06
         0.17312E+06
         0.37824E+06
        -0.33896E+06
         0.13750E+06
         0.73917E+05
         0.16733E+06
         0.74803E+05
         0.26919E+06
         0.20214E+06
        -0.12108E+06
         0.16188E+06
         0.21367E+06
        -0.62002E+05
         0.41434E+05
        -0.19761E+05
        -0.83153E+05
        -0.31610E+06
        -0.35073E+06
        -0.10854E+06
         0.24766E+06
         0.20581E+06
         0.73978E+05
        -0.30150E+06
        -0.43928E+06
         0.46206E+06
         0.11159E+06
         0.31285E+06
         0.45658E+06
        -0.13489E+06
        -0.27493E+06
        -0.38570E+06
        -0.46001E+06
        -0.32270E+06
         0.41179E+06
         0.41328E+06
        -0.87907E+05
         0.10027E+06
         0.48887E+06
         0.55547E+05
        -0.23721E+06
         0.32903E+06
        -0.63401E+06
        -0.68440E+06
        -0.58676E+06
        -0.28532E+06
         0.75322E+05
         0.26268E+06
         0.34508E+06
         0.55482E+06
         0.64209E+06
         0.25666E+06
         0.12077E+06
         0.10897E+06
        -0.44491E+05
        -0.35873E+06
        -0.61299E+06
        -0.68761E+06
        -0.48854E+06
         0.13462E+06
         0.31435E+06
         0.33120E+06
         0.52240E+06
         0.66430E+06
         0.41849E+06
         0.40065E+06
        -0.28105E+06
         0.78575E+05
        -0.14742E+06
        -0.16264E+06
         0.46396E+06
         0.31619E+06
         0.17267E+06
        -0.33853E+06
        -0.20764E+06
        -0.33386E+06
         0.85256E+05
        -0.16284E+06
        -0.50974E+06
         0.17341E+06
         0.37780E+06
        -0.33896E+06
         0.13872E+06
         0.73590E+05
         0.16725E+06
         0.74178E+05
         0.26980E+06
         0.20228E+06
        -0.12125E+06
         0.16165E+06
         0.21403E+06
        -0.61911E+05
         0.42139E+05
        -0.19588E+05
        -0.82702E+05
        -0.31623E+06
        -0.35081E+06
        -0.10792E+06
         0.24757E+06
         0.20624E+06
         0.73216E+05
        -0.30171E+06
        -0.43929E+06
         0.46222E+06
         0.11242E+06
         0.31345E+06
         0.45677E+06
        -0.13416E+06
        -0.27501E+06
        -0.38608E+06
        -0.46011E+06
        -0.32255E+06
         0.41172E+06
         0.41327E+06
        -0.87197E+05
         0.10008E+06
         0.48881E+06
         0.54675E+05
        -0.23706E+06
         0.32911E+06
        -0.63407E+06
        -0.68440E+06
        -0.58668E+06
        -0.28531E+06
         0.75431E+05
         0.26289E+06
         0.34487E+06
         0.55476E+06
         0.64208E+06
         0.25683E+06
         0.12079E+06
         0.10918E+06
        -0.44102E+05
        -0.35886E+06
        -0.61313E+06
        -0.68764E+06
        -0.48845E+06
         0.13467E+06
         0.31415E+06
         0.33109E+06
         0.52222E+06
         0.66421E+06
         0.41824E+06
         0.40032E+06
        -0.28135E+06
         0.78966E+05
        -0.14755E+06
        -0.16371E+06
         0.46391E+06
         0.31641E+06
         0.17388E+06
        -0.33769E+06
        -0.20770E+06
        -0.33326E+06
         0.83323E+05
        -0.16322E+06
        -0.50982E+06
         0.17372E+06
         0.37737E+06
        -0.33895E+06
         0.13995E+06
         0.73260E+05
         0.16716E+06
         0.73563E+05
         0.27041E+06
         0.20243E+06
        -0.12142E+06
         0.16143E+06
         0.21435E+06
        -0.61813E+05
         0.42872E+05
        -0.19408E+05
        -0.82240E+05
        -0.31637E+06
        -0.35088E+06
        -0.10727E+06
         0.24746E+06
         0.20667E+06
         0.72446E+05
        -0.30192E+06
        -0.43931E+06
         0.46238E+06
         0.11324E+06
         0.31404E+06
         0.45696E+06
        -0.13342E+06
        -0.27508E+06
        -0.38646E+06
        -0.46021E+06
        -0.32241E+06
         0.41164E+06
         0.41328E+06
        -0.86459E+05
         0.99924E+05
         0.48875E+06
         0.53802E+05
        -0.23692E+06
         0.32918E+06
        -0.63414E+06
        -0.68440E+06
        -0.58661E+06
        -0.28530E+06
         0.75539E+05
         0.26310E+06
         0.34467E+06
         0.55469E+06
         0.64206E+06
         0.25700E+06
         0.12081E+06
         0.10940E+06
        -0.43713E+05
        -0.35898E+06
        -0.61328E+06
        -0.68768E+06
        -0.48835E+06
         0.13472E+06
         0.31394E+06
         0.33098E+06
         0.52203E+06
         0.66411E+06
         0.41800E+06
         0.40000E+06
        -0.28165E+06
         0.79363E+05
        -0.14768E+06
        -0.16478E+06
         0.46385E+06
         0.31662E+06
         0.17509E+06
        -0.33685E+06
        -0.20776E+06
        -0.33266E+06
         0.81395E+05
        -0.16361E+06
        -0.50991E+06
         0.17405E+06
         0.37694E+06
        -0.33895E+06
         0.14119E+06
         0.72930E+05
         0.16706E+06
         0.72940E+05
         0.27101E+06
         0.20257E+06
        -0.12159E+06
         0.16122E+06
         0.21466E+06
        -0.61713E+05
         0.43623E+05
        -0.19219E+05
        -0.81766E+05
        -0.31651E+06
        -0.35095E+06
        -0.10663E+06
         0.24735E+06
         0.20709E+06
         0.71672E+05
        -0.30213E+06
        -0.43933E+06
         0.46254E+06
         0.11406E+06
         0.31463E+06
         0.45714E+06
        -0.13268E+06
        -0.27516E+06
        -0.38685E+06
        -0.46032E+06
        -0.32227E+06
         0.41156E+06
         0.41328E+06
        -0.85719E+05
         0.99778E+05
         0.48869E+06
         0.52923E+05
        -0.23677E+06
         0.32926E+06
        -0.63420E+06
        -0.68440E+06
        -0.58653E+06
        -0.28529E+06
         0.75648E+05
         0.26331E+06
         0.34446E+06
         0.55462E+06
         0.64204E+06
         0.25717E+06
         0.12083E+06
         0.10962E+06
        -0.43325E+05
        -0.35911E+06
        -0.61343E+06
        -0.68772E+06
        -0.48825E+06
         0.13477E+06
         0.31373E+06
         0.33088E+06
         0.52185E+06
         0.66402E+06
         0.41776E+06
         0.39967E+06
        -0.28195E+06
         0.79764E+05
        -0.14781E+06
        -0.16584E+06
         0.46379E+06
         0.31684E+06
         0.17631E+06
        -0.33601E+06
        -0.20782E+06
        -0.33205E+06
         0.79462E+05
        -0.16399E+06
        -0.51000E+06
         0.17435E+06
         0.37650E+06
        -0.33895E+06
         0.14242E+06
         0.72604E+05
         0.16697E+06
         0.72320E+05
         0.27162E+06
         0.20271E+06
        -0.12175E+06
         0.16100E+06
         0.21498E+06
        -0.61613E+05
         0.44354E+05
        -0.19022E+05
        -0.81280E+05
        -0.31665E+06
        -0.35101E+06
        -0.10599E+06
         0.24723E+06
         0.20752E+06
         0.70902E+05
        -0.30234E+06
        -0.43936E+06
         0.46270E+06
         0.11488E+06
         0.31522E+06
         0.45733E+06
        -0.13195E+06
        -0.27523E+06
        -0.38722E+06
        -0.46042E+06
        -0.32212E+06
         0.41148E+06
         0.41330E+06
        -0.84985E+05
         0.99615E+05
         0.48863E+06
         0.52046E+05
        -0.23662E+06
         0.32933E+06
        -0.63426E+06
        -0.68440E+06
        -0.58645E+06
        -0.28528E+06
         0.75756E+05
         0.26351E+06
         0.34425E+06
         0.55455E+06
         0.64202E+06
         0.25733E+06
         0.12086E+06
         0.10984E+06
        -0.42937E+05
        -0.35924E+06
        -0.61357E+06
        -0.68775E+06
        -0.48816E+06
         0.13482E+06
         0.31352E+06
         0.33077E+06
         0.52167E+06
         0.66392E+06
         0.41752E+06
         0.39935E+06
        -0.28226E+06
         0.80161E+05
        -0.14795E+06
        -0.16689E+06
         0.46374E+06
         0.31706E+06
         0.17753E+06
        -0.33517E+06
        -0.20787E+06
        -0.33145E+06
         0.77523E+05
        -0.16438E+06
        -0.51009E+06
         0.17467E+06
         0.37607E+06
        -0.33895E+06
         0.14366E+06
         0.72279E+05
         0.16689E+06
         0.71693E+05
         0.27222E+06
         0.20285E+06
        -0.12192E+06
         0.16080E+06
         0.21529E+06
        -0.61510E+05
         0.45096E+05
        -0.18812E+05
        -0.80779E+05
        -0.31678E+06
        -0.35108E+06
        -0.10534E+06
         0.24710E+06
         0.20794E+06
         0.70127E+05
        -0.30256E+06
        -0.43938E+06
         0.46286E+06
         0.11570E+06
         0.31581E+06
         0.45751E+06
        -0.13122E+06
        -0.27531E+06
        -0.38759E+06
        -0.46053E+06
        -0.32199E+06
         0.41140E+06
         0.41330E+06
        -0.84242E+05
         0.99458E+05
         0.48858E+06
         0.51165E+05
        -0.23646E+06
         0.32940E+06
        -0.63432E+06
        -0.68440E+06
        -0.58637E+06
        -0.28527E+06
         0.75862E+05
         0.26372E+06
         0.34405E+06
         0.55448E+06
         0.64200E+06
         0.25750E+06
         0.12088E+06
         0.11006E+06
        -0.42548E+05
        -0.35936E+06
        -0.61372E+06
        -0.68779E+06
        -0.48806E+06
         0.13486E+06
         0.31331E+06
         0.33066E+06
         0.52148E+06
         0.66383E+06
         0.41728E+06
         0.39902E+06
        -0.28256E+06
         0.80557E+05
        -0.14807E+06
        -0.16796E+06
         0.46368E+06
         0.31727E+06
         0.17874E+06
        -0.33432E+06
        -0.20793E+06
        -0.33084E+06
         0.75586E+05
        -0.16476E+06
        -0.51017E+06
         0.17499E+06
         0.37563E+06
        -0.33895E+06
         0.14490E+06
         0.71950E+05
         0.16680E+06
         0.71077E+05
         0.27283E+06
         0.20299E+06
        -0.12209E+06
         0.16059E+06
         0.21559E+06
        -0.61413E+05
         0.45822E+05
        -0.18596E+05
        -0.80259E+05
        -0.31692E+06
        -0.35114E+06
        -0.10470E+06
         0.24695E+06
         0.20838E+06
         0.69348E+05
        -0.30277E+06
        -0.43940E+06
         0.46301E+06
         0.11652E+06
         0.31641E+06
         0.45770E+06
        -0.13050E+06
        -0.27538E+06
        -0.38797E+06
        -0.46063E+06
        -0.32185E+06
         0.41132E+06
         0.41331E+06
        -0.83496E+05
         0.99311E+05
         0.48852E+06
         0.50283E+05
        -0.23631E+06
         0.32947E+06
        -0.63439E+06
        -0.68440E+06
        -0.58629E+06
        -0.28526E+06
         0.75969E+05
         0.26393E+06
         0.34384E+06
         0.55441E+06
         0.64197E+06
         0.25767E+06
         0.12090E+06
         0.11028E+06
        -0.42158E+05
        -0.35949E+06
        -0.61387E+06
        -0.68783E+06
        -0.48796E+06
         0.13491E+06
         0.31309E+06
         0.33055E+06
         0.52130E+06
         0.66374E+06
         0.41704E+06
         0.39870E+06
        -0.28286E+06
         0.80957E+05
        -0.14820E+06
        -0.16902E+06
         0.46362E+06
         0.31749E+06
         0.17995E+06
        -0.33348E+06
        -0.20798E+06
        -0.33023E+06
         0.73652E+05
        -0.16514E+06
        -0.51026E+06
         0.17529E+06
         0.37520E+06
        -0.33895E+06
         0.14613E+06
         0.71620E+05
         0.16671E+06
         0.70462E+05
         0.27343E+06
         0.20313E+06
        -0.12225E+06
         0.16038E+06
         0.21589E+06
        -0.61308E+05
         0.46569E+05
        -0.18368E+05
        -0.79733E+05
        -0.31706E+06
        -0.35121E+06
        -0.10404E+06
         0.24680E+06
         0.20880E+06
         0.68571E+05
        -0.30298E+06
        -0.43942E+06
         0.46316E+06
         0.11733E+06
         0.31700E+06
         0.45788E+06
        -0.12977E+06
        -0.27546E+06
        -0.38835E+06
        -0.46074E+06
        -0.32171E+06
         0.41124E+06
         0.41332E+06
        -0.82746E+05
         0.99152E+05
         0.48846E+06
         0.49403E+05
        -0.23616E+06
         0.32954E+06
        -0.63445E+06
        -0.68440E+06
        -0.58622E+06
        -0.28525E+06
         0.76079E+05
         0.26413E+06
         0.34364E+06
         0.55434E+06
         0.64195E+06
         0.25783E+06
         0.12092E+06
         0.11050E+06
        -0.41769E+05
        -0.35962E+06
        -0.61401E+06
        -0.68786E+06
        -0.48787E+06
         0.13496E+06
         0.31288E+06
         0.33045E+06
         0.52112E+06
         0.66364E+06
         0.41680E+06
         0.39837E+06
        -0.28316E+06
         0.81350E+05
        -0.14832E+06
        -0.17008E+06
         0.46357E+06
         0.31771E+06
         0.18117E+06
        -0.33263E+06
        -0.20803E+06
        -0.32962E+06
         0.71719E+05
        -0.16553E+06
        -0.51035E+06
         0.17561E+06
         0.37476E+06
        -0.33894E+06
         0.14737E+06
         0.71295E+05
         0.16664E+06
         0.69852E+05
         0.27404E+06
         0.20326E+06
        -0.12242E+06
         0.16018E+06
         0.21618E+06
        -0.61203E+05
         0.47296E+05
        -0.18133E+05
        -0.79195E+05
        -0.31719E+06
        -0.35127E+06
        -0.10340E+06
         0.24663E+06
         0.20923E+06
         0.67789E+05
        -0.30319E+06
        -0.43944E+06
         0.46331E+06
         0.11815E+06
         0.31759E+06
         0.45807E+06
        -0.12904E+06
        -0.27553E+06
        -0.38872E+06
        -0.46084E+06
        -0.32157E+06
         0.41116E+06
         0.41333E+06
        -0.81999E+05
         0.98995E+05
         0.48841E+06
         0.48525E+05
        -0.23601E+06
         0.32962E+06
        -0.63451E+06
        -0.68440E+06
        -0.58614E+06
        -0.28524E+06
         0.76186E+05
         0.26434E+06
         0.34343E+06
         0.55427E+06
         0.64193E+06
         0.25800E+06
         0.12094E+06
         0.11072E+06
        -0.41382E+05
        -0.35974E+06
        -0.61416E+06
        -0.68790E+06
        -0.48777E+06
         0.13500E+06
         0.31267E+06
         0.33034E+06
         0.52094E+06
         0.66355E+06
         0.41656E+06
         0.39804E+06
        -0.28347E+06
         0.81741E+05
        -0.14845E+06
        -0.17113E+06
         0.46351E+06
         0.31792E+06
         0.18239E+06
        -0.33178E+06
        -0.20809E+06
        -0.32901E+06
         0.69784E+05
        -0.16592E+06
        -0.51043E+06
         0.17590E+06
         0.37432E+06
        -0.33894E+06
         0.14861E+06
         0.70971E+05
         0.16655E+06
         0.69235E+05
         0.27464E+06
         0.20340E+06
        -0.12258E+06
         0.15998E+06
         0.21647E+06
        -0.61096E+05
         0.48035E+05
        -0.17886E+05
        -0.78648E+05
        -0.31732E+06
        -0.35133E+06
        -0.10275E+06
         0.24646E+06
         0.20966E+06
         0.67010E+05
        -0.30341E+06
        -0.43946E+06
         0.46345E+06
         0.11896E+06
         0.31818E+06
         0.45825E+06
        -0.12831E+06
        -0.27561E+06
        -0.38909E+06
        -0.46095E+06
        -0.32143E+06
         0.41108E+06
         0.41334E+06
        -0.81238E+05
         0.98843E+05
         0.48835E+06
         0.47641E+05
        -0.23586E+06
         0.32969E+06
        -0.63457E+06
        -0.68440E+06
        -0.58606E+06
        -0.28523E+06
         0.76292E+05
         0.26454E+06
         0.34322E+06
         0.55421E+06
         0.64191E+06
         0.25816E+06
         0.12097E+06
         0.11094E+06
        -0.40994E+05
        -0.35987E+06
        -0.61431E+06
        -0.68794E+06
        -0.48767E+06
         0.13505E+06
         0.31246E+06
         0.33024E+06
         0.52075E+06
         0.66345E+06
         0.41633E+06
         0.39772E+06
        -0.28377E+06
         0.82142E+05
        -0.14858E+06
        -0.17218E+06
         0.46345E+06
         0.31814E+06
         0.18360E+06
        -0.33093E+06
        -0.20814E+06
        -0.32840E+06
         0.67845E+05
        -0.16630E+06
        -0.51052E+06
         0.17621E+06
         0.37389E+06
        -0.33894E+06
         0.14985E+06
         0.70648E+05
         0.16646E+06
         0.68626E+05
         0.27524E+06
         0.20353E+06
        -0.12275E+06
         0.15978E+06
         0.21675E+06
        -0.60989E+05
         0.48754E+05
        -0.17631E+05
        -0.78090E+05
        -0.31745E+06
        -0.35139E+06
        -0.10210E+06
         0.24628E+06
         0.21010E+06
         0.66224E+05
        -0.30362E+06
        -0.43948E+06
         0.46360E+06
         0.11977E+06
         0.31877E+06
         0.45844E+06
        -0.12758E+06
        -0.27569E+06
        -0.38946E+06
        -0.46105E+06
        -0.32129E+06
         0.41100E+06
         0.41335E+06
        -0.80484E+05
         0.98682E+05
         0.48829E+06
         0.46754E+05
        -0.23570E+06
         0.32976E+06
        -0.63463E+06
        -0.68440E+06
        -0.58598E+06
        -0.28522E+06
         0.76398E+05
         0.26474E+06
         0.34302E+06
         0.55414E+06
         0.64189E+06
         0.25833E+06
         0.12099E+06
         0.11115E+06
        -0.40606E+05
        -0.35999E+06
        -0.61445E+06
        -0.68797E+06
        -0.48757E+06
         0.13510E+06
         0.31225E+06
         0.33013E+06
         0.52057E+06
         0.66336E+06
         0.41609E+06
         0.39739E+06
        -0.28407E+06
         0.82537E+05
        -0.14870E+06
        -0.17323E+06
         0.46339E+06
         0.31835E+06
         0.18483E+06
        -0.33007E+06
        -0.20818E+06
        -0.32777E+06
         0.65905E+05
        -0.16669E+06
        -0.51061E+06
         0.17650E+06
         0.37344E+06
        -0.33894E+06
         0.15109E+06
         0.70323E+05
         0.16638E+06
         0.68020E+05
         0.27584E+06
         0.20366E+06
        -0.12291E+06
         0.15959E+06
         0.21702E+06
        -0.60879E+05
         0.49493E+05
        -0.17361E+05
        -0.77512E+05
        -0.31758E+06
        -0.35145E+06
        -0.10146E+06
         0.24608E+06
         0.21053E+06
         0.65437E+05
        -0.30383E+06
        -0.43950E+06
         0.46374E+06
         0.12059E+06
         0.31937E+06
         0.45862E+06
        -0.12687E+06
        -0.27577E+06
        -0.38983E+06
        -0.46116E+06
        -0.32115E+06
         0.41092E+06
         0.41336E+06
        -0.79732E+05
         0.98522E+05
         0.48824E+06
         0.45874E+05
        -0.23555E+06
         0.32983E+06
        -0.63469E+06
        -0.68440E+06
        -0.58591E+06
        -0.28522E+06
         0.76501E+05
         0.26494E+06
         0.34281E+06
         0.55407E+06
         0.64187E+06
         0.25850E+06
         0.12100E+06
         0.11137E+06
        -0.40219E+05
        -0.36012E+06
        -0.61460E+06
        -0.68801E+06
        -0.48748E+06
         0.13514E+06
         0.31204E+06
         0.33002E+06
         0.52039E+06
         0.66327E+06
         0.41586E+06
         0.39706E+06
        -0.28438E+06
         0.82930E+05
        -0.14883E+06
        -0.17428E+06
         0.46333E+06
         0.31856E+06
         0.18604E+06
        -0.32922E+06
        -0.20821E+06
        -0.32712E+06
         0.63965E+05
        -0.16707E+06
        -0.51069E+06
         0.17681E+06
         0.37300E+06
        -0.33893E+06
         0.15235E+06
         0.69997E+05
         0.16631E+06
         0.67444E+05
         0.27644E+06
         0.20378E+06
        -0.12308E+06
         0.15938E+06
         0.21726E+06
        -0.60775E+05
         0.50226E+05
        -0.17072E+05
        -0.76926E+05
        -0.31772E+06
        -0.35151E+06
        -0.10080E+06
         0.24588E+06
         0.21097E+06
         0.64650E+05
        -0.30404E+06
        -0.43952E+06
         0.46386E+06
         0.12144E+06
         0.31996E+06
         0.45881E+06
        -0.12615E+06
        -0.27585E+06
        -0.39020E+06
        -0.46126E+06
        -0.32100E+06
         0.41084E+06
         0.41337E+06
        -0.78982E+05
         0.98363E+05
         0.48818E+06
         0.44991E+05
        -0.23540E+06
         0.32989E+06
        -0.63475E+06
        -0.68440E+06
        -0.58583E+06
        -0.28521E+06
         0.76607E+05
         0.26514E+06
         0.34261E+06
         0.55401E+06
         0.64186E+06
         0.25866E+06
         0.12101E+06
         0.11158E+06
        -0.39833E+05
        -0.36024E+06
        -0.61474E+06
        -0.68804E+06
        -0.48738E+06
         0.13519E+06
         0.31183E+06
         0.32991E+06
         0.52021E+06
         0.66317E+06
         0.41563E+06
         0.39673E+06
        -0.28468E+06
         0.83321E+05
        -0.14895E+06
        -0.17532E+06
         0.46327E+06
         0.31877E+06
         0.18726E+06
        -0.32837E+06
        -0.20823E+06
        -0.32643E+06
         0.62029E+05
        -0.16746E+06
        -0.51078E+06
         0.17712E+06
         0.37255E+06
        -0.33893E+06
         0.15362E+06
         0.69672E+05
         0.16623E+06
         0.66885E+05
         0.27704E+06
         0.20390E+06
        -0.12324E+06
         0.15919E+06
         0.21746E+06
        -0.60662E+05
         0.50992E+05
        -0.16760E+05
        -0.76330E+05
        -0.31786E+06
        -0.35156E+06
        -0.10015E+06
         0.24566E+06
         0.21140E+06
         0.63858E+05
        -0.30425E+06
        -0.43954E+06
         0.46398E+06
         0.12231E+06
         0.32055E+06
         0.45900E+06
        -0.12543E+06
        -0.27595E+06
        -0.39057E+06
        -0.46136E+06
        -0.32087E+06
         0.41076E+06
         0.41338E+06
        -0.78220E+05
         0.98208E+05
         0.48812E+06
         0.44099E+05
        -0.23524E+06
         0.32996E+06
        -0.63481E+06
        -0.68440E+06
        -0.58575E+06
        -0.28520E+06
         0.76711E+05
         0.26535E+06
         0.34241E+06
         0.55394E+06
         0.64185E+06
         0.25882E+06
         0.12100E+06
         0.11180E+06
        -0.39445E+05
        -0.36036E+06
        -0.61489E+06
        -0.68808E+06
        -0.48728E+06
         0.13523E+06
         0.31162E+06
         0.32981E+06
         0.52002E+06
         0.66308E+06
         0.41539E+06
         0.39640E+06
        -0.28498E+06
         0.83715E+05
        -0.14907E+06
        -0.17636E+06
         0.46321E+06
         0.31898E+06
         0.18848E+06
        -0.32751E+06
        -0.20823E+06
        -0.32574E+06
         0.60104E+05
        -0.16783E+06
        -0.51087E+06
         0.17741E+06
         0.37210E+06
        -0.33892E+06
         0.15489E+06
         0.69351E+05
         0.16614E+06
         0.66344E+05
         0.27764E+06
         0.20402E+06
        -0.12340E+06
         0.15901E+06
         0.21764E+06
        -0.60557E+05
         0.51739E+05
        -0.16433E+05
        -0.75729E+05
        -0.31799E+06
        -0.35162E+06
        -0.99515E+05
         0.24544E+06
         0.21185E+06
         0.63073E+05
        -0.30446E+06
        -0.43955E+06
         0.46409E+06
         0.12319E+06
         0.32114E+06
         0.45919E+06
        -0.12473E+06
        -0.27607E+06
        -0.39093E+06
        -0.46146E+06
        -0.32073E+06
         0.41069E+06
         0.41339E+06
        -0.77467E+05
         0.98041E+05
         0.48807E+06
         0.43212E+05
        -0.23509E+06
         0.33003E+06
        -0.63487E+06
        -0.68440E+06
        -0.58567E+06
        -0.28519E+06
         0.76814E+05
         0.26554E+06
         0.34221E+06
         0.55387E+06
         0.64185E+06
         0.25897E+06
         0.12099E+06
         0.11201E+06
        -0.39058E+05
        -0.36048E+06
        -0.61503E+06
        -0.68812E+06
        -0.48718E+06
         0.13528E+06
         0.31141E+06
         0.32970E+06
         0.51984E+06
         0.66298E+06
         0.41516E+06
         0.39608E+06
        -0.26765E+06
         0.72070E+05
        -0.12688E+06
        -0.14320E+06
         0.42417E+06
         0.27787E+06
         0.14662E+06
        -0.30053E+06
        -0.18334E+06
        -0.29796E+06
         0.43211E+05
        -0.16137E+06
        -0.48389E+06
         0.14839E+06
         0.35784E+06
        -0.30768E+06
         0.12079E+06
         0.69620E+05
         0.13465E+06
         0.58476E+05
         0.26636E+06
         0.19416E+06
        -0.11777E+06
         0.12226E+06
         0.18465E+06
        -0.61015E+05
         0.43896E+05
        -0.15973E+05
        -0.60136E+05
        -0.26893E+06
        -0.31046E+06
        -0.82040E+05
         0.19631E+06
         0.16864E+06
         0.58318E+05
        -0.26748E+06
        -0.40316E+06
         0.44189E+06
         0.11541E+06
         0.29656E+06
         0.43816E+06
        -0.11804E+06
        -0.26388E+06
        -0.36892E+06
        -0.42698E+06
        -0.30215E+06
         0.37141E+06
         0.36893E+06
        -0.66056E+05
         0.86139E+05
         0.45604E+06
         0.37943E+05
        -0.23201E+06
         0.32646E+06
        -0.62831E+06
        -0.67764E+06
        -0.58019E+06
        -0.28263E+06
         0.76186E+05
         0.26245E+06
         0.33755E+06
         0.54716E+06
         0.63435E+06
         0.25634E+06
         0.11944E+06
         0.11082E+06
        -0.38290E+05
        -0.35721E+06
        -0.60972E+06
        -0.68214E+06
        -0.48170E+06
         0.13393E+06
         0.30781E+06
         0.32582E+06
         0.51404E+06
         0.65539E+06
         0.41061E+06
         0.39154E+06
        -0.72717E+05
         0.10401E+05
        -0.17590E+05
        -0.16657E+05
         0.91131E+05
         0.42877E+05
         0.12033E+05
        -0.66712E+05
        -0.30461E+05
        -0.64157E+05
         0.37208E+04
        -0.58766E+05
        -0.14644E+06
         0.18503E+05
         0.13658E+06
        -0.61915E+05
         0.12254E+05
         0.65471E+04
         0.15433E+05
         0.41767E+04
         0.93007E+05
         0.62005E+05
        -0.38796E+05
         0.11769E+05
         0.24920E+05
        -0.49346E+04
         0.55804E+04
        -0.85464E+03
        -0.40062E+04
        -0.35793E+05
        -0.52038E+05
        -0.74688E+04
         0.22003E+05
         0.16796E+05
         0.15006E+05
        -0.42946E+05
        -0.87582E+05
         0.14328E+06
         0.29038E+05
         0.67990E+05
         0.14647E+06
        -0.37414E+05
        -0.89638E+05
        -0.10516E+06
        -0.99667E+05
        -0.85772E+05
         0.72075E+05
         0.65448E+05
        -0.94919E+04
         0.14047E+05
         0.11836E+06
         0.68376E+04
        -0.14863E+06
         0.21705E+06
        -0.42633E+06
        -0.46832E+06
        -0.40932E+06
        -0.20228E+06
         0.53113E+05
         0.17014E+06
         0.21299E+06
         0.35536E+06
         0.41584E+06
         0.17384E+06
         0.76697E+05
         0.71681E+05
        -0.26004E+05
        -0.25161E+06
        -0.43610E+06
        -0.48831E+06
        -0.32010E+06
         0.90619E+05
         0.20540E+06
         0.21503E+06
         0.34480E+06
         0.43414E+06
         0.27921E+06
         0.26439E+06
  
SCALARS                      strain_xx  double 1
LOOKUP_TABLE default
         0.66273E-06
         0.30615E-04
         0.34979E-03
         0.17915E-05
        -0.28450E-19
        -0.35767E-20
        -0.39992E-19
        -0.15951E-20
         0.26362E-02
         0.12066E-02
        -0.35778E-18
        -0.29028E-18
         0.42927E-05
         0.71168E-04
        -0.54424E-20
        -0.11943E-18
         0.37849E-05
         0.65958E-04
        -0.62316E-19
        -0.13822E-18
         0.12937E-03
         0.34137E-03
         0.34370E-03
        -0.61632E-19
        -0.13105E-19
        -0.40000E-19
         0.38188E-03
         0.22501E-03
        -0.21595E-18
        -0.13589E-18
         0.20641E-04
         0.92531E-04
         0.10195E-05
        -0.22385E-20
        -0.33430E-19
        -0.12688E-19
         0.17199E-03
         0.35200E-04
        -0.73688E-19
        -0.83538E-19
         0.65052E-03
         0.11824E-02
        -0.37494E-18
        -0.20391E-18
         0.80709E-03
         0.23696E-03
        -0.45217E-18
        -0.10476E-18
         0.51078E-04
        -0.41275E-19
         0.38784E-03
        -0.31982E-20
         0.48829E-04
        -0.15759E-18
         0.26303E-04
        -0.11027E-19
         0.50393E-03
         0.42858E-04
        -0.80924E-20
        -0.47280E-19
         0.23489E-06
         0.17240E-03
        -0.32372E-19
        -0.15223E-19
         0.12331E-04
        -0.32753E-21
         0.13239E-03
        -0.14170E-19
         0.51017E-02
         0.23653E-02
        -0.55359E-18
        -0.29119E-18
         0.95151E-03
        -0.15439E-18
         0.36881E-04
        -0.73877E-19
         0.35372E-03
        -0.28457E-20
         0.16072E-02
        -0.68495E-20
         0.29814E-02
         0.15905E-02
        -0.91994E-19
        -0.12032E-18
         0.13850E-02
        -0.13917E-18
         0.11849E-02
        -0.28848E-18
         0.43996E-03
        -0.11736E-18
         0.10517E-02
         0.55691E-03
        -0.21377E-19
        -0.40202E-19
         0.29834E-04
        -0.55313E-19
         0.22881E-03
        -0.97518E-20
         0.12985E-02
        -0.59467E-19
         0.28231E-02
         0.13508E-02
        -0.31615E-18
        -0.34426E-18
         0.15501E-01
         0.19877E-01
        -0.10794E-17
        -0.10483E-17
         0.15092E-01
        -0.78780E-18
         0.13203E-01
        -0.43996E-18
         0.64606E-02
        -0.13287E-18
         0.30381E-02
        -0.15193E-20
         0.37154E-03
        -0.19274E-19
         0.57206E-03
        -0.12337E-19
         0.32322E-02
        -0.11918E-19
         0.71520E-02
        -0.60608E-19
         0.14039E-01
        -0.21937E-18
         0.23969E-01
        -0.31239E-18
         0.31373E-01
        -0.27810E-18
         0.30844E-01
        -0.32885E-18
         0.27970E-01
        -0.55392E-18
         0.23764E-01
        -0.77025E-18
         0.18458E-01
        -0.66562E-18
         0.10321E-01
        -0.43963E-18
         0.32442E-02
        -0.97978E-19
         0.23128E-04
        -0.35726E-20
         0.10349E-02
        -0.21058E-19
         0.25989E-02
        -0.56309E-19
         0.56266E-02
        -0.21567E-18
         0.97786E-02
        -0.58071E-18
         0.17462E-01
        -0.83824E-18
         0.24041E-01
        -0.87693E-18
        -0.23672E-05
        -0.64056E-06
        -0.88188E-06
        -0.35812E-05
        -0.53417E-04
        -0.32075E-04
        -0.72753E-06
        -0.15746E-05
        -0.42037E-06
        -0.13292E-05
        -0.39689E-06
        -0.74338E-05
        -0.32550E-04
        -0.33302E-05
        -0.48114E-05
        -0.63427E-05
        -0.44657E-05
        -0.96024E-06
        -0.23191E-05
        -0.26857E-05
        -0.80187E-04
        -0.90985E-04
        -0.74090E-04
        -0.71574E-05
        -0.11524E-05
        -0.63983E-06
        -0.65842E-05
        -0.82812E-07
        -0.86436E-05
        -0.41044E-05
        -0.50552E-05
        -0.19433E-06
        -0.11225E-05
        -0.11725E-06
        -0.11595E-03
        -0.47303E-04
        -0.38822E-04
        -0.18982E-04
        -0.61562E-05
        -0.28032E-04
        -0.11823E-03
        -0.10365E-03
        -0.10163E-03
        -0.54874E-04
        -0.28157E-04
        -0.17120E-04
        -0.60729E-06
        -0.10641E-04
        -0.88964E-06
        -0.89108E-05
        -0.63303E-04
        -0.45175E-04
        -0.97580E-03
        -0.10867E-02
        -0.86719E-03
        -0.62922E-03
        -0.34889E-03
        -0.90129E-04
        -0.31533E-06
        -0.45312E-04
        -0.10526E-03
        -0.31017E-03
        -0.82159E-03
        -0.12354E-02
        -0.10403E-02
        -0.95805E-03
        -0.10724E-02
        -0.10744E-02
        -0.88692E-03
        -0.67800E-03
        -0.17150E-03
        -0.43035E-05
        -0.63854E-04
        -0.79309E-04
        -0.22725E-03
        -0.57658E-03
        -0.97734E-03
        -0.10824E-02
        -0.11866E-04
        -0.50002E-06
        -0.18123E-05
        -0.15364E-04
        -0.64648E-04
        -0.47212E-04
        -0.40075E-05
        -0.19098E-04
        -0.40320E-05
        -0.17261E-04
        -0.70443E-06
        -0.93773E-05
        -0.10149E-03
        -0.59680E-04
        -0.64032E-04
        -0.45800E-04
        -0.14194E-04
        -0.50920E-05
        -0.23061E-05
        -0.71124E-05
        -0.25040E-03
        -0.22743E-03
        -0.22147E-03
        -0.12956E-04
        -0.41796E-05
        -0.18949E-05
        -0.55728E-04
        -0.98249E-06
        -0.62418E-05
        -0.11608E-04
        -0.27034E-04
        -0.11320E-04
        -0.11372E-04
        -0.84707E-05
        -0.20562E-03
        -0.62633E-04
        -0.82412E-04
        -0.78746E-04
        -0.22073E-05
        -0.18555E-04
        -0.25044E-03
        -0.26499E-03
        -0.25319E-03
        -0.13237E-03
        -0.78497E-04
        -0.26874E-04
        -0.31390E-04
        -0.43749E-04
        -0.76445E-06
        -0.11082E-05
        -0.11644E-03
        -0.90352E-04
        -0.35939E-02
        -0.36498E-02
        -0.29410E-02
        -0.20007E-02
        -0.11139E-02
        -0.23629E-03
        -0.14566E-04
        -0.15292E-03
        -0.26537E-03
        -0.89169E-03
        -0.28132E-02
        -0.39151E-02
        -0.27531E-02
        -0.24919E-02
        -0.30245E-02
        -0.32079E-02
        -0.26724E-02
        -0.23911E-02
        -0.62072E-03
        -0.41933E-04
        -0.20512E-03
        -0.21054E-03
        -0.66551E-03
        -0.19951E-02
        -0.32686E-02
        -0.32481E-02
        -0.11911E-04
        -0.50374E-06
        -0.18191E-05
        -0.15385E-04
        -0.64523E-04
        -0.47125E-04
        -0.40586E-05
        -0.19001E-04
        -0.40409E-05
        -0.17234E-04
        -0.67620E-06
        -0.94230E-05
        -0.10161E-03
        -0.59386E-04
        -0.63964E-04
        -0.45895E-04
        -0.14257E-04
        -0.50639E-05
        -0.23039E-05
        -0.70874E-05
        -0.25036E-03
        -0.22738E-03
        -0.22144E-03
        -0.12957E-04
        -0.41985E-05
        -0.19012E-05
        -0.55762E-04
        -0.94590E-06
        -0.63299E-05
        -0.11622E-04
        -0.27113E-04
        -0.11317E-04
        -0.11278E-04
        -0.84783E-05
        -0.20582E-03
        -0.62576E-04
        -0.82359E-04
        -0.78998E-04
        -0.22498E-05
        -0.18672E-04
        -0.25075E-03
        -0.26530E-03
        -0.25321E-03
        -0.13233E-03
        -0.78441E-04
        -0.26846E-04
        -0.31377E-04
        -0.43778E-04
        -0.75332E-06
        -0.11007E-05
        -0.11629E-03
        -0.90085E-04
        -0.35914E-02
        -0.36479E-02
        -0.29405E-02
        -0.20008E-02
        -0.11132E-02
        -0.23615E-03
        -0.14599E-04
        -0.15311E-03
        -0.26492E-03
        -0.89099E-03
        -0.28124E-02
        -0.39153E-02
        -0.27526E-02
        -0.24916E-02
        -0.30253E-02
        -0.32093E-02
        -0.26733E-02
        -0.23920E-02
        -0.62038E-03
        -0.41972E-04
        -0.20482E-03
        -0.21037E-03
        -0.66453E-03
        -0.19926E-02
        -0.32654E-02
        -0.32452E-02
        -0.11956E-04
        -0.50741E-06
        -0.18259E-05
        -0.15406E-04
        -0.64396E-04
        -0.47040E-04
        -0.41103E-05
        -0.18905E-04
        -0.40492E-05
        -0.17205E-04
        -0.64862E-06
        -0.94687E-05
        -0.10173E-03
        -0.59094E-04
        -0.63896E-04
        -0.45993E-04
        -0.14320E-04
        -0.50356E-05
        -0.23016E-05
        -0.70632E-05
        -0.25031E-03
        -0.22733E-03
        -0.22141E-03
        -0.12959E-04
        -0.42187E-05
        -0.19081E-05
        -0.55794E-04
        -0.91044E-06
        -0.64191E-05
        -0.11637E-04
        -0.27194E-04
        -0.11315E-04
        -0.11183E-04
        -0.84859E-05
        -0.20603E-03
        -0.62522E-04
        -0.82305E-04
        -0.79251E-04
        -0.22927E-05
        -0.18790E-04
        -0.25107E-03
        -0.26561E-03
        -0.25325E-03
        -0.13230E-03
        -0.78386E-04
        -0.26820E-04
        -0.31366E-04
        -0.43807E-04
        -0.74201E-06
        -0.10929E-05
        -0.11614E-03
        -0.89821E-04
        -0.35889E-02
        -0.36460E-02
        -0.29400E-02
        -0.20008E-02
        -0.11126E-02
        -0.23601E-03
        -0.14632E-04
        -0.15330E-03
        -0.26448E-03
        -0.89028E-03
        -0.28115E-02
        -0.39154E-02
        -0.27521E-02
        -0.24914E-02
        -0.30261E-02
        -0.32107E-02
        -0.26743E-02
        -0.23930E-02
        -0.62003E-03
        -0.42010E-04
        -0.20452E-03
        -0.21021E-03
        -0.66355E-03
        -0.19902E-02
        -0.32621E-02
        -0.32423E-02
        -0.12001E-04
        -0.51123E-06
        -0.18327E-05
        -0.15426E-04
        -0.64269E-04
        -0.46953E-04
        -0.41617E-05
        -0.18809E-04
        -0.40565E-05
        -0.17171E-04
        -0.62166E-06
        -0.95155E-05
        -0.10185E-03
        -0.58802E-04
        -0.63827E-04
        -0.46099E-04
        -0.14387E-04
        -0.50072E-05
        -0.22996E-05
        -0.70381E-05
        -0.25029E-03
        -0.22730E-03
        -0.22141E-03
        -0.12960E-04
        -0.42428E-05
        -0.19166E-05
        -0.55821E-04
        -0.87673E-06
        -0.65086E-05
        -0.11651E-04
        -0.27282E-04
        -0.11317E-04
        -0.11088E-04
        -0.84936E-05
        -0.20623E-03
        -0.62466E-04
        -0.82252E-04
        -0.79503E-04
        -0.23359E-05
        -0.18908E-04
        -0.25140E-03
        -0.26595E-03
        -0.25332E-03
        -0.13227E-03
        -0.78326E-04
        -0.26791E-04
        -0.31357E-04
        -0.43837E-04
        -0.73076E-06
        -0.10851E-05
        -0.11599E-03
        -0.89554E-04
        -0.35865E-02
        -0.36441E-02
        -0.29395E-02
        -0.20008E-02
        -0.11119E-02
        -0.23586E-03
        -0.14666E-04
        -0.15349E-03
        -0.26403E-03
        -0.88957E-03
        -0.28107E-02
        -0.39157E-02
        -0.27517E-02
        -0.24911E-02
        -0.30270E-02
        -0.32124E-02
        -0.26753E-02
        -0.23939E-02
        -0.61969E-03
        -0.42048E-04
        -0.20422E-03
        -0.21004E-03
        -0.66257E-03
        -0.19877E-02
        -0.32589E-02
        -0.32394E-02
        -0.12046E-04
        -0.51506E-06
        -0.18395E-05
        -0.15446E-04
        -0.64145E-04
        -0.46866E-04
        -0.42141E-05
        -0.18711E-04
        -0.40628E-05
        -0.17131E-04
        -0.59523E-06
        -0.95616E-05
        -0.10198E-03
        -0.58511E-04
        -0.63759E-04
        -0.46213E-04
        -0.14457E-04
        -0.49788E-05
        -0.22971E-05
        -0.70128E-05
        -0.25027E-03
        -0.22727E-03
        -0.22143E-03
        -0.12962E-04
        -0.42707E-05
        -0.19263E-05
        -0.55844E-04
        -0.84469E-06
        -0.65984E-05
        -0.11663E-04
        -0.27375E-04
        -0.11323E-04
        -0.10993E-04
        -0.85011E-05
        -0.20644E-03
        -0.62410E-04
        -0.82201E-04
        -0.79755E-04
        -0.23793E-05
        -0.19028E-04
        -0.25174E-03
        -0.26631E-03
        -0.25342E-03
        -0.13226E-03
        -0.78262E-04
        -0.26760E-04
        -0.31350E-04
        -0.43870E-04
        -0.71967E-06
        -0.10775E-05
        -0.11585E-03
        -0.89288E-04
        -0.35840E-02
        -0.36422E-02
        -0.29389E-02
        -0.20008E-02
        -0.11112E-02
        -0.23572E-03
        -0.14699E-04
        -0.15368E-03
        -0.26358E-03
        -0.88886E-03
        -0.28098E-02
        -0.39160E-02
        -0.27515E-02
        -0.24909E-02
        -0.30279E-02
        -0.32143E-02
        -0.26765E-02
        -0.23948E-02
        -0.61934E-03
        -0.42086E-04
        -0.20392E-03
        -0.20988E-03
        -0.66159E-03
        -0.19853E-02
        -0.32557E-02
        -0.32365E-02
        -0.12089E-04
        -0.51922E-06
        -0.18455E-05
        -0.15466E-04
        -0.64020E-04
        -0.46779E-04
        -0.42668E-05
        -0.18613E-04
        -0.40688E-05
        -0.17091E-04
        -0.56935E-06
        -0.96079E-05
        -0.10210E-03
        -0.58219E-04
        -0.63689E-04
        -0.46330E-04
        -0.14527E-04
        -0.49504E-05
        -0.22945E-05
        -0.69886E-05
        -0.25027E-03
        -0.22726E-03
        -0.22147E-03
        -0.12964E-04
        -0.42986E-05
        -0.19363E-05
        -0.55865E-04
        -0.81344E-06
        -0.66896E-05
        -0.11678E-04
        -0.27469E-04
        -0.11328E-04
        -0.10898E-04
        -0.85079E-05
        -0.20666E-03
        -0.62360E-04
        -0.82152E-04
        -0.80007E-04
        -0.24231E-05
        -0.19148E-04
        -0.25208E-03
        -0.26667E-03
        -0.25353E-03
        -0.13224E-03
        -0.78206E-04
        -0.26734E-04
        -0.31341E-04
        -0.43901E-04
        -0.70834E-06
        -0.10705E-05
        -0.11570E-03
        -0.89030E-04
        -0.35815E-02
        -0.36403E-02
        -0.29384E-02
        -0.20008E-02
        -0.11105E-02
        -0.23558E-03
        -0.14732E-04
        -0.15387E-03
        -0.26314E-03
        -0.88815E-03
        -0.28089E-02
        -0.39163E-02
        -0.27513E-02
        -0.24908E-02
        -0.30289E-02
        -0.32162E-02
        -0.26777E-02
        -0.23957E-02
        -0.61899E-03
        -0.42121E-04
        -0.20362E-03
        -0.20971E-03
        -0.66063E-03
        -0.19829E-02
        -0.32524E-02
        -0.32336E-02
        -0.12129E-04
        -0.52425E-06
        -0.18502E-05
        -0.15485E-04
        -0.63897E-04
        -0.46695E-04
        -0.43208E-05
        -0.18512E-04
        -0.40752E-05
        -0.17053E-04
        -0.54393E-06
        -0.96545E-05
        -0.10223E-03
        -0.57928E-04
        -0.63618E-04
        -0.46447E-04
        -0.14594E-04
        -0.49219E-05
        -0.22924E-05
        -0.69650E-05
        -0.25026E-03
        -0.22725E-03
        -0.22151E-03
        -0.12967E-04
        -0.43234E-05
        -0.19452E-05
        -0.55889E-04
        -0.78208E-06
        -0.67821E-05
        -0.11696E-04
        -0.27557E-04
        -0.11328E-04
        -0.10801E-04
        -0.85127E-05
        -0.20687E-03
        -0.62314E-04
        -0.82108E-04
        -0.80258E-04
        -0.24677E-05
        -0.19271E-04
        -0.25243E-03
        -0.26704E-03
        -0.25365E-03
        -0.13224E-03
        -0.78155E-04
        -0.26709E-04
        -0.31327E-04
        -0.43931E-04
        -0.69615E-06
        -0.10652E-05
        -0.11558E-03
        -0.88771E-04
        -0.35791E-02
        -0.36385E-02
        -0.29378E-02
        -0.20009E-02
        -0.11098E-02
        -0.23544E-03
        -0.14764E-04
        -0.15405E-03
        -0.26270E-03
        -0.88745E-03
        -0.28079E-02
        -0.39166E-02
        -0.27511E-02
        -0.24906E-02
        -0.30299E-02
        -0.32182E-02
        -0.26789E-02
        -0.23965E-02
        -0.61864E-03
        -0.42149E-04
        -0.20330E-03
        -0.20955E-03
        -0.65968E-03
        -0.19805E-02
        -0.32492E-02
        -0.32307E-02
        -0.12167E-04
        -0.52956E-06
        -0.18542E-05
        -0.15504E-04
        -0.63780E-04
        -0.46608E-04
        -0.43758E-05
        -0.18411E-04
        -0.40819E-05
        -0.17017E-04
        -0.51902E-06
        -0.97011E-05
        -0.10236E-03
        -0.57638E-04
        -0.63548E-04
        -0.46563E-04
        -0.14660E-04
        -0.48933E-05
        -0.22900E-05
        -0.69429E-05
        -0.25025E-03
        -0.22723E-03
        -0.22154E-03
        -0.12969E-04
        -0.43466E-05
        -0.19535E-05
        -0.55913E-04
        -0.75116E-06
        -0.68766E-05
        -0.11714E-04
        -0.27643E-04
        -0.11327E-04
        -0.10704E-04
        -0.85168E-05
        -0.20710E-03
        -0.62273E-04
        -0.82069E-04
        -0.80509E-04
        -0.25126E-05
        -0.19394E-04
        -0.25278E-03
        -0.26742E-03
        -0.25378E-03
        -0.13223E-03
        -0.78107E-04
        -0.26690E-04
        -0.31310E-04
        -0.43958E-04
        -0.68368E-06
        -0.10605E-05
        -0.11546E-03
        -0.88519E-04
        -0.35766E-02
        -0.36366E-02
        -0.29373E-02
        -0.20009E-02
        -0.11091E-02
        -0.23529E-03
        -0.14797E-04
        -0.15424E-03
        -0.26225E-03
        -0.88675E-03
        -0.28070E-02
        -0.39169E-02
        -0.27509E-02
        -0.24904E-02
        -0.30308E-02
        -0.32202E-02
        -0.26801E-02
        -0.23974E-02
        -0.61827E-03
        -0.42176E-04
        -0.20298E-03
        -0.20939E-03
        -0.65874E-03
        -0.19781E-02
        -0.32460E-02
        -0.32278E-02
        -0.12205E-04
        -0.53496E-06
        -0.18581E-05
        -0.15522E-04
        -0.63659E-04
        -0.46522E-04
        -0.44307E-05
        -0.18311E-04
        -0.40886E-05
        -0.16981E-04
        -0.49479E-06
        -0.97478E-05
        -0.10248E-03
        -0.57350E-04
        -0.63477E-04
        -0.46679E-04
        -0.14726E-04
        -0.48650E-05
        -0.22875E-05
        -0.69199E-05
        -0.25025E-03
        -0.22722E-03
        -0.22158E-03
        -0.12973E-04
        -0.43698E-05
        -0.19618E-05
        -0.55939E-04
        -0.72090E-06
        -0.69715E-05
        -0.11733E-04
        -0.27729E-04
        -0.11326E-04
        -0.10607E-04
        -0.85209E-05
        -0.20733E-03
        -0.62229E-04
        -0.82029E-04
        -0.80760E-04
        -0.25582E-05
        -0.19516E-04
        -0.25313E-03
        -0.26780E-03
        -0.25390E-03
        -0.13224E-03
        -0.78064E-04
        -0.26670E-04
        -0.31294E-04
        -0.43986E-04
        -0.67132E-06
        -0.10561E-05
        -0.11534E-03
        -0.88264E-04
        -0.35741E-02
        -0.36348E-02
        -0.29367E-02
        -0.20009E-02
        -0.11084E-02
        -0.23515E-03
        -0.14829E-04
        -0.15443E-03
        -0.26181E-03
        -0.88605E-03
        -0.28061E-02
        -0.39172E-02
        -0.27506E-02
        -0.24903E-02
        -0.30318E-02
        -0.32221E-02
        -0.26814E-02
        -0.23982E-02
        -0.61791E-03
        -0.42203E-04
        -0.20267E-03
        -0.20923E-03
        -0.65780E-03
        -0.19757E-02
        -0.32428E-02
        -0.32250E-02
        -0.12244E-04
        -0.54044E-06
        -0.18621E-05
        -0.15541E-04
        -0.63539E-04
        -0.46435E-04
        -0.44864E-05
        -0.18210E-04
        -0.40954E-05
        -0.16945E-04
        -0.47112E-06
        -0.97946E-05
        -0.10261E-03
        -0.57063E-04
        -0.63406E-04
        -0.46795E-04
        -0.14793E-04
        -0.48370E-05
        -0.22850E-05
        -0.68977E-05
        -0.25024E-03
        -0.22720E-03
        -0.22162E-03
        -0.12977E-04
        -0.43931E-05
        -0.19700E-05
        -0.55965E-04
        -0.69144E-06
        -0.70669E-05
        -0.11751E-04
        -0.27815E-04
        -0.11324E-04
        -0.10511E-04
        -0.85252E-05
        -0.20755E-03
        -0.62189E-04
        -0.81991E-04
        -0.81011E-04
        -0.26042E-05
        -0.19641E-04
        -0.25348E-03
        -0.26817E-03
        -0.25402E-03
        -0.13224E-03
        -0.78017E-04
        -0.26648E-04
        -0.31278E-04
        -0.44014E-04
        -0.65916E-06
        -0.10513E-05
        -0.11522E-03
        -0.88009E-04
        -0.35717E-02
        -0.36329E-02
        -0.29362E-02
        -0.20009E-02
        -0.11077E-02
        -0.23500E-03
        -0.14862E-04
        -0.15461E-03
        -0.26137E-03
        -0.88535E-03
        -0.28052E-02
        -0.39176E-02
        -0.27504E-02
        -0.24901E-02
        -0.30328E-02
        -0.32241E-02
        -0.26826E-02
        -0.23990E-02
        -0.61755E-03
        -0.42229E-04
        -0.20235E-03
        -0.20906E-03
        -0.65686E-03
        -0.19733E-02
        -0.32396E-02
        -0.32221E-02
        -0.12282E-04
        -0.54591E-06
        -0.18662E-05
        -0.15560E-04
        -0.63423E-04
        -0.46351E-04
        -0.45418E-05
        -0.18110E-04
        -0.41021E-05
        -0.16909E-04
        -0.44800E-06
        -0.98421E-05
        -0.10274E-03
        -0.56777E-04
        -0.63334E-04
        -0.46911E-04
        -0.14859E-04
        -0.48091E-05
        -0.22830E-05
        -0.68745E-05
        -0.25023E-03
        -0.22719E-03
        -0.22166E-03
        -0.12980E-04
        -0.44161E-05
        -0.19782E-05
        -0.55992E-04
        -0.66257E-06
        -0.71626E-05
        -0.11769E-04
        -0.27901E-04
        -0.11322E-04
        -0.10415E-04
        -0.85292E-05
        -0.20777E-03
        -0.62146E-04
        -0.81952E-04
        -0.81262E-04
        -0.26507E-05
        -0.19764E-04
        -0.25383E-03
        -0.26855E-03
        -0.25414E-03
        -0.13223E-03
        -0.77971E-04
        -0.26629E-04
        -0.31262E-04
        -0.44042E-04
        -0.64700E-06
        -0.10466E-05
        -0.11510E-03
        -0.87757E-04
        -0.35692E-02
        -0.36311E-02
        -0.29356E-02
        -0.20009E-02
        -0.11071E-02
        -0.23486E-03
        -0.14893E-04
        -0.15480E-03
        -0.26093E-03
        -0.88464E-03
        -0.28043E-02
        -0.39179E-02
        -0.27502E-02
        -0.24899E-02
        -0.30338E-02
        -0.32261E-02
        -0.26838E-02
        -0.23999E-02
        -0.61719E-03
        -0.42254E-04
        -0.20203E-03
        -0.20890E-03
        -0.65593E-03
        -0.19709E-02
        -0.32364E-02
        -0.32192E-02
        -0.12320E-04
        -0.55138E-06
        -0.18701E-05
        -0.15578E-04
        -0.63303E-04
        -0.46265E-04
        -0.45980E-05
        -0.18010E-04
        -0.41087E-05
        -0.16874E-04
        -0.42553E-06
        -0.98895E-05
        -0.10287E-03
        -0.56493E-04
        -0.63263E-04
        -0.47027E-04
        -0.14926E-04
        -0.47810E-05
        -0.22807E-05
        -0.68524E-05
        -0.25022E-03
        -0.22717E-03
        -0.22170E-03
        -0.12984E-04
        -0.44391E-05
        -0.19868E-05
        -0.56018E-04
        -0.63443E-06
        -0.72582E-05
        -0.11789E-04
        -0.27987E-04
        -0.11321E-04
        -0.10319E-04
        -0.85334E-05
        -0.20800E-03
        -0.62104E-04
        -0.81911E-04
        -0.81513E-04
        -0.26977E-05
        -0.19890E-04
        -0.25418E-03
        -0.26892E-03
        -0.25427E-03
        -0.13223E-03
        -0.77925E-04
        -0.26609E-04
        -0.31245E-04
        -0.44071E-04
        -0.63493E-06
        -0.10422E-05
        -0.11498E-03
        -0.87503E-04
        -0.35667E-02
        -0.36292E-02
        -0.29350E-02
        -0.20009E-02
        -0.11064E-02
        -0.23472E-03
        -0.14925E-04
        -0.15499E-03
        -0.26049E-03
        -0.88393E-03
        -0.28034E-02
        -0.39182E-02
        -0.27500E-02
        -0.24898E-02
        -0.30347E-02
        -0.32281E-02
        -0.26850E-02
        -0.24007E-02
        -0.61683E-03
        -0.42280E-04
        -0.20171E-03
        -0.20874E-03
        -0.65499E-03
        -0.19685E-02
        -0.32332E-02
        -0.32163E-02
        -0.12358E-04
        -0.55695E-06
        -0.18739E-05
        -0.15597E-04
        -0.63184E-04
        -0.46179E-04
        -0.46544E-05
        -0.17910E-04
        -0.41152E-05
        -0.16837E-04
        -0.40369E-06
        -0.99366E-05
        -0.10300E-03
        -0.56209E-04
        -0.63191E-04
        -0.47143E-04
        -0.14992E-04
        -0.47530E-05
        -0.22784E-05
        -0.68297E-05
        -0.25021E-03
        -0.22716E-03
        -0.22174E-03
        -0.12988E-04
        -0.44619E-05
        -0.19950E-05
        -0.56044E-04
        -0.60686E-06
        -0.73552E-05
        -0.11807E-04
        -0.28074E-04
        -0.11319E-04
        -0.10223E-04
        -0.85375E-05
        -0.20823E-03
        -0.62065E-04
        -0.81874E-04
        -0.81763E-04
        -0.27453E-05
        -0.20015E-04
        -0.25454E-03
        -0.26930E-03
        -0.25439E-03
        -0.13223E-03
        -0.77883E-04
        -0.26587E-04
        -0.31229E-04
        -0.44099E-04
        -0.62293E-06
        -0.10376E-05
        -0.11486E-03
        -0.87249E-04
        -0.35643E-02
        -0.36274E-02
        -0.29345E-02
        -0.20009E-02
        -0.11057E-02
        -0.23457E-03
        -0.14958E-04
        -0.15517E-03
        -0.26004E-03
        -0.88322E-03
        -0.28024E-02
        -0.39185E-02
        -0.27497E-02
        -0.24896E-02
        -0.30357E-02
        -0.32300E-02
        -0.26862E-02
        -0.24015E-02
        -0.61647E-03
        -0.42306E-04
        -0.20139E-03
        -0.20858E-03
        -0.65406E-03
        -0.19661E-02
        -0.32300E-02
        -0.32135E-02
        -0.12397E-04
        -0.56244E-06
        -0.18778E-05
        -0.15615E-04
        -0.63068E-04
        -0.46093E-04
        -0.47104E-05
        -0.17811E-04
        -0.41218E-05
        -0.16801E-04
        -0.38246E-06
        -0.99838E-05
        -0.10313E-03
        -0.55926E-04
        -0.63119E-04
        -0.47259E-04
        -0.15059E-04
        -0.47253E-05
        -0.22766E-05
        -0.68076E-05
        -0.25020E-03
        -0.22715E-03
        -0.22178E-03
        -0.12992E-04
        -0.44847E-05
        -0.20033E-05
        -0.56068E-04
        -0.58006E-06
        -0.74528E-05
        -0.11825E-04
        -0.28160E-04
        -0.11317E-04
        -0.10128E-04
        -0.85415E-05
        -0.20846E-03
        -0.62023E-04
        -0.81835E-04
        -0.82011E-04
        -0.27933E-05
        -0.20142E-04
        -0.25488E-03
        -0.26967E-03
        -0.25451E-03
        -0.13223E-03
        -0.77836E-04
        -0.26567E-04
        -0.31212E-04
        -0.44126E-04
        -0.61107E-06
        -0.10330E-05
        -0.11474E-03
        -0.86999E-04
        -0.35618E-02
        -0.36255E-02
        -0.29339E-02
        -0.20009E-02
        -0.11050E-02
        -0.23443E-03
        -0.14990E-04
        -0.15535E-03
        -0.25960E-03
        -0.88252E-03
        -0.28015E-02
        -0.39188E-02
        -0.27495E-02
        -0.24895E-02
        -0.30367E-02
        -0.32320E-02
        -0.26875E-02
        -0.24023E-02
        -0.61611E-03
        -0.42331E-04
        -0.20107E-03
        -0.20842E-03
        -0.65312E-03
        -0.19637E-02
        -0.32268E-02
        -0.32106E-02
        -0.12436E-04
        -0.56793E-06
        -0.18816E-05
        -0.15633E-04
        -0.62949E-04
        -0.46007E-04
        -0.47674E-05
        -0.17712E-04
        -0.41284E-05
        -0.16765E-04
        -0.36182E-06
        -0.10032E-04
        -0.10326E-03
        -0.55644E-04
        -0.63045E-04
        -0.47375E-04
        -0.15126E-04
        -0.46977E-05
        -0.22743E-05
        -0.67848E-05
        -0.25020E-03
        -0.22713E-03
        -0.22181E-03
        -0.12995E-04
        -0.45075E-05
        -0.20116E-05
        -0.56093E-04
        -0.55388E-06
        -0.75508E-05
        -0.11843E-04
        -0.28246E-04
        -0.11315E-04
        -0.10033E-04
        -0.85455E-05
        -0.20868E-03
        -0.61985E-04
        -0.81797E-04
        -0.82259E-04
        -0.28417E-05
        -0.20268E-04
        -0.25523E-03
        -0.27004E-03
        -0.25463E-03
        -0.13223E-03
        -0.77789E-04
        -0.26548E-04
        -0.31196E-04
        -0.44155E-04
        -0.59915E-06
        -0.10285E-05
        -0.11462E-03
        -0.86745E-04
        -0.35593E-02
        -0.36237E-02
        -0.29333E-02
        -0.20009E-02
        -0.11043E-02
        -0.23428E-03
        -0.15021E-04
        -0.15553E-03
        -0.25916E-03
        -0.88181E-03
        -0.28006E-02
        -0.39192E-02
        -0.27493E-02
        -0.24893E-02
        -0.30377E-02
        -0.32340E-02
        -0.26887E-02
        -0.24032E-02
        -0.61575E-03
        -0.42355E-04
        -0.20076E-03
        -0.20826E-03
        -0.65219E-03
        -0.19614E-02
        -0.32236E-02
        -0.32077E-02
        -0.12474E-04
        -0.57359E-06
        -0.18855E-05
        -0.15651E-04
        -0.62830E-04
        -0.45924E-04
        -0.48242E-05
        -0.17613E-04
        -0.41349E-05
        -0.16729E-04
        -0.34174E-06
        -0.10080E-04
        -0.10339E-03
        -0.55363E-04
        -0.62972E-04
        -0.47492E-04
        -0.15192E-04
        -0.46704E-05
        -0.22720E-05
        -0.67627E-05
        -0.25019E-03
        -0.22712E-03
        -0.22185E-03
        -0.12999E-04
        -0.45299E-05
        -0.20200E-05
        -0.56118E-04
        -0.52831E-06
        -0.76494E-05
        -0.11861E-04
        -0.28332E-04
        -0.11314E-04
        -0.99389E-05
        -0.85497E-05
        -0.20891E-03
        -0.61943E-04
        -0.81758E-04
        -0.82507E-04
        -0.28908E-05
        -0.20394E-04
        -0.25558E-03
        -0.27041E-03
        -0.25475E-03
        -0.13223E-03
        -0.77746E-04
        -0.26526E-04
        -0.31179E-04
        -0.44182E-04
        -0.58747E-06
        -0.10238E-05
        -0.11450E-03
        -0.86491E-04
        -0.35568E-02
        -0.36219E-02
        -0.29328E-02
        -0.20009E-02
        -0.11036E-02
        -0.23414E-03
        -0.15052E-04
        -0.15571E-03
        -0.25872E-03
        -0.88111E-03
        -0.27997E-02
        -0.39195E-02
        -0.27491E-02
        -0.24891E-02
        -0.30387E-02
        -0.32360E-02
        -0.26899E-02
        -0.24040E-02
        -0.61539E-03
        -0.42380E-04
        -0.20044E-03
        -0.20810E-03
        -0.65125E-03
        -0.19590E-02
        -0.32205E-02
        -0.32049E-02
        -0.12513E-04
        -0.57919E-06
        -0.18895E-05
        -0.15670E-04
        -0.62715E-04
        -0.45838E-04
        -0.48817E-05
        -0.17514E-04
        -0.41412E-05
        -0.16691E-04
        -0.32224E-06
        -0.10128E-04
        -0.10352E-03
        -0.55083E-04
        -0.62897E-04
        -0.47609E-04
        -0.15260E-04
        -0.46431E-05
        -0.22699E-05
        -0.67400E-05
        -0.25018E-03
        -0.22710E-03
        -0.22189E-03
        -0.13004E-04
        -0.45519E-05
        -0.20283E-05
        -0.56140E-04
        -0.50313E-06
        -0.77476E-05
        -0.11879E-04
        -0.28420E-04
        -0.11312E-04
        -0.98453E-05
        -0.85542E-05
        -0.20914E-03
        -0.61901E-04
        -0.81719E-04
        -0.82753E-04
        -0.29408E-05
        -0.20523E-04
        -0.25592E-03
        -0.27078E-03
        -0.25487E-03
        -0.13223E-03
        -0.77699E-04
        -0.26507E-04
        -0.31163E-04
        -0.44211E-04
        -0.57595E-06
        -0.10192E-05
        -0.11438E-03
        -0.86242E-04
        -0.35544E-02
        -0.36200E-02
        -0.29322E-02
        -0.20009E-02
        -0.11030E-02
        -0.23399E-03
        -0.15083E-04
        -0.15589E-03
        -0.25829E-03
        -0.88040E-03
        -0.27988E-02
        -0.39199E-02
        -0.27489E-02
        -0.24890E-02
        -0.30396E-02
        -0.32379E-02
        -0.26911E-02
        -0.24048E-02
        -0.61503E-03
        -0.42405E-04
        -0.20012E-03
        -0.20794E-03
        -0.65032E-03
        -0.19566E-02
        -0.32173E-02
        -0.32020E-02
        -0.12552E-04
        -0.58480E-06
        -0.18933E-05
        -0.15688E-04
        -0.62598E-04
        -0.45753E-04
        -0.49391E-05
        -0.17416E-04
        -0.41469E-05
        -0.16650E-04
        -0.30334E-06
        -0.10176E-04
        -0.10364E-03
        -0.54801E-04
        -0.62821E-04
        -0.47725E-04
        -0.15326E-04
        -0.46158E-05
        -0.22684E-05
        -0.67184E-05
        -0.25017E-03
        -0.22708E-03
        -0.22193E-03
        -0.13007E-04
        -0.45726E-05
        -0.20369E-05
        -0.56153E-04
        -0.47795E-06
        -0.78472E-05
        -0.11898E-04
        -0.28507E-04
        -0.11310E-04
        -0.97516E-05
        -0.85584E-05
        -0.20937E-03
        -0.61863E-04
        -0.81682E-04
        -0.82994E-04
        -0.29927E-05
        -0.20649E-04
        -0.25624E-03
        -0.27112E-03
        -0.25497E-03
        -0.13223E-03
        -0.77654E-04
        -0.26485E-04
        -0.31147E-04
        -0.44240E-04
        -0.56457E-06
        -0.10146E-05
        -0.11426E-03
        -0.85989E-04
        -0.35519E-02
        -0.36182E-02
        -0.29316E-02
        -0.20009E-02
        -0.11023E-02
        -0.23385E-03
        -0.15114E-04
        -0.15607E-03
        -0.25786E-03
        -0.87967E-03
        -0.27979E-02
        -0.39205E-02
        -0.27488E-02
        -0.24888E-02
        -0.30406E-02
        -0.32399E-02
        -0.26923E-02
        -0.24056E-02
        -0.61467E-03
        -0.42429E-04
        -0.19981E-03
        -0.20778E-03
        -0.64939E-03
        -0.19542E-02
        -0.32141E-02
        -0.31992E-02
        -0.12591E-04
        -0.59041E-06
        -0.18970E-05
        -0.15706E-04
        -0.62479E-04
        -0.45668E-04
        -0.49971E-05
        -0.17317E-04
        -0.41520E-05
        -0.16604E-04
        -0.28507E-06
        -0.10225E-04
        -0.10377E-03
        -0.54519E-04
        -0.62744E-04
        -0.47841E-04
        -0.15392E-04
        -0.45885E-05
        -0.22663E-05
        -0.66962E-05
        -0.25017E-03
        -0.22706E-03
        -0.22197E-03
        -0.13011E-04
        -0.45916E-05
        -0.20452E-05
        -0.56158E-04
        -0.45268E-06
        -0.79473E-05
        -0.11916E-04
        -0.28594E-04
        -0.11308E-04
        -0.96584E-05
        -0.85626E-05
        -0.20960E-03
        -0.61822E-04
        -0.81644E-04
        -0.83230E-04
        -0.30465E-05
        -0.20776E-04
        -0.25653E-03
        -0.27143E-03
        -0.25506E-03
        -0.13223E-03
        -0.77610E-04
        -0.26466E-04
        -0.31131E-04
        -0.44269E-04
        -0.55317E-06
        -0.10101E-05
        -0.11414E-03
        -0.85735E-04
        -0.35494E-02
        -0.36164E-02
        -0.29310E-02
        -0.20009E-02
        -0.11016E-02
        -0.23371E-03
        -0.15144E-04
        -0.15625E-03
        -0.25743E-03
        -0.87892E-03
        -0.27969E-02
        -0.39213E-02
        -0.27488E-02
        -0.24887E-02
        -0.30415E-02
        -0.32419E-02
        -0.26936E-02
        -0.24064E-02
        -0.61431E-03
        -0.42453E-04
        -0.19949E-03
        -0.20762E-03
        -0.64846E-03
        -0.19518E-02
        -0.32109E-02
        -0.31963E-02
        -0.12630E-04
        -0.59608E-06
        -0.19010E-05
        -0.15724E-04
        -0.62365E-04
        -0.45585E-04
        -0.50547E-05
        -0.17220E-04
        -0.41568E-05
        -0.16558E-04
        -0.26749E-06
        -0.10272E-04
        -0.10390E-03
        -0.54237E-04
        -0.62665E-04
        -0.47958E-04
        -0.15459E-04
        -0.45617E-05
        -0.22641E-05
        -0.66746E-05
        -0.25016E-03
        -0.22704E-03
        -0.22201E-03
        -0.13015E-04
        -0.46101E-05
        -0.20535E-05
        -0.56160E-04
        -0.42802E-06
        -0.80472E-05
        -0.11934E-04
        -0.28681E-04
        -0.11307E-04
        -0.95664E-05
        -0.85671E-05
        -0.20984E-03
        -0.61785E-04
        -0.81605E-04
        -0.83464E-04
        -0.31013E-05
        -0.20900E-04
        -0.25681E-03
        -0.27172E-03
        -0.25515E-03
        -0.13223E-03
        -0.77564E-04
        -0.26446E-04
        -0.31116E-04
        -0.44299E-04
        -0.54201E-06
        -0.10054E-05
        -0.11403E-03
        -0.85488E-04
        -0.35470E-02
        -0.36146E-02
        -0.29305E-02
        -0.20009E-02
        -0.11009E-02
        -0.23356E-03
        -0.15174E-04
        -0.15642E-03
        -0.25700E-03
        -0.87815E-03
        -0.27959E-02
        -0.39221E-02
        -0.27489E-02
        -0.24885E-02
        -0.30425E-02
        -0.32438E-02
        -0.26948E-02
        -0.24072E-02
        -0.61395E-03
        -0.42480E-04
        -0.19918E-03
        -0.20746E-03
        -0.64754E-03
        -0.19495E-02
        -0.32077E-02
        -0.31935E-02
        -0.12781E-04
        -0.60605E-06
        -0.19225E-05
        -0.15880E-04
        -0.62801E-04
        -0.45909E-04
        -0.51526E-05
        -0.17292E-04
        -0.41980E-05
        -0.16672E-04
        -0.25500E-06
        -0.10403E-04
        -0.10495E-03
        -0.54490E-04
        -0.63197E-04
        -0.48490E-04
        -0.15661E-04
        -0.45768E-05
        -0.22812E-05
        -0.67104E-05
        -0.25231E-03
        -0.22903E-03
        -0.22393E-03
        -0.13134E-04
        -0.46692E-05
        -0.20792E-05
        -0.56702E-04
        -0.40939E-06
        -0.82150E-05
        -0.12060E-04
        -0.29018E-04
        -0.11404E-04
        -0.95668E-05
        -0.86491E-05
        -0.21195E-03
        -0.62301E-04
        -0.82293E-04
        -0.84485E-04
        -0.31812E-05
        -0.21211E-04
        -0.25948E-03
        -0.27453E-03
        -0.25754E-03
        -0.13335E-03
        -0.78193E-04
        -0.26656E-04
        -0.31381E-04
        -0.44731E-04
        -0.53696E-06
        -0.10097E-05
        -0.11494E-03
        -0.86014E-04
        -0.35807E-02
        -0.36488E-02
        -0.29597E-02
        -0.20208E-02
        -0.11114E-02
        -0.23579E-03
        -0.15374E-04
        -0.15820E-03
        -0.25933E-03
        -0.88689E-03
        -0.28248E-02
        -0.39629E-02
        -0.27752E-02
        -0.25114E-02
        -0.30713E-02
        -0.32752E-02
        -0.27206E-02
        -0.24312E-02
        -0.61984E-03
        -0.42959E-04
        -0.20088E-03
        -0.20928E-03
        -0.65300E-03
        -0.19663E-02
        -0.32356E-02
        -0.32213E-02
        -0.28731E-04
        -0.13815E-05
        -0.43061E-05
        -0.35786E-04
        -0.13092E-03
        -0.97462E-04
        -0.11692E-04
        -0.38417E-04
        -0.93745E-05
        -0.36915E-04
        -0.54094E-06
        -0.21014E-04
        -0.21801E-03
        -0.11770E-03
        -0.12892E-03
        -0.10912E-03
        -0.35090E-04
        -0.10268E-04
        -0.49972E-05
        -0.14775E-04
        -0.52266E-03
        -0.48684E-03
        -0.46621E-03
        -0.29216E-04
        -0.10550E-04
        -0.47066E-05
        -0.12466E-03
        -0.89336E-06
        -0.18805E-04
        -0.27189E-04
        -0.65373E-04
        -0.25545E-04
        -0.21459E-04
        -0.19506E-04
        -0.42653E-03
        -0.13224E-03
        -0.17485E-03
        -0.18046E-03
        -0.70325E-05
        -0.46955E-04
        -0.55775E-03
        -0.59835E-03
        -0.55999E-03
        -0.28155E-03
        -0.16406E-03
        -0.52866E-04
        -0.65432E-04
        -0.95713E-04
        -0.11444E-05
        -0.21559E-05
        -0.23428E-03
        -0.18156E-03
        -0.57173E-02
        -0.58027E-02
        -0.47140E-02
        -0.32350E-02
        -0.17774E-02
        -0.37927E-03
        -0.25385E-04
        -0.26496E-03
        -0.43216E-03
        -0.14623E-02
        -0.46672E-02
        -0.65149E-02
        -0.46514E-02
        -0.42305E-02
        -0.50428E-02
        -0.52579E-02
        -0.43417E-02
        -0.38443E-02
        -0.97991E-03
        -0.68204E-04
        -0.32443E-03
        -0.34076E-03
        -0.10563E-02
        -0.32024E-02
        -0.52362E-02
        -0.51753E-02
  
SCALARS                      strain_yy  double 1
LOOKUP_TABLE default
         0.24338E-04
         0.25010E-05
         0.17700E-04
         0.50813E-05
        -0.26556E-19
        -0.20174E-20
        -0.40786E-19
        -0.23728E-19
         0.23671E-03
         0.10499E-03
        -0.90331E-19
        -0.70013E-19
         0.16316E-03
         0.42006E-06
        -0.46265E-19
        -0.19017E-21
         0.24260E-04
         0.26847E-03
        -0.10014E-22
        -0.10484E-20
         0.66016E-04
         0.86938E-03
         0.10548E-02
        -0.24311E-18
        -0.72507E-18
        -0.50658E-18
         0.84683E-05
         0.80066E-03
        -0.12579E-18
        -0.47342E-18
         0.31562E-04
         0.21787E-04
         0.18909E-04
        -0.33807E-19
        -0.35230E-19
        -0.15185E-22
         0.26388E-03
         0.21588E-03
        -0.11448E-18
        -0.69299E-19
         0.24278E-03
         0.89062E-04
        -0.65385E-19
        -0.54607E-19
         0.21642E-03
         0.26629E-04
        -0.71949E-22
        -0.17214E-19
         0.14332E-03
        -0.38160E-20
         0.18635E-05
        -0.25032E-22
         0.43704E-06
        -0.57096E-19
         0.18530E-04
        -0.19321E-19
         0.19726E-03
         0.70286E-05
        -0.14220E-22
        -0.58579E-22
         0.46328E-04
         0.59483E-03
        -0.26398E-20
        -0.36934E-19
         0.17276E-04
        -0.10756E-19
         0.30508E-03
        -0.15962E-19
         0.17916E-03
         0.49629E-04
        -0.24378E-21
        -0.42500E-19
         0.59005E-03
        -0.20493E-18
         0.12375E-02
        -0.19212E-18
         0.12344E-02
        -0.11071E-18
         0.84678E-03
        -0.77776E-19
         0.19301E-02
         0.12028E-02
        -0.32006E-19
        -0.15734E-20
         0.26257E-04
        -0.19699E-22
         0.52764E-03
        -0.77304E-19
         0.28219E-02
        -0.23691E-18
         0.53154E-02
         0.19995E-02
        -0.52117E-18
        -0.34144E-18
         0.10139E-02
        -0.20574E-18
         0.83085E-03
        -0.21534E-18
         0.77448E-03
        -0.24895E-18
         0.21337E-02
         0.14970E-02
        -0.21530E-18
        -0.49429E-19
         0.87899E-03
         0.13172E-03
        -0.26618E-19
        -0.41106E-19
         0.52730E-02
        -0.29459E-18
         0.11381E-01
        -0.63033E-18
         0.16218E-01
        -0.96140E-18
         0.19871E-01
        -0.94594E-18
         0.24464E-01
        -0.59240E-18
         0.23711E-01
        -0.35478E-18
         0.20857E-01
        -0.30691E-18
         0.16552E-01
        -0.27782E-18
         0.95505E-02
        -0.11347E-18
         0.50364E-02
        -0.12368E-19
         0.14681E-02
        -0.51641E-20
         0.82324E-05
        -0.11667E-19
         0.15638E-02
        -0.31122E-20
         0.52867E-02
        -0.28464E-19
         0.12643E-01
        -0.22678E-18
         0.14153E-01
        -0.55297E-18
         0.15462E-01
        -0.95037E-18
         0.24480E-01
        -0.94873E-18
         0.27616E-01
        -0.72299E-18
         0.24175E-01
        -0.68672E-18
         0.15306E-01
        -0.69529E-18
         0.70730E-02
        -0.43478E-18
         0.36680E-02
        -0.15204E-18
         0.19785E-02
        -0.90895E-19
        -0.24683E-04
        -0.65921E-05
        -0.50252E-05
        -0.48546E-06
        -0.52549E-05
        -0.59670E-05
        -0.65931E-07
        -0.15631E-04
        -0.11555E-04
        -0.24822E-04
        -0.66983E-05
        -0.12177E-03
        -0.57079E-04
        -0.76777E-06
        -0.12451E-03
        -0.17324E-05
        -0.13595E-05
        -0.56381E-06
        -0.95748E-06
        -0.54768E-06
        -0.46117E-06
        -0.31391E-06
        -0.35359E-05
        -0.25127E-07
        -0.11571E-04
        -0.25286E-06
        -0.67532E-09
        -0.20652E-06
        -0.30294E-06
        -0.70965E-05
        -0.16504E-05
        -0.19365E-05
        -0.87281E-06
        -0.51692E-07
        -0.13880E-06
        -0.41032E-05
        -0.20688E-04
        -0.96396E-04
        -0.80436E-04
        -0.57083E-04
        -0.50371E-04
        -0.31430E-05
        -0.21201E-05
        -0.15934E-04
        -0.43334E-04
        -0.11461E-03
        -0.49717E-04
        -0.25729E-04
        -0.29276E-04
        -0.32886E-04
        -0.44978E-04
        -0.94682E-05
        -0.32692E-04
        -0.47801E-04
        -0.35013E-03
        -0.67022E-03
        -0.10891E-02
        -0.15279E-02
        -0.15341E-02
        -0.12533E-02
        -0.11356E-02
        -0.10140E-02
        -0.42182E-03
        -0.82702E-04
        -0.16080E-04
        -0.31300E-05
        -0.73676E-05
        -0.11545E-03
        -0.39005E-03
        -0.66190E-03
        -0.95392E-03
        -0.12599E-02
        -0.11237E-02
        -0.10037E-02
        -0.86796E-03
        -0.41745E-03
        -0.14359E-03
        -0.11102E-03
        -0.10291E-03
        -0.40939E-04
        -0.35057E-04
        -0.19723E-05
        -0.59138E-04
        -0.11962E-04
        -0.75219E-05
        -0.91930E-04
        -0.39534E-04
        -0.81321E-04
        -0.22731E-04
        -0.42577E-03
        -0.14943E-03
        -0.30859E-05
        -0.41329E-03
        -0.14801E-04
        -0.13593E-05
        -0.12390E-05
        -0.25170E-04
        -0.94083E-06
        -0.18699E-04
        -0.94261E-05
        -0.31681E-05
        -0.22570E-05
        -0.36876E-04
        -0.22561E-05
        -0.14206E-06
        -0.49093E-06
        -0.12526E-05
        -0.36694E-04
        -0.17191E-04
        -0.11928E-05
        -0.71820E-05
        -0.54146E-05
        -0.12310E-05
        -0.11439E-04
        -0.41699E-04
        -0.23871E-03
        -0.18563E-03
        -0.14417E-03
        -0.77811E-04
        -0.47510E-05
        -0.20157E-04
        -0.31450E-04
        -0.52148E-04
        -0.21761E-03
        -0.73679E-04
        -0.32220E-04
        -0.50895E-04
        -0.70930E-04
        -0.76152E-04
        -0.42871E-06
        -0.11835E-03
        -0.24217E-03
        -0.13115E-02
        -0.21903E-02
        -0.36485E-02
        -0.52538E-02
        -0.50407E-02
        -0.38442E-02
        -0.35306E-02
        -0.34561E-02
        -0.13629E-02
        -0.14805E-03
        -0.23506E-04
        -0.17258E-04
        -0.37020E-05
        -0.26641E-03
        -0.10692E-02
        -0.20710E-02
        -0.35079E-02
        -0.43133E-02
        -0.33260E-02
        -0.29729E-02
        -0.29551E-02
        -0.14650E-02
        -0.39535E-03
        -0.35446E-03
        -0.10304E-03
        -0.40954E-04
        -0.35092E-04
        -0.20013E-05
        -0.59152E-04
        -0.11981E-04
        -0.75408E-05
        -0.92240E-04
        -0.39676E-04
        -0.81929E-04
        -0.22758E-04
        -0.42569E-03
        -0.14951E-03
        -0.30861E-05
        -0.41435E-03
        -0.14803E-04
        -0.13841E-05
        -0.12352E-05
        -0.25204E-04
        -0.93036E-06
        -0.18792E-04
        -0.94442E-05
        -0.31696E-05
        -0.22549E-05
        -0.37211E-04
        -0.22479E-05
        -0.14543E-06
        -0.49643E-06
        -0.12361E-05
        -0.36850E-04
        -0.17197E-04
        -0.11876E-05
        -0.72138E-05
        -0.54323E-05
        -0.12080E-05
        -0.11454E-04
        -0.41695E-04
        -0.23945E-03
        -0.18643E-03
        -0.14451E-03
        -0.77930E-04
        -0.47254E-05
        -0.20198E-04
        -0.31482E-04
        -0.52151E-04
        -0.21761E-03
        -0.73694E-04
        -0.32181E-04
        -0.50758E-04
        -0.70740E-04
        -0.76087E-04
        -0.41582E-06
        -0.11813E-03
        -0.24220E-03
        -0.13119E-02
        -0.21903E-02
        -0.36476E-02
        -0.52502E-02
        -0.50365E-02
        -0.38419E-02
        -0.35291E-02
        -0.34542E-02
        -0.13623E-02
        -0.14818E-03
        -0.23502E-04
        -0.17329E-04
        -0.36419E-05
        -0.26669E-03
        -0.10702E-02
        -0.20720E-02
        -0.35078E-02
        -0.43127E-02
        -0.33256E-02
        -0.29726E-02
        -0.29536E-02
        -0.14629E-02
        -0.39448E-03
        -0.35352E-03
        -0.10317E-03
        -0.40970E-04
        -0.35127E-04
        -0.20309E-05
        -0.59165E-04
        -0.12001E-04
        -0.75597E-05
        -0.92552E-04
        -0.39819E-04
        -0.82536E-04
        -0.22785E-04
        -0.42562E-03
        -0.14958E-03
        -0.30854E-05
        -0.41540E-03
        -0.14805E-04
        -0.14095E-05
        -0.12315E-05
        -0.25239E-04
        -0.91978E-06
        -0.18886E-04
        -0.94618E-05
        -0.31721E-05
        -0.22521E-05
        -0.37543E-04
        -0.22385E-05
        -0.14907E-06
        -0.50232E-06
        -0.12183E-05
        -0.37000E-04
        -0.17202E-04
        -0.11814E-05
        -0.72459E-05
        -0.54498E-05
        -0.11851E-05
        -0.11469E-04
        -0.41689E-04
        -0.24019E-03
        -0.18724E-03
        -0.14484E-03
        -0.78057E-04
        -0.46973E-05
        -0.20237E-04
        -0.31523E-04
        -0.52164E-04
        -0.21762E-03
        -0.73708E-04
        -0.32141E-04
        -0.50624E-04
        -0.70549E-04
        -0.76024E-04
        -0.40319E-06
        -0.11791E-03
        -0.24222E-03
        -0.13124E-02
        -0.21903E-02
        -0.36468E-02
        -0.52467E-02
        -0.50323E-02
        -0.38396E-02
        -0.35276E-02
        -0.34523E-02
        -0.13617E-02
        -0.14833E-03
        -0.23499E-04
        -0.17401E-04
        -0.35820E-05
        -0.26698E-03
        -0.10712E-02
        -0.20730E-02
        -0.35076E-02
        -0.43122E-02
        -0.33251E-02
        -0.29724E-02
        -0.29521E-02
        -0.14608E-02
        -0.39361E-03
        -0.35259E-03
        -0.10330E-03
        -0.40985E-04
        -0.35163E-04
        -0.20608E-05
        -0.59179E-04
        -0.12020E-04
        -0.75797E-05
        -0.92860E-04
        -0.39963E-04
        -0.83139E-04
        -0.22812E-04
        -0.42555E-03
        -0.14966E-03
        -0.30856E-05
        -0.41646E-03
        -0.14807E-04
        -0.14355E-05
        -0.12277E-05
        -0.25276E-04
        -0.90862E-06
        -0.18982E-04
        -0.94779E-05
        -0.31775E-05
        -0.22477E-05
        -0.37866E-04
        -0.22263E-05
        -0.15288E-06
        -0.51016E-06
        -0.11963E-05
        -0.37137E-04
        -0.17205E-04
        -0.11729E-05
        -0.72777E-05
        -0.54675E-05
        -0.11625E-05
        -0.11484E-04
        -0.41684E-04
        -0.24093E-03
        -0.18806E-03
        -0.14521E-03
        -0.78202E-04
        -0.46617E-05
        -0.20269E-04
        -0.31585E-04
        -0.52195E-04
        -0.21764E-03
        -0.73733E-04
        -0.32102E-04
        -0.50490E-04
        -0.70360E-04
        -0.75955E-04
        -0.39077E-06
        -0.11769E-03
        -0.24225E-03
        -0.13129E-02
        -0.21904E-02
        -0.36459E-02
        -0.52431E-02
        -0.50280E-02
        -0.38373E-02
        -0.35261E-02
        -0.34504E-02
        -0.13612E-02
        -0.14851E-03
        -0.23500E-04
        -0.17471E-04
        -0.35222E-05
        -0.26729E-03
        -0.10723E-02
        -0.20741E-02
        -0.35076E-02
        -0.43116E-02
        -0.33246E-02
        -0.29721E-02
        -0.29506E-02
        -0.14588E-02
        -0.39275E-03
        -0.35166E-03
        -0.10343E-03
        -0.41000E-04
        -0.35198E-04
        -0.20908E-05
        -0.59193E-04
        -0.12039E-04
        -0.75983E-05
        -0.93168E-04
        -0.40107E-04
        -0.83735E-04
        -0.22840E-04
        -0.42548E-03
        -0.14974E-03
        -0.30859E-05
        -0.41752E-03
        -0.14810E-04
        -0.14621E-05
        -0.12238E-05
        -0.25315E-04
        -0.89693E-06
        -0.19079E-04
        -0.94920E-05
        -0.31859E-05
        -0.22414E-05
        -0.38178E-04
        -0.22110E-05
        -0.15718E-06
        -0.51985E-06
        -0.11702E-05
        -0.37259E-04
        -0.17205E-04
        -0.11618E-05
        -0.73096E-05
        -0.54852E-05
        -0.11399E-05
        -0.11499E-04
        -0.41680E-04
        -0.24168E-03
        -0.18890E-03
        -0.14559E-03
        -0.78368E-04
        -0.46181E-05
        -0.20293E-04
        -0.31669E-04
        -0.52246E-04
        -0.21770E-03
        -0.73765E-04
        -0.32068E-04
        -0.50357E-04
        -0.70168E-04
        -0.75892E-04
        -0.37848E-06
        -0.11747E-03
        -0.24228E-03
        -0.13134E-02
        -0.21904E-02
        -0.36450E-02
        -0.52396E-02
        -0.50238E-02
        -0.38350E-02
        -0.35247E-02
        -0.34484E-02
        -0.13608E-02
        -0.14871E-03
        -0.23505E-04
        -0.17540E-04
        -0.34627E-05
        -0.26763E-03
        -0.10737E-02
        -0.20754E-02
        -0.35075E-02
        -0.43111E-02
        -0.33242E-02
        -0.29719E-02
        -0.29491E-02
        -0.14567E-02
        -0.39189E-03
        -0.35074E-03
        -0.10355E-03
        -0.41009E-04
        -0.35232E-04
        -0.21214E-05
        -0.59207E-04
        -0.12058E-04
        -0.76151E-05
        -0.93463E-04
        -0.40253E-04
        -0.84318E-04
        -0.22871E-04
        -0.42541E-03
        -0.14982E-03
        -0.30870E-05
        -0.41858E-03
        -0.14813E-04
        -0.14896E-05
        -0.12201E-05
        -0.25354E-04
        -0.88508E-06
        -0.19177E-04
        -0.95056E-05
        -0.31956E-05
        -0.22345E-05
        -0.38484E-04
        -0.21947E-05
        -0.16187E-06
        -0.53067E-06
        -0.11426E-05
        -0.37374E-04
        -0.17203E-04
        -0.11496E-05
        -0.73422E-05
        -0.55038E-05
        -0.11175E-05
        -0.11516E-04
        -0.41680E-04
        -0.24244E-03
        -0.18975E-03
        -0.14599E-03
        -0.78539E-04
        -0.45723E-05
        -0.20315E-04
        -0.31761E-04
        -0.52311E-04
        -0.21777E-03
        -0.73804E-04
        -0.32039E-04
        -0.50232E-04
        -0.69982E-04
        -0.75828E-04
        -0.36639E-06
        -0.11725E-03
        -0.24231E-03
        -0.13139E-02
        -0.21904E-02
        -0.36441E-02
        -0.52360E-02
        -0.50195E-02
        -0.38327E-02
        -0.35232E-02
        -0.34465E-02
        -0.13603E-02
        -0.14893E-03
        -0.23511E-04
        -0.17609E-04
        -0.34038E-05
        -0.26798E-03
        -0.10750E-02
        -0.20766E-02
        -0.35074E-02
        -0.43105E-02
        -0.33237E-02
        -0.29717E-02
        -0.29476E-02
        -0.14546E-02
        -0.39103E-03
        -0.34981E-03
        -0.10366E-03
        -0.41007E-04
        -0.35267E-04
        -0.21529E-05
        -0.59222E-04
        -0.12078E-04
        -0.76282E-05
        -0.93731E-04
        -0.40401E-04
        -0.84877E-04
        -0.22908E-04
        -0.42537E-03
        -0.14992E-03
        -0.30918E-05
        -0.41966E-03
        -0.14818E-04
        -0.15180E-05
        -0.12163E-05
        -0.25393E-04
        -0.87330E-06
        -0.19276E-04
        -0.95196E-05
        -0.32053E-05
        -0.22277E-05
        -0.38784E-04
        -0.21783E-05
        -0.16748E-06
        -0.54229E-06
        -0.11148E-05
        -0.37487E-04
        -0.17200E-04
        -0.11366E-05
        -0.73760E-05
        -0.55233E-05
        -0.10952E-05
        -0.11534E-04
        -0.41682E-04
        -0.24321E-03
        -0.19062E-03
        -0.14638E-03
        -0.78716E-04
        -0.45256E-05
        -0.20335E-04
        -0.31853E-04
        -0.52379E-04
        -0.21786E-03
        -0.73864E-04
        -0.32029E-04
        -0.50127E-04
        -0.69803E-04
        -0.75763E-04
        -0.35435E-06
        -0.11703E-03
        -0.24233E-03
        -0.13143E-02
        -0.21905E-02
        -0.36432E-02
        -0.52324E-02
        -0.50152E-02
        -0.38303E-02
        -0.35217E-02
        -0.34446E-02
        -0.13599E-02
        -0.14915E-03
        -0.23518E-04
        -0.17679E-04
        -0.33453E-05
        -0.26833E-03
        -0.10764E-02
        -0.20779E-02
        -0.35072E-02
        -0.43100E-02
        -0.33234E-02
        -0.29716E-02
        -0.29460E-02
        -0.14525E-02
        -0.39017E-03
        -0.34888E-03
        -0.10377E-03
        -0.41002E-04
        -0.35301E-04
        -0.21852E-05
        -0.59238E-04
        -0.12098E-04
        -0.76384E-05
        -0.93985E-04
        -0.40551E-04
        -0.85426E-04
        -0.22949E-04
        -0.42532E-03
        -0.15002E-03
        -0.30973E-05
        -0.42073E-03
        -0.14824E-04
        -0.15471E-05
        -0.12124E-05
        -0.25432E-04
        -0.86161E-06
        -0.19375E-04
        -0.95338E-05
        -0.32148E-05
        -0.22212E-05
        -0.39082E-04
        -0.21621E-05
        -0.17342E-06
        -0.55434E-06
        -0.10872E-05
        -0.37599E-04
        -0.17197E-04
        -0.11231E-05
        -0.74103E-05
        -0.55437E-05
        -0.10729E-05
        -0.11553E-04
        -0.41688E-04
        -0.24399E-03
        -0.19148E-03
        -0.14679E-03
        -0.78893E-04
        -0.44791E-05
        -0.20354E-04
        -0.31946E-04
        -0.52451E-04
        -0.21795E-03
        -0.73932E-04
        -0.32024E-04
        -0.50031E-04
        -0.69628E-04
        -0.75702E-04
        -0.34252E-06
        -0.11681E-03
        -0.24236E-03
        -0.13148E-02
        -0.21905E-02
        -0.36423E-02
        -0.52289E-02
        -0.50109E-02
        -0.38280E-02
        -0.35203E-02
        -0.34426E-02
        -0.13595E-02
        -0.14937E-03
        -0.23524E-04
        -0.17750E-04
        -0.32872E-05
        -0.26868E-03
        -0.10778E-02
        -0.20792E-02
        -0.35070E-02
        -0.43094E-02
        -0.33231E-02
        -0.29714E-02
        -0.29445E-02
        -0.14504E-02
        -0.38932E-03
        -0.34796E-03
        -0.10388E-03
        -0.40996E-04
        -0.35335E-04
        -0.22177E-05
        -0.59253E-04
        -0.12117E-04
        -0.76489E-05
        -0.94240E-04
        -0.40702E-04
        -0.85974E-04
        -0.22988E-04
        -0.42528E-03
        -0.15012E-03
        -0.31037E-05
        -0.42182E-03
        -0.14830E-04
        -0.15765E-05
        -0.12086E-05
        -0.25472E-04
        -0.84989E-06
        -0.19474E-04
        -0.95481E-05
        -0.32245E-05
        -0.22147E-05
        -0.39380E-04
        -0.21461E-05
        -0.17961E-06
        -0.56640E-06
        -0.10601E-05
        -0.37712E-04
        -0.17193E-04
        -0.11098E-05
        -0.74447E-05
        -0.55637E-05
        -0.10507E-05
        -0.11570E-04
        -0.41693E-04
        -0.24477E-03
        -0.19235E-03
        -0.14718E-03
        -0.79071E-04
        -0.44332E-05
        -0.20374E-04
        -0.32040E-04
        -0.52524E-04
        -0.21806E-03
        -0.73997E-04
        -0.32020E-04
        -0.49937E-04
        -0.69455E-04
        -0.75643E-04
        -0.33083E-06
        -0.11659E-03
        -0.24238E-03
        -0.13153E-02
        -0.21905E-02
        -0.36415E-02
        -0.52253E-02
        -0.50066E-02
        -0.38257E-02
        -0.35188E-02
        -0.34406E-02
        -0.13590E-02
        -0.14959E-03
        -0.23532E-04
        -0.17821E-04
        -0.32298E-05
        -0.26903E-03
        -0.10791E-02
        -0.20804E-02
        -0.35068E-02
        -0.43088E-02
        -0.33228E-02
        -0.29713E-02
        -0.29429E-02
        -0.14484E-02
        -0.38846E-03
        -0.34704E-03
        -0.10398E-03
        -0.40990E-04
        -0.35368E-04
        -0.22502E-05
        -0.59267E-04
        -0.12136E-04
        -0.76592E-05
        -0.94495E-04
        -0.40853E-04
        -0.86523E-04
        -0.23030E-04
        -0.42524E-03
        -0.15022E-03
        -0.31091E-05
        -0.42290E-03
        -0.14835E-04
        -0.16064E-05
        -0.12047E-05
        -0.25510E-04
        -0.83819E-06
        -0.19574E-04
        -0.95620E-05
        -0.32336E-05
        -0.22082E-05
        -0.39680E-04
        -0.21301E-05
        -0.18574E-06
        -0.57846E-06
        -0.10334E-05
        -0.37824E-04
        -0.17189E-04
        -0.10965E-05
        -0.74788E-05
        -0.55840E-05
        -0.10288E-05
        -0.11589E-04
        -0.41699E-04
        -0.24555E-03
        -0.19322E-03
        -0.14759E-03
        -0.79248E-04
        -0.43876E-05
        -0.20394E-04
        -0.32133E-04
        -0.52595E-04
        -0.21815E-03
        -0.74065E-04
        -0.32018E-04
        -0.49840E-04
        -0.69279E-04
        -0.75579E-04
        -0.31939E-06
        -0.11637E-03
        -0.24241E-03
        -0.13157E-02
        -0.21906E-02
        -0.36406E-02
        -0.52217E-02
        -0.50023E-02
        -0.38233E-02
        -0.35174E-02
        -0.34387E-02
        -0.13586E-02
        -0.14981E-03
        -0.23540E-04
        -0.17893E-04
        -0.31730E-05
        -0.26938E-03
        -0.10805E-02
        -0.20817E-02
        -0.35066E-02
        -0.43083E-02
        -0.33225E-02
        -0.29712E-02
        -0.29414E-02
        -0.14463E-02
        -0.38762E-03
        -0.34611E-03
        -0.10408E-03
        -0.40983E-04
        -0.35402E-04
        -0.22830E-05
        -0.59282E-04
        -0.12155E-04
        -0.76706E-05
        -0.94747E-04
        -0.41005E-04
        -0.87073E-04
        -0.23071E-04
        -0.42519E-03
        -0.15032E-03
        -0.31151E-05
        -0.42399E-03
        -0.14841E-04
        -0.16366E-05
        -0.12009E-05
        -0.25549E-04
        -0.82650E-06
        -0.19673E-04
        -0.95755E-05
        -0.32433E-05
        -0.22019E-05
        -0.39979E-04
        -0.21142E-05
        -0.19208E-06
        -0.59046E-06
        -0.10071E-05
        -0.37937E-04
        -0.17185E-04
        -0.10834E-05
        -0.75132E-05
        -0.56042E-05
        -0.10071E-05
        -0.11608E-04
        -0.41706E-04
        -0.24634E-03
        -0.19410E-03
        -0.14798E-03
        -0.79425E-04
        -0.43422E-05
        -0.20414E-04
        -0.32225E-04
        -0.52667E-04
        -0.21825E-03
        -0.74135E-04
        -0.32013E-04
        -0.49746E-04
        -0.69106E-04
        -0.75520E-04
        -0.30813E-06
        -0.11614E-03
        -0.24243E-03
        -0.13162E-02
        -0.21906E-02
        -0.36397E-02
        -0.52181E-02
        -0.49980E-02
        -0.38210E-02
        -0.35159E-02
        -0.34367E-02
        -0.13581E-02
        -0.15002E-03
        -0.23547E-04
        -0.17964E-04
        -0.31166E-05
        -0.26973E-03
        -0.10819E-02
        -0.20829E-02
        -0.35064E-02
        -0.43077E-02
        -0.33221E-02
        -0.29710E-02
        -0.29398E-02
        -0.14442E-02
        -0.38677E-03
        -0.34519E-03
        -0.10419E-03
        -0.40977E-04
        -0.35435E-04
        -0.23163E-05
        -0.59297E-04
        -0.12174E-04
        -0.76808E-05
        -0.95001E-04
        -0.41157E-04
        -0.87623E-04
        -0.23112E-04
        -0.42515E-03
        -0.15042E-03
        -0.31212E-05
        -0.42507E-03
        -0.14847E-04
        -0.16671E-05
        -0.11969E-05
        -0.25588E-04
        -0.81499E-06
        -0.19773E-04
        -0.95890E-05
        -0.32529E-05
        -0.21956E-05
        -0.40280E-04
        -0.20985E-05
        -0.19838E-06
        -0.60252E-06
        -0.98104E-06
        -0.38049E-04
        -0.17181E-04
        -0.10704E-05
        -0.75475E-05
        -0.56248E-05
        -0.98543E-06
        -0.11626E-04
        -0.41711E-04
        -0.24713E-03
        -0.19498E-03
        -0.14838E-03
        -0.79602E-04
        -0.42976E-05
        -0.20434E-04
        -0.32318E-04
        -0.52740E-04
        -0.21835E-03
        -0.74200E-04
        -0.32012E-04
        -0.49651E-04
        -0.68933E-04
        -0.75459E-04
        -0.29707E-06
        -0.11592E-03
        -0.24245E-03
        -0.13166E-02
        -0.21906E-02
        -0.36388E-02
        -0.52145E-02
        -0.49937E-02
        -0.38187E-02
        -0.35145E-02
        -0.34347E-02
        -0.13577E-02
        -0.15024E-03
        -0.23554E-04
        -0.18035E-04
        -0.30604E-05
        -0.27008E-03
        -0.10832E-02
        -0.20841E-02
        -0.35062E-02
        -0.43071E-02
        -0.33218E-02
        -0.29709E-02
        -0.29382E-02
        -0.14421E-02
        -0.38593E-03
        -0.34427E-03
        -0.10429E-03
        -0.40970E-04
        -0.35469E-04
        -0.23499E-05
        -0.59312E-04
        -0.12194E-04
        -0.76912E-05
        -0.95254E-04
        -0.41310E-04
        -0.88174E-04
        -0.23154E-04
        -0.42511E-03
        -0.15052E-03
        -0.31264E-05
        -0.42617E-03
        -0.14853E-04
        -0.16980E-05
        -0.11930E-05
        -0.25627E-04
        -0.80362E-06
        -0.19873E-04
        -0.96027E-05
        -0.32624E-05
        -0.21894E-05
        -0.40581E-04
        -0.20827E-05
        -0.20498E-06
        -0.61457E-06
        -0.95544E-06
        -0.38161E-04
        -0.17177E-04
        -0.10572E-05
        -0.75817E-05
        -0.56451E-05
        -0.96403E-06
        -0.11646E-04
        -0.41717E-04
        -0.24792E-03
        -0.19586E-03
        -0.14878E-03
        -0.79781E-04
        -0.42526E-05
        -0.20453E-04
        -0.32412E-04
        -0.52814E-04
        -0.21844E-03
        -0.74270E-04
        -0.32008E-04
        -0.49558E-04
        -0.68760E-04
        -0.75395E-04
        -0.28625E-06
        -0.11570E-03
        -0.24248E-03
        -0.13170E-02
        -0.21907E-02
        -0.36379E-02
        -0.52110E-02
        -0.49894E-02
        -0.38163E-02
        -0.35130E-02
        -0.34327E-02
        -0.13572E-02
        -0.15046E-03
        -0.23561E-04
        -0.18107E-04
        -0.30048E-05
        -0.27043E-03
        -0.10846E-02
        -0.20854E-02
        -0.35060E-02
        -0.43066E-02
        -0.33215E-02
        -0.29708E-02
        -0.29367E-02
        -0.14400E-02
        -0.38510E-03
        -0.34336E-03
        -0.10440E-03
        -0.40965E-04
        -0.35503E-04
        -0.23837E-05
        -0.59328E-04
        -0.12213E-04
        -0.77029E-05
        -0.95506E-04
        -0.41462E-04
        -0.88726E-04
        -0.23195E-04
        -0.42507E-03
        -0.15062E-03
        -0.31324E-05
        -0.42726E-03
        -0.14858E-04
        -0.17292E-05
        -0.11891E-05
        -0.25666E-04
        -0.79231E-06
        -0.19974E-04
        -0.96163E-05
        -0.32720E-05
        -0.21832E-05
        -0.40883E-04
        -0.20669E-05
        -0.21150E-06
        -0.62659E-06
        -0.93028E-06
        -0.38273E-04
        -0.17172E-04
        -0.10443E-05
        -0.76162E-05
        -0.56657E-05
        -0.94276E-06
        -0.11664E-04
        -0.41721E-04
        -0.24872E-03
        -0.19674E-03
        -0.14918E-03
        -0.79959E-04
        -0.42080E-05
        -0.20473E-04
        -0.32505E-04
        -0.52886E-04
        -0.21854E-03
        -0.74340E-04
        -0.32004E-04
        -0.49462E-04
        -0.68587E-04
        -0.75336E-04
        -0.27570E-06
        -0.11548E-03
        -0.24250E-03
        -0.13175E-02
        -0.21907E-02
        -0.36371E-02
        -0.52074E-02
        -0.49850E-02
        -0.38140E-02
        -0.35116E-02
        -0.34306E-02
        -0.13568E-02
        -0.15067E-03
        -0.23568E-04
        -0.18179E-04
        -0.29501E-05
        -0.27078E-03
        -0.10860E-02
        -0.20866E-02
        -0.35059E-02
        -0.43060E-02
        -0.33212E-02
        -0.29706E-02
        -0.29351E-02
        -0.14380E-02
        -0.38426E-03
        -0.34244E-03
        -0.10450E-03
        -0.40959E-04
        -0.35537E-04
        -0.24177E-05
        -0.59342E-04
        -0.12232E-04
        -0.77134E-05
        -0.95759E-04
        -0.41616E-04
        -0.89279E-04
        -0.23236E-04
        -0.42503E-03
        -0.15072E-03
        -0.31375E-05
        -0.42836E-03
        -0.14864E-04
        -0.17609E-05
        -0.11853E-05
        -0.25705E-04
        -0.78100E-06
        -0.20074E-04
        -0.96296E-05
        -0.32813E-05
        -0.21771E-05
        -0.41187E-04
        -0.20512E-05
        -0.21824E-06
        -0.63850E-06
        -0.90555E-06
        -0.38386E-04
        -0.17168E-04
        -0.10314E-05
        -0.76507E-05
        -0.56863E-05
        -0.92175E-06
        -0.11683E-04
        -0.41726E-04
        -0.24952E-03
        -0.19763E-03
        -0.14958E-03
        -0.80137E-04
        -0.41637E-05
        -0.20493E-04
        -0.32598E-04
        -0.52959E-04
        -0.21865E-03
        -0.74405E-04
        -0.32003E-04
        -0.49367E-04
        -0.68413E-04
        -0.75276E-04
        -0.26527E-06
        -0.11526E-03
        -0.24252E-03
        -0.13179E-02
        -0.21907E-02
        -0.36362E-02
        -0.52038E-02
        -0.49807E-02
        -0.38116E-02
        -0.35101E-02
        -0.34286E-02
        -0.13563E-02
        -0.15089E-03
        -0.23576E-04
        -0.18251E-04
        -0.28956E-05
        -0.27113E-03
        -0.10874E-02
        -0.20879E-02
        -0.35057E-02
        -0.43055E-02
        -0.33209E-02
        -0.29705E-02
        -0.29335E-02
        -0.14359E-02
        -0.38343E-03
        -0.34152E-03
        -0.10460E-03
        -0.40951E-04
        -0.35570E-04
        -0.24519E-05
        -0.59357E-04
        -0.12251E-04
        -0.77242E-05
        -0.96011E-04
        -0.41771E-04
        -0.89833E-04
        -0.23278E-04
        -0.42499E-03
        -0.15083E-03
        -0.31434E-05
        -0.42944E-03
        -0.14870E-04
        -0.17931E-05
        -0.11814E-05
        -0.25744E-04
        -0.76981E-06
        -0.20175E-04
        -0.96425E-05
        -0.32908E-05
        -0.21711E-05
        -0.41491E-04
        -0.20356E-05
        -0.22490E-06
        -0.65038E-06
        -0.88124E-06
        -0.38498E-04
        -0.17164E-04
        -0.10186E-05
        -0.76851E-05
        -0.57072E-05
        -0.90079E-06
        -0.11702E-04
        -0.41732E-04
        -0.25032E-03
        -0.19851E-03
        -0.14997E-03
        -0.80315E-04
        -0.41197E-05
        -0.20514E-04
        -0.32690E-04
        -0.53034E-04
        -0.21874E-03
        -0.74475E-04
        -0.31999E-04
        -0.49274E-04
        -0.68241E-04
        -0.75214E-04
        -0.25504E-06
        -0.11504E-03
        -0.24254E-03
        -0.13184E-02
        -0.21908E-02
        -0.36353E-02
        -0.52002E-02
        -0.49763E-02
        -0.38092E-02
        -0.35087E-02
        -0.34266E-02
        -0.13559E-02
        -0.15111E-03
        -0.23582E-04
        -0.18322E-04
        -0.28417E-05
        -0.27147E-03
        -0.10888E-02
        -0.20891E-02
        -0.35055E-02
        -0.43049E-02
        -0.33206E-02
        -0.29704E-02
        -0.29319E-02
        -0.14338E-02
        -0.38261E-03
        -0.34061E-03
        -0.10471E-03
        -0.40945E-04
        -0.35604E-04
        -0.24864E-05
        -0.59373E-04
        -0.12271E-04
        -0.77355E-05
        -0.96263E-04
        -0.41926E-04
        -0.90388E-04
        -0.23320E-04
        -0.42494E-03
        -0.15093E-03
        -0.31483E-05
        -0.43055E-03
        -0.14876E-04
        -0.18257E-05
        -0.11774E-05
        -0.25783E-04
        -0.75883E-06
        -0.20276E-04
        -0.96549E-05
        -0.33003E-05
        -0.21650E-05
        -0.41796E-04
        -0.20199E-05
        -0.23185E-06
        -0.66224E-06
        -0.85722E-06
        -0.38608E-04
        -0.17160E-04
        -0.10059E-05
        -0.77195E-05
        -0.57279E-05
        -0.88005E-06
        -0.11720E-04
        -0.41736E-04
        -0.25113E-03
        -0.19940E-03
        -0.15036E-03
        -0.80493E-04
        -0.40764E-05
        -0.20534E-04
        -0.32784E-04
        -0.53107E-04
        -0.21885E-03
        -0.74545E-04
        -0.31998E-04
        -0.49180E-04
        -0.68068E-04
        -0.75153E-04
        -0.24510E-06
        -0.11481E-03
        -0.24256E-03
        -0.13188E-02
        -0.21908E-02
        -0.36344E-02
        -0.51966E-02
        -0.49719E-02
        -0.38069E-02
        -0.35073E-02
        -0.34245E-02
        -0.13555E-02
        -0.15133E-03
        -0.23587E-04
        -0.18393E-04
        -0.27885E-05
        -0.27182E-03
        -0.10901E-02
        -0.20904E-02
        -0.35053E-02
        -0.43043E-02
        -0.33203E-02
        -0.29702E-02
        -0.29303E-02
        -0.14318E-02
        -0.38178E-03
        -0.33969E-03
        -0.10481E-03
        -0.40939E-04
        -0.35638E-04
        -0.25213E-05
        -0.59388E-04
        -0.12290E-04
        -0.77463E-05
        -0.96512E-04
        -0.42083E-04
        -0.90944E-04
        -0.23361E-04
        -0.42490E-03
        -0.15102E-03
        -0.31539E-05
        -0.43164E-03
        -0.14881E-04
        -0.18589E-05
        -0.11734E-05
        -0.25822E-04
        -0.74843E-06
        -0.20377E-04
        -0.96670E-05
        -0.33100E-05
        -0.21589E-05
        -0.42103E-04
        -0.20045E-05
        -0.23884E-06
        -0.67411E-06
        -0.83361E-06
        -0.38712E-04
        -0.17155E-04
        -0.99305E-06
        -0.77538E-05
        -0.57489E-05
        -0.85955E-06
        -0.11740E-04
        -0.41742E-04
        -0.25194E-03
        -0.20029E-03
        -0.15073E-03
        -0.80668E-04
        -0.40327E-05
        -0.20555E-04
        -0.32877E-04
        -0.53181E-04
        -0.21895E-03
        -0.74611E-04
        -0.31995E-04
        -0.49085E-04
        -0.67896E-04
        -0.75095E-04
        -0.23534E-06
        -0.11459E-03
        -0.24258E-03
        -0.13192E-02
        -0.21908E-02
        -0.36335E-02
        -0.51930E-02
        -0.49675E-02
        -0.38045E-02
        -0.35058E-02
        -0.34223E-02
        -0.13551E-02
        -0.15156E-03
        -0.23589E-04
        -0.18464E-04
        -0.27359E-05
        -0.27217E-03
        -0.10915E-02
        -0.20916E-02
        -0.35051E-02
        -0.43038E-02
        -0.33200E-02
        -0.29701E-02
        -0.29287E-02
        -0.14297E-02
        -0.38097E-03
        -0.33878E-03
        -0.10491E-03
        -0.40933E-04
        -0.35671E-04
        -0.25564E-05
        -0.59402E-04
        -0.12308E-04
        -0.77571E-05
        -0.96761E-04
        -0.42242E-04
        -0.91501E-04
        -0.23402E-04
        -0.42486E-03
        -0.15113E-03
        -0.31595E-05
        -0.43274E-03
        -0.14887E-04
        -0.18930E-05
        -0.11694E-05
        -0.25861E-04
        -0.73853E-06
        -0.20479E-04
        -0.96788E-05
        -0.33195E-05
        -0.21530E-05
        -0.42411E-04
        -0.19890E-05
        -0.24624E-06
        -0.68597E-06
        -0.81040E-06
        -0.38809E-04
        -0.17151E-04
        -0.98047E-06
        -0.77882E-05
        -0.57697E-05
        -0.83913E-06
        -0.11758E-04
        -0.41747E-04
        -0.25277E-03
        -0.20117E-03
        -0.15110E-03
        -0.80840E-04
        -0.39894E-05
        -0.20578E-04
        -0.32970E-04
        -0.53256E-04
        -0.21905E-03
        -0.74681E-04
        -0.31991E-04
        -0.48992E-04
        -0.67722E-04
        -0.75032E-04
        -0.22571E-06
        -0.11437E-03
        -0.24259E-03
        -0.13196E-02
        -0.21909E-02
        -0.36327E-02
        -0.51894E-02
        -0.49632E-02
        -0.38022E-02
        -0.35043E-02
        -0.34200E-02
        -0.13547E-02
        -0.15178E-03
        -0.23588E-04
        -0.18536E-04
        -0.26834E-05
        -0.27251E-03
        -0.10929E-02
        -0.20929E-02
        -0.35049E-02
        -0.43032E-02
        -0.33197E-02
        -0.29699E-02
        -0.29271E-02
        -0.14276E-02
        -0.38016E-03
        -0.33787E-03
        -0.10501E-03
        -0.40926E-04
        -0.35707E-04
        -0.25916E-05
        -0.59420E-04
        -0.12328E-04
        -0.77690E-05
        -0.97010E-04
        -0.42402E-04
        -0.92060E-04
        -0.23444E-04
        -0.42482E-03
        -0.15123E-03
        -0.31643E-05
        -0.43383E-03
        -0.14893E-04
        -0.19276E-05
        -0.11655E-05
        -0.25900E-04
        -0.72897E-06
        -0.20581E-04
        -0.96906E-05
        -0.33284E-05
        -0.21475E-05
        -0.42720E-04
        -0.19740E-05
        -0.25355E-06
        -0.69742E-06
        -0.78780E-06
        -0.38905E-04
        -0.17147E-04
        -0.96822E-06
        -0.78227E-05
        -0.57910E-05
        -0.81915E-06
        -0.11776E-04
        -0.41750E-04
        -0.25360E-03
        -0.20205E-03
        -0.15144E-03
        -0.81009E-04
        -0.39471E-05
        -0.20602E-04
        -0.33062E-04
        -0.53328E-04
        -0.21915E-03
        -0.74749E-04
        -0.31989E-04
        -0.48899E-04
        -0.67551E-04
        -0.74975E-04
        -0.21634E-06
        -0.11414E-03
        -0.24262E-03
        -0.13201E-02
        -0.21909E-02
        -0.36318E-02
        -0.51858E-02
        -0.49588E-02
        -0.37999E-02
        -0.35028E-02
        -0.34177E-02
        -0.13544E-02
        -0.15200E-03
        -0.23583E-04
        -0.18607E-04
        -0.26315E-05
        -0.27285E-03
        -0.10943E-02
        -0.20941E-02
        -0.35048E-02
        -0.43026E-02
        -0.33194E-02
        -0.29698E-02
        -0.29255E-02
        -0.14256E-02
        -0.37935E-03
        -0.33696E-03
        -0.10607E-03
        -0.41307E-04
        -0.36080E-04
        -0.26494E-05
        -0.59988E-04
        -0.12458E-04
        -0.78547E-05
        -0.98131E-04
        -0.42935E-04
        -0.93424E-04
        -0.23701E-04
        -0.42870E-03
        -0.15269E-03
        -0.31987E-05
        -0.43900E-03
        -0.15035E-04
        -0.19782E-05
        -0.11720E-05
        -0.26174E-04
        -0.72712E-06
        -0.20860E-04
        -0.97890E-05
        -0.33613E-05
        -0.21643E-05
        -0.43411E-04
        -0.19818E-05
        -0.26276E-06
        -0.71281E-06
        -0.77693E-06
        -0.39370E-04
        -0.17304E-04
        -0.96838E-06
        -0.79265E-05
        -0.58644E-05
        -0.80875E-06
        -0.11892E-04
        -0.42114E-04
        -0.25676E-03
        -0.20479E-03
        -0.15320E-03
        -0.81919E-04
        -0.39514E-05
        -0.20823E-04
        -0.33411E-04
        -0.53837E-04
        -0.22114E-03
        -0.75447E-04
        -0.32250E-04
        -0.49236E-04
        -0.67991E-04
        -0.75595E-04
        -0.20917E-06
        -0.11505E-03
        -0.24513E-03
        -0.13337E-02
        -0.22127E-02
        -0.36678E-02
        -0.52368E-02
        -0.50075E-02
        -0.38383E-02
        -0.35389E-02
        -0.34527E-02
        -0.13685E-02
        -0.15370E-03
        -0.23792E-04
        -0.18845E-04
        -0.26066E-05
        -0.27562E-03
        -0.11054E-02
        -0.21154E-02
        -0.35403E-02
        -0.43459E-02
        -0.33512E-02
        -0.29978E-02
        -0.29523E-02
        -0.14375E-02
        -0.38224E-03
        -0.33934E-03
        -0.23820E-03
        -0.93568E-04
        -0.80807E-04
        -0.60309E-05
        -0.12534E-03
        -0.26533E-04
        -0.17742E-04
        -0.21881E-03
        -0.96098E-04
        -0.20752E-03
        -0.51779E-04
        -0.86540E-03
        -0.31720E-03
        -0.69341E-05
        -0.89711E-03
        -0.33820E-04
        -0.44818E-05
        -0.26305E-05
        -0.57395E-04
        -0.15946E-05
        -0.43369E-04
        -0.20831E-04
        -0.69922E-05
        -0.48142E-05
        -0.98377E-04
        -0.44778E-05
        -0.58874E-06
        -0.16184E-05
        -0.17469E-05
        -0.88924E-04
        -0.38933E-04
        -0.21650E-05
        -0.17952E-04
        -0.13250E-04
        -0.15854E-05
        -0.25264E-04
        -0.89476E-04
        -0.54795E-03
        -0.44958E-03
        -0.33856E-03
        -0.17615E-03
        -0.85812E-05
        -0.45363E-04
        -0.70587E-04
        -0.11301E-03
        -0.43872E-03
        -0.15738E-03
        -0.68842E-04
        -0.10613E-03
        -0.14531E-03
        -0.15417E-03
        -0.42881E-06
        -0.18341E-03
        -0.39019E-03
        -0.21246E-02
        -0.35420E-02
        -0.58671E-02
        -0.84282E-02
        -0.82428E-02
        -0.64249E-02
        -0.59030E-02
        -0.56948E-02
        -0.22611E-02
        -0.25271E-03
        -0.39836E-04
        -0.31816E-04
        -0.42247E-05
        -0.44251E-03
        -0.17647E-02
        -0.33454E-02
        -0.55991E-02
        -0.68901E-02
        -0.54141E-02
        -0.48829E-02
        -0.47771E-02
        -0.23407E-02
        -0.61816E-03
        -0.54460E-03
  
SCALARS                      strain_zz  double 1
LOOKUP_TABLE default
         0.85237E+01
         0.84052E+01
         0.84801E+01
         0.86152E+01
        -0.29834E-08
        -0.33454E-08
        -0.32034E-08
        -0.29101E-08
         0.83982E+01
         0.84399E+01
        -0.30084E-08
        -0.29114E-08
         0.82332E+01
         0.82269E+01
        -0.35746E-08
        -0.33610E-08
         0.85954E+01
         0.82359E+01
        -0.26412E-08
        -0.29296E-08
         0.81039E+01
         0.80003E+01
         0.81634E+01
        -0.35428E-08
        -0.30940E-08
        -0.31949E-08
         0.80051E+01
         0.78545E+01
        -0.33988E-08
        -0.28663E-08
         0.85889E+01
         0.84327E+01
         0.87403E+01
        -0.29004E-08
        -0.26964E-08
        -0.26216E-08
         0.84982E+01
         0.82993E+01
        -0.30685E-08
        -0.28000E-08
         0.84189E+01
         0.82648E+01
        -0.26521E-08
        -0.23478E-08
         0.85488E+01
         0.86072E+01
        -0.29063E-08
        -0.32474E-08
         0.81426E+01
        -0.28392E-08
         0.85958E+01
        -0.33362E-08
         0.79622E+01
        -0.29983E-08
         0.79151E+01
        -0.28760E-08
         0.79151E+01
         0.80833E+01
        -0.29303E-08
        -0.28538E-08
         0.85857E+01
         0.85250E+01
        -0.29383E-08
        -0.33218E-08
         0.86232E+01
        -0.28353E-08
         0.85515E+01
        -0.30944E-08
         0.83588E+01
         0.83429E+01
        -0.29786E-08
        -0.31211E-08
         0.83013E+01
        -0.31473E-08
         0.78009E+01
        -0.24866E-08
         0.77743E+01
        -0.24136E-08
         0.77865E+01
        -0.25449E-08
         0.78566E+01
         0.79341E+01
        -0.24247E-08
        -0.25279E-08
         0.80873E+01
        -0.23544E-08
         0.85450E+01
        -0.30875E-08
         0.84721E+01
        -0.31599E-08
         0.84104E+01
         0.83821E+01
        -0.30346E-08
        -0.30700E-08
         0.84232E+01
        -0.27884E-08
         0.84514E+01
        -0.27487E-08
         0.84249E+01
        -0.29425E-08
         0.84130E+01
         0.84409E+01
        -0.28855E-08
        -0.29702E-08
         0.82601E+01
         0.83243E+01
        -0.22403E-08
        -0.21072E-08
         0.82433E+01
        -0.21392E-08
         0.83173E+01
        -0.20512E-08
         0.82420E+01
        -0.20226E-08
         0.80706E+01
        -0.19114E-08
         0.79025E+01
        -0.16980E-08
         0.78035E+01
        -0.15290E-08
         0.77936E+01
        -0.15184E-08
         0.77971E+01
        -0.16466E-08
         0.79052E+01
        -0.17305E-08
         0.81014E+01
        -0.15801E-08
         0.83187E+01
        -0.14243E-08
         0.84501E+01
        -0.14227E-08
         0.85792E+01
        -0.15902E-08
         0.86641E+01
        -0.18132E-08
         0.86589E+01
        -0.19480E-08
         0.84605E+01
        -0.21038E-08
         0.83233E+01
        -0.22539E-08
         0.82683E+01
        -0.20647E-08
         0.83408E+01
        -0.18113E-08
         0.83828E+01
        -0.18057E-08
         0.83215E+01
        -0.19757E-08
         0.83266E+01
        -0.21062E-08
         0.83729E+01
        -0.19988E-08
         0.84340E+01
        -0.19323E-08
        -0.49794E+00
        -0.49811E+00
        -0.49811E+00
        -0.49778E+00
        -0.49785E+00
        -0.49808E+00
        -0.49778E+00
        -0.49804E+00
        -0.49787E+00
        -0.49809E+00
        -0.49723E+00
        -0.49690E+00
        -0.49746E+00
        -0.49757E+00
        -0.49714E+00
        -0.49781E+00
        -0.49791E+00
        -0.49757E+00
        -0.49811E+00
        -0.49811E+00
        -0.49802E+00
        -0.49803E+00
        -0.49797E+00
        -0.49807E+00
        -0.49810E+00
        -0.49812E+00
        -0.49795E+00
        -0.49799E+00
        -0.49765E+00
        -0.49807E+00
        -0.49786E+00
        -0.49811E+00
        -0.49787E+00
        -0.49810E+00
        -0.49675E+00
        -0.49755E+00
        -0.49778E+00
        -0.49743E+00
        -0.49742E+00
        -0.49672E+00
        -0.49596E+00
        -0.49742E+00
        -0.49799E+00
        -0.49800E+00
        -0.49775E+00
        -0.49677E+00
        -0.49767E+00
        -0.49807E+00
        -0.49807E+00
        -0.49777E+00
        -0.49710E+00
        -0.49790E+00
        -0.49293E+00
        -0.49452E+00
        -0.49419E+00
        -0.49446E+00
        -0.49423E+00
        -0.49318E+00
        -0.49224E+00
        -0.49212E+00
        -0.49233E+00
        -0.49214E+00
        -0.49173E+00
        -0.49427E+00
        -0.49529E+00
        -0.49564E+00
        -0.49591E+00
        -0.49606E+00
        -0.49596E+00
        -0.49543E+00
        -0.49344E+00
        -0.49392E+00
        -0.49479E+00
        -0.49488E+00
        -0.49474E+00
        -0.49407E+00
        -0.49505E+00
        -0.49532E+00
         0.13340E-03
         0.49816E-04
         0.47982E-04
         0.37727E-04
         0.13715E-03
         0.81583E-04
         0.63153E-05
         0.10002E-03
         0.67855E-04
         0.86127E-04
         0.45311E-05
         0.43488E-03
         0.25624E-03
         0.22669E-04
         0.46449E-03
         0.66936E-04
         0.28646E-04
         0.23450E-04
         0.28120E-04
         0.10698E-04
         0.26666E-03
         0.24375E-03
         0.21537E-03
         0.11426E-04
         0.24543E-04
         0.23970E-05
         0.88939E-06
        -0.42749E-04
        -0.15059E-04
         0.34227E-04
         0.49855E-04
         0.12107E-04
         0.35812E-04
         0.40512E-04
         0.20784E-03
         0.75332E-04
         0.12922E-03
         0.30218E-03
         0.17520E-03
         0.15637E-03
         0.32951E-03
         0.26594E-03
         0.27164E-03
         0.15571E-03
         0.12406E-03
         0.23958E-03
         0.10632E-03
         0.80385E-04
         0.61560E-04
         0.87906E-04
         0.20762E-03
         0.11285E-03
         0.36920E-02
         0.39025E-02
         0.42434E-02
         0.42058E-02
         0.47965E-02
         0.55373E-02
         0.50938E-02
         0.40397E-02
         0.38306E-02
         0.43695E-02
         0.41937E-02
         0.40759E-02
         0.27797E-02
         0.25247E-02
         0.30226E-02
         0.34535E-02
         0.37232E-02
         0.44444E-02
         0.41164E-02
         0.43636E-02
         0.35404E-02
         0.31854E-02
         0.36116E-02
         0.34512E-02
         0.36682E-02
         0.36190E-02
         0.13253E-03
         0.48744E-04
         0.46946E-04
         0.36808E-04
         0.13579E-03
         0.80347E-04
         0.51940E-05
         0.99024E-04
         0.66887E-04
         0.85388E-04
         0.31919E-05
         0.43329E-03
         0.25507E-03
         0.21048E-04
         0.46392E-03
         0.65891E-04
         0.27481E-04
         0.22455E-04
         0.26876E-04
         0.93263E-05
         0.26535E-03
         0.24239E-03
         0.21393E-03
         0.10124E-04
         0.23448E-04
         0.11546E-05
        -0.35719E-06
        -0.44123E-04
        -0.16422E-04
         0.32903E-04
         0.48836E-04
         0.10924E-04
         0.34751E-04
         0.39551E-04
         0.20662E-03
         0.74059E-04
         0.12793E-03
         0.30159E-03
         0.17455E-03
         0.15535E-03
         0.32839E-03
         0.26469E-03
         0.27025E-03
         0.15434E-03
         0.12271E-03
         0.23815E-03
         0.10502E-03
         0.79138E-04
         0.60279E-04
         0.86574E-04
         0.20611E-03
         0.11138E-03
         0.36868E-02
         0.38982E-02
         0.42410E-02
         0.42037E-02
         0.47925E-02
         0.55310E-02
         0.50869E-02
         0.40349E-02
         0.38259E-02
         0.43641E-02
         0.41895E-02
         0.40737E-02
         0.27771E-02
         0.25225E-02
         0.30212E-02
         0.34529E-02
         0.37228E-02
         0.44440E-02
         0.41136E-02
         0.43606E-02
         0.35373E-02
         0.31829E-02
         0.36070E-02
         0.34444E-02
         0.36619E-02
         0.36129E-02
         0.13295E-03
         0.48978E-04
         0.47217E-04
         0.37119E-04
         0.13600E-03
         0.80597E-04
         0.55091E-05
         0.99511E-04
         0.67224E-04
         0.86017E-04
         0.34630E-05
         0.43356E-03
         0.25552E-03
         0.21084E-04
         0.46528E-03
         0.65761E-04
         0.27504E-04
         0.22682E-04
         0.26594E-04
         0.90379E-05
         0.26517E-03
         0.24227E-03
         0.21299E-03
         0.91836E-05
         0.23177E-04
         0.28313E-06
        -0.67203E-07
        -0.44329E-04
        -0.16927E-04
         0.32023E-04
         0.48924E-04
         0.10650E-04
         0.34957E-04
         0.39901E-04
         0.20717E-03
         0.74332E-04
         0.12815E-03
         0.30285E-03
         0.17564E-03
         0.15589E-03
         0.32879E-03
         0.26442E-03
         0.26954E-03
         0.15344E-03
         0.12245E-03
         0.23833E-03
         0.10526E-03
         0.79407E-04
         0.60445E-04
         0.86727E-04
         0.20627E-03
         0.11144E-03
         0.36849E-02
         0.38970E-02
         0.42417E-02
         0.42043E-02
         0.47914E-02
         0.55277E-02
         0.50833E-02
         0.40333E-02
         0.38245E-02
         0.43620E-02
         0.41884E-02
         0.40740E-02
         0.27766E-02
         0.25226E-02
         0.30222E-02
         0.34542E-02
         0.37243E-02
         0.44460E-02
         0.41138E-02
         0.43608E-02
         0.35372E-02
         0.31831E-02
         0.36053E-02
         0.34405E-02
         0.36583E-02
         0.36096E-02
         0.13297E-03
         0.48904E-04
         0.47170E-04
         0.37017E-04
         0.13577E-03
         0.80431E-04
         0.54785E-05
         0.99564E-04
         0.67052E-04
         0.86017E-04
         0.33252E-05
         0.43338E-03
         0.25562E-03
         0.20637E-04
         0.46608E-03
         0.64962E-04
         0.26859E-04
         0.22477E-04
         0.25514E-04
         0.78768E-05
         0.26421E-03
         0.24134E-03
         0.21085E-03
         0.70805E-05
         0.21804E-04
        -0.17004E-05
        -0.38538E-06
        -0.45442E-04
        -0.18624E-04
         0.29670E-04
         0.48477E-04
         0.95850E-05
         0.34741E-04
         0.39767E-04
         0.20717E-03
         0.74167E-04
         0.12799E-03
         0.30356E-03
         0.17614E-03
         0.15570E-03
         0.32838E-03
         0.26300E-03
         0.26753E-03
         0.15133E-03
         0.12135E-03
         0.23776E-03
         0.10486E-03
         0.79169E-04
         0.60107E-04
         0.86317E-04
         0.20585E-03
         0.11103E-03
         0.36819E-02
         0.38949E-02
         0.42413E-02
         0.42040E-02
         0.47896E-02
         0.55238E-02
         0.50786E-02
         0.40308E-02
         0.38222E-02
         0.43589E-02
         0.41862E-02
         0.40730E-02
         0.27750E-02
         0.25219E-02
         0.30223E-02
         0.34543E-02
         0.37245E-02
         0.44471E-02
         0.41129E-02
         0.43599E-02
         0.35361E-02
         0.31823E-02
         0.36024E-02
         0.34358E-02
         0.36540E-02
         0.36056E-02
         0.13287E-03
         0.48736E-04
         0.47055E-04
         0.36910E-04
         0.13552E-03
         0.80226E-04
         0.53903E-05
         0.99512E-04
         0.66815E-04
         0.85982E-04
         0.31791E-05
         0.43325E-03
         0.25570E-03
         0.20175E-04
         0.46699E-03
         0.64464E-04
         0.26371E-04
         0.22285E-04
         0.24815E-04
         0.70297E-05
         0.26363E-03
         0.24067E-03
         0.20956E-03
         0.57751E-05
         0.20905E-04
        -0.29730E-05
        -0.66205E-06
        -0.46246E-04
        -0.19777E-04
         0.28142E-04
         0.48011E-04
         0.88111E-05
         0.34377E-04
         0.39569E-04
         0.20717E-03
         0.73968E-04
         0.12779E-03
         0.30434E-03
         0.17672E-03
         0.15570E-03
         0.32827E-03
         0.26215E-03
         0.26626E-03
         0.15003E-03
         0.12063E-03
         0.23741E-03
         0.10451E-03
         0.78798E-04
         0.59629E-04
         0.85801E-04
         0.20534E-03
         0.11054E-03
         0.36789E-02
         0.38928E-02
         0.42410E-02
         0.42038E-02
         0.47879E-02
         0.55200E-02
         0.50742E-02
         0.40283E-02
         0.38199E-02
         0.43559E-02
         0.41843E-02
         0.40726E-02
         0.27738E-02
         0.25213E-02
         0.30227E-02
         0.34553E-02
         0.37256E-02
         0.44486E-02
         0.41123E-02
         0.43590E-02
         0.35349E-02
         0.31815E-02
         0.35994E-02
         0.34308E-02
         0.36496E-02
         0.36016E-02
         0.13238E-03
         0.48390E-04
         0.46941E-04
         0.37096E-04
         0.13558E-03
         0.80379E-04
         0.53490E-05
         0.99249E-04
         0.66423E-04
         0.85727E-04
         0.32985E-05
         0.43358E-03
         0.25603E-03
         0.19942E-04
         0.46841E-03
         0.64695E-04
         0.26332E-04
         0.22519E-04
         0.25001E-04
         0.71119E-05
         0.26391E-03
         0.24090E-03
         0.20964E-03
         0.57452E-05
         0.20710E-04
        -0.31553E-05
        -0.70605E-06
        -0.46352E-04
        -0.19643E-04
         0.28213E-04
         0.47433E-04
         0.83994E-05
         0.33810E-04
         0.39540E-04
         0.20752E-03
         0.73952E-04
         0.12771E-03
         0.30562E-03
         0.17785E-03
         0.15649E-03
         0.32908E-03
         0.26265E-03
         0.26655E-03
         0.15002E-03
         0.12055E-03
         0.23739E-03
         0.10422E-03
         0.78059E-04
         0.58670E-04
         0.85178E-04
         0.20504E-03
         0.11038E-03
         0.36768E-02
         0.38916E-02
         0.42414E-02
         0.42042E-02
         0.47867E-02
         0.55168E-02
         0.50705E-02
         0.40267E-02
         0.38186E-02
         0.43541E-02
         0.41837E-02
         0.40736E-02
         0.27741E-02
         0.25217E-02
         0.30241E-02
         0.34580E-02
         0.37285E-02
         0.44511E-02
         0.41122E-02
         0.43587E-02
         0.35341E-02
         0.31808E-02
         0.35968E-02
         0.34264E-02
         0.36458E-02
         0.35982E-02
         0.13153E-03
         0.47757E-04
         0.46609E-04
         0.37053E-04
         0.13534E-03
         0.80303E-04
         0.49348E-05
         0.98523E-04
         0.65662E-04
         0.85074E-04
         0.29897E-05
         0.43345E-03
         0.25604E-03
         0.19232E-04
         0.46932E-03
         0.64631E-04
         0.25948E-04
         0.22438E-04
         0.24910E-04
         0.68889E-05
         0.26391E-03
         0.24084E-03
         0.20958E-03
         0.55843E-05
         0.20286E-04
        -0.34814E-05
        -0.11953E-05
        -0.46770E-04
        -0.19708E-04
         0.28144E-04
         0.46583E-04
         0.77235E-05
         0.32978E-04
         0.39265E-04
         0.20749E-03
         0.73666E-04
         0.12738E-03
         0.30641E-03
         0.17854E-03
         0.15689E-03
         0.32956E-03
         0.26295E-03
         0.26667E-03
         0.14990E-03
         0.12017E-03
         0.23693E-03
         0.10352E-03
         0.76961E-04
         0.57378E-04
         0.84240E-04
         0.20444E-03
         0.10996E-03
         0.36739E-02
         0.38896E-02
         0.42412E-02
         0.42041E-02
         0.47849E-02
         0.55128E-02
         0.50660E-02
         0.40244E-02
         0.38164E-02
         0.43513E-02
         0.41822E-02
         0.40739E-02
         0.27739E-02
         0.25215E-02
         0.30249E-02
         0.34603E-02
         0.37310E-02
         0.44528E-02
         0.41110E-02
         0.43575E-02
         0.35327E-02
         0.31795E-02
         0.35934E-02
         0.34215E-02
         0.36415E-02
         0.35942E-02
         0.13138E-03
         0.47522E-04
         0.46494E-04
         0.36975E-04
         0.13510E-03
         0.80102E-04
         0.47552E-05
         0.98367E-04
         0.65549E-04
         0.85230E-04
         0.27773E-05
         0.43327E-03
         0.25605E-03
         0.18716E-04
         0.47016E-03
         0.64586E-04
         0.25849E-04
         0.22281E-04
         0.24828E-04
         0.67085E-05
         0.26386E-03
         0.24068E-03
         0.20949E-03
         0.54604E-05
         0.20340E-04
        -0.36697E-05
        -0.13855E-05
        -0.46999E-04
        -0.19864E-04
         0.28085E-04
         0.46360E-04
         0.74465E-05
         0.32668E-04
         0.39123E-04
         0.20751E-03
         0.73506E-04
         0.12717E-03
         0.30715E-03
         0.17919E-03
         0.15716E-03
         0.32982E-03
         0.26308E-03
         0.26668E-03
         0.14980E-03
         0.11996E-03
         0.23676E-03
         0.10332E-03
         0.76706E-04
         0.56979E-04
         0.83800E-04
         0.20401E-03
         0.10952E-03
         0.36708E-02
         0.38874E-02
         0.42408E-02
         0.42039E-02
         0.47830E-02
         0.55088E-02
         0.50615E-02
         0.40219E-02
         0.38141E-02
         0.43481E-02
         0.41804E-02
         0.40743E-02
         0.27735E-02
         0.25211E-02
         0.30254E-02
         0.34622E-02
         0.37331E-02
         0.44544E-02
         0.41101E-02
         0.43567E-02
         0.35318E-02
         0.31789E-02
         0.35905E-02
         0.34166E-02
         0.36371E-02
         0.35901E-02
         0.13171E-03
         0.47681E-04
         0.46649E-04
         0.37070E-04
         0.13515E-03
         0.80077E-04
         0.49852E-05
         0.98747E-04
         0.65881E-04
         0.85960E-04
         0.29527E-05
         0.43346E-03
         0.25641E-03
         0.18679E-04
         0.47148E-03
         0.64921E-04
         0.26127E-04
         0.22371E-04
         0.25085E-04
         0.68662E-05
         0.26414E-03
         0.24087E-03
         0.20974E-03
         0.56731E-05
         0.20851E-04
        -0.34743E-05
        -0.10343E-05
        -0.46763E-04
        -0.19612E-04
         0.28396E-04
         0.46619E-04
         0.75845E-05
         0.32730E-04
         0.39206E-04
         0.20793E-03
         0.73639E-04
         0.12727E-03
         0.30839E-03
         0.18027E-03
         0.15783E-03
         0.33053E-03
         0.26360E-03
         0.26702E-03
         0.15008E-03
         0.12014E-03
         0.23700E-03
         0.10353E-03
         0.76922E-04
         0.57064E-04
         0.83771E-04
         0.20394E-03
         0.10930E-03
         0.36686E-02
         0.38861E-02
         0.42410E-02
         0.42041E-02
         0.47817E-02
         0.55055E-02
         0.50577E-02
         0.40200E-02
         0.38123E-02
         0.43456E-02
         0.41794E-02
         0.40753E-02
         0.27737E-02
         0.25213E-02
         0.30266E-02
         0.34649E-02
         0.37360E-02
         0.44568E-02
         0.41099E-02
         0.43565E-02
         0.35316E-02
         0.31790E-02
         0.35883E-02
         0.34124E-02
         0.36333E-02
         0.35866E-02
         0.13181E-03
         0.47667E-04
         0.46655E-04
         0.37037E-04
         0.13502E-03
         0.79939E-04
         0.50196E-05
         0.98819E-04
         0.65905E-04
         0.86333E-04
         0.28726E-05
         0.43335E-03
         0.25661E-03
         0.18284E-04
         0.47232E-03
         0.64938E-04
         0.26097E-04
         0.22205E-04
         0.25024E-04
         0.67181E-05
         0.26416E-03
         0.24077E-03
         0.20972E-03
         0.55916E-05
         0.21094E-04
        -0.35554E-05
        -0.10715E-05
        -0.46800E-04
        -0.19602E-04
         0.28438E-04
         0.46605E-04
         0.74904E-05
         0.32534E-04
         0.39108E-04
         0.20806E-03
         0.73557E-04
         0.12720E-03
         0.30917E-03
         0.18104E-03
         0.15822E-03
         0.33092E-03
         0.26385E-03
         0.26705E-03
         0.15012E-03
         0.12012E-03
         0.23699E-03
         0.10347E-03
         0.76822E-04
         0.56842E-04
         0.83490E-04
         0.20366E-03
         0.10893E-03
         0.36658E-02
         0.38841E-02
         0.42407E-02
         0.42039E-02
         0.47801E-02
         0.55016E-02
         0.50531E-02
         0.40175E-02
         0.38102E-02
         0.43426E-02
         0.41776E-02
         0.40756E-02
         0.27733E-02
         0.25211E-02
         0.30274E-02
         0.34671E-02
         0.37385E-02
         0.44589E-02
         0.41092E-02
         0.43557E-02
         0.35306E-02
         0.31785E-02
         0.35857E-02
         0.34079E-02
         0.36291E-02
         0.35826E-02
         0.13181E-03
         0.47545E-04
         0.46606E-04
         0.37040E-04
         0.13481E-03
         0.79830E-04
         0.49853E-05
         0.98849E-04
         0.65942E-04
         0.86708E-04
         0.27808E-05
         0.43320E-03
         0.25674E-03
         0.17916E-04
         0.47316E-03
         0.64916E-04
         0.26094E-04
         0.22097E-04
         0.24941E-04
         0.65973E-05
         0.26415E-03
         0.24067E-03
         0.20966E-03
         0.54658E-05
         0.21339E-04
        -0.37036E-05
        -0.10878E-05
        -0.46867E-04
        -0.19600E-04
         0.28503E-04
         0.46549E-04
         0.73449E-05
         0.32397E-04
         0.39112E-04
         0.20810E-03
         0.73423E-04
         0.12707E-03
         0.30997E-03
         0.18181E-03
         0.15863E-03
         0.33138E-03
         0.26411E-03
         0.26709E-03
         0.15011E-03
         0.12004E-03
         0.23697E-03
         0.10341E-03
         0.76735E-04
         0.56626E-04
         0.83223E-04
         0.20339E-03
         0.10862E-03
         0.36628E-02
         0.38821E-02
         0.42404E-02
         0.42038E-02
         0.47785E-02
         0.54976E-02
         0.50484E-02
         0.40150E-02
         0.38081E-02
         0.43397E-02
         0.41761E-02
         0.40760E-02
         0.27728E-02
         0.25208E-02
         0.30282E-02
         0.34692E-02
         0.37410E-02
         0.44608E-02
         0.41084E-02
         0.43549E-02
         0.35297E-02
         0.31779E-02
         0.35830E-02
         0.34032E-02
         0.36248E-02
         0.35785E-02
         0.13205E-03
         0.47595E-04
         0.46686E-04
         0.37169E-04
         0.13481E-03
         0.79866E-04
         0.51572E-05
         0.99160E-04
         0.66182E-04
         0.87312E-04
         0.29511E-05
         0.43334E-03
         0.25701E-03
         0.17863E-04
         0.47445E-03
         0.65157E-04
         0.26263E-04
         0.22187E-04
         0.25110E-04
         0.67177E-05
         0.26440E-03
         0.24084E-03
         0.20985E-03
         0.55963E-05
         0.21750E-04
        -0.35812E-05
        -0.85034E-06
        -0.46719E-04
        -0.19323E-04
         0.28831E-04
         0.46772E-04
         0.74347E-05
         0.32486E-04
         0.39279E-04
         0.20844E-03
         0.73503E-04
         0.12710E-03
         0.31117E-03
         0.18289E-03
         0.15937E-03
         0.33210E-03
         0.26459E-03
         0.26739E-03
         0.15031E-03
         0.12016E-03
         0.23714E-03
         0.10356E-03
         0.76879E-04
         0.56647E-04
         0.83173E-04
         0.20332E-03
         0.10848E-03
         0.36605E-02
         0.38806E-02
         0.42406E-02
         0.42041E-02
         0.47768E-02
         0.54939E-02
         0.50444E-02
         0.40132E-02
         0.38064E-02
         0.43374E-02
         0.41751E-02
         0.40767E-02
         0.27729E-02
         0.25210E-02
         0.30293E-02
         0.34717E-02
         0.37437E-02
         0.44630E-02
         0.41080E-02
         0.43546E-02
         0.35294E-02
         0.31779E-02
         0.35807E-02
         0.33989E-02
         0.36211E-02
         0.35751E-02
         0.13213E-03
         0.47497E-04
         0.46639E-04
         0.37125E-04
         0.13461E-03
         0.79698E-04
         0.50965E-05
         0.99203E-04
         0.66243E-04
         0.87656E-04
         0.28128E-05
         0.43315E-03
         0.25704E-03
         0.17436E-04
         0.47535E-03
         0.65161E-04
         0.26232E-04
         0.22012E-04
         0.24999E-04
         0.65491E-05
         0.26432E-03
         0.24066E-03
         0.20971E-03
         0.54515E-05
         0.21915E-04
        -0.37117E-05
        -0.10068E-05
        -0.46935E-04
        -0.19420E-04
         0.28846E-04
         0.46726E-04
         0.72962E-05
         0.32263E-04
         0.39193E-04
         0.20848E-03
         0.73355E-04
         0.12691E-03
         0.31194E-03
         0.18356E-03
         0.15968E-03
         0.33240E-03
         0.26469E-03
         0.26736E-03
         0.15020E-03
         0.12001E-03
         0.23705E-03
         0.10346E-03
         0.76731E-04
         0.56401E-04
         0.82896E-04
         0.20301E-03
         0.10810E-03
         0.36575E-02
         0.38786E-02
         0.42402E-02
         0.42038E-02
         0.47749E-02
         0.54898E-02
         0.50399E-02
         0.40108E-02
         0.38041E-02
         0.43342E-02
         0.41733E-02
         0.40767E-02
         0.27723E-02
         0.25206E-02
         0.30300E-02
         0.34737E-02
         0.37458E-02
         0.44647E-02
         0.41073E-02
         0.43538E-02
         0.35285E-02
         0.31774E-02
         0.35781E-02
         0.33943E-02
         0.36168E-02
         0.35710E-02
         0.13226E-03
         0.47466E-04
         0.46651E-04
         0.37149E-04
         0.13450E-03
         0.79603E-04
         0.51410E-05
         0.99348E-04
         0.66409E-04
         0.88163E-04
         0.28081E-05
         0.43313E-03
         0.25724E-03
         0.17178E-04
         0.47637E-03
         0.65259E-04
         0.26334E-04
         0.21951E-04
         0.25022E-04
         0.65051E-05
         0.26437E-03
         0.24063E-03
         0.20972E-03
         0.54232E-05
         0.22224E-04
        -0.37531E-05
        -0.93413E-06
        -0.46973E-04
        -0.19391E-04
         0.28950E-04
         0.46739E-04
         0.72338E-05
         0.32137E-04
         0.39196E-04
         0.20866E-03
         0.73292E-04
         0.12683E-03
         0.31286E-03
         0.18435E-03
         0.16011E-03
         0.33289E-03
         0.26499E-03
         0.26747E-03
         0.15026E-03
         0.12001E-03
         0.23709E-03
         0.10346E-03
         0.76687E-04
         0.56238E-04
         0.82699E-04
         0.20281E-03
         0.10781E-03
         0.36548E-02
         0.38768E-02
         0.42400E-02
         0.42037E-02
         0.47733E-02
         0.54860E-02
         0.50355E-02
         0.40084E-02
         0.38020E-02
         0.43313E-02
         0.41719E-02
         0.40772E-02
         0.27721E-02
         0.25204E-02
         0.30308E-02
         0.34759E-02
         0.37484E-02
         0.44667E-02
         0.41067E-02
         0.43532E-02
         0.35277E-02
         0.31771E-02
         0.35756E-02
         0.33898E-02
         0.36126E-02
         0.35671E-02
         0.13268E-03
         0.47770E-04
         0.46943E-04
         0.37398E-04
         0.13470E-03
         0.79771E-04
         0.55623E-05
         0.99832E-04
         0.66778E-04
         0.88931E-04
         0.31924E-05
         0.43355E-03
         0.25783E-03
         0.17282E-04
         0.47781E-03
         0.65640E-04
         0.26683E-04
         0.22147E-04
         0.25349E-04
         0.67877E-05
         0.26481E-03
         0.24096E-03
         0.21009E-03
         0.57074E-05
         0.22863E-04
        -0.34749E-05
        -0.49973E-06
        -0.46558E-04
        -0.18913E-04
         0.29445E-04
         0.47104E-04
         0.75096E-05
         0.32309E-04
         0.39410E-04
         0.20920E-03
         0.73570E-04
         0.12710E-03
         0.31417E-03
         0.18560E-03
         0.16099E-03
         0.33375E-03
         0.26566E-03
         0.26791E-03
         0.15069E-03
         0.12038E-03
         0.23752E-03
         0.10382E-03
         0.77010E-04
         0.56388E-04
         0.82748E-04
         0.20286E-03
         0.10776E-03
         0.36528E-02
         0.38756E-02
         0.42405E-02
         0.42041E-02
         0.47723E-02
         0.54830E-02
         0.50317E-02
         0.40066E-02
         0.38005E-02
         0.43291E-02
         0.41710E-02
         0.40783E-02
         0.27723E-02
         0.25207E-02
         0.30322E-02
         0.34788E-02
         0.37516E-02
         0.44694E-02
         0.41067E-02
         0.43532E-02
         0.35276E-02
         0.31771E-02
         0.35735E-02
         0.33858E-02
         0.36091E-02
         0.35639E-02
         0.13270E-03
         0.47681E-04
         0.46902E-04
         0.37332E-04
         0.13447E-03
         0.79603E-04
         0.55163E-05
         0.99842E-04
         0.66800E-04
         0.89238E-04
         0.30588E-05
         0.43341E-03
         0.25797E-03
         0.16849E-04
         0.47865E-03
         0.65612E-04
         0.26620E-04
         0.21999E-04
         0.25192E-04
         0.65891E-05
         0.26479E-03
         0.24080E-03
         0.21003E-03
         0.55333E-05
         0.23003E-04
        -0.36569E-05
        -0.63630E-06
        -0.46707E-04
        -0.18872E-04
         0.29494E-04
         0.47092E-04
         0.73549E-05
         0.32138E-04
         0.39300E-04
         0.20921E-03
         0.73432E-04
         0.12699E-03
         0.31492E-03
         0.18633E-03
         0.16141E-03
         0.33413E-03
         0.26581E-03
         0.26785E-03
         0.15063E-03
         0.12025E-03
         0.23745E-03
         0.10375E-03
         0.76937E-04
         0.56165E-04
         0.82421E-04
         0.20253E-03
         0.10738E-03
         0.36497E-02
         0.38734E-02
         0.42400E-02
         0.42040E-02
         0.47707E-02
         0.54790E-02
         0.50269E-02
         0.40040E-02
         0.37982E-02
         0.43260E-02
         0.41692E-02
         0.40783E-02
         0.27717E-02
         0.25205E-02
         0.30331E-02
         0.34811E-02
         0.37540E-02
         0.44712E-02
         0.41059E-02
         0.43524E-02
         0.35267E-02
         0.31766E-02
         0.35707E-02
         0.33812E-02
         0.36050E-02
         0.35598E-02
         0.13265E-03
         0.47458E-04
         0.46723E-04
         0.37224E-04
         0.13416E-03
         0.79337E-04
         0.53968E-05
         0.99824E-04
         0.66762E-04
         0.89384E-04
         0.28927E-05
         0.43319E-03
         0.25800E-03
         0.16412E-04
         0.47945E-03
         0.65552E-04
         0.26474E-04
         0.21834E-04
         0.25070E-04
         0.64767E-05
         0.26473E-03
         0.24060E-03
         0.20994E-03
         0.53842E-05
         0.22999E-04
        -0.38358E-05
        -0.99860E-06
        -0.46944E-04
        -0.18323E-04
         0.29880E-04
         0.47006E-04
         0.71427E-05
         0.31968E-04
         0.39233E-04
         0.20920E-03
         0.73217E-04
         0.12677E-03
         0.31553E-03
         0.18706E-03
         0.16225E-03
         0.33463E-03
         0.26594E-03
         0.26771E-03
         0.15056E-03
         0.12008E-03
         0.23730E-03
         0.10358E-03
         0.76792E-04
         0.55924E-04
         0.82123E-04
         0.20222E-03
         0.10697E-03
         0.36467E-02
         0.38714E-02
         0.42396E-02
         0.42038E-02
         0.47688E-02
         0.54748E-02
         0.50221E-02
         0.40013E-02
         0.37959E-02
         0.43231E-02
         0.41671E-02
         0.40777E-02
         0.27710E-02
         0.25201E-02
         0.30337E-02
         0.34832E-02
         0.37563E-02
         0.44729E-02
         0.41050E-02
         0.43515E-02
         0.35258E-02
         0.31760E-02
         0.35679E-02
         0.33765E-02
         0.36006E-02
         0.35556E-02
         0.13306E-03
         0.47737E-04
         0.47037E-04
         0.37516E-04
         0.13439E-03
         0.79525E-04
         0.57752E-05
         0.10030E-03
         0.67068E-04
         0.89833E-04
         0.32419E-05
         0.43350E-03
         0.25850E-03
         0.16497E-04
         0.48083E-03
         0.65935E-04
         0.26745E-04
         0.22015E-04
         0.25443E-04
         0.69645E-05
         0.26512E-03
         0.24088E-03
         0.21026E-03
         0.56907E-05
         0.23402E-04
        -0.35318E-05
        -0.10418E-05
        -0.46687E-04
        -0.16772E-04
         0.31127E-04
         0.47329E-04
         0.74233E-05
         0.32136E-04
         0.39509E-04
         0.20977E-03
         0.73531E-04
         0.12702E-03
         0.31662E-03
         0.18837E-03
         0.16398E-03
         0.33576E-03
         0.26658E-03
         0.26801E-03
         0.15094E-03
         0.12045E-03
         0.23777E-03
         0.10396E-03
         0.77088E-04
         0.56098E-04
         0.82255E-04
         0.20236E-03
         0.10696E-03
         0.36447E-02
         0.38703E-02
         0.42402E-02
         0.42043E-02
         0.47675E-02
         0.54714E-02
         0.50182E-02
         0.39996E-02
         0.37946E-02
         0.43213E-02
         0.41655E-02
         0.40776E-02
         0.27710E-02
         0.25204E-02
         0.30350E-02
         0.34857E-02
         0.37593E-02
         0.44756E-02
         0.41052E-02
         0.43516E-02
         0.35258E-02
         0.31763E-02
         0.35660E-02
         0.33727E-02
         0.35971E-02
         0.35524E-02
         0.13222E-03
         0.46711E-04
         0.46079E-04
         0.36617E-04
         0.13311E-03
         0.78347E-04
         0.47170E-05
         0.99302E-04
         0.66152E-04
         0.88915E-04
         0.20009E-05
         0.43205E-03
         0.25736E-03
         0.14911E-04
         0.48038E-03
         0.65065E-04
         0.25690E-04
         0.21024E-04
         0.24351E-04
         0.58654E-05
         0.26394E-03
         0.23961E-03
         0.20907E-03
         0.46022E-05
         0.22371E-04
        -0.45686E-05
        -0.25863E-05
        -0.47990E-04
        -0.17278E-04
         0.30480E-04
         0.46425E-04
         0.63397E-05
         0.31072E-04
         0.38475E-04
         0.20862E-03
         0.72294E-04
         0.12573E-03
         0.31597E-03
         0.18795E-03
         0.16366E-03
         0.33497E-03
         0.26548E-03
         0.26676E-03
         0.14982E-03
         0.11920E-03
         0.23640E-03
         0.10274E-03
         0.75965E-04
         0.54866E-04
         0.80860E-04
         0.20078E-03
         0.10547E-03
         0.36396E-02
         0.38661E-02
         0.42376E-02
         0.42019E-02
         0.47635E-02
         0.54653E-02
         0.50115E-02
         0.39949E-02
         0.37902E-02
         0.43160E-02
         0.41611E-02
         0.40752E-02
         0.27686E-02
         0.25183E-02
         0.30338E-02
         0.34859E-02
         0.37596E-02
         0.44751E-02
         0.41021E-02
         0.43485E-02
         0.35228E-02
         0.31738E-02
         0.35612E-02
         0.33659E-02
         0.35909E-02
         0.35464E-02
         0.13292E-03
         0.46782E-04
         0.46304E-04
         0.37036E-04
         0.13341E-03
         0.78648E-04
         0.49467E-05
         0.10015E-03
         0.67020E-04
         0.90449E-04
         0.23711E-05
         0.43209E-03
         0.25724E-03
         0.15484E-04
         0.48206E-03
         0.65957E-04
         0.26540E-04
         0.21514E-04
         0.24997E-04
         0.64687E-05
         0.26460E-03
         0.24004E-03
         0.21000E-03
         0.54165E-05
         0.23883E-04
        -0.38144E-05
        -0.12451E-05
        -0.46513E-04
        -0.15969E-04
         0.31730E-04
         0.47116E-04
         0.67988E-05
         0.31300E-04
         0.38348E-04
         0.20904E-03
         0.72183E-04
         0.12533E-03
         0.31782E-03
         0.18985E-03
         0.16499E-03
         0.33598E-03
         0.26651E-03
         0.26768E-03
         0.15074E-03
         0.11969E-03
         0.23670E-03
         0.10299E-03
         0.76484E-04
         0.55141E-04
         0.80707E-04
         0.20070E-03
         0.10524E-03
         0.36378E-02
         0.38655E-02
         0.42378E-02
         0.42014E-02
         0.47608E-02
         0.54609E-02
         0.50082E-02
         0.39939E-02
         0.37892E-02
         0.43134E-02
         0.41599E-02
         0.40767E-02
         0.27695E-02
         0.25187E-02
         0.30357E-02
         0.34896E-02
         0.37634E-02
         0.44780E-02
         0.41019E-02
         0.43480E-02
         0.35227E-02
         0.31742E-02
         0.35599E-02
         0.33629E-02
         0.35880E-02
         0.35438E-02
         0.39642E-02
         0.40425E-02
         0.40113E-02
         0.36549E-02
         0.47208E-02
         0.43598E-02
         0.43301E-02
         0.44807E-02
         0.38322E-02
         0.44841E-02
         0.48195E-02
         0.60012E-02
         0.52515E-02
         0.49895E-02
         0.62143E-02
         0.37467E-02
         0.39866E-02
         0.34813E-02
         0.41534E-02
         0.43249E-02
         0.48569E-02
         0.48685E-02
         0.46173E-02
         0.39554E-02
         0.44314E-02
         0.37799E-02
         0.49244E-02
         0.47284E-02
         0.47632E-02
         0.45909E-02
         0.37670E-02
         0.39204E-02
         0.36731E-02
         0.38402E-02
         0.53124E-02
         0.46456E-02
         0.47057E-02
         0.57582E-02
         0.54266E-02
         0.53196E-02
         0.56429E-02
         0.52820E-02
         0.50217E-02
         0.44292E-02
         0.45835E-02
         0.53712E-02
         0.47492E-02
         0.44029E-02
         0.42780E-02
         0.44691E-02
         0.50639E-02
         0.45305E-02
         0.12596E-01
         0.12610E-01
         0.13160E-01
         0.12819E-01
         0.13628E-01
         0.14747E-01
         0.14342E-01
         0.13230E-01
         0.13107E-01
         0.13896E-01
         0.13463E-01
         0.12857E-01
         0.10578E-01
         0.98819E-02
         0.10519E-01
         0.11159E-01
         0.11527E-01
         0.12926E-01
         0.13140E-01
         0.13406E-01
         0.11837E-01
         0.11204E-01
         0.11879E-01
         0.11595E-01
         0.11751E-01
         0.11712E-01
         0.41696E-01
         0.43516E-01
         0.42904E-01
         0.39250E-01
         0.48128E-01
         0.45213E-01
         0.46925E-01
         0.47418E-01
         0.40719E-01
         0.47386E-01
         0.51401E-01
         0.58045E-01
         0.52526E-01
         0.52898E-01
         0.60120E-01
         0.39946E-01
         0.42780E-01
         0.37498E-01
         0.44147E-01
         0.46350E-01
         0.48260E-01
         0.49240E-01
         0.46322E-01
         0.42499E-01
         0.47838E-01
         0.41046E-01
         0.52712E-01
         0.51768E-01
         0.52006E-01
         0.49483E-01
         0.40342E-01
         0.42317E-01
         0.39550E-01
         0.41296E-01
         0.52674E-01
         0.48280E-01
         0.48503E-01
         0.58042E-01
         0.56393E-01
         0.55685E-01
         0.56904E-01
         0.54030E-01
         0.51184E-01
         0.45177E-01
         0.46934E-01
         0.52699E-01
         0.48671E-01
         0.45817E-01
         0.44904E-01
         0.46529E-01
         0.50553E-01
         0.46683E-01
         0.87507E-01
         0.85700E-01
         0.87961E-01
         0.85374E-01
         0.88527E-01
         0.93770E-01
         0.94618E-01
         0.92928E-01
         0.93198E-01
         0.95953E-01
         0.93181E-01
         0.87893E-01
         0.77578E-01
         0.73205E-01
         0.74122E-01
         0.75613E-01
         0.76670E-01
         0.83622E-01
         0.88485E-01
         0.89175E-01
         0.81926E-01
         0.79099E-01
         0.82100E-01
         0.81287E-01
         0.80726E-01
         0.80390E-01
  
SCALARS                      strain_yz  double 1
LOOKUP_TABLE default
        -0.12107E-01
         0.38714E-02
         0.10315E-01
         0.55447E-02
        -0.23079E-09
        -0.63610E-10
        -0.28602E-09
        -0.21815E-09
         0.37647E-01
        -0.25098E-01
        -0.42565E-09
        -0.37473E-09
         0.31182E-01
         0.15821E-02
         0.30462E-09
        -0.19530E-10
        -0.12109E-01
        -0.39999E-01
         0.44817E-11
         0.45856E-10
         0.19810E-01
         0.71853E-01
         0.79208E-01
         0.69828E-09
         0.12059E-08
         0.10080E-08
         0.70924E-02
         0.69003E-01
         0.50229E-09
         0.97444E-09
        -0.13810E-01
        -0.11433E-01
         0.10733E-01
         0.26040E-09
         0.26582E-09
        -0.55187E-11
        -0.39842E-01
        -0.35901E-01
         0.47918E-09
         0.37282E-09
        -0.38150E-01
        -0.23045E-01
         0.36213E-09
         0.33094E-09
        -0.36123E-01
        -0.12690E-01
        -0.12013E-10
         0.18581E-09
        -0.29197E-01
         0.87485E-10
        -0.33560E-02
        -0.70857E-11
        -0.16114E-02
         0.33840E-09
         0.10494E-01
         0.19686E-09
         0.34236E-01
        -0.64632E-02
         0.53405E-11
        -0.10839E-10
        -0.16730E-01
        -0.59854E-01
        -0.72764E-10
        -0.27217E-09
        -0.10226E-01
        -0.14688E-09
        -0.42893E-01
        -0.17893E-09
         0.32720E-01
         0.17221E-01
        -0.22112E-10
         0.29196E-09
         0.59346E-01
         0.64110E-09
         0.85837E-01
         0.62075E-09
         0.85760E-01
         0.47121E-09
         0.71005E-01
         0.39496E-09
         0.10706E+00
         0.84505E-01
         0.25337E-09
        -0.56175E-10
         0.12490E-01
        -0.62857E-11
        -0.56394E-01
        -0.39376E-09
        -0.13018E+00
        -0.68932E-09
        -0.17838E+00
        -0.10939E+00
        -0.10224E-08
        -0.82754E-09
        -0.77968E-01
        -0.64238E-09
        -0.70621E-01
        -0.65720E-09
        -0.68139E-01
        -0.70663E-09
        -0.11304E+00
        -0.94758E-01
        -0.65713E-09
        -0.31486E-09
         0.72266E-01
        -0.27994E-01
         0.23106E-09
        -0.28713E-09
         0.17687E+00
         0.76868E-09
         0.26005E+00
         0.11244E-08
         0.31011E+00
         0.13886E-08
         0.34256E+00
         0.13774E-08
         0.37979E+00
         0.10900E-08
         0.37413E+00
         0.84355E-09
         0.35094E+00
         0.78458E-09
         0.31264E+00
         0.74647E-09
         0.23734E+00
         0.47705E-09
         0.17237E+00
         0.15750E-09
         0.93322E-01
         0.10177E-09
        -0.70093E-02
         0.15297E-09
        -0.96932E-01
         0.79007E-10
        -0.17865E+00
        -0.23893E-09
        -0.27618E+00
        -0.67442E-09
        -0.29087E+00
        -0.10531E-08
        -0.30334E+00
        -0.13806E-08
        -0.38107E+00
        -0.13794E-08
        -0.40509E+00
        -0.12042E-08
        -0.37942E+00
        -0.11736E-08
        -0.30172E+00
        -0.11809E-08
        -0.20521E+00
        -0.93383E-09
        -0.14785E+00
        -0.55221E-09
        -0.10867E+00
        -0.42697E-09
        -0.76039E-02
        -0.39298E-02
        -0.34311E-02
        -0.10663E-02
        -0.35086E-02
        -0.37388E-02
        -0.39301E-03
        -0.60513E-02
        -0.52025E-02
        -0.76255E-02
         0.39611E-02
         0.16888E-01
         0.11563E-01
         0.13411E-02
         0.17077E-01
         0.20144E-02
        -0.17845E-02
         0.11491E-02
         0.14977E-02
        -0.11327E-02
         0.10394E-02
         0.85754E-03
        -0.28781E-02
         0.24262E-03
        -0.52064E-02
         0.76965E-03
         0.39775E-04
         0.69558E-03
         0.84242E-03
        -0.40774E-02
         0.19662E-02
        -0.21299E-02
         0.14298E-02
        -0.34799E-03
         0.57016E-03
         0.31003E-02
         0.69617E-02
         0.15027E-01
         0.13727E-01
         0.11563E-01
         0.10861E-01
         0.27133E-02
        -0.22286E-02
        -0.61097E-02
        -0.10075E-01
        -0.16384E-01
        -0.10792E-01
        -0.77636E-02
        -0.82816E-02
        -0.87773E-02
        -0.10264E-01
        -0.47096E-02
         0.87457E-02
        -0.10577E-01
         0.28625E-01
         0.39605E-01
         0.50484E-01
         0.59788E-01
         0.59902E-01
         0.54143E-01
         0.51539E-01
         0.48701E-01
         0.31410E-01
         0.13912E-01
         0.61353E-02
         0.27070E-02
        -0.41532E-02
        -0.16440E-01
        -0.30218E-01
        -0.39363E-01
        -0.47244E-01
        -0.54299E-01
        -0.51284E-01
        -0.48469E-01
        -0.45073E-01
        -0.31256E-01
        -0.18333E-01
        -0.16121E-01
        -0.14367E-01
        -0.90614E-02
        -0.83852E-02
        -0.19889E-02
        -0.10891E-01
        -0.48982E-02
        -0.38841E-02
        -0.13578E-01
        -0.89045E-02
        -0.12771E-01
         0.67521E-02
         0.29219E-01
         0.17311E-01
         0.24878E-02
         0.28788E-01
         0.54484E-02
        -0.16511E-02
         0.15764E-02
         0.71051E-02
         0.13737E-02
         0.61237E-02
         0.43478E-02
        -0.25206E-02
         0.21276E-02
        -0.86000E-02
         0.21272E-02
         0.53378E-03
         0.99230E-03
        -0.15850E-02
        -0.85788E-02
         0.58719E-02
         0.15468E-02
         0.37953E-02
         0.32954E-02
        -0.15712E-02
         0.47897E-02
         0.91449E-02
         0.21879E-01
         0.19295E-01
         0.17004E-01
         0.12492E-01
        -0.30867E-02
        -0.63579E-02
        -0.79419E-02
        -0.10227E-01
        -0.20890E-01
        -0.12156E-01
        -0.80387E-02
        -0.10103E-01
        -0.11927E-01
        -0.12358E-01
        -0.92726E-03
         0.15393E-01
        -0.22017E-01
         0.51233E-01
         0.66210E-01
         0.85442E-01
         0.10251E+00
         0.10042E+00
         0.87720E-01
         0.84070E-01
         0.83167E-01
         0.52228E-01
         0.17214E-01
         0.68615E-02
         0.58797E-02
        -0.27228E-02
        -0.23096E-01
        -0.46265E-01
        -0.64379E-01
        -0.83793E-01
        -0.92910E-01
        -0.81604E-01
        -0.77157E-01
        -0.76917E-01
        -0.54160E-01
        -0.28134E-01
        -0.26639E-01
        -0.14376E-01
        -0.90630E-02
        -0.83893E-02
        -0.20035E-02
        -0.10892E-01
        -0.49020E-02
        -0.38890E-02
        -0.13601E-01
        -0.89205E-02
        -0.12819E-01
         0.67561E-02
         0.29217E-01
         0.17316E-01
         0.24879E-02
         0.28824E-01
         0.54487E-02
        -0.16662E-02
         0.15740E-02
         0.71099E-02
         0.13660E-02
         0.61388E-02
         0.43520E-02
        -0.25212E-02
         0.21266E-02
        -0.86390E-02
         0.21233E-02
         0.54007E-03
         0.99785E-03
        -0.15746E-02
        -0.85969E-02
         0.58729E-02
         0.15434E-02
         0.38037E-02
         0.33008E-02
        -0.15565E-02
         0.47929E-02
         0.91445E-02
         0.21913E-01
         0.19336E-01
         0.17024E-01
         0.12501E-01
        -0.30784E-02
        -0.63644E-02
        -0.79460E-02
        -0.10227E-01
        -0.20890E-01
        -0.12157E-01
        -0.80339E-02
        -0.10090E-01
        -0.11911E-01
        -0.12353E-01
        -0.91322E-03
         0.15379E-01
        -0.22019E-01
         0.51242E-01
         0.66211E-01
         0.85431E-01
         0.10248E+00
         0.10038E+00
         0.87694E-01
         0.84052E-01
         0.83144E-01
         0.52217E-01
         0.17222E-01
         0.68609E-02
         0.58918E-02
        -0.27007E-02
        -0.23108E-01
        -0.46286E-01
        -0.64393E-01
        -0.83791E-01
        -0.92904E-01
        -0.81598E-01
        -0.77154E-01
        -0.76898E-01
        -0.54121E-01
        -0.28103E-01
        -0.26604E-01
        -0.14385E-01
        -0.90648E-02
        -0.83936E-02
        -0.20182E-02
        -0.10893E-01
        -0.49060E-02
        -0.38939E-02
        -0.13624E-01
        -0.89366E-02
        -0.12866E-01
         0.67601E-02
         0.29214E-01
         0.17320E-01
         0.24876E-02
         0.28861E-01
         0.54491E-02
        -0.16813E-02
         0.15716E-02
         0.71149E-02
         0.13582E-02
         0.61541E-02
         0.43560E-02
        -0.25222E-02
         0.21253E-02
        -0.86775E-02
         0.21189E-02
         0.54679E-03
         0.10037E-02
        -0.15632E-02
        -0.86145E-02
         0.58738E-02
         0.15393E-02
         0.38122E-02
         0.33061E-02
        -0.15416E-02
         0.47961E-02
         0.91439E-02
         0.21947E-01
         0.19378E-01
         0.17044E-01
         0.12511E-01
        -0.30692E-02
        -0.63705E-02
        -0.79511E-02
        -0.10228E-01
        -0.20891E-01
        -0.12158E-01
        -0.80289E-02
        -0.10076E-01
        -0.11895E-01
        -0.12348E-01
        -0.89924E-03
         0.15364E-01
        -0.22020E-01
         0.51252E-01
         0.66211E-01
         0.85421E-01
         0.10244E+00
         0.10034E+00
         0.87667E-01
         0.84034E-01
         0.83121E-01
         0.52206E-01
         0.17231E-01
         0.68605E-02
         0.59039E-02
        -0.26784E-02
        -0.23120E-01
        -0.46308E-01
        -0.64409E-01
        -0.83790E-01
        -0.92898E-01
        -0.81592E-01
        -0.77150E-01
        -0.76878E-01
        -0.54083E-01
        -0.28072E-01
        -0.26569E-01
        -0.14394E-01
        -0.90664E-02
        -0.83978E-02
        -0.20331E-02
        -0.10894E-01
        -0.49100E-02
        -0.38990E-02
        -0.13647E-01
        -0.89527E-02
        -0.12913E-01
         0.67641E-02
         0.29212E-01
         0.17325E-01
         0.24877E-02
         0.28898E-01
         0.54495E-02
        -0.16968E-02
         0.15692E-02
         0.71201E-02
         0.13500E-02
         0.61698E-02
         0.43597E-02
        -0.25244E-02
         0.21232E-02
        -0.87147E-02
         0.21131E-02
         0.55374E-03
         0.10116E-02
        -0.15490E-02
        -0.86303E-02
         0.58742E-02
         0.15338E-02
         0.38206E-02
         0.33115E-02
        -0.15269E-02
         0.47993E-02
         0.91433E-02
         0.21981E-01
         0.19421E-01
         0.17065E-01
         0.12523E-01
        -0.30575E-02
        -0.63756E-02
        -0.79589E-02
        -0.10231E-01
        -0.20892E-01
        -0.12160E-01
        -0.80240E-02
        -0.10063E-01
        -0.11879E-01
        -0.12342E-01
        -0.88528E-03
         0.15350E-01
        -0.22021E-01
         0.51261E-01
         0.66212E-01
         0.85411E-01
         0.10241E+00
         0.10030E+00
         0.87641E-01
         0.84017E-01
         0.83098E-01
         0.52196E-01
         0.17241E-01
         0.68606E-02
         0.59158E-02
        -0.26559E-02
        -0.23134E-01
        -0.46333E-01
        -0.64426E-01
        -0.83789E-01
        -0.92892E-01
        -0.81587E-01
        -0.77147E-01
        -0.76859E-01
        -0.54045E-01
        -0.28041E-01
        -0.26534E-01
        -0.14403E-01
        -0.90681E-02
        -0.84020E-02
        -0.20478E-02
        -0.10896E-01
        -0.49139E-02
        -0.39038E-02
        -0.13670E-01
        -0.89688E-02
        -0.12959E-01
         0.67682E-02
         0.29209E-01
         0.17329E-01
         0.24878E-02
         0.28935E-01
         0.54500E-02
        -0.17125E-02
         0.15667E-02
         0.71255E-02
         0.13413E-02
         0.61856E-02
         0.43630E-02
        -0.25277E-02
         0.21202E-02
        -0.87506E-02
         0.21058E-02
         0.56147E-03
         0.10211E-02
        -0.15320E-02
        -0.86445E-02
         0.58743E-02
         0.15265E-02
         0.38289E-02
         0.33168E-02
        -0.15120E-02
         0.48024E-02
         0.91429E-02
         0.22015E-01
         0.19464E-01
         0.17087E-01
         0.12536E-01
        -0.30432E-02
        -0.63794E-02
        -0.79695E-02
        -0.10236E-01
        -0.20894E-01
        -0.12163E-01
        -0.80197E-02
        -0.10050E-01
        -0.11863E-01
        -0.12337E-01
        -0.87125E-03
         0.15335E-01
        -0.22023E-01
         0.51271E-01
         0.66212E-01
         0.85400E-01
         0.10237E+00
         0.10025E+00
         0.87615E-01
         0.83999E-01
         0.83075E-01
         0.52188E-01
         0.17253E-01
         0.68613E-02
         0.59275E-02
        -0.26334E-02
        -0.23149E-01
        -0.46362E-01
        -0.64446E-01
        -0.83788E-01
        -0.92886E-01
        -0.81581E-01
        -0.77144E-01
        -0.76839E-01
        -0.54006E-01
        -0.28010E-01
        -0.26499E-01
        -0.14411E-01
        -0.90692E-02
        -0.84062E-02
        -0.20627E-02
        -0.10897E-01
        -0.49178E-02
        -0.39081E-02
        -0.13691E-01
        -0.89851E-02
        -0.13004E-01
         0.67728E-02
         0.29207E-01
         0.17334E-01
         0.24883E-02
         0.28971E-01
         0.54507E-02
        -0.17285E-02
         0.15643E-02
         0.71310E-02
         0.13324E-02
         0.62015E-02
         0.43661E-02
        -0.25315E-02
         0.21170E-02
        -0.87856E-02
         0.20980E-02
         0.56978E-03
         0.10317E-02
        -0.15138E-02
        -0.86579E-02
         0.58739E-02
         0.15185E-02
         0.38374E-02
         0.33225E-02
        -0.14970E-02
         0.48059E-02
         0.91428E-02
         0.22049E-01
         0.19508E-01
         0.17111E-01
         0.12550E-01
        -0.30281E-02
        -0.63827E-02
        -0.79811E-02
        -0.10243E-01
        -0.20898E-01
        -0.12166E-01
        -0.80161E-02
        -0.10037E-01
        -0.11847E-01
        -0.12332E-01
        -0.85722E-03
         0.15321E-01
        -0.22024E-01
         0.51280E-01
         0.66213E-01
         0.85390E-01
         0.10234E+00
         0.10021E+00
         0.87588E-01
         0.83982E-01
         0.83052E-01
         0.52179E-01
         0.17266E-01
         0.68623E-02
         0.59392E-02
        -0.26109E-02
        -0.23164E-01
        -0.46391E-01
        -0.64466E-01
        -0.83787E-01
        -0.92880E-01
        -0.81576E-01
        -0.77142E-01
        -0.76820E-01
        -0.53968E-01
        -0.27980E-01
        -0.26464E-01
        -0.14419E-01
        -0.90689E-02
        -0.84102E-02
        -0.20780E-02
        -0.10898E-01
        -0.49218E-02
        -0.39115E-02
        -0.13711E-01
        -0.90016E-02
        -0.13047E-01
         0.67784E-02
         0.29206E-01
         0.17339E-01
         0.24902E-02
         0.29009E-01
         0.54516E-02
        -0.17449E-02
         0.15619E-02
         0.71365E-02
         0.13235E-02
         0.62174E-02
         0.43693E-02
        -0.25354E-02
         0.21138E-02
        -0.88197E-02
         0.20902E-02
         0.57958E-03
         0.10429E-02
        -0.14953E-02
        -0.86710E-02
         0.58734E-02
         0.15098E-02
         0.38463E-02
         0.33283E-02
        -0.14820E-02
         0.48096E-02
         0.91430E-02
         0.22084E-01
         0.19552E-01
         0.17134E-01
         0.12564E-01
        -0.30126E-02
        -0.63859E-02
        -0.79927E-02
        -0.10249E-01
        -0.20902E-01
        -0.12171E-01
        -0.80148E-02
        -0.10027E-01
        -0.11832E-01
        -0.12326E-01
        -0.84302E-03
         0.15307E-01
        -0.22025E-01
         0.51289E-01
         0.66213E-01
         0.85380E-01
         0.10230E+00
         0.10017E+00
         0.87562E-01
         0.83965E-01
         0.83029E-01
         0.52171E-01
         0.17279E-01
         0.68632E-02
         0.59509E-02
        -0.25883E-02
        -0.23179E-01
        -0.46421E-01
        -0.64485E-01
        -0.83785E-01
        -0.92874E-01
        -0.81572E-01
        -0.77140E-01
        -0.76800E-01
        -0.53929E-01
        -0.27949E-01
        -0.26429E-01
        -0.14426E-01
        -0.90683E-02
        -0.84143E-02
        -0.20935E-02
        -0.10900E-01
        -0.49258E-02
        -0.39141E-02
        -0.13729E-01
        -0.90183E-02
        -0.13089E-01
         0.67845E-02
         0.29204E-01
         0.17345E-01
         0.24924E-02
         0.29046E-01
         0.54527E-02
        -0.17615E-02
         0.15594E-02
         0.71420E-02
         0.13146E-02
         0.62334E-02
         0.43726E-02
        -0.25391E-02
         0.21107E-02
        -0.88535E-02
         0.20824E-02
         0.58976E-03
         0.10544E-02
        -0.14767E-02
        -0.86840E-02
         0.58728E-02
         0.15008E-02
         0.38552E-02
         0.33345E-02
        -0.14669E-02
         0.48135E-02
         0.91437E-02
         0.22120E-01
         0.19596E-01
         0.17158E-01
         0.12578E-01
        -0.29971E-02
        -0.63890E-02
        -0.80043E-02
        -0.10256E-01
        -0.20907E-01
        -0.12177E-01
        -0.80142E-02
        -0.10017E-01
        -0.11817E-01
        -0.12321E-01
        -0.82882E-03
         0.15292E-01
        -0.22026E-01
         0.51298E-01
         0.66214E-01
         0.85369E-01
         0.10227E+00
         0.10013E+00
         0.87535E-01
         0.83947E-01
         0.83005E-01
         0.52163E-01
         0.17291E-01
         0.68642E-02
         0.59628E-02
        -0.25658E-02
        -0.23194E-01
        -0.46450E-01
        -0.64505E-01
        -0.83782E-01
        -0.92868E-01
        -0.81568E-01
        -0.77138E-01
        -0.76779E-01
        -0.53890E-01
        -0.27918E-01
        -0.26394E-01
        -0.14434E-01
        -0.90677E-02
        -0.84183E-02
        -0.21090E-02
        -0.10901E-01
        -0.49297E-02
        -0.39168E-02
        -0.13748E-01
        -0.90351E-02
        -0.13131E-01
         0.67902E-02
         0.29203E-01
         0.17351E-01
         0.24950E-02
         0.29083E-01
         0.54537E-02
        -0.17782E-02
         0.15569E-02
         0.71475E-02
         0.13056E-02
         0.62493E-02
         0.43759E-02
        -0.25429E-02
         0.21076E-02
        -0.88873E-02
         0.20747E-02
         0.60020E-03
         0.10658E-02
        -0.14582E-02
        -0.86969E-02
         0.58721E-02
         0.14919E-02
         0.38641E-02
         0.33405E-02
        -0.14516E-02
         0.48172E-02
         0.91443E-02
         0.22155E-01
         0.19641E-01
         0.17181E-01
         0.12592E-01
        -0.29817E-02
        -0.63921E-02
        -0.80161E-02
        -0.10264E-01
        -0.20912E-01
        -0.12182E-01
        -0.80137E-02
        -0.10008E-01
        -0.11803E-01
        -0.12317E-01
        -0.81456E-03
         0.15278E-01
        -0.22027E-01
         0.51307E-01
         0.66214E-01
         0.85359E-01
         0.10223E+00
         0.10008E+00
         0.87508E-01
         0.83930E-01
         0.82981E-01
         0.52154E-01
         0.17304E-01
         0.68653E-02
         0.59749E-02
        -0.25433E-02
        -0.23209E-01
        -0.46479E-01
        -0.64524E-01
        -0.83780E-01
        -0.92862E-01
        -0.81564E-01
        -0.77136E-01
        -0.76759E-01
        -0.53852E-01
        -0.27888E-01
        -0.26359E-01
        -0.14441E-01
        -0.90670E-02
        -0.84223E-02
        -0.21244E-02
        -0.10902E-01
        -0.49335E-02
        -0.39194E-02
        -0.13766E-01
        -0.90518E-02
        -0.13173E-01
         0.67963E-02
         0.29201E-01
         0.17357E-01
         0.24972E-02
         0.29121E-01
         0.54548E-02
        -0.17950E-02
         0.15544E-02
         0.71529E-02
         0.12966E-02
         0.62652E-02
         0.43791E-02
        -0.25466E-02
         0.21045E-02
        -0.89210E-02
         0.20670E-02
         0.61035E-03
         0.10771E-02
        -0.14397E-02
        -0.87099E-02
         0.58715E-02
         0.14830E-02
         0.38730E-02
         0.33466E-02
        -0.14364E-02
         0.48212E-02
         0.91450E-02
         0.22191E-01
         0.19685E-01
         0.17204E-01
         0.12606E-01
        -0.29663E-02
        -0.63953E-02
        -0.80277E-02
        -0.10271E-01
        -0.20916E-01
        -0.12188E-01
        -0.80134E-02
        -0.99981E-02
        -0.11788E-01
        -0.12311E-01
        -0.80036E-03
         0.15263E-01
        -0.22028E-01
         0.51316E-01
         0.66215E-01
         0.85349E-01
         0.10220E+00
         0.10004E+00
         0.87482E-01
         0.83913E-01
         0.82957E-01
         0.52146E-01
         0.17316E-01
         0.68664E-02
         0.59869E-02
        -0.25208E-02
        -0.23224E-01
        -0.46509E-01
        -0.64543E-01
        -0.83778E-01
        -0.92856E-01
        -0.81560E-01
        -0.77135E-01
        -0.76739E-01
        -0.53813E-01
        -0.27857E-01
        -0.26324E-01
        -0.14448E-01
        -0.90662E-02
        -0.84263E-02
        -0.21398E-02
        -0.10904E-01
        -0.49375E-02
        -0.39223E-02
        -0.13785E-01
        -0.90686E-02
        -0.13215E-01
         0.68024E-02
         0.29200E-01
         0.17363E-01
         0.24996E-02
         0.29158E-01
         0.54558E-02
        -0.18118E-02
         0.15519E-02
         0.71584E-02
         0.12875E-02
         0.62811E-02
         0.43821E-02
        -0.25504E-02
         0.21015E-02
        -0.89546E-02
         0.20592E-02
         0.62068E-03
         0.10882E-02
        -0.14212E-02
        -0.87228E-02
         0.58708E-02
         0.14741E-02
         0.38819E-02
         0.33526E-02
        -0.14211E-02
         0.48250E-02
         0.91457E-02
         0.22226E-01
         0.19730E-01
         0.17227E-01
         0.12620E-01
        -0.29509E-02
        -0.63984E-02
        -0.80392E-02
        -0.10278E-01
        -0.20921E-01
        -0.12194E-01
        -0.80129E-02
        -0.99886E-02
        -0.11773E-01
        -0.12307E-01
        -0.78611E-03
         0.15249E-01
        -0.22029E-01
         0.51324E-01
         0.66215E-01
         0.85339E-01
         0.10216E+00
         0.99996E-01
         0.87455E-01
         0.83896E-01
         0.82934E-01
         0.52137E-01
         0.17329E-01
         0.68675E-02
         0.59988E-02
        -0.24983E-02
        -0.23239E-01
        -0.46538E-01
        -0.64562E-01
        -0.83775E-01
        -0.92850E-01
        -0.81556E-01
        -0.77133E-01
        -0.76718E-01
        -0.53774E-01
        -0.27827E-01
        -0.26289E-01
        -0.14455E-01
        -0.90656E-02
        -0.84303E-02
        -0.21554E-02
        -0.10905E-01
        -0.49414E-02
        -0.39249E-02
        -0.13803E-01
        -0.90855E-02
        -0.13257E-01
         0.68085E-02
         0.29198E-01
         0.17368E-01
         0.25020E-02
         0.29195E-01
         0.54569E-02
        -0.18286E-02
         0.15494E-02
         0.71639E-02
         0.12785E-02
         0.62971E-02
         0.43852E-02
        -0.25541E-02
         0.20985E-02
        -0.89882E-02
         0.20516E-02
         0.63079E-03
         0.10993E-02
        -0.14027E-02
        -0.87357E-02
         0.58701E-02
         0.14652E-02
         0.38907E-02
         0.33588E-02
        -0.14058E-02
         0.48289E-02
         0.91462E-02
         0.22262E-01
         0.19774E-01
         0.17251E-01
         0.12634E-01
        -0.29357E-02
        -0.64014E-02
        -0.80508E-02
        -0.10285E-01
        -0.20926E-01
        -0.12199E-01
        -0.80127E-02
        -0.99791E-02
        -0.11758E-01
        -0.12302E-01
        -0.77188E-03
         0.15234E-01
        -0.22031E-01
         0.51333E-01
         0.66216E-01
         0.85328E-01
         0.10213E+00
         0.99953E-01
         0.87428E-01
         0.83878E-01
         0.82910E-01
         0.52128E-01
         0.17341E-01
         0.68686E-02
         0.60106E-02
        -0.24756E-02
        -0.23254E-01
        -0.46568E-01
        -0.64582E-01
        -0.83773E-01
        -0.92844E-01
        -0.81552E-01
        -0.77131E-01
        -0.76698E-01
        -0.53736E-01
        -0.27797E-01
        -0.26254E-01
        -0.14463E-01
        -0.90649E-02
        -0.84344E-02
        -0.21710E-02
        -0.10907E-01
        -0.49453E-02
        -0.39276E-02
        -0.13822E-01
        -0.91023E-02
        -0.13298E-01
         0.68146E-02
         0.29197E-01
         0.17374E-01
         0.25041E-02
         0.29233E-01
         0.54579E-02
        -0.18454E-02
         0.15468E-02
         0.71693E-02
         0.12696E-02
         0.63130E-02
         0.43884E-02
        -0.25578E-02
         0.20955E-02
        -0.90217E-02
         0.20438E-02
         0.64118E-03
         0.11102E-02
        -0.13843E-02
        -0.87485E-02
         0.58694E-02
         0.14562E-02
         0.38995E-02
         0.33648E-02
        -0.13904E-02
         0.48329E-02
         0.91469E-02
         0.22297E-01
         0.19819E-01
         0.17274E-01
         0.12649E-01
        -0.29203E-02
        -0.64045E-02
        -0.80625E-02
        -0.10292E-01
        -0.20930E-01
        -0.12205E-01
        -0.80122E-02
        -0.99697E-02
        -0.11743E-01
        -0.12296E-01
        -0.75770E-03
         0.15220E-01
        -0.22032E-01
         0.51342E-01
         0.66216E-01
         0.85318E-01
         0.10209E+00
         0.99910E-01
         0.87402E-01
         0.83861E-01
         0.82885E-01
         0.52120E-01
         0.17354E-01
         0.68696E-02
         0.60226E-02
        -0.24531E-02
        -0.23269E-01
        -0.46597E-01
        -0.64601E-01
        -0.83771E-01
        -0.92838E-01
        -0.81549E-01
        -0.77130E-01
        -0.76678E-01
        -0.53697E-01
        -0.27767E-01
        -0.26219E-01
        -0.14470E-01
        -0.90643E-02
        -0.84384E-02
        -0.21865E-02
        -0.10908E-01
        -0.49492E-02
        -0.39306E-02
        -0.13840E-01
        -0.91191E-02
        -0.13340E-01
         0.68207E-02
         0.29195E-01
         0.17380E-01
         0.25065E-02
         0.29270E-01
         0.54589E-02
        -0.18623E-02
         0.15443E-02
         0.71747E-02
         0.12606E-02
         0.63289E-02
         0.43915E-02
        -0.25616E-02
         0.20925E-02
        -0.90552E-02
         0.20361E-02
         0.65130E-03
         0.11211E-02
        -0.13660E-02
        -0.87614E-02
         0.58687E-02
         0.14473E-02
         0.39084E-02
         0.33710E-02
        -0.13750E-02
         0.48367E-02
         0.91473E-02
         0.22333E-01
         0.19864E-01
         0.17297E-01
         0.12663E-01
        -0.29050E-02
        -0.64076E-02
        -0.80740E-02
        -0.10299E-01
        -0.20935E-01
        -0.12210E-01
        -0.80118E-02
        -0.99600E-02
        -0.11729E-01
        -0.12292E-01
        -0.74359E-03
         0.15205E-01
        -0.22033E-01
         0.51350E-01
         0.66217E-01
         0.85308E-01
         0.10206E+00
         0.99866E-01
         0.87375E-01
         0.83844E-01
         0.82861E-01
         0.52111E-01
         0.17366E-01
         0.68706E-02
         0.60346E-02
        -0.24306E-02
        -0.23284E-01
        -0.46627E-01
        -0.64620E-01
        -0.83769E-01
        -0.92832E-01
        -0.81545E-01
        -0.77128E-01
        -0.76657E-01
        -0.53658E-01
        -0.27737E-01
        -0.26184E-01
        -0.14477E-01
        -0.90636E-02
        -0.84424E-02
        -0.22021E-02
        -0.10909E-01
        -0.49531E-02
        -0.39333E-02
        -0.13858E-01
        -0.91360E-02
        -0.13381E-01
         0.68268E-02
         0.29194E-01
         0.17386E-01
         0.25085E-02
         0.29308E-01
         0.54600E-02
        -0.18793E-02
         0.15418E-02
         0.71801E-02
         0.12516E-02
         0.63449E-02
         0.43945E-02
        -0.25653E-02
         0.20896E-02
        -0.90888E-02
         0.20283E-02
         0.66160E-03
         0.11317E-02
        -0.13477E-02
        -0.87743E-02
         0.58680E-02
         0.14383E-02
         0.39172E-02
         0.33771E-02
        -0.13596E-02
         0.48407E-02
         0.91479E-02
         0.22369E-01
         0.19908E-01
         0.17320E-01
         0.12677E-01
        -0.28896E-02
        -0.64107E-02
        -0.80855E-02
        -0.10306E-01
        -0.20940E-01
        -0.12216E-01
        -0.80116E-02
        -0.99505E-02
        -0.11714E-01
        -0.12287E-01
        -0.72940E-03
         0.15190E-01
        -0.22033E-01
         0.51359E-01
         0.66217E-01
         0.85298E-01
         0.10202E+00
         0.99823E-01
         0.87348E-01
         0.83827E-01
         0.82836E-01
         0.52103E-01
         0.17379E-01
         0.68716E-02
         0.60465E-02
        -0.24081E-02
        -0.23299E-01
        -0.46657E-01
        -0.64640E-01
        -0.83767E-01
        -0.92826E-01
        -0.81541E-01
        -0.77126E-01
        -0.76637E-01
        -0.53620E-01
        -0.27707E-01
        -0.26149E-01
        -0.14484E-01
        -0.90627E-02
        -0.84463E-02
        -0.22176E-02
        -0.10911E-01
        -0.49570E-02
        -0.39360E-02
        -0.13877E-01
        -0.91530E-02
        -0.13423E-01
         0.68328E-02
         0.29193E-01
         0.17392E-01
         0.25109E-02
         0.29345E-01
         0.54611E-02
        -0.18964E-02
         0.15393E-02
         0.71856E-02
         0.12426E-02
         0.63608E-02
         0.43974E-02
        -0.25690E-02
         0.20867E-02
        -0.91223E-02
         0.20206E-02
         0.67163E-03
         0.11421E-02
        -0.13295E-02
        -0.87872E-02
         0.58673E-02
         0.14293E-02
         0.39260E-02
         0.33833E-02
        -0.13441E-02
         0.48445E-02
         0.91486E-02
         0.22405E-01
         0.19953E-01
         0.17343E-01
         0.12691E-01
        -0.28743E-02
        -0.64139E-02
        -0.80969E-02
        -0.10313E-01
        -0.20945E-01
        -0.12221E-01
        -0.80111E-02
        -0.99411E-02
        -0.11699E-01
        -0.12282E-01
        -0.71519E-03
         0.15176E-01
        -0.22034E-01
         0.51367E-01
         0.66218E-01
         0.85288E-01
         0.10199E+00
         0.99779E-01
         0.87321E-01
         0.83810E-01
         0.82812E-01
         0.52094E-01
         0.17392E-01
         0.68726E-02
         0.60583E-02
        -0.23855E-02
        -0.23314E-01
        -0.46686E-01
        -0.64659E-01
        -0.83764E-01
        -0.92820E-01
        -0.81537E-01
        -0.77124E-01
        -0.76616E-01
        -0.53581E-01
        -0.27677E-01
        -0.26114E-01
        -0.14491E-01
        -0.90620E-02
        -0.84504E-02
        -0.22331E-02
        -0.10912E-01
        -0.49608E-02
        -0.39389E-02
        -0.13895E-01
        -0.91700E-02
        -0.13464E-01
         0.68390E-02
         0.29191E-01
         0.17397E-01
         0.25128E-02
         0.29382E-01
         0.54621E-02
        -0.19135E-02
         0.15367E-02
         0.71910E-02
         0.12337E-02
         0.63767E-02
         0.44003E-02
        -0.25727E-02
         0.20838E-02
        -0.91558E-02
         0.20128E-02
         0.68192E-03
         0.11525E-02
        -0.13112E-02
        -0.87997E-02
         0.58665E-02
         0.14204E-02
         0.39348E-02
         0.33894E-02
        -0.13285E-02
         0.48483E-02
         0.91490E-02
         0.22441E-01
         0.19997E-01
         0.17365E-01
         0.12705E-01
        -0.28592E-02
        -0.64171E-02
        -0.81086E-02
        -0.10320E-01
        -0.20950E-01
        -0.12227E-01
        -0.80109E-02
        -0.99317E-02
        -0.11684E-01
        -0.12277E-01
        -0.70111E-03
         0.15161E-01
        -0.22035E-01
         0.51376E-01
         0.66218E-01
         0.85277E-01
         0.10195E+00
         0.99735E-01
         0.87294E-01
         0.83792E-01
         0.82787E-01
         0.52086E-01
         0.17404E-01
         0.68733E-02
         0.60700E-02
        -0.23631E-02
        -0.23329E-01
        -0.46716E-01
        -0.64678E-01
        -0.83762E-01
        -0.92814E-01
        -0.81534E-01
        -0.77122E-01
        -0.76595E-01
        -0.53543E-01
        -0.27647E-01
        -0.26079E-01
        -0.14498E-01
        -0.90613E-02
        -0.84544E-02
        -0.22488E-02
        -0.10914E-01
        -0.49647E-02
        -0.39417E-02
        -0.13913E-01
        -0.91871E-02
        -0.13505E-01
         0.68450E-02
         0.29190E-01
         0.17403E-01
         0.25151E-02
         0.29420E-01
         0.54632E-02
        -0.19309E-02
         0.15341E-02
         0.71965E-02
         0.12252E-02
         0.63926E-02
         0.44030E-02
        -0.25764E-02
         0.20809E-02
        -0.91893E-02
         0.20051E-02
         0.69212E-03
         0.11628E-02
        -0.12930E-02
        -0.88115E-02
         0.58658E-02
         0.14113E-02
         0.39435E-02
         0.33956E-02
        -0.13129E-02
         0.48523E-02
         0.91497E-02
         0.22477E-01
         0.20042E-01
         0.17387E-01
         0.12719E-01
        -0.28438E-02
        -0.64204E-02
        -0.81201E-02
        -0.10328E-01
        -0.20954E-01
        -0.12233E-01
        -0.80105E-02
        -0.99220E-02
        -0.11669E-01
        -0.12272E-01
        -0.68701E-03
         0.15146E-01
        -0.22036E-01
         0.51384E-01
         0.66219E-01
         0.85267E-01
         0.10192E+00
         0.99692E-01
         0.87267E-01
         0.83775E-01
         0.82760E-01
         0.52079E-01
         0.17417E-01
         0.68736E-02
         0.60817E-02
        -0.23407E-02
        -0.23344E-01
        -0.46745E-01
        -0.64697E-01
        -0.83760E-01
        -0.92808E-01
        -0.81530E-01
        -0.77121E-01
        -0.76575E-01
        -0.53504E-01
        -0.27618E-01
        -0.26044E-01
        -0.14505E-01
        -0.90607E-02
        -0.84583E-02
        -0.22644E-02
        -0.10915E-01
        -0.49685E-02
        -0.39444E-02
        -0.13931E-01
        -0.92044E-02
        -0.13547E-01
         0.68511E-02
         0.29188E-01
         0.17409E-01
         0.25173E-02
         0.29457E-01
         0.54642E-02
        -0.19485E-02
         0.15315E-02
         0.72019E-02
         0.12171E-02
         0.64085E-02
         0.44057E-02
        -0.25801E-02
         0.20780E-02
        -0.92229E-02
         0.19973E-02
         0.70276E-03
         0.11730E-02
        -0.12749E-02
        -0.88226E-02
         0.58650E-02
         0.14023E-02
         0.39523E-02
         0.34018E-02
        -0.12972E-02
         0.48562E-02
         0.91502E-02
         0.22514E-01
         0.20086E-01
         0.17408E-01
         0.12732E-01
        -0.28285E-02
        -0.64239E-02
        -0.81316E-02
        -0.10335E-01
        -0.20959E-01
        -0.12238E-01
        -0.80101E-02
        -0.99127E-02
        -0.11654E-01
        -0.12267E-01
        -0.67281E-03
         0.15132E-01
        -0.22037E-01
         0.51392E-01
         0.66219E-01
         0.85256E-01
         0.10188E+00
         0.99648E-01
         0.87240E-01
         0.83757E-01
         0.82733E-01
         0.52072E-01
         0.17430E-01
         0.68734E-02
         0.60934E-02
        -0.23182E-02
        -0.23359E-01
        -0.46775E-01
        -0.64717E-01
        -0.83758E-01
        -0.92801E-01
        -0.81526E-01
        -0.77119E-01
        -0.76554E-01
        -0.53466E-01
        -0.27588E-01
        -0.26009E-01
        -0.14512E-01
        -0.90600E-02
        -0.84626E-02
        -0.22799E-02
        -0.10916E-01
        -0.49724E-02
        -0.39474E-02
        -0.13949E-01
        -0.92218E-02
        -0.13588E-01
         0.68572E-02
         0.29187E-01
         0.17415E-01
         0.25192E-02
         0.29494E-01
         0.54653E-02
        -0.19662E-02
         0.15289E-02
         0.72075E-02
         0.12092E-02
         0.64245E-02
         0.44084E-02
        -0.25836E-02
         0.20754E-02
        -0.92564E-02
         0.19898E-02
         0.71312E-03
         0.11827E-02
        -0.12570E-02
        -0.88335E-02
         0.58643E-02
         0.13935E-02
         0.39610E-02
         0.34081E-02
        -0.12817E-02
         0.48599E-02
         0.91505E-02
         0.22551E-01
         0.20130E-01
         0.17428E-01
         0.12746E-01
        -0.28135E-02
        -0.64276E-02
        -0.81429E-02
        -0.10342E-01
        -0.20964E-01
        -0.12244E-01
        -0.80098E-02
        -0.99032E-02
        -0.11640E-01
        -0.12262E-01
        -0.65871E-03
         0.15117E-01
        -0.22038E-01
         0.51401E-01
         0.66220E-01
         0.85247E-01
         0.10185E+00
         0.99604E-01
         0.87214E-01
         0.83739E-01
         0.82704E-01
         0.52066E-01
         0.17442E-01
         0.68727E-02
         0.61051E-02
        -0.22957E-02
        -0.23373E-01
        -0.46804E-01
        -0.64736E-01
        -0.83756E-01
        -0.92795E-01
        -0.81522E-01
        -0.77117E-01
        -0.76533E-01
        -0.53427E-01
        -0.27559E-01
        -0.25974E-01
        -0.14576E-01
        -0.90960E-02
        -0.85010E-02
        -0.23038E-02
        -0.10960E-01
        -0.49950E-02
        -0.39663E-02
        -0.14019E-01
        -0.92739E-02
        -0.13678E-01
         0.68892E-02
         0.29293E-01
         0.17484E-01
         0.25308E-02
         0.29641E-01
         0.54880E-02
        -0.19906E-02
         0.15323E-02
         0.72404E-02
         0.12068E-02
         0.64629E-02
         0.44273E-02
        -0.25945E-02
         0.20821E-02
        -0.93242E-02
         0.19925E-02
         0.72536E-03
         0.11948E-02
        -0.12473E-02
        -0.88793E-02
         0.58875E-02
         0.13927E-02
         0.39848E-02
         0.34274E-02
        -0.12725E-02
         0.48799E-02
         0.91833E-02
         0.22671E-01
         0.20248E-01
         0.17513E-01
         0.12806E-01
        -0.28127E-02
        -0.64571E-02
        -0.81799E-02
        -0.10383E-01
        -0.21041E-01
        -0.12292E-01
        -0.80366E-02
        -0.99302E-02
        -0.11669E-01
        -0.12303E-01
        -0.64722E-03
         0.15154E-01
        -0.22119E-01
         0.51589E-01
         0.66452E-01
         0.85542E-01
         0.10219E+00
         0.99936E-01
         0.87518E-01
         0.84039E-01
         0.82994E-01
         0.52255E-01
         0.17514E-01
         0.68941E-02
         0.61365E-02
        -0.22819E-02
        -0.23461E-01
        -0.46982E-01
        -0.64972E-01
        -0.84052E-01
        -0.93120E-01
        -0.81799E-01
        -0.77376E-01
        -0.76776E-01
        -0.53576E-01
        -0.27626E-01
        -0.26030E-01
        -0.21705E-01
        -0.13600E-01
        -0.12640E-01
        -0.34552E-02
        -0.15728E-01
        -0.72399E-02
        -0.59186E-02
        -0.20783E-01
        -0.13789E-01
        -0.20240E-01
         0.10103E-01
         0.41256E-01
         0.25001E-01
         0.36964E-02
         0.41990E-01
         0.81811E-02
        -0.29768E-02
         0.22826E-02
         0.10650E-01
         0.17745E-02
         0.92511E-02
         0.64105E-02
        -0.37158E-02
         0.30854E-02
        -0.13935E-01
         0.29763E-02
         0.10771E-02
         0.17861E-02
        -0.18556E-02
        -0.13245E-01
         0.87773E-02
         0.20691E-02
         0.59610E-02
         0.51198E-02
        -0.17675E-02
         0.70611E-02
         0.13288E-01
         0.32829E-01
         0.29745E-01
         0.25816E-01
         0.18617E-01
        -0.41111E-02
        -0.94567E-02
        -0.11809E-01
        -0.14937E-01
        -0.29402E-01
        -0.17622E-01
        -0.11661E-01
        -0.14480E-01
        -0.16939E-01
        -0.17436E-01
        -0.92017E-03
         0.18890E-01
        -0.27560E-01
         0.64282E-01
         0.83036E-01
         0.10680E+00
         0.12788E+00
         0.12646E+00
         0.11169E+00
         0.10706E+00
         0.10510E+00
         0.66255E-01
         0.22170E-01
         0.88193E-02
         0.78878E-02
        -0.28737E-02
        -0.29401E-01
        -0.58701E-01
        -0.80719E-01
        -0.10435E+00
        -0.11574E+00
        -0.10273E+00
        -0.97612E-01
        -0.96494E-01
        -0.67556E-01
        -0.34719E-01
        -0.32590E-01
  
SCALARS                      strain_xz  double 1
LOOKUP_TABLE default
        -0.19979E-02
         0.13545E-01
         0.45854E-01
        -0.32923E-02
        -0.23887E-09
         0.84698E-10
         0.28321E-09
         0.56563E-10
         0.12564E+00
         0.85080E-01
         0.84711E-09
         0.76303E-09
        -0.50578E-02
         0.20592E-01
        -0.10448E-09
        -0.48943E-09
         0.47829E-02
         0.19826E-01
        -0.35353E-09
        -0.52653E-09
         0.27731E-01
         0.45025E-01
         0.45215E-01
        -0.35159E-09
        -0.16213E-09
         0.28325E-09
         0.47628E-01
         0.36580E-01
        -0.65813E-09
        -0.52207E-09
        -0.11168E-01
         0.23561E-01
        -0.24922E-02
         0.67006E-10
        -0.25894E-09
        -0.15953E-09
        -0.32165E-01
        -0.14497E-01
        -0.38444E-09
        -0.40933E-09
        -0.62448E-01
        -0.83967E-01
        -0.86719E-09
        -0.63951E-09
        -0.69757E-01
        -0.37856E-01
        -0.95232E-09
        -0.45838E-09
         0.17430E-01
        -0.28772E-09
        -0.48416E-01
        -0.80091E-10
         0.17032E-01
        -0.56221E-09
        -0.12503E-01
        -0.14872E-09
        -0.54721E-01
        -0.15960E-01
        -0.12740E-09
        -0.30794E-09
         0.11912E-02
        -0.32223E-01
         0.25481E-09
         0.17474E-09
         0.86393E-02
        -0.25631E-10
         0.28256E-01
         0.16859E-09
         0.17460E+00
         0.11889E+00
         0.10537E-08
         0.76423E-09
         0.75362E-01
         0.55646E-09
        -0.14819E-01
        -0.38493E-09
        -0.45908E-01
        -0.75548E-10
        -0.97820E-01
        -0.11721E-09
        -0.13306E+00
        -0.97174E-01
        -0.42955E-09
        -0.49126E-09
        -0.90712E-01
        -0.52832E-09
        -0.84508E-01
        -0.76066E-09
        -0.51402E-01
        -0.48516E-09
        -0.79344E-01
        -0.57729E-01
        -0.20706E-09
         0.28396E-09
         0.13374E-01
         0.33308E-09
         0.37060E-01
         0.13985E-09
         0.88228E-01
         0.34536E-09
         0.13002E+00
         0.90011E-01
         0.79631E-09
         0.83095E-09
         0.30347E+00
         0.34389E+00
         0.14714E-08
         0.14500E-08
         0.29923E+00
         0.12570E-08
         0.28010E+00
         0.93938E-09
         0.19572E+00
         0.51623E-09
         0.13394E+00
         0.55202E-10
         0.46804E-01
        -0.19661E-09
        -0.58113E-01
        -0.15730E-09
        -0.13815E+00
        -0.15461E-09
        -0.20551E+00
        -0.34866E-09
        -0.28776E+00
        -0.66332E-09
        -0.37603E+00
        -0.79155E-09
        -0.43140E+00
        -0.74685E-09
        -0.42904E+00
        -0.81214E-09
        -0.40993E+00
        -0.10540E-08
        -0.37877E+00
        -0.12429E-08
        -0.33371E+00
        -0.11554E-08
        -0.24839E+00
        -0.93902E-09
        -0.13895E+00
        -0.44330E-09
        -0.11713E-01
         0.84649E-10
         0.78421E-01
         0.20551E-09
         0.12440E+00
         0.33606E-09
         0.18294E+00
         0.65769E-09
         0.24129E+00
         0.10792E-08
         0.32259E+00
         0.12966E-08
         0.37882E+00
         0.13262E-08
        -0.23548E-02
         0.12250E-02
         0.14373E-02
        -0.28962E-02
         0.11186E-01
         0.86683E-02
         0.13055E-02
        -0.19206E-02
        -0.99230E-03
        -0.17646E-02
         0.96420E-03
         0.41727E-02
         0.87319E-02
        -0.27931E-02
        -0.33570E-02
         0.38544E-02
         0.32342E-02
        -0.14997E-02
        -0.23309E-02
        -0.25083E-02
        -0.13706E-01
        -0.14599E-01
        -0.13174E-01
        -0.40948E-02
         0.16431E-02
        -0.12243E-02
        -0.39274E-02
        -0.44046E-03
        -0.44998E-02
        -0.31009E-02
         0.34411E-02
         0.67472E-03
        -0.16215E-02
        -0.52408E-03
         0.16480E-01
         0.10527E-01
         0.95365E-02
        -0.66681E-02
        -0.37975E-02
        -0.81027E-02
        -0.16639E-01
        -0.15582E-01
        -0.15430E-01
        -0.11338E-01
        -0.81217E-02
        -0.63322E-02
         0.11927E-02
         0.49928E-02
         0.14437E-02
         0.45689E-02
         0.12177E-01
         0.10287E-01
         0.47781E-01
         0.50433E-01
         0.45049E-01
         0.38374E-01
         0.28574E-01
         0.14521E-01
        -0.85881E-03
        -0.10295E-01
        -0.15691E-01
        -0.26935E-01
        -0.43836E-01
        -0.53769E-01
        -0.49349E-01
        -0.47359E-01
        -0.50108E-01
        -0.50154E-01
        -0.45568E-01
        -0.39838E-01
        -0.20032E-01
         0.31734E-02
         0.12225E-01
         0.13625E-01
         0.23063E-01
         0.36733E-01
         0.47830E-01
         0.50337E-01
        -0.48783E-02
         0.10014E-02
        -0.19065E-02
        -0.55512E-02
         0.11387E-01
         0.97308E-02
         0.28351E-02
        -0.61889E-02
        -0.28437E-02
        -0.58837E-02
        -0.11886E-02
         0.43363E-02
         0.14266E-01
        -0.10941E-01
        -0.11331E-01
         0.95842E-02
         0.53356E-02
        -0.31958E-02
        -0.21507E-02
        -0.37769E-02
        -0.22409E-01
        -0.21357E-01
        -0.21075E-01
        -0.50976E-02
         0.28953E-02
         0.19495E-02
        -0.10572E-01
         0.14038E-02
        -0.35382E-02
        -0.48250E-02
         0.73634E-02
         0.47648E-02
        -0.47758E-02
        -0.41218E-02
         0.20307E-01
         0.11208E-01
         0.12856E-01
        -0.12566E-01
        -0.21040E-02
        -0.61001E-02
        -0.22410E-01
        -0.23053E-01
        -0.22533E-01
        -0.16293E-01
        -0.12547E-01
        -0.73413E-02
         0.79344E-02
         0.93671E-02
        -0.12382E-02
         0.14909E-02
         0.15281E-01
         0.13461E-01
         0.84822E-01
         0.85475E-01
         0.76722E-01
         0.63281E-01
         0.47211E-01
         0.21740E-01
        -0.53982E-02
        -0.17495E-01
        -0.23049E-01
        -0.42244E-01
        -0.75038E-01
        -0.88524E-01
        -0.74258E-01
        -0.70652E-01
        -0.77827E-01
        -0.80143E-01
        -0.73143E-01
        -0.69174E-01
        -0.35248E-01
         0.91609E-02
         0.20265E-01
         0.20533E-01
         0.36502E-01
         0.63203E-01
         0.80894E-01
         0.80640E-01
        -0.48875E-02
         0.10051E-02
        -0.19101E-02
        -0.55549E-02
         0.11376E-01
         0.97218E-02
         0.28531E-02
        -0.61732E-02
        -0.28468E-02
        -0.58791E-02
        -0.11646E-02
         0.43469E-02
         0.14275E-01
        -0.10914E-01
        -0.11325E-01
         0.95941E-02
         0.53473E-02
        -0.31869E-02
        -0.21496E-02
        -0.37703E-02
        -0.22407E-01
        -0.21354E-01
        -0.21073E-01
        -0.50978E-02
         0.29019E-02
         0.19528E-02
        -0.10575E-01
         0.13774E-02
        -0.35631E-02
        -0.48281E-02
         0.73742E-02
         0.47642E-02
        -0.47559E-02
        -0.41237E-02
         0.20317E-01
         0.11203E-01
         0.12852E-01
        -0.12587E-01
        -0.21241E-02
        -0.61194E-02
        -0.22424E-01
        -0.23066E-01
        -0.22534E-01
        -0.16291E-01
        -0.12543E-01
        -0.73375E-02
         0.79328E-02
         0.93702E-02
        -0.12292E-02
         0.14858E-02
         0.15271E-01
         0.13441E-01
         0.84793E-01
         0.85453E-01
         0.76715E-01
         0.63281E-01
         0.47196E-01
         0.21733E-01
        -0.54043E-02
        -0.17506E-01
        -0.23029E-01
        -0.42227E-01
        -0.75027E-01
        -0.88526E-01
        -0.74251E-01
        -0.70648E-01
        -0.77837E-01
        -0.80160E-01
        -0.73156E-01
        -0.69188E-01
        -0.35238E-01
         0.91651E-02
         0.20250E-01
         0.20525E-01
         0.36475E-01
         0.63164E-01
         0.80854E-01
         0.80604E-01
        -0.48968E-02
         0.10088E-02
        -0.19137E-02
        -0.55586E-02
         0.11364E-01
         0.97130E-02
         0.28712E-02
        -0.61576E-02
        -0.28498E-02
        -0.58741E-02
        -0.11406E-02
         0.43574E-02
         0.14283E-01
        -0.10887E-01
        -0.11319E-01
         0.96044E-02
         0.53593E-02
        -0.31780E-02
        -0.21485E-02
        -0.37639E-02
        -0.22405E-01
        -0.21352E-01
        -0.21072E-01
        -0.50981E-02
         0.29088E-02
         0.19563E-02
        -0.10578E-01
         0.13513E-02
        -0.35881E-02
        -0.48311E-02
         0.73852E-02
         0.47638E-02
        -0.47359E-02
        -0.41255E-02
         0.20327E-01
         0.11198E-01
         0.12848E-01
        -0.12607E-01
        -0.21443E-02
        -0.61388E-02
        -0.22438E-01
        -0.23080E-01
        -0.22536E-01
        -0.16289E-01
        -0.12538E-01
        -0.73339E-02
         0.79314E-02
         0.93733E-02
        -0.12199E-02
         0.14805E-02
         0.15262E-01
         0.13422E-01
         0.84764E-01
         0.85431E-01
         0.76708E-01
         0.63281E-01
         0.47182E-01
         0.21727E-01
        -0.54105E-02
        -0.17517E-01
        -0.23010E-01
        -0.42211E-01
        -0.75015E-01
        -0.88528E-01
        -0.74244E-01
        -0.70644E-01
        -0.77847E-01
        -0.80178E-01
        -0.73169E-01
        -0.69201E-01
        -0.35228E-01
         0.91692E-02
         0.20236E-01
         0.20517E-01
         0.36448E-01
         0.63125E-01
         0.80814E-01
         0.80569E-01
        -0.49061E-02
         0.10126E-02
        -0.19172E-02
        -0.55623E-02
         0.11353E-01
         0.97041E-02
         0.28891E-02
        -0.61418E-02
        -0.28523E-02
        -0.58683E-02
        -0.11166E-02
         0.43682E-02
         0.14292E-01
        -0.10860E-01
        -0.11313E-01
         0.96154E-02
         0.53717E-02
        -0.31690E-02
        -0.21476E-02
        -0.37571E-02
        -0.22404E-01
        -0.21350E-01
        -0.21072E-01
        -0.50984E-02
         0.29171E-02
         0.19606E-02
        -0.10581E-01
         0.13261E-02
        -0.36131E-02
        -0.48339E-02
         0.73971E-02
         0.47643E-02
        -0.47158E-02
        -0.41274E-02
         0.20337E-01
         0.11193E-01
         0.12844E-01
        -0.12627E-01
        -0.21644E-02
        -0.61580E-02
        -0.22453E-01
        -0.23094E-01
        -0.22539E-01
        -0.16287E-01
        -0.12533E-01
        -0.73300E-02
         0.79302E-02
         0.93765E-02
        -0.12106E-02
         0.14752E-02
         0.15252E-01
         0.13402E-01
         0.84735E-01
         0.85409E-01
         0.76702E-01
         0.63282E-01
         0.47167E-01
         0.21720E-01
        -0.54168E-02
        -0.17528E-01
        -0.22990E-01
        -0.42194E-01
        -0.75004E-01
        -0.88530E-01
        -0.74239E-01
        -0.70641E-01
        -0.77859E-01
        -0.80199E-01
        -0.73184E-01
        -0.69215E-01
        -0.35218E-01
         0.91734E-02
         0.20221E-01
         0.20509E-01
         0.36421E-01
         0.63087E-01
         0.80774E-01
         0.80533E-01
        -0.49152E-02
         0.10164E-02
        -0.19208E-02
        -0.55659E-02
         0.11342E-01
         0.96951E-02
         0.29073E-02
        -0.61259E-02
        -0.28545E-02
        -0.58616E-02
        -0.10926E-02
         0.43787E-02
         0.14301E-01
        -0.10833E-01
        -0.11307E-01
         0.96274E-02
         0.53847E-02
        -0.31600E-02
        -0.21464E-02
        -0.37504E-02
        -0.22403E-01
        -0.21349E-01
        -0.21073E-01
        -0.50987E-02
         0.29267E-02
         0.19656E-02
        -0.10583E-01
         0.13016E-02
        -0.36379E-02
        -0.48366E-02
         0.74098E-02
         0.47654E-02
        -0.46956E-02
        -0.41292E-02
         0.20347E-01
         0.11188E-01
         0.12840E-01
        -0.12647E-01
        -0.21844E-02
        -0.61775E-02
        -0.22468E-01
        -0.23110E-01
        -0.22543E-01
        -0.16286E-01
        -0.12528E-01
        -0.73257E-02
         0.79294E-02
         0.93800E-02
        -0.12014E-02
         0.14701E-02
         0.15242E-01
         0.13382E-01
         0.84706E-01
         0.85387E-01
         0.76695E-01
         0.63282E-01
         0.47153E-01
         0.21714E-01
        -0.54229E-02
        -0.17539E-01
        -0.22971E-01
        -0.42177E-01
        -0.74992E-01
        -0.88534E-01
        -0.74236E-01
        -0.70638E-01
        -0.77871E-01
        -0.80222E-01
        -0.73200E-01
        -0.69228E-01
        -0.35209E-01
         0.91776E-02
         0.20206E-01
         0.20501E-01
         0.36395E-01
         0.63048E-01
         0.80734E-01
         0.80497E-01
        -0.49240E-02
         0.10205E-02
        -0.19239E-02
        -0.55694E-02
         0.11331E-01
         0.96861E-02
         0.29254E-02
        -0.61098E-02
        -0.28567E-02
        -0.58547E-02
        -0.10686E-02
         0.43893E-02
         0.14309E-01
        -0.10806E-01
        -0.11301E-01
         0.96395E-02
         0.53977E-02
        -0.31510E-02
        -0.21452E-02
        -0.37439E-02
        -0.22403E-01
        -0.21348E-01
        -0.21075E-01
        -0.50991E-02
         0.29363E-02
         0.19707E-02
        -0.10585E-01
         0.12773E-02
        -0.36629E-02
        -0.48397E-02
         0.74224E-02
         0.47665E-02
        -0.46753E-02
        -0.41308E-02
         0.20358E-01
         0.11183E-01
         0.12836E-01
        -0.12667E-01
        -0.22044E-02
        -0.61969E-02
        -0.22484E-01
        -0.23125E-01
        -0.22549E-01
        -0.16286E-01
        -0.12524E-01
        -0.73221E-02
         0.79282E-02
         0.93834E-02
        -0.11919E-02
         0.14653E-02
         0.15233E-01
         0.13362E-01
         0.84677E-01
         0.85365E-01
         0.76688E-01
         0.63282E-01
         0.47138E-01
         0.21707E-01
        -0.54288E-02
        -0.17550E-01
        -0.22951E-01
        -0.42160E-01
        -0.74980E-01
        -0.88538E-01
        -0.74233E-01
        -0.70636E-01
        -0.77883E-01
        -0.80247E-01
        -0.73216E-01
        -0.69241E-01
        -0.35199E-01
         0.91813E-02
         0.20191E-01
         0.20493E-01
         0.36368E-01
         0.63010E-01
         0.80694E-01
         0.80461E-01
        -0.49321E-02
         0.10254E-02
        -0.19263E-02
        -0.55729E-02
         0.11320E-01
         0.96774E-02
         0.29438E-02
        -0.60933E-02
        -0.28589E-02
        -0.58482E-02
        -0.10445E-02
         0.44000E-02
         0.14318E-01
        -0.10779E-01
        -0.11295E-01
         0.96516E-02
         0.54102E-02
        -0.31419E-02
        -0.21442E-02
        -0.37376E-02
        -0.22403E-01
        -0.21348E-01
        -0.21077E-01
        -0.50997E-02
         0.29447E-02
         0.19752E-02
        -0.10587E-01
         0.12525E-02
        -0.36882E-02
        -0.48433E-02
         0.74343E-02
         0.47667E-02
        -0.46544E-02
        -0.41320E-02
         0.20368E-01
         0.11179E-01
         0.12832E-01
        -0.12686E-01
        -0.22246E-02
        -0.62168E-02
        -0.22499E-01
        -0.23142E-01
        -0.22554E-01
        -0.16285E-01
        -0.12520E-01
        -0.73187E-02
         0.79264E-02
         0.93866E-02
        -0.11816E-02
         0.14616E-02
         0.15225E-01
         0.13343E-01
         0.84648E-01
         0.85343E-01
         0.76681E-01
         0.63283E-01
         0.47124E-01
         0.21701E-01
        -0.54349E-02
        -0.17560E-01
        -0.22932E-01
        -0.42144E-01
        -0.74967E-01
        -0.88541E-01
        -0.74230E-01
        -0.70634E-01
        -0.77896E-01
        -0.80271E-01
        -0.73233E-01
        -0.69253E-01
        -0.35189E-01
         0.91844E-02
         0.20175E-01
         0.20485E-01
         0.36342E-01
         0.62972E-01
         0.80654E-01
         0.80425E-01
        -0.49399E-02
         0.10306E-02
        -0.19284E-02
        -0.55763E-02
         0.11310E-01
         0.96684E-02
         0.29625E-02
        -0.60766E-02
        -0.28612E-02
        -0.58420E-02
        -0.10203E-02
         0.44106E-02
         0.14327E-01
        -0.10752E-01
        -0.11288E-01
         0.96637E-02
         0.54225E-02
        -0.31328E-02
        -0.21431E-02
        -0.37316E-02
        -0.22402E-01
        -0.21347E-01
        -0.21078E-01
        -0.51002E-02
         0.29526E-02
         0.19794E-02
        -0.10590E-01
         0.12274E-02
        -0.37138E-02
        -0.48472E-02
         0.74459E-02
         0.47664E-02
        -0.46334E-02
        -0.41330E-02
         0.20380E-01
         0.11176E-01
         0.12829E-01
        -0.12706E-01
        -0.22448E-02
        -0.62365E-02
        -0.22515E-01
        -0.23158E-01
        -0.22559E-01
        -0.16285E-01
        -0.12516E-01
        -0.73160E-02
         0.79244E-02
         0.93895E-02
        -0.11710E-02
         0.14584E-02
         0.15217E-01
         0.13324E-01
         0.84619E-01
         0.85322E-01
         0.76673E-01
         0.63283E-01
         0.47109E-01
         0.21694E-01
        -0.54409E-02
        -0.17571E-01
        -0.22913E-01
        -0.42127E-01
        -0.74955E-01
        -0.88545E-01
        -0.74227E-01
        -0.70631E-01
        -0.77908E-01
        -0.80296E-01
        -0.73250E-01
        -0.69265E-01
        -0.35178E-01
         0.91874E-02
         0.20160E-01
         0.20477E-01
         0.36316E-01
         0.62934E-01
         0.80614E-01
         0.80389E-01
        -0.49476E-02
         0.10358E-02
        -0.19305E-02
        -0.55796E-02
         0.11299E-01
         0.96594E-02
         0.29810E-02
        -0.60600E-02
        -0.28636E-02
        -0.58358E-02
        -0.99618E-03
         0.44212E-02
         0.14336E-01
        -0.10725E-01
        -0.11282E-01
         0.96758E-02
         0.54347E-02
        -0.31237E-02
        -0.21420E-02
        -0.37255E-02
        -0.22402E-01
        -0.21347E-01
        -0.21080E-01
        -0.51010E-02
         0.29604E-02
         0.19836E-02
        -0.10592E-01
         0.12025E-02
        -0.37393E-02
        -0.48510E-02
         0.74575E-02
         0.47661E-02
        -0.46123E-02
        -0.41340E-02
         0.20391E-01
         0.11172E-01
         0.12826E-01
        -0.12726E-01
        -0.22651E-02
        -0.62562E-02
        -0.22530E-01
        -0.23174E-01
        -0.22565E-01
        -0.16285E-01
        -0.12512E-01
        -0.73133E-02
         0.79223E-02
         0.93924E-02
        -0.11603E-02
         0.14554E-02
         0.15209E-01
         0.13305E-01
         0.84590E-01
         0.85300E-01
         0.76666E-01
         0.63283E-01
         0.47094E-01
         0.21687E-01
        -0.54469E-02
        -0.17582E-01
        -0.22894E-01
        -0.42110E-01
        -0.74943E-01
        -0.88548E-01
        -0.74225E-01
        -0.70629E-01
        -0.77921E-01
        -0.80321E-01
        -0.73266E-01
        -0.69277E-01
        -0.35168E-01
         0.91903E-02
         0.20144E-01
         0.20469E-01
         0.36290E-01
         0.62896E-01
         0.80574E-01
         0.80353E-01
        -0.49553E-02
         0.10411E-02
        -0.19325E-02
        -0.55830E-02
         0.11289E-01
         0.96504E-02
         0.29997E-02
        -0.60434E-02
        -0.28660E-02
        -0.58296E-02
        -0.97207E-03
         0.44318E-02
         0.14345E-01
        -0.10698E-01
        -0.11276E-01
         0.96878E-02
         0.54469E-02
        -0.31147E-02
        -0.21408E-02
        -0.37195E-02
        -0.22402E-01
        -0.21346E-01
        -0.21082E-01
        -0.51016E-02
         0.29683E-02
         0.19878E-02
        -0.10595E-01
         0.11776E-02
        -0.37648E-02
        -0.48548E-02
         0.74690E-02
         0.47657E-02
        -0.45914E-02
        -0.41350E-02
         0.20402E-01
         0.11168E-01
         0.12823E-01
        -0.12746E-01
        -0.22853E-02
        -0.62762E-02
        -0.22546E-01
        -0.23191E-01
        -0.22570E-01
        -0.16285E-01
        -0.12509E-01
        -0.73103E-02
         0.79203E-02
         0.93955E-02
        -0.11498E-02
         0.14520E-02
         0.15201E-01
         0.13286E-01
         0.84561E-01
         0.85278E-01
         0.76659E-01
         0.63283E-01
         0.47080E-01
         0.21681E-01
        -0.54528E-02
        -0.17592E-01
        -0.22874E-01
        -0.42094E-01
        -0.74931E-01
        -0.88552E-01
        -0.74222E-01
        -0.70627E-01
        -0.77933E-01
        -0.80345E-01
        -0.73283E-01
        -0.69289E-01
        -0.35158E-01
         0.91932E-02
         0.20128E-01
         0.20461E-01
         0.36264E-01
         0.62858E-01
         0.80535E-01
         0.80318E-01
        -0.49630E-02
         0.10464E-02
        -0.19347E-02
        -0.55863E-02
         0.11278E-01
         0.96417E-02
         0.30182E-02
        -0.60267E-02
        -0.28683E-02
        -0.58235E-02
        -0.94792E-03
         0.44425E-02
         0.14354E-01
        -0.10671E-01
        -0.11269E-01
         0.96998E-02
         0.54591E-02
        -0.31057E-02
        -0.21399E-02
        -0.37132E-02
        -0.22401E-01
        -0.21345E-01
        -0.21084E-01
        -0.51024E-02
         0.29761E-02
         0.19919E-02
        -0.10597E-01
         0.11528E-02
        -0.37903E-02
        -0.48585E-02
         0.74805E-02
         0.47654E-02
        -0.45704E-02
        -0.41360E-02
         0.20413E-01
         0.11164E-01
         0.12820E-01
        -0.12766E-01
        -0.23056E-02
        -0.62958E-02
        -0.22561E-01
        -0.23207E-01
        -0.22576E-01
        -0.16285E-01
        -0.12505E-01
        -0.73077E-02
         0.79182E-02
         0.93984E-02
        -0.11391E-02
         0.14488E-02
         0.15193E-01
         0.13267E-01
         0.84531E-01
         0.85256E-01
         0.76651E-01
         0.63283E-01
         0.47065E-01
         0.21674E-01
        -0.54586E-02
        -0.17603E-01
        -0.22855E-01
        -0.42077E-01
        -0.74919E-01
        -0.88555E-01
        -0.74218E-01
        -0.70624E-01
        -0.77946E-01
        -0.80370E-01
        -0.73299E-01
        -0.69301E-01
        -0.35148E-01
         0.91959E-02
         0.20112E-01
         0.20453E-01
         0.36238E-01
         0.62820E-01
         0.80495E-01
         0.80282E-01
        -0.49707E-02
         0.10516E-02
        -0.19367E-02
        -0.55897E-02
         0.11268E-01
         0.96328E-02
         0.30368E-02
        -0.60101E-02
        -0.28706E-02
        -0.58173E-02
        -0.92383E-03
         0.44532E-02
         0.14363E-01
        -0.10644E-01
        -0.11263E-01
         0.97118E-02
         0.54713E-02
        -0.30966E-02
        -0.21388E-02
        -0.37072E-02
        -0.22401E-01
        -0.21344E-01
        -0.21086E-01
        -0.51031E-02
         0.29838E-02
         0.19962E-02
        -0.10600E-01
         0.11280E-02
        -0.38155E-02
        -0.48625E-02
         0.74922E-02
         0.47651E-02
        -0.45492E-02
        -0.41370E-02
         0.20424E-01
         0.11160E-01
         0.12817E-01
        -0.12785E-01
        -0.23260E-02
        -0.63159E-02
        -0.22577E-01
        -0.23223E-01
        -0.22581E-01
        -0.16285E-01
        -0.12501E-01
        -0.73050E-02
         0.79161E-02
         0.94015E-02
        -0.11285E-02
         0.14458E-02
         0.15185E-01
         0.13247E-01
         0.84502E-01
         0.85235E-01
         0.76644E-01
         0.63283E-01
         0.47051E-01
         0.21668E-01
        -0.54644E-02
        -0.17614E-01
        -0.22836E-01
        -0.42060E-01
        -0.74906E-01
        -0.88559E-01
        -0.74215E-01
        -0.70622E-01
        -0.77958E-01
        -0.80394E-01
        -0.73316E-01
        -0.69313E-01
        -0.35137E-01
         0.91987E-02
         0.20096E-01
         0.20445E-01
         0.36213E-01
         0.62782E-01
         0.80455E-01
         0.80246E-01
        -0.49785E-02
         0.10569E-02
        -0.19387E-02
        -0.55930E-02
         0.11257E-01
         0.96238E-02
         0.30553E-02
        -0.59934E-02
        -0.28729E-02
        -0.58110E-02
        -0.89982E-03
         0.44638E-02
         0.14372E-01
        -0.10618E-01
        -0.11257E-01
         0.97237E-02
         0.54835E-02
        -0.30876E-02
        -0.21377E-02
        -0.37011E-02
        -0.22401E-01
        -0.21344E-01
        -0.21088E-01
        -0.51039E-02
         0.29915E-02
         0.20003E-02
        -0.10602E-01
         0.11033E-02
        -0.38409E-02
        -0.48662E-02
         0.75037E-02
         0.47647E-02
        -0.45281E-02
        -0.41380E-02
         0.20435E-01
         0.11157E-01
         0.12814E-01
        -0.12805E-01
        -0.23464E-02
        -0.63357E-02
        -0.22593E-01
        -0.23239E-01
        -0.22587E-01
        -0.16285E-01
        -0.12498E-01
        -0.73019E-02
         0.79141E-02
         0.94045E-02
        -0.11177E-02
         0.14426E-02
         0.15177E-01
         0.13228E-01
         0.84473E-01
         0.85213E-01
         0.76636E-01
         0.63283E-01
         0.47036E-01
         0.21661E-01
        -0.54704E-02
        -0.17624E-01
        -0.22816E-01
        -0.42043E-01
        -0.74894E-01
        -0.88562E-01
        -0.74212E-01
        -0.70620E-01
        -0.77971E-01
        -0.80419E-01
        -0.73332E-01
        -0.69325E-01
        -0.35127E-01
         0.92015E-02
         0.20080E-01
         0.20437E-01
         0.36187E-01
         0.62744E-01
         0.80416E-01
         0.80211E-01
        -0.49863E-02
         0.10621E-02
        -0.19407E-02
        -0.55962E-02
         0.11247E-01
         0.96148E-02
         0.30737E-02
        -0.59767E-02
        -0.28752E-02
        -0.58048E-02
        -0.87584E-03
         0.44744E-02
         0.14381E-01
        -0.10591E-01
        -0.11250E-01
         0.97357E-02
         0.54957E-02
        -0.30785E-02
        -0.21368E-02
        -0.36951E-02
        -0.22400E-01
        -0.21343E-01
        -0.21089E-01
        -0.51046E-02
         0.29991E-02
         0.20045E-02
        -0.10604E-01
         0.10786E-02
        -0.38663E-02
        -0.48700E-02
         0.75152E-02
         0.47643E-02
        -0.45070E-02
        -0.41390E-02
         0.20446E-01
         0.11153E-01
         0.12811E-01
        -0.12824E-01
        -0.23668E-02
        -0.63557E-02
        -0.22608E-01
        -0.23255E-01
        -0.22592E-01
        -0.16285E-01
        -0.12494E-01
        -0.72992E-02
         0.79119E-02
         0.94074E-02
        -0.11071E-02
         0.14393E-02
         0.15169E-01
         0.13209E-01
         0.84444E-01
         0.85192E-01
         0.76629E-01
         0.63283E-01
         0.47022E-01
         0.21654E-01
        -0.54763E-02
        -0.17634E-01
        -0.22797E-01
        -0.42026E-01
        -0.74882E-01
        -0.88566E-01
        -0.74209E-01
        -0.70617E-01
        -0.77984E-01
        -0.80443E-01
        -0.73349E-01
        -0.69337E-01
        -0.35117E-01
         0.92042E-02
         0.20064E-01
         0.20430E-01
         0.36161E-01
         0.62706E-01
         0.80376E-01
         0.80175E-01
        -0.49940E-02
         0.10673E-02
        -0.19427E-02
        -0.55995E-02
         0.11236E-01
         0.96059E-02
         0.30922E-02
        -0.59601E-02
        -0.28775E-02
        -0.57986E-02
        -0.85187E-03
         0.44852E-02
         0.14390E-01
        -0.10564E-01
        -0.11244E-01
         0.97476E-02
         0.55079E-02
        -0.30695E-02
        -0.21358E-02
        -0.36889E-02
        -0.22400E-01
        -0.21342E-01
        -0.21091E-01
        -0.51054E-02
         0.30067E-02
         0.20086E-02
        -0.10607E-01
         0.10540E-02
        -0.38916E-02
        -0.48737E-02
         0.75267E-02
         0.47639E-02
        -0.44858E-02
        -0.41400E-02
         0.20457E-01
         0.11150E-01
         0.12808E-01
        -0.12844E-01
        -0.23873E-02
        -0.63756E-02
        -0.22624E-01
        -0.23271E-01
        -0.22597E-01
        -0.16285E-01
        -0.12490E-01
        -0.72966E-02
         0.79098E-02
         0.94105E-02
        -0.10962E-02
         0.14362E-02
         0.15161E-01
         0.13190E-01
         0.84415E-01
         0.85170E-01
         0.76622E-01
         0.63283E-01
         0.47007E-01
         0.21647E-01
        -0.54820E-02
        -0.17644E-01
        -0.22777E-01
        -0.42010E-01
        -0.74870E-01
        -0.88570E-01
        -0.74206E-01
        -0.70615E-01
        -0.77996E-01
        -0.80468E-01
        -0.73366E-01
        -0.69348E-01
        -0.35107E-01
         0.92069E-02
         0.20049E-01
         0.20422E-01
         0.36135E-01
         0.62667E-01
         0.80336E-01
         0.80139E-01
        -0.50018E-02
         0.10726E-02
        -0.19447E-02
        -0.56028E-02
         0.11225E-01
         0.95972E-02
         0.31106E-02
        -0.59434E-02
        -0.28798E-02
        -0.57923E-02
        -0.82790E-03
         0.44959E-02
         0.14399E-01
        -0.10538E-01
        -0.11237E-01
         0.97596E-02
         0.55200E-02
        -0.30606E-02
        -0.21347E-02
        -0.36829E-02
        -0.22399E-01
        -0.21342E-01
        -0.21093E-01
        -0.51061E-02
         0.30142E-02
         0.20128E-02
        -0.10609E-01
         0.10294E-02
        -0.39169E-02
        -0.48773E-02
         0.75382E-02
         0.47636E-02
        -0.44647E-02
        -0.41410E-02
         0.20469E-01
         0.11146E-01
         0.12805E-01
        -0.12863E-01
        -0.24078E-02
        -0.63954E-02
        -0.22639E-01
        -0.23287E-01
        -0.22603E-01
        -0.16285E-01
        -0.12487E-01
        -0.72936E-02
         0.79078E-02
         0.94134E-02
        -0.10855E-02
         0.14330E-02
         0.15153E-01
         0.13171E-01
         0.84385E-01
         0.85149E-01
         0.76614E-01
         0.63283E-01
         0.46993E-01
         0.21641E-01
        -0.54877E-02
        -0.17654E-01
        -0.22758E-01
        -0.41993E-01
        -0.74858E-01
        -0.88573E-01
        -0.74204E-01
        -0.70612E-01
        -0.78009E-01
        -0.80492E-01
        -0.73382E-01
        -0.69360E-01
        -0.35096E-01
         0.92096E-02
         0.20033E-01
         0.20414E-01
         0.36109E-01
         0.62629E-01
         0.80297E-01
         0.80103E-01
        -0.50095E-02
         0.10778E-02
        -0.19467E-02
        -0.56060E-02
         0.11215E-01
         0.95882E-02
         0.31291E-02
        -0.59267E-02
        -0.28820E-02
        -0.57858E-02
        -0.80393E-03
         0.45066E-02
         0.14408E-01
        -0.10511E-01
        -0.11230E-01
         0.97716E-02
         0.55322E-02
        -0.30517E-02
        -0.21337E-02
        -0.36767E-02
        -0.22399E-01
        -0.21341E-01
        -0.21095E-01
        -0.51070E-02
         0.30215E-02
         0.20169E-02
        -0.10611E-01
         0.10046E-02
        -0.39420E-02
        -0.48810E-02
         0.75498E-02
         0.47633E-02
        -0.44437E-02
        -0.41421E-02
         0.20480E-01
         0.11142E-01
         0.12802E-01
        -0.12882E-01
        -0.24285E-02
        -0.64155E-02
        -0.22654E-01
        -0.23303E-01
        -0.22608E-01
        -0.16285E-01
        -0.12483E-01
        -0.72909E-02
         0.79057E-02
         0.94165E-02
        -0.10748E-02
         0.14297E-02
         0.15145E-01
         0.13152E-01
         0.84356E-01
         0.85127E-01
         0.76607E-01
         0.63283E-01
         0.46978E-01
         0.21634E-01
        -0.54932E-02
        -0.17665E-01
        -0.22739E-01
        -0.41976E-01
        -0.74846E-01
        -0.88578E-01
        -0.74201E-01
        -0.70610E-01
        -0.78021E-01
        -0.80517E-01
        -0.73399E-01
        -0.69372E-01
        -0.35086E-01
         0.92122E-02
         0.20017E-01
         0.20406E-01
         0.36083E-01
         0.62591E-01
         0.80257E-01
         0.80068E-01
        -0.50173E-02
         0.10830E-02
        -0.19486E-02
        -0.56093E-02
         0.11205E-01
         0.95793E-02
         0.31474E-02
        -0.59100E-02
        -0.28839E-02
        -0.57786E-02
        -0.78001E-03
         0.45173E-02
         0.14417E-01
        -0.10484E-01
        -0.11224E-01
         0.97836E-02
         0.55443E-02
        -0.30426E-02
        -0.21330E-02
        -0.36708E-02
        -0.22399E-01
        -0.21340E-01
        -0.21097E-01
        -0.51077E-02
         0.30284E-02
         0.20212E-02
        -0.10612E-01
         0.97910E-03
        -0.39672E-02
        -0.48849E-02
         0.75613E-02
         0.47628E-02
        -0.44225E-02
        -0.41431E-02
         0.20491E-01
         0.11139E-01
         0.12799E-01
        -0.12901E-01
        -0.24499E-02
        -0.64352E-02
        -0.22668E-01
        -0.23317E-01
        -0.22612E-01
        -0.16285E-01
        -0.12480E-01
        -0.72880E-02
         0.79037E-02
         0.94196E-02
        -0.10641E-02
         0.14265E-02
         0.15138E-01
         0.13132E-01
         0.84327E-01
         0.85106E-01
         0.76599E-01
         0.63283E-01
         0.46963E-01
         0.21628E-01
        -0.54989E-02
        -0.17675E-01
        -0.22720E-01
        -0.41959E-01
        -0.74833E-01
        -0.88585E-01
        -0.74200E-01
        -0.70608E-01
        -0.78033E-01
        -0.80541E-01
        -0.73416E-01
        -0.69384E-01
        -0.35076E-01
         0.92149E-02
         0.20001E-01
         0.20398E-01
         0.36058E-01
         0.62553E-01
         0.80217E-01
         0.80032E-01
        -0.50251E-02
         0.10882E-02
        -0.19506E-02
        -0.56125E-02
         0.11194E-01
         0.95703E-02
         0.31658E-02
        -0.58933E-02
        -0.28857E-02
        -0.57707E-02
        -0.75615E-03
         0.45280E-02
         0.14426E-01
        -0.10457E-01
        -0.11217E-01
         0.97954E-02
         0.55562E-02
        -0.30337E-02
        -0.21320E-02
        -0.36647E-02
        -0.22399E-01
        -0.21339E-01
        -0.21099E-01
        -0.51085E-02
         0.30347E-02
         0.20254E-02
        -0.10613E-01
         0.95287E-03
        -0.39925E-02
        -0.48887E-02
         0.75729E-02
         0.47625E-02
        -0.44013E-02
        -0.41441E-02
         0.20502E-01
         0.11135E-01
         0.12796E-01
        -0.12919E-01
        -0.24718E-02
        -0.64550E-02
        -0.22681E-01
        -0.23331E-01
        -0.22616E-01
        -0.16285E-01
        -0.12476E-01
        -0.72853E-02
         0.79016E-02
         0.94226E-02
        -0.10533E-02
         0.14234E-02
         0.15130E-01
         0.13113E-01
         0.84297E-01
         0.85084E-01
         0.76592E-01
         0.63283E-01
         0.46949E-01
         0.21621E-01
        -0.55044E-02
        -0.17685E-01
        -0.22701E-01
        -0.41941E-01
        -0.74820E-01
        -0.88593E-01
        -0.74200E-01
        -0.70606E-01
        -0.78046E-01
        -0.80565E-01
        -0.73432E-01
        -0.69395E-01
        -0.35065E-01
         0.92176E-02
         0.19985E-01
         0.20390E-01
         0.36032E-01
         0.62515E-01
         0.80178E-01
         0.79997E-01
        -0.50328E-02
         0.10934E-02
        -0.19526E-02
        -0.56157E-02
         0.11184E-01
         0.95617E-02
         0.31840E-02
        -0.58767E-02
        -0.28874E-02
        -0.57627E-02
        -0.73245E-03
         0.45385E-02
         0.14435E-01
        -0.10430E-01
        -0.11210E-01
         0.98074E-02
         0.55682E-02
        -0.30248E-02
        -0.21310E-02
        -0.36588E-02
        -0.22398E-01
        -0.21338E-01
        -0.21100E-01
        -0.51093E-02
         0.30408E-02
         0.20295E-02
        -0.10613E-01
         0.92655E-03
        -0.40175E-02
        -0.48924E-02
         0.75844E-02
         0.47621E-02
        -0.43803E-02
        -0.41452E-02
         0.20514E-01
         0.11132E-01
         0.12793E-01
        -0.12937E-01
        -0.24939E-02
        -0.64743E-02
        -0.22693E-01
        -0.23343E-01
        -0.22620E-01
        -0.16285E-01
        -0.12472E-01
        -0.72826E-02
         0.78997E-02
         0.94258E-02
        -0.10426E-02
         0.14200E-02
         0.15122E-01
         0.13094E-01
         0.84268E-01
         0.85063E-01
         0.76585E-01
         0.63283E-01
         0.46935E-01
         0.21614E-01
        -0.55099E-02
        -0.17695E-01
        -0.22682E-01
        -0.41923E-01
        -0.74807E-01
        -0.88603E-01
        -0.74201E-01
        -0.70604E-01
        -0.78058E-01
        -0.80590E-01
        -0.73449E-01
        -0.69407E-01
        -0.35055E-01
         0.92205E-02
         0.19970E-01
         0.20382E-01
         0.36006E-01
         0.62478E-01
         0.80139E-01
         0.79961E-01
        -0.50597E-02
         0.11018E-02
        -0.19623E-02
        -0.56401E-02
         0.11214E-01
         0.95888E-02
         0.32124E-02
        -0.58846E-02
        -0.28998E-02
        -0.57783E-02
        -0.71458E-03
         0.45632E-02
         0.14495E-01
        -0.10445E-01
        -0.11246E-01
         0.98556E-02
         0.56009E-02
        -0.30280E-02
        -0.21375E-02
        -0.36660E-02
        -0.22477E-01
        -0.21415E-01
        -0.21176E-01
        -0.51291E-02
         0.30579E-02
         0.20408E-02
        -0.10655E-01
         0.90544E-03
        -0.40559E-02
        -0.49143E-02
         0.76242E-02
         0.47794E-02
        -0.43777E-02
        -0.41624E-02
         0.20599E-01
         0.11170E-01
         0.12837E-01
        -0.13004E-01
        -0.25237E-02
        -0.65165E-02
        -0.22791E-01
        -0.23444E-01
        -0.22708E-01
        -0.16342E-01
        -0.12514E-01
        -0.73053E-02
         0.79272E-02
         0.94648E-02
        -0.10370E-02
         0.14220E-02
         0.15170E-01
         0.13125E-01
         0.84542E-01
         0.85341E-01
         0.76851E-01
         0.63506E-01
         0.47088E-01
         0.21684E-01
        -0.55375E-02
        -0.17768E-01
        -0.22749E-01
        -0.42063E-01
        -0.75076E-01
        -0.88932E-01
        -0.74459E-01
        -0.70841E-01
        -0.78329E-01
        -0.80875E-01
        -0.73704E-01
        -0.69653E-01
        -0.35170E-01
         0.92583E-02
         0.20027E-01
         0.20444E-01
         0.36108E-01
         0.62660E-01
         0.80376E-01
         0.80199E-01
        -0.75383E-02
         0.16525E-02
        -0.29178E-02
        -0.84166E-02
         0.16074E-01
         0.13876E-01
         0.48047E-02
        -0.87084E-02
        -0.43067E-02
        -0.85365E-02
        -0.10327E-02
         0.64289E-02
         0.20727E-01
        -0.15229E-01
        -0.15918E-01
         0.14695E-01
         0.83294E-02
        -0.45098E-02
        -0.31426E-02
        -0.54016E-02
        -0.32115E-01
        -0.30991E-01
        -0.30342E-01
        -0.76008E-02
         0.45633E-02
         0.30515E-02
        -0.15673E-01
         0.13270E-02
        -0.60881E-02
        -0.73237E-02
         0.11374E-01
         0.71074E-02
        -0.65172E-02
        -0.62117E-02
         0.28991E-01
         0.16155E-01
         0.18575E-01
        -0.18840E-01
        -0.37202E-02
        -0.96141E-02
        -0.33127E-01
        -0.34329E-01
        -0.33226E-01
        -0.23584E-01
        -0.17998E-01
        -0.10206E-01
         0.11363E-01
         0.13749E-01
        -0.15037E-02
         0.20633E-02
         0.21494E-01
         0.18934E-01
         0.10547E+00
         0.10628E+00
         0.95751E-01
         0.79356E-01
         0.58786E-01
         0.27128E-01
        -0.70176E-02
        -0.22682E-01
        -0.28967E-01
        -0.53256E-01
        -0.95189E-01
        -0.11257E+00
        -0.95299E-01
        -0.90956E-01
        -0.99283E-01
        -0.10135E+00
        -0.92075E-01
        -0.86530E-01
        -0.43653E-01
         0.11515E-01
         0.25148E-01
         0.25786E-01
         0.45374E-01
         0.79019E-01
         0.10105E+00
         0.10047E+00
  
SCALARS                      strain_xy  double 1
LOOKUP_TABLE default
         0.40161E-05
         0.87502E-05
         0.78685E-04
        -0.30172E-05
        -0.27487E-19
         0.26862E-20
         0.40387E-19
         0.61522E-20
         0.78995E-03
        -0.35592E-03
         0.17977E-18
         0.14256E-18
        -0.26465E-04
         0.54676E-05
         0.15868E-19
        -0.47658E-20
        -0.95823E-05
        -0.13307E-03
         0.78996E-21
         0.12038E-19
         0.92413E-04
         0.54477E-03
         0.60209E-03
         0.12241E-18
         0.97480E-19
        -0.14235E-18
         0.56867E-04
         0.42445E-03
         0.16482E-18
         0.25364E-18
         0.25524E-04
        -0.44900E-04
        -0.43907E-05
        -0.86993E-20
         0.34318E-19
        -0.43894E-21
         0.21303E-03
         0.87173E-04
         0.91847E-19
         0.76086E-19
         0.39741E-03
         0.32451E-03
         0.15657E-18
         0.10552E-18
         0.41793E-03
         0.79436E-04
        -0.57038E-20
         0.42465E-19
        -0.85560E-04
         0.12550E-19
         0.26884E-04
        -0.28295E-21
        -0.46195E-05
         0.94858E-19
        -0.22077E-04
         0.14597E-19
        -0.31529E-03
         0.17356E-04
         0.33923E-21
        -0.16642E-20
        -0.32988E-05
         0.32023E-03
         0.92443E-20
         0.23712E-19
        -0.14595E-04
        -0.18769E-20
        -0.20097E-03
         0.15040E-19
         0.95604E-03
         0.34262E-03
         0.11617E-19
        -0.11125E-18
         0.74930E-03
        -0.17787E-18
        -0.21363E-03
         0.11913E-18
        -0.66078E-03
         0.17749E-19
        -0.11666E-02
         0.23081E-19
        -0.23988E-02
        -0.13831E-02
         0.54262E-19
        -0.13759E-19
        -0.19070E-03
        -0.16557E-20
         0.79068E-03
        -0.14933E-18
         0.11142E-02
        -0.16674E-18
         0.23643E-02
         0.10552E-02
        -0.10555E-18
         0.11716E-18
        -0.17392E-03
         0.10668E-18
        -0.43601E-03
         0.45826E-19
        -0.10028E-02
         0.12167E-18
        -0.24543E-02
        -0.14220E-02
         0.26090E-18
         0.13045E-18
         0.36912E-02
        -0.16181E-02
        -0.16951E-18
         0.20758E-18
         0.89208E-02
        -0.48175E-18
         0.12258E-01
        -0.52661E-18
         0.10236E-01
        -0.35741E-18
         0.77698E-02
        -0.37910E-19
         0.30149E-02
         0.10685E-18
        -0.36829E-02
         0.66159E-19
        -0.82107E-02
         0.60480E-19
        -0.10880E-01
         0.12976E-18
        -0.11579E-01
         0.15777E-18
        -0.10987E-01
         0.62159E-19
        -0.67868E-02
         0.37897E-19
         0.50391E-03
         0.61941E-19
         0.66136E-02
         0.41520E-19
         0.11209E-01
        -0.14807E-18
         0.15276E-01
        -0.38852E-18
         0.12086E-01
        -0.49305E-18
         0.70826E-02
        -0.30515E-18
         0.75244E-03
         0.58218E-19
        -0.53460E-02
         0.12339E-18
        -0.79265E-02
         0.19664E-18
        -0.92801E-02
         0.38724E-18
        -0.83165E-02
         0.50248E-18
        -0.80033E-02
         0.35699E-18
        -0.68968E-02
         0.28233E-18
        -0.76439E-05
         0.20549E-05
         0.21051E-05
        -0.13185E-05
         0.16754E-04
         0.13834E-04
         0.21901E-06
        -0.49610E-05
        -0.22040E-05
        -0.57439E-05
        -0.16305E-05
        -0.30086E-04
        -0.43103E-04
         0.15990E-05
         0.24475E-04
        -0.33148E-05
         0.24640E-05
         0.73579E-06
         0.14901E-05
        -0.12128E-05
         0.60811E-05
         0.53443E-05
        -0.16186E-04
         0.42408E-06
         0.36516E-05
         0.40223E-06
         0.66682E-07
         0.13078E-06
         0.16182E-05
        -0.53969E-05
        -0.28884E-05
         0.61344E-06
         0.98980E-06
        -0.77851E-07
        -0.40118E-05
        -0.13932E-04
        -0.28340E-04
         0.42776E-04
         0.22253E-04
         0.40002E-04
         0.77172E-04
         0.18049E-04
        -0.14679E-04
        -0.29570E-04
        -0.34931E-04
        -0.44296E-04
         0.54948E-05
         0.16546E-04
         0.51035E-05
         0.17119E-04
         0.53359E-04
         0.20682E-04
        -0.17861E-03
         0.22792E-03
        -0.55103E-03
        -0.64940E-03
        -0.61641E-03
        -0.37109E-03
         0.21994E-04
         0.23830E-03
         0.34573E-03
         0.56081E-03
         0.58870E-03
         0.31964E-03
         0.12934E-03
         0.54761E-04
        -0.88890E-04
        -0.35219E-03
        -0.58817E-03
        -0.66990E-03
        -0.40447E-03
         0.73635E-04
         0.26786E-03
         0.28214E-03
         0.44412E-03
         0.49060E-03
         0.37462E-03
         0.34665E-03
        -0.34946E-04
         0.45244E-05
        -0.79707E-05
        -0.55048E-05
         0.61832E-04
         0.23765E-04
         0.54904E-05
        -0.41901E-04
        -0.12626E-04
        -0.37466E-04
         0.40015E-05
        -0.63187E-04
        -0.12315E-03
         0.13571E-04
         0.16268E-03
        -0.26036E-04
         0.43925E-05
         0.25117E-05
         0.76188E-05
         0.25868E-05
         0.68428E-04
         0.46301E-04
        -0.26488E-04
         0.54075E-05
         0.12415E-04
        -0.20676E-05
         0.28137E-05
        -0.69450E-06
        -0.27962E-05
        -0.20638E-04
        -0.21558E-04
        -0.36746E-05
         0.90374E-05
         0.67724E-05
         0.15910E-04
        -0.26767E-04
        -0.58621E-04
         0.13710E-03
         0.20242E-04
         0.51721E-04
         0.13959E-03
        -0.35482E-04
        -0.71439E-04
        -0.64521E-04
        -0.63980E-04
        -0.76472E-04
         0.48091E-04
         0.37544E-04
        -0.62375E-05
         0.88660E-05
         0.94164E-04
         0.62237E-05
        -0.65219E-03
         0.94014E-03
        -0.19639E-02
        -0.20934E-02
        -0.20160E-02
        -0.11142E-02
         0.27097E-03
         0.76672E-03
         0.96794E-03
         0.17555E-02
         0.19581E-02
         0.76133E-03
         0.25439E-03
         0.20738E-03
        -0.10582E-03
        -0.92445E-03
        -0.16904E-02
        -0.22253E-02
        -0.14756E-02
         0.42529E-03
         0.82597E-03
         0.79114E-03
         0.14024E-02
         0.17096E-02
         0.11368E-02
         0.10730E-02
        -0.35033E-04
         0.45420E-05
        -0.79897E-05
        -0.55489E-05
         0.61779E-04
         0.23761E-04
         0.55322E-05
        -0.41865E-04
        -0.12662E-04
        -0.37576E-04
         0.39229E-05
        -0.63335E-04
        -0.12325E-03
         0.13538E-04
         0.16280E-03
        -0.26065E-04
         0.44422E-05
         0.25010E-05
         0.76202E-05
         0.25678E-05
         0.68590E-04
         0.46341E-04
        -0.26493E-04
         0.54052E-05
         0.12499E-04
        -0.20673E-05
         0.28477E-05
        -0.68526E-06
        -0.27973E-05
        -0.20695E-04
        -0.21593E-04
        -0.36661E-05
         0.90197E-05
         0.67865E-05
         0.15768E-04
        -0.26772E-04
        -0.58600E-04
         0.13754E-03
         0.20480E-04
         0.51944E-04
         0.13979E-03
        -0.35407E-04
        -0.71516E-04
        -0.64545E-04
        -0.63959E-04
        -0.76433E-04
         0.48087E-04
         0.37534E-04
        -0.61836E-05
         0.88239E-05
         0.94063E-04
         0.61204E-05
        -0.65135E-03
         0.93995E-03
        -0.19641E-02
        -0.20934E-02
        -0.20151E-02
        -0.11135E-02
         0.27116E-03
         0.76696E-03
         0.96692E-03
         0.17543E-02
         0.19574E-02
         0.76170E-03
         0.25434E-03
         0.20779E-03
        -0.10497E-03
        -0.92514E-03
        -0.16914E-02
        -0.22263E-02
        -0.14752E-02
         0.42545E-03
         0.82531E-03
         0.79079E-03
         0.14010E-02
         0.17074E-02
         0.11350E-02
         0.10711E-02
        -0.35122E-04
         0.45594E-05
        -0.80087E-05
        -0.55935E-05
         0.61725E-04
         0.23760E-04
         0.55743E-05
        -0.41829E-04
        -0.12698E-04
        -0.37683E-04
         0.38443E-05
        -0.63483E-04
        -0.12336E-03
         0.13503E-04
         0.16292E-03
        -0.26094E-04
         0.44927E-05
         0.24902E-05
         0.76217E-05
         0.25488E-05
         0.68756E-04
         0.46379E-04
        -0.26501E-04
         0.54022E-05
         0.12585E-04
        -0.20667E-05
         0.28840E-05
        -0.67626E-06
        -0.27965E-05
        -0.20750E-04
        -0.21629E-04
        -0.36561E-05
         0.90017E-05
         0.68005E-05
         0.15626E-04
        -0.26779E-04
        -0.58577E-04
         0.13797E-03
         0.20719E-04
         0.52169E-04
         0.13999E-03
        -0.35323E-04
        -0.71590E-04
        -0.64579E-04
        -0.63945E-04
        -0.76398E-04
         0.48082E-04
         0.37523E-04
        -0.61289E-05
         0.87808E-05
         0.93966E-04
         0.60179E-05
        -0.65052E-03
         0.93976E-03
        -0.19643E-02
        -0.20934E-02
        -0.20143E-02
        -0.11128E-02
         0.27136E-03
         0.76720E-03
         0.96590E-03
         0.17531E-02
         0.19567E-02
         0.76209E-03
         0.25431E-03
         0.20821E-03
        -0.10411E-03
        -0.92585E-03
        -0.16925E-02
        -0.22272E-02
        -0.14747E-02
         0.42562E-03
         0.82465E-03
         0.79045E-03
         0.13996E-02
         0.17051E-02
         0.11331E-02
         0.10692E-02
        -0.35210E-04
         0.45774E-05
        -0.80275E-05
        -0.56383E-05
         0.61671E-04
         0.23757E-04
         0.56165E-05
        -0.41792E-04
        -0.12732E-04
        -0.37783E-04
         0.37658E-05
        -0.63634E-04
        -0.12347E-03
         0.13470E-04
         0.16304E-03
        -0.26126E-04
         0.45445E-05
         0.24793E-05
         0.76240E-05
         0.25288E-05
         0.68926E-04
         0.46415E-04
        -0.26524E-04
         0.53972E-05
         0.12675E-04
        -0.20656E-05
         0.29213E-05
        -0.66879E-06
        -0.27904E-05
        -0.20801E-04
        -0.21665E-04
        -0.36433E-05
         0.89831E-05
         0.68146E-05
         0.15484E-04
        -0.26784E-04
        -0.58554E-04
         0.13840E-03
         0.20959E-04
         0.52398E-04
         0.14021E-03
        -0.35210E-04
        -0.71656E-04
        -0.64636E-04
        -0.63939E-04
        -0.76361E-04
         0.48084E-04
         0.37514E-04
        -0.60742E-05
         0.87378E-05
         0.93862E-04
         0.59157E-05
        -0.64969E-03
         0.93957E-03
        -0.19645E-02
        -0.20934E-02
        -0.20134E-02
        -0.11121E-02
         0.27155E-03
         0.76745E-03
         0.96489E-03
         0.17520E-02
         0.19560E-02
         0.76256E-03
         0.25429E-03
         0.20862E-03
        -0.10325E-03
        -0.92663E-03
        -0.16938E-02
        -0.22283E-02
        -0.14743E-02
         0.42579E-03
         0.82399E-03
         0.79011E-03
         0.13982E-02
         0.17028E-02
         0.11313E-02
         0.10673E-02
        -0.35298E-04
         0.45953E-05
        -0.80465E-05
        -0.56828E-05
         0.61619E-04
         0.23754E-04
         0.56586E-05
        -0.41753E-04
        -0.12765E-04
        -0.37875E-04
         0.36871E-05
        -0.63783E-04
        -0.12357E-03
         0.13437E-04
         0.16316E-03
        -0.26161E-04
         0.45976E-05
         0.24684E-05
         0.76256E-05
         0.25080E-05
         0.69101E-04
         0.46446E-04
        -0.26560E-04
         0.53900E-05
         0.12769E-04
        -0.20637E-05
         0.29627E-05
        -0.66266E-06
        -0.27788E-05
        -0.20846E-04
        -0.21702E-04
        -0.36270E-05
         0.89642E-05
         0.68287E-05
         0.15340E-04
        -0.26789E-04
        -0.58533E-04
         0.13884E-03
         0.21200E-04
         0.52633E-04
         0.14046E-03
        -0.35069E-04
        -0.71713E-04
        -0.64718E-04
        -0.63945E-04
        -0.76326E-04
         0.48089E-04
         0.37507E-04
        -0.60200E-05
         0.86952E-05
         0.93765E-04
         0.58133E-05
        -0.64886E-03
         0.93938E-03
        -0.19647E-02
        -0.20935E-02
        -0.20125E-02
        -0.11113E-02
         0.27175E-03
         0.76769E-03
         0.96387E-03
         0.17508E-02
         0.19554E-02
         0.76312E-03
         0.25431E-03
         0.20902E-03
        -0.10240E-03
        -0.92749E-03
        -0.16952E-02
        -0.22294E-02
        -0.14739E-02
         0.42596E-03
         0.82333E-03
         0.78977E-03
         0.13968E-02
         0.17006E-02
         0.11295E-02
         0.10654E-02
        -0.35382E-04
         0.46144E-05
        -0.80636E-05
        -0.57278E-05
         0.61566E-04
         0.23750E-04
         0.57002E-05
        -0.41709E-04
        -0.12798E-04
        -0.37962E-04
         0.36085E-05
        -0.63932E-04
        -0.12368E-03
         0.13406E-04
         0.16328E-03
        -0.26197E-04
         0.46518E-05
         0.24576E-05
         0.76272E-05
         0.24871E-05
         0.69278E-04
         0.46478E-04
        -0.26603E-04
         0.53821E-05
         0.12862E-04
        -0.20614E-05
         0.30071E-05
        -0.65701E-06
        -0.27647E-05
        -0.20892E-04
        -0.21738E-04
        -0.36086E-05
         0.89452E-05
         0.68430E-05
         0.15196E-04
        -0.26798E-04
        -0.58516E-04
         0.13927E-03
         0.21443E-04
         0.52871E-04
         0.14071E-03
        -0.34918E-04
        -0.71766E-04
        -0.64809E-04
        -0.63961E-04
        -0.76300E-04
         0.48094E-04
         0.37504E-04
        -0.59650E-05
         0.86555E-05
         0.93667E-04
         0.57114E-05
        -0.64802E-03
         0.93919E-03
        -0.19649E-02
        -0.20935E-02
        -0.20117E-02
        -0.11106E-02
         0.27193E-03
         0.76793E-03
         0.96286E-03
         0.17496E-02
         0.19547E-02
         0.76372E-03
         0.25433E-03
         0.20943E-03
        -0.10154E-03
        -0.92838E-03
        -0.16966E-02
        -0.22305E-02
        -0.14734E-02
         0.42610E-03
         0.82266E-03
         0.78943E-03
         0.13954E-02
         0.16983E-02
         0.11277E-02
         0.10636E-02
        -0.35459E-04
         0.46366E-05
        -0.80777E-05
        -0.57739E-05
         0.61515E-04
         0.23749E-04
         0.57411E-05
        -0.41656E-04
        -0.12831E-04
        -0.38045E-04
         0.35299E-05
        -0.64084E-04
        -0.12380E-03
         0.13383E-04
         0.16339E-03
        -0.26235E-04
         0.47068E-05
         0.24467E-05
         0.76296E-05
         0.24663E-05
         0.69455E-04
         0.46511E-04
        -0.26646E-04
         0.53746E-05
         0.12949E-04
        -0.20584E-05
         0.30595E-05
        -0.65124E-06
        -0.27497E-05
        -0.20939E-04
        -0.21771E-04
        -0.35883E-05
         0.89258E-05
         0.68570E-05
         0.15052E-04
        -0.26809E-04
        -0.58501E-04
         0.13971E-03
         0.21688E-04
         0.53113E-04
         0.14096E-03
        -0.34764E-04
        -0.71819E-04
        -0.64901E-04
        -0.63982E-04
        -0.76281E-04
         0.48103E-04
         0.37510E-04
        -0.59073E-05
         0.86228E-05
         0.93577E-04
         0.56086E-05
        -0.64719E-03
         0.93900E-03
        -0.19650E-02
        -0.20935E-02
        -0.20108E-02
        -0.11099E-02
         0.27211E-03
         0.76817E-03
         0.96185E-03
         0.17484E-02
         0.19541E-02
         0.76432E-03
         0.25436E-03
         0.20984E-03
        -0.10068E-03
        -0.92928E-03
        -0.16981E-02
        -0.22315E-02
        -0.14730E-02
         0.42622E-03
         0.82198E-03
         0.78910E-03
         0.13941E-02
         0.16961E-02
         0.11259E-02
         0.10617E-02
        -0.35533E-04
         0.46597E-05
        -0.80904E-05
        -0.58205E-05
         0.61467E-04
         0.23745E-04
         0.57813E-05
        -0.41598E-04
        -0.12866E-04
        -0.38127E-04
         0.34513E-05
        -0.64235E-04
        -0.12392E-03
         0.13361E-04
         0.16351E-03
        -0.26273E-04
         0.47623E-05
         0.24357E-05
         0.76315E-05
         0.24458E-05
         0.69633E-04
         0.46544E-04
        -0.26688E-04
         0.53673E-05
         0.13034E-04
        -0.20551E-05
         0.31139E-05
        -0.64529E-06
        -0.27343E-05
        -0.20987E-04
        -0.21803E-04
        -0.35667E-05
         0.89061E-05
         0.68712E-05
         0.14906E-04
        -0.26822E-04
        -0.58492E-04
         0.14015E-03
         0.21934E-04
         0.53355E-04
         0.14122E-03
        -0.34610E-04
        -0.71871E-04
        -0.64996E-04
        -0.64006E-04
        -0.76270E-04
         0.48113E-04
         0.37519E-04
        -0.58486E-05
         0.85931E-05
         0.93489E-04
         0.55063E-05
        -0.64636E-03
         0.93881E-03
        -0.19652E-02
        -0.20935E-02
        -0.20099E-02
        -0.11092E-02
         0.27230E-03
         0.76840E-03
         0.96084E-03
         0.17472E-02
         0.19535E-02
         0.76491E-03
         0.25439E-03
         0.21025E-03
        -0.99815E-04
        -0.93016E-03
        -0.16996E-02
        -0.22326E-02
        -0.14725E-02
         0.42632E-03
         0.82130E-03
         0.78879E-03
         0.13927E-02
         0.16938E-02
         0.11242E-02
         0.10598E-02
        -0.35607E-04
         0.46831E-05
        -0.81029E-05
        -0.58671E-05
         0.61416E-04
         0.23742E-04
         0.58215E-05
        -0.41540E-04
        -0.12900E-04
        -0.38209E-04
         0.33726E-05
        -0.64386E-04
        -0.12403E-03
         0.13341E-04
         0.16363E-03
        -0.26311E-04
         0.48183E-05
         0.24248E-05
         0.76333E-05
         0.24251E-05
         0.69810E-04
         0.46578E-04
        -0.26730E-04
         0.53602E-05
         0.13118E-04
        -0.20518E-05
         0.31697E-05
        -0.63900E-06
        -0.27186E-05
        -0.21035E-04
        -0.21834E-04
        -0.35453E-05
         0.88862E-05
         0.68853E-05
         0.14760E-04
        -0.26833E-04
        -0.58481E-04
         0.14060E-03
         0.22183E-04
         0.53596E-04
         0.14147E-03
        -0.34456E-04
        -0.71924E-04
        -0.65092E-04
        -0.64033E-04
        -0.76259E-04
         0.48122E-04
         0.37529E-04
        -0.57899E-05
         0.85644E-05
         0.93406E-04
         0.54037E-05
        -0.64553E-03
         0.93862E-03
        -0.19653E-02
        -0.20936E-02
        -0.20091E-02
        -0.11085E-02
         0.27248E-03
         0.76863E-03
         0.95983E-03
         0.17460E-02
         0.19528E-02
         0.76549E-03
         0.25442E-03
         0.21067E-03
        -0.98955E-04
        -0.93105E-03
        -0.17010E-02
        -0.22336E-02
        -0.14720E-02
         0.42643E-03
         0.82062E-03
         0.78846E-03
         0.13914E-02
         0.16916E-02
         0.11224E-02
         0.10579E-02
        -0.35680E-04
         0.47067E-05
        -0.81153E-05
        -0.59136E-05
         0.61366E-04
         0.23739E-04
         0.58619E-05
        -0.41482E-04
        -0.12935E-04
        -0.38290E-04
         0.32939E-05
        -0.64537E-04
        -0.12416E-03
         0.13320E-04
         0.16375E-03
        -0.26348E-04
         0.48747E-05
         0.24140E-05
         0.76348E-05
         0.24045E-05
         0.69986E-04
         0.46610E-04
        -0.26770E-04
         0.53531E-05
         0.13203E-04
        -0.20485E-05
         0.32241E-05
        -0.63243E-06
        -0.27024E-05
        -0.21083E-04
        -0.21865E-04
        -0.35238E-05
         0.88660E-05
         0.68996E-05
         0.14613E-04
        -0.26847E-04
        -0.58472E-04
         0.14104E-03
         0.22432E-04
         0.53840E-04
         0.14173E-03
        -0.34302E-04
        -0.71977E-04
        -0.65186E-04
        -0.64058E-04
        -0.76245E-04
         0.48131E-04
         0.37540E-04
        -0.57318E-05
         0.85341E-05
         0.93316E-04
         0.53018E-05
        -0.64469E-03
         0.93843E-03
        -0.19655E-02
        -0.20936E-02
        -0.20082E-02
        -0.11077E-02
         0.27266E-03
         0.76886E-03
         0.95882E-03
         0.17448E-02
         0.19522E-02
         0.76608E-03
         0.25445E-03
         0.21108E-03
        -0.98098E-04
        -0.93195E-03
        -0.17025E-02
        -0.22347E-02
        -0.14716E-02
         0.42654E-03
         0.81993E-03
         0.78814E-03
         0.13900E-02
         0.16894E-02
         0.11206E-02
         0.10560E-02
        -0.35754E-04
         0.47300E-05
        -0.81282E-05
        -0.59600E-05
         0.61317E-04
         0.23736E-04
         0.59024E-05
        -0.41423E-04
        -0.12969E-04
        -0.38371E-04
         0.32149E-05
        -0.64690E-04
        -0.12428E-03
         0.13299E-04
         0.16387E-03
        -0.26386E-04
         0.49314E-05
         0.24031E-05
         0.76374E-05
         0.23837E-05
         0.70163E-04
         0.46642E-04
        -0.26812E-04
         0.53461E-05
         0.13287E-04
        -0.20451E-05
         0.32795E-05
        -0.62547E-06
        -0.26857E-05
        -0.21130E-04
        -0.21897E-04
        -0.35024E-05
         0.88458E-05
         0.69137E-05
         0.14465E-04
        -0.26859E-04
        -0.58463E-04
         0.14149E-03
         0.22683E-04
         0.54081E-04
         0.14199E-03
        -0.34148E-04
        -0.72029E-04
        -0.65278E-04
        -0.64082E-04
        -0.76235E-04
         0.48141E-04
         0.37549E-04
        -0.56733E-05
         0.85046E-05
         0.93233E-04
         0.52000E-05
        -0.64385E-03
         0.93823E-03
        -0.19656E-02
        -0.20936E-02
        -0.20073E-02
        -0.11070E-02
         0.27283E-03
         0.76909E-03
         0.95781E-03
         0.17436E-02
         0.19516E-02
         0.76666E-03
         0.25448E-03
         0.21149E-03
        -0.97236E-04
        -0.93284E-03
        -0.17040E-02
        -0.22358E-02
        -0.14711E-02
         0.42664E-03
         0.81924E-03
         0.78781E-03
         0.13886E-02
         0.16871E-02
         0.11188E-02
         0.10542E-02
        -0.35827E-04
         0.47533E-05
        -0.81404E-05
        -0.60069E-05
         0.61267E-04
         0.23733E-04
         0.59428E-05
        -0.41364E-04
        -0.13004E-04
        -0.38451E-04
         0.31361E-05
        -0.64842E-04
        -0.12439E-03
         0.13279E-04
         0.16399E-03
        -0.26424E-04
         0.49883E-05
         0.23922E-05
         0.76393E-05
         0.23632E-05
         0.70340E-04
         0.46673E-04
        -0.26855E-04
         0.53393E-05
         0.13372E-04
        -0.20419E-05
         0.33336E-05
        -0.61827E-06
        -0.26684E-05
        -0.21179E-04
        -0.21928E-04
        -0.34810E-05
         0.88250E-05
         0.69281E-05
         0.14317E-04
        -0.26871E-04
        -0.58451E-04
         0.14193E-03
         0.22935E-04
         0.54327E-04
         0.14224E-03
        -0.33996E-04
        -0.72081E-04
        -0.65372E-04
        -0.64107E-04
        -0.76225E-04
         0.48150E-04
         0.37560E-04
        -0.56148E-05
         0.84761E-05
         0.93147E-04
         0.50985E-05
        -0.64301E-03
         0.93804E-03
        -0.19658E-02
        -0.20936E-02
        -0.20065E-02
        -0.11063E-02
         0.27301E-03
         0.76932E-03
         0.95681E-03
         0.17424E-02
         0.19509E-02
         0.76725E-03
         0.25451E-03
         0.21191E-03
        -0.96371E-04
        -0.93372E-03
        -0.17054E-02
        -0.22368E-02
        -0.14706E-02
         0.42674E-03
         0.81856E-03
         0.78749E-03
         0.13873E-02
         0.16849E-02
         0.11171E-02
         0.10523E-02
        -0.35901E-04
         0.47769E-05
        -0.81527E-05
        -0.60539E-05
         0.61218E-04
         0.23730E-04
         0.59831E-05
        -0.41304E-04
        -0.13038E-04
        -0.38530E-04
         0.30573E-05
        -0.64993E-04
        -0.12451E-03
         0.13256E-04
         0.16410E-03
        -0.26461E-04
         0.50454E-05
         0.23812E-05
         0.76413E-05
         0.23427E-05
         0.70516E-04
         0.46705E-04
        -0.26896E-04
         0.53325E-05
         0.13456E-04
        -0.20384E-05
         0.33893E-05
        -0.61070E-06
        -0.26509E-05
        -0.21226E-04
        -0.21959E-04
        -0.34593E-05
         0.88039E-05
         0.69423E-05
         0.14168E-04
        -0.26885E-04
        -0.58442E-04
         0.14237E-03
         0.23188E-04
         0.54570E-04
         0.14250E-03
        -0.33841E-04
        -0.72133E-04
        -0.65467E-04
        -0.64135E-04
        -0.76208E-04
         0.48160E-04
         0.37570E-04
        -0.55562E-05
         0.84465E-05
         0.93057E-04
         0.49975E-05
        -0.64218E-03
         0.93785E-03
        -0.19659E-02
        -0.20936E-02
        -0.20056E-02
        -0.11056E-02
         0.27319E-03
         0.76953E-03
         0.95579E-03
         0.17412E-02
         0.19503E-02
         0.76783E-03
         0.25453E-03
         0.21232E-03
        -0.95508E-04
        -0.93461E-03
        -0.17069E-02
        -0.22379E-02
        -0.14702E-02
         0.42684E-03
         0.81788E-03
         0.78717E-03
         0.13859E-02
         0.16827E-02
         0.11153E-02
         0.10504E-02
        -0.35975E-04
         0.48001E-05
        -0.81650E-05
        -0.61009E-05
         0.61169E-04
         0.23726E-04
         0.60236E-05
        -0.41244E-04
        -0.13073E-04
        -0.38609E-04
         0.29785E-05
        -0.65145E-04
        -0.12463E-03
         0.13236E-04
         0.16422E-03
        -0.26499E-04
         0.51029E-05
         0.23704E-05
         0.76440E-05
         0.23224E-05
         0.70693E-04
         0.46736E-04
        -0.26938E-04
         0.53257E-05
         0.13541E-04
        -0.20349E-05
         0.34436E-05
        -0.60288E-06
        -0.26331E-05
        -0.21274E-04
        -0.21990E-04
        -0.34379E-05
         0.87827E-05
         0.69566E-05
         0.14019E-04
        -0.26897E-04
        -0.58431E-04
         0.14282E-03
         0.23443E-04
         0.54816E-04
         0.14276E-03
        -0.33686E-04
        -0.72185E-04
        -0.65561E-04
        -0.64160E-04
        -0.76198E-04
         0.48170E-04
         0.37580E-04
        -0.54977E-05
         0.84172E-05
         0.92974E-04
         0.48975E-05
        -0.64134E-03
         0.93765E-03
        -0.19661E-02
        -0.20936E-02
        -0.20047E-02
        -0.11049E-02
         0.27336E-03
         0.76974E-03
         0.95478E-03
         0.17400E-02
         0.19496E-02
         0.76842E-03
         0.25456E-03
         0.21274E-03
        -0.94649E-04
        -0.93550E-03
        -0.17084E-02
        -0.22389E-02
        -0.14697E-02
         0.42694E-03
         0.81720E-03
         0.78686E-03
         0.13845E-02
         0.16804E-02
         0.11135E-02
         0.10485E-02
        -0.36049E-04
         0.48231E-05
        -0.81773E-05
        -0.61479E-05
         0.61119E-04
         0.23723E-04
         0.60641E-05
        -0.41183E-04
        -0.13108E-04
        -0.38688E-04
         0.28995E-05
        -0.65299E-04
        -0.12475E-03
         0.13213E-04
         0.16433E-03
        -0.26537E-04
         0.51609E-05
         0.23597E-05
         0.76459E-05
         0.23019E-05
         0.70870E-04
         0.46767E-04
        -0.26979E-04
         0.53190E-05
         0.13625E-04
        -0.20313E-05
         0.34988E-05
        -0.59468E-06
        -0.26149E-05
        -0.21321E-04
        -0.22021E-04
        -0.34162E-05
         0.87612E-05
         0.69708E-05
         0.13869E-04
        -0.26911E-04
        -0.58422E-04
         0.14326E-03
         0.23698E-04
         0.55061E-04
         0.14302E-03
        -0.33532E-04
        -0.72237E-04
        -0.65654E-04
        -0.64185E-04
        -0.76188E-04
         0.48178E-04
         0.37591E-04
        -0.54386E-05
         0.83882E-05
         0.92887E-04
         0.47969E-05
        -0.64050E-03
         0.93745E-03
        -0.19662E-02
        -0.20937E-02
        -0.20039E-02
        -0.11042E-02
         0.27353E-03
         0.76994E-03
         0.95378E-03
         0.17388E-02
         0.19490E-02
         0.76901E-03
         0.25459E-03
         0.21315E-03
        -0.93787E-04
        -0.93639E-03
        -0.17099E-02
        -0.22400E-02
        -0.14692E-02
         0.42703E-03
         0.81651E-03
         0.78654E-03
         0.13832E-02
         0.16782E-02
         0.11118E-02
         0.10467E-02
        -0.36123E-04
         0.48466E-05
        -0.81896E-05
        -0.61948E-05
         0.61069E-04
         0.23720E-04
         0.61044E-05
        -0.41122E-04
        -0.13142E-04
        -0.38766E-04
         0.28204E-05
        -0.65451E-04
        -0.12487E-03
         0.13192E-04
         0.16445E-03
        -0.26574E-04
         0.52193E-05
         0.23489E-05
         0.76479E-05
         0.22817E-05
         0.71047E-04
         0.46797E-04
        -0.27020E-04
         0.53125E-05
         0.13710E-04
        -0.20278E-05
         0.35526E-05
        -0.58618E-06
        -0.25963E-05
        -0.21369E-04
        -0.22052E-04
        -0.33948E-05
         0.87396E-05
         0.69853E-05
         0.13718E-04
        -0.26923E-04
        -0.58412E-04
         0.14371E-03
         0.23955E-04
         0.55304E-04
         0.14327E-03
        -0.33377E-04
        -0.72290E-04
        -0.65745E-04
        -0.64212E-04
        -0.76174E-04
         0.48188E-04
         0.37601E-04
        -0.53802E-05
         0.83587E-05
         0.92801E-04
         0.46967E-05
        -0.63966E-03
         0.93725E-03
        -0.19663E-02
        -0.20937E-02
        -0.20030E-02
        -0.11034E-02
         0.27369E-03
         0.77015E-03
         0.95278E-03
         0.17376E-02
         0.19484E-02
         0.76960E-03
         0.25462E-03
         0.21356E-03
        -0.92924E-04
        -0.93727E-03
        -0.17113E-02
        -0.22410E-02
        -0.14688E-02
         0.42713E-03
         0.81582E-03
         0.78622E-03
         0.13818E-02
         0.16760E-02
         0.11100E-02
         0.10448E-02
        -0.36196E-04
         0.48698E-05
        -0.82020E-05
        -0.62418E-05
         0.61021E-04
         0.23716E-04
         0.61451E-05
        -0.41060E-04
        -0.13177E-04
        -0.38842E-04
         0.27413E-05
        -0.65604E-04
        -0.12499E-03
         0.13169E-04
         0.16456E-03
        -0.26612E-04
         0.52781E-05
         0.23381E-05
         0.76501E-05
         0.22615E-05
         0.71224E-04
         0.46825E-04
        -0.27061E-04
         0.53060E-05
         0.13793E-04
        -0.20241E-05
         0.36078E-05
        -0.57723E-06
        -0.25771E-05
        -0.21415E-04
        -0.22083E-04
        -0.33733E-05
         0.87178E-05
         0.69999E-05
         0.13567E-04
        -0.26935E-04
        -0.58401E-04
         0.14416E-03
         0.24216E-04
         0.55550E-04
         0.14353E-03
        -0.33224E-04
        -0.72343E-04
        -0.65841E-04
        -0.64237E-04
        -0.76164E-04
         0.48198E-04
         0.37612E-04
        -0.53222E-05
         0.83293E-05
         0.92714E-04
         0.45976E-05
        -0.63882E-03
         0.93705E-03
        -0.19665E-02
        -0.20937E-02
        -0.20022E-02
        -0.11027E-02
         0.27384E-03
         0.77036E-03
         0.95178E-03
         0.17363E-02
         0.19477E-02
         0.77020E-03
         0.25463E-03
         0.21396E-03
        -0.92064E-04
        -0.93815E-03
        -0.17128E-02
        -0.22421E-02
        -0.14683E-02
         0.42723E-03
         0.81514E-03
         0.78590E-03
         0.13805E-02
         0.16737E-02
         0.11083E-02
         0.10429E-02
        -0.36270E-04
         0.48929E-05
        -0.82141E-05
        -0.62892E-05
         0.60971E-04
         0.23713E-04
         0.61855E-05
        -0.40998E-04
        -0.13210E-04
        -0.38913E-04
         0.26620E-05
        -0.65757E-04
        -0.12511E-03
         0.13147E-04
         0.16467E-03
        -0.26650E-04
         0.53376E-05
         0.23273E-05
         0.76533E-05
         0.22424E-05
         0.71399E-04
         0.46853E-04
        -0.27103E-04
         0.52992E-05
         0.13875E-04
        -0.20207E-05
         0.36622E-05
        -0.56762E-06
        -0.25576E-05
        -0.21461E-04
        -0.22114E-04
        -0.33514E-05
         0.86955E-05
         0.70144E-05
         0.13415E-04
        -0.26949E-04
        -0.58391E-04
         0.14460E-03
         0.24483E-04
         0.55789E-04
         0.14377E-03
        -0.33066E-04
        -0.72395E-04
        -0.65935E-04
        -0.64263E-04
        -0.76151E-04
         0.48207E-04
         0.37622E-04
        -0.52642E-05
         0.83000E-05
         0.92632E-04
         0.44985E-05
        -0.63798E-03
         0.93685E-03
        -0.19666E-02
        -0.20937E-02
        -0.20013E-02
        -0.11020E-02
         0.27400E-03
         0.77057E-03
         0.95078E-03
         0.17351E-02
         0.19471E-02
         0.77082E-03
         0.25464E-03
         0.21437E-03
        -0.91206E-04
        -0.93904E-03
        -0.17143E-02
        -0.22431E-02
        -0.14678E-02
         0.42732E-03
         0.81447E-03
         0.78557E-03
         0.13791E-02
         0.16715E-02
         0.11066E-02
         0.10411E-02
        -0.36344E-04
         0.49160E-05
        -0.82262E-05
        -0.63364E-05
         0.60921E-04
         0.23708E-04
         0.62260E-05
        -0.40935E-04
        -0.13243E-04
        -0.38978E-04
         0.25829E-05
        -0.65909E-04
        -0.12523E-03
         0.13124E-04
         0.16478E-03
        -0.26687E-04
         0.53979E-05
         0.23165E-05
         0.76556E-05
         0.22238E-05
         0.71577E-04
         0.46879E-04
        -0.27145E-04
         0.52928E-05
         0.13955E-04
        -0.20169E-05
         0.37186E-05
        -0.55725E-06
        -0.25378E-05
        -0.21505E-04
        -0.22145E-04
        -0.33298E-05
         0.86730E-05
         0.70288E-05
         0.13262E-04
        -0.26961E-04
        -0.58382E-04
         0.14505E-03
         0.24756E-04
         0.56029E-04
         0.14401E-03
        -0.32906E-04
        -0.72447E-04
        -0.66027E-04
        -0.64290E-04
        -0.76141E-04
         0.48217E-04
         0.37632E-04
        -0.52059E-05
         0.82710E-05
         0.92542E-04
         0.43990E-05
        -0.63714E-03
         0.93665E-03
        -0.19667E-02
        -0.20937E-02
        -0.20004E-02
        -0.11013E-02
         0.27416E-03
         0.77077E-03
         0.94979E-03
         0.17338E-02
         0.19466E-02
         0.77147E-03
         0.25463E-03
         0.21478E-03
        -0.90342E-04
        -0.93992E-03
        -0.17157E-02
        -0.22442E-02
        -0.14673E-02
         0.42742E-03
         0.81378E-03
         0.78525E-03
         0.13777E-02
         0.16693E-02
         0.11048E-02
         0.10392E-02
        -0.36418E-04
         0.49392E-05
        -0.82388E-05
        -0.63836E-05
         0.60874E-04
         0.23706E-04
         0.62665E-05
        -0.40872E-04
        -0.13276E-04
        -0.39043E-04
         0.25042E-05
        -0.66059E-04
        -0.12535E-03
         0.13101E-04
         0.16488E-03
        -0.26725E-04
         0.54587E-05
         0.23058E-05
         0.76578E-05
         0.22058E-05
         0.71754E-04
         0.46906E-04
        -0.27183E-04
         0.52868E-05
         0.14034E-04
        -0.20134E-05
         0.37735E-05
        -0.54636E-06
        -0.25178E-05
        -0.21548E-04
        -0.22176E-04
        -0.33087E-05
         0.86507E-05
         0.70436E-05
         0.13111E-04
        -0.26974E-04
        -0.58369E-04
         0.14549E-03
         0.25033E-04
         0.56260E-04
         0.14424E-03
        -0.32749E-04
        -0.72501E-04
        -0.66119E-04
        -0.64314E-04
        -0.76130E-04
         0.48227E-04
         0.37644E-04
        -0.51482E-05
         0.82413E-05
         0.92461E-04
         0.43005E-05
        -0.63629E-03
         0.93646E-03
        -0.19668E-02
        -0.20938E-02
        -0.19996E-02
        -0.11005E-02
         0.27431E-03
         0.77095E-03
         0.94881E-03
         0.17324E-02
         0.19460E-02
         0.77211E-03
         0.25461E-03
         0.21518E-03
        -0.89479E-04
        -0.94079E-03
        -0.17172E-02
        -0.22452E-02
        -0.14669E-02
         0.42752E-03
         0.81311E-03
         0.78493E-03
         0.13764E-02
         0.16671E-02
         0.11031E-02
         0.10373E-02
        -0.36820E-04
         0.50034E-05
        -0.83284E-05
        -0.64863E-05
         0.61379E-04
         0.23915E-04
         0.63617E-05
        -0.41193E-04
        -0.13425E-04
        -0.39466E-04
         0.24584E-05
        -0.66783E-04
        -0.12659E-03
         0.13202E-04
         0.16656E-03
        -0.27001E-04
         0.55660E-05
         0.23161E-05
         0.77271E-05
         0.22089E-05
         0.72548E-04
         0.47349E-04
        -0.27436E-04
         0.53315E-05
         0.14237E-04
        -0.20299E-05
         0.38599E-05
        -0.54020E-06
        -0.25264E-05
        -0.21790E-04
        -0.22408E-04
        -0.33231E-05
         0.87081E-05
         0.71219E-05
         0.13093E-04
        -0.27219E-04
        -0.58870E-04
         0.14728E-03
         0.25524E-04
         0.57004E-04
         0.14580E-03
        -0.32936E-04
        -0.73232E-04
        -0.66749E-04
        -0.64882E-04
        -0.76777E-04
         0.48658E-04
         0.37981E-04
        -0.51418E-05
         0.82856E-05
         0.93214E-04
         0.42417E-05
        -0.64184E-03
         0.94575E-03
        -0.19868E-02
        -0.21146E-02
        -0.20191E-02
        -0.11112E-02
         0.27747E-03
         0.77925E-03
         0.95799E-03
         0.17499E-02
         0.19662E-02
         0.78046E-03
         0.25696E-03
         0.21755E-03
        -0.89473E-04
        -0.95011E-03
        -0.17342E-02
        -0.22678E-02
        -0.14813E-02
         0.43209E-03
         0.82048E-03
         0.79208E-03
         0.13885E-02
         0.16812E-02
         0.11121E-02
         0.10455E-02
        -0.82727E-04
         0.11369E-04
        -0.18654E-04
        -0.14691E-04
         0.12810E-03
         0.50852E-04
         0.14403E-04
        -0.91684E-04
        -0.30014E-04
        -0.87524E-04
         0.52924E-05
        -0.13485E-03
        -0.26296E-03
         0.28568E-04
         0.34009E-03
        -0.60749E-04
         0.12541E-04
         0.51972E-05
         0.16936E-04
         0.48538E-05
         0.15056E-03
         0.10070E-03
        -0.57095E-04
         0.11860E-04
         0.32216E-04
        -0.45908E-05
         0.85668E-05
        -0.12024E-05
        -0.57316E-05
        -0.49171E-04
        -0.50450E-04
        -0.74367E-05
         0.19627E-04
         0.16077E-04
         0.26004E-04
        -0.57802E-04
        -0.12508E-03
         0.31446E-03
         0.56229E-04
         0.12608E-03
         0.31344E-03
        -0.71655E-04
        -0.15938E-03
        -0.14097E-03
        -0.13616E-03
        -0.15229E-03
         0.10148E-03
         0.81173E-04
        -0.11021E-04
         0.17700E-04
         0.19005E-03
         0.88235E-05
        -0.10240E-02
         0.15047E-02
        -0.31648E-02
        -0.33850E-02
        -0.32293E-02
        -0.17879E-02
         0.45743E-03
         0.13047E-02
         0.15972E-02
         0.28858E-02
         0.32485E-02
         0.12831E-02
         0.43045E-03
         0.36688E-03
        -0.14596E-03
        -0.15253E-02
        -0.27680E-02
        -0.35862E-02
        -0.23424E-02
         0.68551E-03
         0.13253E-02
         0.12899E-02
         0.22463E-02
         0.27379E-02
         0.17991E-02
         0.16788E-02
  
SCALARS                      strain_eq  double 1
LOOKUP_TABLE default
         0.69596E+01
         0.68628E+01
         0.69242E+01
         0.70343E+01
         0.24660E-08
         0.27343E-08
         0.26565E-08
         0.23903E-08
         0.68588E+01
         0.68919E+01
         0.26892E-08
         0.25718E-08
         0.67225E+01
         0.67173E+01
         0.29422E-08
         0.28019E-08
         0.70182E+01
         0.67248E+01
         0.21949E-08
         0.24686E-08
         0.66170E+01
         0.65329E+01
         0.66662E+01
         0.30303E-08
         0.28907E-08
         0.28752E-08
         0.65364E+01
         0.64138E+01
         0.29352E-08
         0.26658E-08
         0.70128E+01
         0.68853E+01
         0.71364E+01
         0.23885E-08
         0.22429E-08
         0.21484E-08
         0.69390E+01
         0.67765E+01
         0.26039E-08
         0.23739E-08
         0.68745E+01
         0.67490E+01
         0.24221E-08
         0.20895E-08
         0.69806E+01
         0.70279E+01
         0.26154E-08
         0.27123E-08
         0.66485E+01
         0.23441E-08
         0.70186E+01
         0.27256E-08
         0.65011E+01
         0.25627E-08
         0.64626E+01
         0.23655E-08
         0.64631E+01
         0.66000E+01
         0.23971E-08
         0.23571E-08
         0.70103E+01
         0.69611E+01
         0.24186E-08
         0.27378E-08
         0.70409E+01
         0.23214E-08
         0.69825E+01
         0.25424E-08
         0.68280E+01
         0.68133E+01
         0.27196E-08
         0.27178E-08
         0.67789E+01
         0.27503E-08
         0.63702E+01
         0.21985E-08
         0.63487E+01
         0.20463E-08
         0.63592E+01
         0.21317E-08
         0.64179E+01
         0.64799E+01
         0.20618E-08
         0.21415E-08
         0.66041E+01
         0.20168E-08
         0.69780E+01
         0.27080E-08
         0.69193E+01
         0.27576E-08
         0.68708E+01
         0.68454E+01
         0.27550E-08
         0.27026E-08
         0.68781E+01
         0.24252E-08
         0.69011E+01
         0.23746E-08
         0.68801E+01
         0.25684E-08
         0.68721E+01
         0.68936E+01
         0.26405E-08
         0.26333E-08
         0.67540E+01
         0.68085E+01
         0.25108E-08
         0.24235E-08
         0.67426E+01
         0.24383E-08
         0.68054E+01
         0.23806E-08
         0.67429E+01
         0.23777E-08
         0.66033E+01
         0.22292E-08
         0.64675E+01
         0.18863E-08
         0.63866E+01
         0.15938E-08
         0.63783E+01
         0.15458E-08
         0.63810E+01
         0.16470E-08
         0.64689E+01
         0.16990E-08
         0.66320E+01
         0.15916E-08
         0.68113E+01
         0.14526E-08
         0.69173E+01
         0.15033E-08
         0.70218E+01
         0.17820E-08
         0.70907E+01
         0.20803E-08
         0.70877E+01
         0.22172E-08
         0.69221E+01
         0.23675E-08
         0.68068E+01
         0.24880E-08
         0.67654E+01
         0.23214E-08
         0.68270E+01
         0.20438E-08
         0.68600E+01
         0.20398E-08
         0.68067E+01
         0.22446E-08
         0.68085E+01
         0.23818E-08
         0.68488E+01
         0.23047E-08
         0.69014E+01
         0.22533E-08
         0.40667E+00
         0.40673E+00
         0.40673E+00
         0.40645E+00
         0.40672E+00
         0.40682E+00
         0.40644E+00
         0.40672E+00
         0.40655E+00
         0.40679E+00
         0.40602E+00
         0.40621E+00
         0.40652E+00
         0.40628E+00
         0.40641E+00
         0.40649E+00
         0.40657E+00
         0.40627E+00
         0.40672E+00
         0.40672E+00
         0.40694E+00
         0.40699E+00
         0.40689E+00
         0.40670E+00
         0.40675E+00
         0.40671E+00
         0.40660E+00
         0.40661E+00
         0.40636E+00
         0.40671E+00
         0.40653E+00
         0.40672E+00
         0.40652E+00
         0.40670E+00
         0.40604E+00
         0.40644E+00
         0.40666E+00
         0.40660E+00
         0.40647E+00
         0.40589E+00
         0.40560E+00
         0.40656E+00
         0.40701E+00
         0.40688E+00
         0.40668E+00
         0.40611E+00
         0.40654E+00
         0.40681E+00
         0.40678E+00
         0.40659E+00
         0.40630E+00
         0.40674E+00
         0.40637E+00
         0.40814E+00
         0.40818E+00
         0.40872E+00
         0.40906E+00
         0.40890E+00
         0.40783E+00
         0.40682E+00
         0.40678E+00
         0.40694E+00
         0.40630E+00
         0.40864E+00
         0.40846E+00
         0.40838E+00
         0.40905E+00
         0.40959E+00
         0.40984E+00
         0.40966E+00
         0.40723E+00
         0.40815E+00
         0.40855E+00
         0.40823E+00
         0.40817E+00
         0.40723E+00
         0.40851E+00
         0.40901E+00
         0.17520E-01
         0.10527E-01
         0.99296E-02
         0.68090E-02
         0.18194E-01
         0.12580E-01
         0.55527E-02
         0.17231E-01
         0.10794E-01
         0.16237E-01
         0.79165E-02
         0.34113E-01
         0.25904E-01
         0.12956E-01
         0.35728E-01
         0.12730E-01
         0.64493E-02
         0.41147E-02
         0.85719E-02
         0.46407E-02
         0.26826E-01
         0.25168E-01
         0.24510E-01
         0.63783E-02
         0.10478E-01
         0.33318E-02
         0.12223E-01
         0.19853E-02
         0.44768E-02
         0.11365E-01
         0.10875E-01
         0.57846E-02
         0.70440E-02
         0.60937E-02
         0.23519E-01
         0.14074E-01
         0.18218E-01
         0.29137E-01
         0.22413E-01
         0.20861E-01
         0.29628E-01
         0.26858E-01
         0.27037E-01
         0.20931E-01
         0.18692E-01
         0.25570E-01
         0.16762E-01
         0.14253E-01
         0.11754E-01
         0.13880E-01
         0.22694E-01
         0.15581E-01
         0.99636E-01
         0.10202E+00
         0.10664E+00
         0.10587E+00
         0.11285E+00
         0.12117E+00
         0.11627E+00
         0.10339E+00
         0.10075E+00
         0.10783E+00
         0.10568E+00
         0.10424E+00
         0.86171E-01
         0.81915E-01
         0.89990E-01
         0.96390E-01
         0.10003E+00
         0.10924E+00
         0.10508E+00
         0.10792E+00
         0.97176E-01
         0.92267E-01
         0.98399E-01
         0.96193E-01
         0.98987E-01
         0.98153E-01
         0.17533E-01
         0.10529E-01
         0.99352E-02
         0.68188E-02
         0.18186E-01
         0.12572E-01
         0.55695E-02
         0.17248E-01
         0.10813E-01
         0.16284E-01
         0.79163E-02
         0.34112E-01
         0.25914E-01
         0.12925E-01
         0.35765E-01
         0.12740E-01
         0.64674E-02
         0.41044E-02
         0.85769E-02
         0.46305E-02
         0.26828E-01
         0.25166E-01
         0.24508E-01
         0.63781E-02
         0.10523E-01
         0.33310E-02
         0.12227E-01
         0.19643E-02
         0.44982E-02
         0.11385E-01
         0.10886E-01
         0.57827E-02
         0.70321E-02
         0.60993E-02
         0.23530E-01
         0.14070E-01
         0.18214E-01
         0.29182E-01
         0.22463E-01
         0.20890E-01
         0.29648E-01
         0.26872E-01
         0.27040E-01
         0.20930E-01
         0.18688E-01
         0.25568E-01
         0.16763E-01
         0.14252E-01
         0.11737E-01
         0.13861E-01
         0.22682E-01
         0.15557E-01
         0.99600E-01
         0.10200E+00
         0.10664E+00
         0.10587E+00
         0.11284E+00
         0.12113E+00
         0.11622E+00
         0.10336E+00
         0.10073E+00
         0.10780E+00
         0.10566E+00
         0.10424E+00
         0.86162E-01
         0.81912E-01
         0.90000E-01
         0.96413E-01
         0.10005E+00
         0.10926E+00
         0.10507E+00
         0.10791E+00
         0.97165E-01
         0.92261E-01
         0.98365E-01
         0.96130E-01
         0.98931E-01
         0.98101E-01
         0.17547E-01
         0.10532E-01
         0.99409E-02
         0.68286E-02
         0.18178E-01
         0.12565E-01
         0.55865E-02
         0.17264E-01
         0.10831E-01
         0.16332E-01
         0.79163E-02
         0.34111E-01
         0.25924E-01
         0.12895E-01
         0.35801E-01
         0.12751E-01
         0.64858E-02
         0.40939E-02
         0.85820E-02
         0.46204E-02
         0.26831E-01
         0.25164E-01
         0.24507E-01
         0.63779E-02
         0.10568E-01
         0.33300E-02
         0.12231E-01
         0.19441E-02
         0.45194E-02
         0.11405E-01
         0.10896E-01
         0.57808E-02
         0.70202E-02
         0.61048E-02
         0.23540E-01
         0.14067E-01
         0.18210E-01
         0.29228E-01
         0.22514E-01
         0.20919E-01
         0.29668E-01
         0.26886E-01
         0.27044E-01
         0.20931E-01
         0.18685E-01
         0.25567E-01
         0.16763E-01
         0.14251E-01
         0.11720E-01
         0.13842E-01
         0.22669E-01
         0.15533E-01
         0.99564E-01
         0.10197E+00
         0.10664E+00
         0.10587E+00
         0.11282E+00
         0.12109E+00
         0.11618E+00
         0.10333E+00
         0.10070E+00
         0.10776E+00
         0.10564E+00
         0.10425E+00
         0.86155E-01
         0.81909E-01
         0.90011E-01
         0.96437E-01
         0.10008E+00
         0.10928E+00
         0.10506E+00
         0.10791E+00
         0.97155E-01
         0.92255E-01
         0.98331E-01
         0.96067E-01
         0.98876E-01
         0.98049E-01
         0.17560E-01
         0.10534E-01
         0.99466E-02
         0.68384E-02
         0.18169E-01
         0.12558E-01
         0.56035E-02
         0.17281E-01
         0.10850E-01
         0.16378E-01
         0.79163E-02
         0.34110E-01
         0.25935E-01
         0.12865E-01
         0.35838E-01
         0.12762E-01
         0.65049E-02
         0.40833E-02
         0.85875E-02
         0.46099E-02
         0.26834E-01
         0.25163E-01
         0.24507E-01
         0.63772E-02
         0.10612E-01
         0.33285E-02
         0.12235E-01
         0.19262E-02
         0.45393E-02
         0.11422E-01
         0.10907E-01
         0.57794E-02
         0.70082E-02
         0.61103E-02
         0.23550E-01
         0.14063E-01
         0.18205E-01
         0.29273E-01
         0.22565E-01
         0.20950E-01
         0.29689E-01
         0.26901E-01
         0.27049E-01
         0.20933E-01
         0.18683E-01
         0.25567E-01
         0.16764E-01
         0.14251E-01
         0.11704E-01
         0.13822E-01
         0.22656E-01
         0.15509E-01
         0.99528E-01
         0.10195E+00
         0.10664E+00
         0.10587E+00
         0.11280E+00
         0.12105E+00
         0.11613E+00
         0.10331E+00
         0.10068E+00
         0.10773E+00
         0.10562E+00
         0.10425E+00
         0.86149E-01
         0.81906E-01
         0.90024E-01
         0.96465E-01
         0.10011E+00
         0.10931E+00
         0.10506E+00
         0.10790E+00
         0.97144E-01
         0.92249E-01
         0.98297E-01
         0.96004E-01
         0.98820E-01
         0.97997E-01
         0.17573E-01
         0.10537E-01
         0.99522E-02
         0.68482E-02
         0.18161E-01
         0.12551E-01
         0.56204E-02
         0.17297E-01
         0.10868E-01
         0.16424E-01
         0.79165E-02
         0.34109E-01
         0.25945E-01
         0.12834E-01
         0.35876E-01
         0.12775E-01
         0.65247E-02
         0.40728E-02
         0.85931E-02
         0.45992E-02
         0.26839E-01
         0.25163E-01
         0.24509E-01
         0.63763E-02
         0.10655E-01
         0.33262E-02
         0.12238E-01
         0.19107E-02
         0.45580E-02
         0.11438E-01
         0.10919E-01
         0.57781E-02
         0.69962E-02
         0.61158E-02
         0.23561E-01
         0.14059E-01
         0.18201E-01
         0.29319E-01
         0.22617E-01
         0.20982E-01
         0.29712E-01
         0.26917E-01
         0.27055E-01
         0.20937E-01
         0.18682E-01
         0.25568E-01
         0.16766E-01
         0.14250E-01
         0.11687E-01
         0.13803E-01
         0.22644E-01
         0.15485E-01
         0.99492E-01
         0.10192E+00
         0.10664E+00
         0.10587E+00
         0.11278E+00
         0.12101E+00
         0.11608E+00
         0.10328E+00
         0.10065E+00
         0.10770E+00
         0.10561E+00
         0.10426E+00
         0.86145E-01
         0.81904E-01
         0.90037E-01
         0.96495E-01
         0.10014E+00
         0.10934E+00
         0.10505E+00
         0.10790E+00
         0.97134E-01
         0.92244E-01
         0.98264E-01
         0.95941E-01
         0.98764E-01
         0.97944E-01
         0.17586E-01
         0.10538E-01
         0.99577E-02
         0.68580E-02
         0.18153E-01
         0.12544E-01
         0.56369E-02
         0.17312E-01
         0.10887E-01
         0.16468E-01
         0.79174E-02
         0.34108E-01
         0.25956E-01
         0.12804E-01
         0.35912E-01
         0.12787E-01
         0.65446E-02
         0.40622E-02
         0.85987E-02
         0.45887E-02
         0.26843E-01
         0.25163E-01
         0.24511E-01
         0.63753E-02
         0.10696E-01
         0.33237E-02
         0.12240E-01
         0.18963E-02
         0.45766E-02
         0.11453E-01
         0.10930E-01
         0.57764E-02
         0.69842E-02
         0.61214E-02
         0.23572E-01
         0.14056E-01
         0.18198E-01
         0.29365E-01
         0.22670E-01
         0.21015E-01
         0.29735E-01
         0.26933E-01
         0.27062E-01
         0.20942E-01
         0.18682E-01
         0.25571E-01
         0.16768E-01
         0.14251E-01
         0.11672E-01
         0.13784E-01
         0.22632E-01
         0.15462E-01
         0.99456E-01
         0.10190E+00
         0.10664E+00
         0.10587E+00
         0.11276E+00
         0.12096E+00
         0.11603E+00
         0.10325E+00
         0.10063E+00
         0.10767E+00
         0.10559E+00
         0.10427E+00
         0.86142E-01
         0.81903E-01
         0.90050E-01
         0.96527E-01
         0.10018E+00
         0.10936E+00
         0.10505E+00
         0.10789E+00
         0.97124E-01
         0.92238E-01
         0.98230E-01
         0.95878E-01
         0.98709E-01
         0.97892E-01
         0.17597E-01
         0.10539E-01
         0.99629E-02
         0.68679E-02
         0.18145E-01
         0.12537E-01
         0.56528E-02
         0.17325E-01
         0.10906E-01
         0.16510E-01
         0.79194E-02
         0.34108E-01
         0.25967E-01
         0.12774E-01
         0.35950E-01
         0.12800E-01
         0.65641E-02
         0.40516E-02
         0.86045E-02
         0.45784E-02
         0.26848E-01
         0.25163E-01
         0.24514E-01
         0.63745E-02
         0.10737E-01
         0.33207E-02
         0.12244E-01
         0.18823E-02
         0.45955E-02
         0.11469E-01
         0.10940E-01
         0.57736E-02
         0.69721E-02
         0.61267E-02
         0.23583E-01
         0.14053E-01
         0.18195E-01
         0.29411E-01
         0.22723E-01
         0.21048E-01
         0.29758E-01
         0.26949E-01
         0.27069E-01
         0.20948E-01
         0.18684E-01
         0.25574E-01
         0.16772E-01
         0.14252E-01
         0.11658E-01
         0.13767E-01
         0.22621E-01
         0.15438E-01
         0.99420E-01
         0.10187E+00
         0.10664E+00
         0.10587E+00
         0.11274E+00
         0.12092E+00
         0.11598E+00
         0.10322E+00
         0.10060E+00
         0.10763E+00
         0.10557E+00
         0.10427E+00
         0.86139E-01
         0.81901E-01
         0.90064E-01
         0.96560E-01
         0.10021E+00
         0.10939E+00
         0.10504E+00
         0.10788E+00
         0.97115E-01
         0.92233E-01
         0.98196E-01
         0.95816E-01
         0.98654E-01
         0.97840E-01
         0.17608E-01
         0.10539E-01
         0.99680E-02
         0.68778E-02
         0.18138E-01
         0.12530E-01
         0.56682E-02
         0.17337E-01
         0.10925E-01
         0.16552E-01
         0.79221E-02
         0.34108E-01
         0.25979E-01
         0.12744E-01
         0.35987E-01
         0.12813E-01
         0.65835E-02
         0.40409E-02
         0.86103E-02
         0.45685E-02
         0.26852E-01
         0.25163E-01
         0.24516E-01
         0.63736E-02
         0.10777E-01
         0.33175E-02
         0.12247E-01
         0.18689E-02
         0.46149E-02
         0.11484E-01
         0.10950E-01
         0.57701E-02
         0.69600E-02
         0.61320E-02
         0.23594E-01
         0.14051E-01
         0.18192E-01
         0.29458E-01
         0.22777E-01
         0.21081E-01
         0.29782E-01
         0.26965E-01
         0.27076E-01
         0.20954E-01
         0.18685E-01
         0.25578E-01
         0.16776E-01
         0.14255E-01
         0.11646E-01
         0.13749E-01
         0.22610E-01
         0.15416E-01
         0.99383E-01
         0.10185E+00
         0.10664E+00
         0.10587E+00
         0.11272E+00
         0.12088E+00
         0.11593E+00
         0.10320E+00
         0.10058E+00
         0.10760E+00
         0.10556E+00
         0.10428E+00
         0.86136E-01
         0.81899E-01
         0.90077E-01
         0.96592E-01
         0.10025E+00
         0.10941E+00
         0.10503E+00
         0.10788E+00
         0.97106E-01
         0.92229E-01
         0.98162E-01
         0.95753E-01
         0.98599E-01
         0.97788E-01
         0.17619E-01
         0.10539E-01
         0.99731E-02
         0.68877E-02
         0.18130E-01
         0.12523E-01
         0.56836E-02
         0.17349E-01
         0.10944E-01
         0.16593E-01
         0.79246E-02
         0.34108E-01
         0.25991E-01
         0.12715E-01
         0.36025E-01
         0.12825E-01
         0.66029E-02
         0.40302E-02
         0.86159E-02
         0.45583E-02
         0.26857E-01
         0.25163E-01
         0.24519E-01
         0.63731E-02
         0.10817E-01
         0.33144E-02
         0.12251E-01
         0.18558E-02
         0.46345E-02
         0.11499E-01
         0.10960E-01
         0.57668E-02
         0.69480E-02
         0.61373E-02
         0.23606E-01
         0.14048E-01
         0.18190E-01
         0.29505E-01
         0.22831E-01
         0.21114E-01
         0.29806E-01
         0.26982E-01
         0.27083E-01
         0.20960E-01
         0.18687E-01
         0.25582E-01
         0.16780E-01
         0.14257E-01
         0.11634E-01
         0.13732E-01
         0.22599E-01
         0.15392E-01
         0.99347E-01
         0.10183E+00
         0.10663E+00
         0.10587E+00
         0.11270E+00
         0.12084E+00
         0.11588E+00
         0.10317E+00
         0.10055E+00
         0.10757E+00
         0.10554E+00
         0.10429E+00
         0.86133E-01
         0.81898E-01
         0.90091E-01
         0.96624E-01
         0.10028E+00
         0.10944E+00
         0.10503E+00
         0.10787E+00
         0.97097E-01
         0.92225E-01
         0.98128E-01
         0.95691E-01
         0.98544E-01
         0.97736E-01
         0.17630E-01
         0.10539E-01
         0.99781E-02
         0.68978E-02
         0.18122E-01
         0.12515E-01
         0.56991E-02
         0.17361E-01
         0.10964E-01
         0.16634E-01
         0.79276E-02
         0.34108E-01
         0.26003E-01
         0.12685E-01
         0.36062E-01
         0.12838E-01
         0.66223E-02
         0.40196E-02
         0.86215E-02
         0.45484E-02
         0.26862E-01
         0.25163E-01
         0.24522E-01
         0.63724E-02
         0.10856E-01
         0.33113E-02
         0.12254E-01
         0.18432E-02
         0.46543E-02
         0.11514E-01
         0.10970E-01
         0.57633E-02
         0.69360E-02
         0.61426E-02
         0.23617E-01
         0.14046E-01
         0.18187E-01
         0.29552E-01
         0.22884E-01
         0.21147E-01
         0.29829E-01
         0.26998E-01
         0.27090E-01
         0.20966E-01
         0.18689E-01
         0.25586E-01
         0.16784E-01
         0.14259E-01
         0.11621E-01
         0.13714E-01
         0.22588E-01
         0.15369E-01
         0.99311E-01
         0.10180E+00
         0.10663E+00
         0.10587E+00
         0.11269E+00
         0.12080E+00
         0.11583E+00
         0.10314E+00
         0.10053E+00
         0.10753E+00
         0.10552E+00
         0.10429E+00
         0.86129E-01
         0.81896E-01
         0.90105E-01
         0.96656E-01
         0.10032E+00
         0.10946E+00
         0.10502E+00
         0.10786E+00
         0.97089E-01
         0.92221E-01
         0.98094E-01
         0.95628E-01
         0.98489E-01
         0.97684E-01
         0.17641E-01
         0.10538E-01
         0.99832E-02
         0.69077E-02
         0.18115E-01
         0.12508E-01
         0.57148E-02
         0.17373E-01
         0.10983E-01
         0.16676E-01
         0.79307E-02
         0.34109E-01
         0.26014E-01
         0.12656E-01
         0.36100E-01
         0.12851E-01
         0.66418E-02
         0.40090E-02
         0.86273E-02
         0.45381E-02
         0.26866E-01
         0.25163E-01
         0.24524E-01
         0.63719E-02
         0.10896E-01
         0.33082E-02
         0.12258E-01
         0.18310E-02
         0.46742E-02
         0.11529E-01
         0.10980E-01
         0.57599E-02
         0.69241E-02
         0.61479E-02
         0.23629E-01
         0.14044E-01
         0.18185E-01
         0.29599E-01
         0.22938E-01
         0.21180E-01
         0.29853E-01
         0.27014E-01
         0.27097E-01
         0.20971E-01
         0.18691E-01
         0.25590E-01
         0.16789E-01
         0.14262E-01
         0.11609E-01
         0.13697E-01
         0.22578E-01
         0.15346E-01
         0.99274E-01
         0.10178E+00
         0.10663E+00
         0.10587E+00
         0.11267E+00
         0.12076E+00
         0.11578E+00
         0.10311E+00
         0.10050E+00
         0.10750E+00
         0.10550E+00
         0.10430E+00
         0.86126E-01
         0.81895E-01
         0.90118E-01
         0.96688E-01
         0.10035E+00
         0.10949E+00
         0.10501E+00
         0.10786E+00
         0.97080E-01
         0.92217E-01
         0.98060E-01
         0.95566E-01
         0.98434E-01
         0.97632E-01
         0.17651E-01
         0.10538E-01
         0.99882E-02
         0.69177E-02
         0.18107E-01
         0.12501E-01
         0.57303E-02
         0.17384E-01
         0.11002E-01
         0.16717E-01
         0.79338E-02
         0.34109E-01
         0.26026E-01
         0.12626E-01
         0.36138E-01
         0.12863E-01
         0.66613E-02
         0.39983E-02
         0.86330E-02
         0.45282E-02
         0.26871E-01
         0.25163E-01
         0.24527E-01
         0.63714E-02
         0.10936E-01
         0.33053E-02
         0.12261E-01
         0.18192E-02
         0.46941E-02
         0.11545E-01
         0.10990E-01
         0.57565E-02
         0.69122E-02
         0.61533E-02
         0.23641E-01
         0.14042E-01
         0.18182E-01
         0.29646E-01
         0.22992E-01
         0.21213E-01
         0.29877E-01
         0.27031E-01
         0.27104E-01
         0.20977E-01
         0.18693E-01
         0.25595E-01
         0.16792E-01
         0.14264E-01
         0.11596E-01
         0.13680E-01
         0.22567E-01
         0.15323E-01
         0.99238E-01
         0.10175E+00
         0.10663E+00
         0.10587E+00
         0.11265E+00
         0.12072E+00
         0.11573E+00
         0.10309E+00
         0.10048E+00
         0.10747E+00
         0.10549E+00
         0.10431E+00
         0.86122E-01
         0.81893E-01
         0.90132E-01
         0.96720E-01
         0.10039E+00
         0.10951E+00
         0.10500E+00
         0.10785E+00
         0.97071E-01
         0.92212E-01
         0.98026E-01
         0.95503E-01
         0.98379E-01
         0.97581E-01
         0.17662E-01
         0.10538E-01
         0.99932E-02
         0.69277E-02
         0.18099E-01
         0.12494E-01
         0.57459E-02
         0.17396E-01
         0.11022E-01
         0.16758E-01
         0.79371E-02
         0.34109E-01
         0.26038E-01
         0.12597E-01
         0.36176E-01
         0.12876E-01
         0.66808E-02
         0.39876E-02
         0.86386E-02
         0.45181E-02
         0.26875E-01
         0.25163E-01
         0.24530E-01
         0.63709E-02
         0.10975E-01
         0.33022E-02
         0.12265E-01
         0.18077E-02
         0.47144E-02
         0.11560E-01
         0.11000E-01
         0.57530E-02
         0.69003E-02
         0.61586E-02
         0.23652E-01
         0.14040E-01
         0.18180E-01
         0.29692E-01
         0.23046E-01
         0.21246E-01
         0.29901E-01
         0.27047E-01
         0.27111E-01
         0.20983E-01
         0.18695E-01
         0.25598E-01
         0.16797E-01
         0.14266E-01
         0.11584E-01
         0.13662E-01
         0.22556E-01
         0.15300E-01
         0.99202E-01
         0.10173E+00
         0.10663E+00
         0.10587E+00
         0.11263E+00
         0.12068E+00
         0.11568E+00
         0.10306E+00
         0.10045E+00
         0.10743E+00
         0.10547E+00
         0.10431E+00
         0.86119E-01
         0.81892E-01
         0.90146E-01
         0.96752E-01
         0.10042E+00
         0.10954E+00
         0.10500E+00
         0.10784E+00
         0.97062E-01
         0.92208E-01
         0.97992E-01
         0.95441E-01
         0.98324E-01
         0.97529E-01
         0.17673E-01
         0.10538E-01
         0.99983E-02
         0.69378E-02
         0.18092E-01
         0.12487E-01
         0.57616E-02
         0.17408E-01
         0.11041E-01
         0.16799E-01
         0.79405E-02
         0.34109E-01
         0.26050E-01
         0.12567E-01
         0.36213E-01
         0.12889E-01
         0.67004E-02
         0.39770E-02
         0.86443E-02
         0.45082E-02
         0.26880E-01
         0.25163E-01
         0.24532E-01
         0.63703E-02
         0.11015E-01
         0.32992E-02
         0.12268E-01
         0.17968E-02
         0.47348E-02
         0.11575E-01
         0.11010E-01
         0.57496E-02
         0.68886E-02
         0.61639E-02
         0.23664E-01
         0.14038E-01
         0.18177E-01
         0.29740E-01
         0.23100E-01
         0.21279E-01
         0.29924E-01
         0.27063E-01
         0.27118E-01
         0.20989E-01
         0.18697E-01
         0.25602E-01
         0.16801E-01
         0.14269E-01
         0.11572E-01
         0.13645E-01
         0.22546E-01
         0.15277E-01
         0.99166E-01
         0.10171E+00
         0.10663E+00
         0.10587E+00
         0.11261E+00
         0.12063E+00
         0.11563E+00
         0.10303E+00
         0.10042E+00
         0.10740E+00
         0.10545E+00
         0.10432E+00
         0.86116E-01
         0.81890E-01
         0.90160E-01
         0.96785E-01
         0.10045E+00
         0.10957E+00
         0.10499E+00
         0.10784E+00
         0.97054E-01
         0.92204E-01
         0.97958E-01
         0.95378E-01
         0.98269E-01
         0.97477E-01
         0.17684E-01
         0.10538E-01
         0.10003E-01
         0.69479E-02
         0.18084E-01
         0.12480E-01
         0.57773E-02
         0.17420E-01
         0.11060E-01
         0.16840E-01
         0.79440E-02
         0.34109E-01
         0.26061E-01
         0.12538E-01
         0.36251E-01
         0.12901E-01
         0.67200E-02
         0.39664E-02
         0.86500E-02
         0.44981E-02
         0.26885E-01
         0.25163E-01
         0.24535E-01
         0.63699E-02
         0.11054E-01
         0.32962E-02
         0.12272E-01
         0.17861E-02
         0.47555E-02
         0.11590E-01
         0.11020E-01
         0.57461E-02
         0.68768E-02
         0.61693E-02
         0.23675E-01
         0.14036E-01
         0.18175E-01
         0.29787E-01
         0.23154E-01
         0.21312E-01
         0.29948E-01
         0.27079E-01
         0.27125E-01
         0.20995E-01
         0.18699E-01
         0.25607E-01
         0.16805E-01
         0.14271E-01
         0.11559E-01
         0.13627E-01
         0.22535E-01
         0.15254E-01
         0.99129E-01
         0.10168E+00
         0.10662E+00
         0.10587E+00
         0.11259E+00
         0.12059E+00
         0.11558E+00
         0.10300E+00
         0.10040E+00
         0.10736E+00
         0.10544E+00
         0.10433E+00
         0.86112E-01
         0.81889E-01
         0.90173E-01
         0.96817E-01
         0.10049E+00
         0.10959E+00
         0.10498E+00
         0.10783E+00
         0.97045E-01
         0.92200E-01
         0.97923E-01
         0.95316E-01
         0.98215E-01
         0.97425E-01
         0.17694E-01
         0.10538E-01
         0.10008E-01
         0.69579E-02
         0.18077E-01
         0.12473E-01
         0.57929E-02
         0.17432E-01
         0.11080E-01
         0.16881E-01
         0.79476E-02
         0.34110E-01
         0.26073E-01
         0.12508E-01
         0.36288E-01
         0.12914E-01
         0.67397E-02
         0.39559E-02
         0.86557E-02
         0.44882E-02
         0.26889E-01
         0.25163E-01
         0.24537E-01
         0.63694E-02
         0.11094E-01
         0.32933E-02
         0.12275E-01
         0.17758E-02
         0.47763E-02
         0.11605E-01
         0.11030E-01
         0.57428E-02
         0.68652E-02
         0.61747E-02
         0.23687E-01
         0.14034E-01
         0.18173E-01
         0.29834E-01
         0.23208E-01
         0.21345E-01
         0.29971E-01
         0.27096E-01
         0.27132E-01
         0.21001E-01
         0.18701E-01
         0.25611E-01
         0.16809E-01
         0.14273E-01
         0.11547E-01
         0.13610E-01
         0.22524E-01
         0.15231E-01
         0.99093E-01
         0.10166E+00
         0.10662E+00
         0.10588E+00
         0.11258E+00
         0.12055E+00
         0.11553E+00
         0.10297E+00
         0.10037E+00
         0.10733E+00
         0.10542E+00
         0.10433E+00
         0.86109E-01
         0.81887E-01
         0.90187E-01
         0.96849E-01
         0.10052E+00
         0.10962E+00
         0.10498E+00
         0.10782E+00
         0.97037E-01
         0.92195E-01
         0.97889E-01
         0.95253E-01
         0.98160E-01
         0.97373E-01
         0.17705E-01
         0.10538E-01
         0.10013E-01
         0.69681E-02
         0.18069E-01
         0.12466E-01
         0.58087E-02
         0.17443E-01
         0.11099E-01
         0.16922E-01
         0.79513E-02
         0.34110E-01
         0.26085E-01
         0.12479E-01
         0.36326E-01
         0.12927E-01
         0.67594E-02
         0.39453E-02
         0.86614E-02
         0.44781E-02
         0.26894E-01
         0.25162E-01
         0.24540E-01
         0.63691E-02
         0.11133E-01
         0.32903E-02
         0.12278E-01
         0.17658E-02
         0.47971E-02
         0.11620E-01
         0.11040E-01
         0.57395E-02
         0.68537E-02
         0.61802E-02
         0.23699E-01
         0.14031E-01
         0.18170E-01
         0.29881E-01
         0.23262E-01
         0.21377E-01
         0.29994E-01
         0.27112E-01
         0.27138E-01
         0.21007E-01
         0.18703E-01
         0.25615E-01
         0.16813E-01
         0.14276E-01
         0.11535E-01
         0.13593E-01
         0.22513E-01
         0.15208E-01
         0.99057E-01
         0.10163E+00
         0.10662E+00
         0.10588E+00
         0.11256E+00
         0.12051E+00
         0.11548E+00
         0.10294E+00
         0.10035E+00
         0.10730E+00
         0.10540E+00
         0.10434E+00
         0.86106E-01
         0.81886E-01
         0.90200E-01
         0.96881E-01
         0.10056E+00
         0.10964E+00
         0.10497E+00
         0.10782E+00
         0.97028E-01
         0.92191E-01
         0.97855E-01
         0.95191E-01
         0.98105E-01
         0.97321E-01
         0.17716E-01
         0.10538E-01
         0.10018E-01
         0.69782E-02
         0.18062E-01
         0.12459E-01
         0.58244E-02
         0.17455E-01
         0.11119E-01
         0.16963E-01
         0.79551E-02
         0.34110E-01
         0.26097E-01
         0.12449E-01
         0.36363E-01
         0.12939E-01
         0.67792E-02
         0.39347E-02
         0.86671E-02
         0.44686E-02
         0.26898E-01
         0.25162E-01
         0.24543E-01
         0.63685E-02
         0.11172E-01
         0.32875E-02
         0.12280E-01
         0.17557E-02
         0.48182E-02
         0.11634E-01
         0.11050E-01
         0.57360E-02
         0.68421E-02
         0.61856E-02
         0.23711E-01
         0.14030E-01
         0.18168E-01
         0.29928E-01
         0.23316E-01
         0.21408E-01
         0.30016E-01
         0.27126E-01
         0.27145E-01
         0.21013E-01
         0.18705E-01
         0.25619E-01
         0.16817E-01
         0.14278E-01
         0.11523E-01
         0.13575E-01
         0.22503E-01
         0.15185E-01
         0.99020E-01
         0.10161E+00
         0.10662E+00
         0.10588E+00
         0.11254E+00
         0.12047E+00
         0.11543E+00
         0.10292E+00
         0.10032E+00
         0.10726E+00
         0.10539E+00
         0.10435E+00
         0.86105E-01
         0.81884E-01
         0.90214E-01
         0.96912E-01
         0.10059E+00
         0.10967E+00
         0.10496E+00
         0.10781E+00
         0.97020E-01
         0.92187E-01
         0.97820E-01
         0.95128E-01
         0.98051E-01
         0.97269E-01
         0.17726E-01
         0.10538E-01
         0.10023E-01
         0.69884E-02
         0.18054E-01
         0.12452E-01
         0.58402E-02
         0.17466E-01
         0.11139E-01
         0.17003E-01
         0.79590E-02
         0.34110E-01
         0.26109E-01
         0.12420E-01
         0.36401E-01
         0.12952E-01
         0.67989E-02
         0.39241E-02
         0.86729E-02
         0.44589E-02
         0.26903E-01
         0.25161E-01
         0.24546E-01
         0.63681E-02
         0.11211E-01
         0.32846E-02
         0.12282E-01
         0.17455E-02
         0.48395E-02
         0.11647E-01
         0.11060E-01
         0.57327E-02
         0.68306E-02
         0.61910E-02
         0.23723E-01
         0.14028E-01
         0.18165E-01
         0.29976E-01
         0.23369E-01
         0.21439E-01
         0.30037E-01
         0.27139E-01
         0.27150E-01
         0.21019E-01
         0.18707E-01
         0.25624E-01
         0.16822E-01
         0.14281E-01
         0.11511E-01
         0.13558E-01
         0.22492E-01
         0.15162E-01
         0.98984E-01
         0.10159E+00
         0.10662E+00
         0.10588E+00
         0.11252E+00
         0.12043E+00
         0.11538E+00
         0.10289E+00
         0.10030E+00
         0.10722E+00
         0.10537E+00
         0.10437E+00
         0.86105E-01
         0.81883E-01
         0.90227E-01
         0.96944E-01
         0.10063E+00
         0.10969E+00
         0.10496E+00
         0.10780E+00
         0.97011E-01
         0.92182E-01
         0.97785E-01
         0.95066E-01
         0.97997E-01
         0.97218E-01
         0.17737E-01
         0.10538E-01
         0.10029E-01
         0.69986E-02
         0.18047E-01
         0.12445E-01
         0.58561E-02
         0.17478E-01
         0.11158E-01
         0.17043E-01
         0.79631E-02
         0.34111E-01
         0.26120E-01
         0.12390E-01
         0.36438E-01
         0.12964E-01
         0.68188E-02
         0.39136E-02
         0.86786E-02
         0.44496E-02
         0.26908E-01
         0.25161E-01
         0.24548E-01
         0.63678E-02
         0.11250E-01
         0.32819E-02
         0.12283E-01
         0.17353E-02
         0.48608E-02
         0.11660E-01
         0.11070E-01
         0.57294E-02
         0.68193E-02
         0.61966E-02
         0.23735E-01
         0.14026E-01
         0.18163E-01
         0.30023E-01
         0.23423E-01
         0.21468E-01
         0.30057E-01
         0.27152E-01
         0.27155E-01
         0.21025E-01
         0.18709E-01
         0.25628E-01
         0.16826E-01
         0.14283E-01
         0.11499E-01
         0.13540E-01
         0.22482E-01
         0.15139E-01
         0.98948E-01
         0.10156E+00
         0.10662E+00
         0.10588E+00
         0.11250E+00
         0.12039E+00
         0.11533E+00
         0.10286E+00
         0.10027E+00
         0.10718E+00
         0.10535E+00
         0.10438E+00
         0.86106E-01
         0.81882E-01
         0.90241E-01
         0.96976E-01
         0.10066E+00
         0.10972E+00
         0.10495E+00
         0.10780E+00
         0.97002E-01
         0.92178E-01
         0.97751E-01
         0.95004E-01
         0.97942E-01
         0.97166E-01
         0.18108E-01
         0.11083E-01
         0.10593E-01
         0.76418E-02
         0.18513E-01
         0.12982E-01
         0.68727E-02
         0.17933E-01
         0.11648E-01
         0.17533E-01
         0.89133E-02
         0.34583E-01
         0.26574E-01
         0.13062E-01
         0.36960E-01
         0.13380E-01
         0.75964E-02
         0.48410E-02
         0.93536E-02
         0.56860E-02
         0.27296E-01
         0.25562E-01
         0.24923E-01
         0.71615E-02
         0.11895E-01
         0.45135E-02
         0.12971E-01
         0.42310E-02
         0.62557E-02
         0.12303E-01
         0.11540E-01
         0.65795E-02
         0.74645E-02
         0.69710E-02
         0.24224E-01
         0.14577E-01
         0.18626E-01
         0.30544E-01
         0.23975E-01
         0.22011E-01
         0.30537E-01
         0.27605E-01
         0.27568E-01
         0.21410E-01
         0.19146E-01
         0.26091E-01
         0.17328E-01
         0.14781E-01
         0.12046E-01
         0.14056E-01
         0.22930E-01
         0.15618E-01
         0.99754E-01
         0.10237E+00
         0.10748E+00
         0.10671E+00
         0.11337E+00
         0.12130E+00
         0.11624E+00
         0.10373E+00
         0.10115E+00
         0.10809E+00
         0.10625E+00
         0.10524E+00
         0.86806E-01
         0.82528E-01
         0.90926E-01
         0.97706E-01
         0.10141E+00
         0.11056E+00
         0.10581E+00
         0.10867E+00
         0.97765E-01
         0.92901E-01
         0.98491E-01
         0.95706E-01
         0.98652E-01
         0.97873E-01
         0.43163E-01
         0.38893E-01
         0.38099E-01
         0.33725E-01
         0.47102E-01
         0.41102E-01
         0.39312E-01
         0.46648E-01
         0.37197E-01
         0.46264E-01
         0.43576E-01
         0.67610E-01
         0.56971E-01
         0.46829E-01
         0.71407E-01
         0.37960E-01
         0.36392E-01
         0.31169E-01
         0.38259E-01
         0.38410E-01
         0.55156E-01
         0.54331E-01
         0.51735E-01
         0.35970E-01
         0.42572E-01
         0.33874E-01
         0.46706E-01
         0.42346E-01
         0.43094E-01
         0.44021E-01
         0.36881E-01
         0.35593E-01
         0.33865E-01
         0.34976E-01
         0.54540E-01
         0.44367E-01
         0.47580E-01
         0.64471E-01
         0.57606E-01
         0.55490E-01
         0.63910E-01
         0.59500E-01
         0.57775E-01
         0.47836E-01
         0.46883E-01
         0.56063E-01
         0.46535E-01
         0.42812E-01
         0.40334E-01
         0.42797E-01
         0.52203E-01
         0.43955E-01
         0.14295E+00
         0.14490E+00
         0.15140E+00
         0.14993E+00
         0.15837E+00
         0.16941E+00
         0.16553E+00
         0.15201E+00
         0.14906E+00
         0.15710E+00
         0.15413E+00
         0.15077E+00
         0.12744E+00
         0.12124E+00
         0.12974E+00
         0.13668E+00
         0.14086E+00
         0.15286E+00
         0.14936E+00
         0.15287E+00
         0.13932E+00
         0.13334E+00
         0.14027E+00
         0.13724E+00
         0.13996E+00
         0.13858E+00
  
SCALARS                     nodal_mass  double 1
LOOKUP_TABLE default
         0.24608E-05
         0.19551E-05
         0.20945E-05
         0.35953E-05
         0.12304E-05
         0.97770E-06
         0.10472E-05
         0.17973E-05
         0.19315E-05
         0.24627E-05
         0.96570E-06
         0.12312E-05
         0.13823E-05
         0.16614E-05
         0.69133E-06
         0.83095E-06
         0.27274E-05
         0.20125E-05
         0.13635E-05
         0.10066E-05
         0.81737E-06
         0.15393E-05
         0.16929E-05
         0.40889E-06
         0.76975E-06
         0.84649E-06
         0.13859E-05
         0.17532E-05
         0.69345E-06
         0.87672E-06
         0.32470E-05
         0.25355E-05
         0.32225E-05
         0.16233E-05
         0.12675E-05
         0.16109E-05
         0.18980E-05
         0.21673E-05
         0.94902E-06
         0.10836E-05
         0.20482E-05
         0.22683E-05
         0.10242E-05
         0.11342E-05
         0.17426E-05
         0.10823E-05
         0.87140E-06
         0.54121E-06
         0.20598E-05
         0.10301E-05
         0.17103E-05
         0.85523E-06
         0.17977E-05
         0.89958E-06
         0.18362E-05
         0.91859E-06
         0.15911E-05
         0.19369E-05
         0.79575E-06
         0.96860E-06
         0.24553E-05
         0.17361E-05
         0.12277E-05
         0.86816E-06
         0.27409E-05
         0.13702E-05
         0.23792E-05
         0.11891E-05
         0.10821E-05
         0.16705E-05
         0.54106E-06
         0.83538E-06
         0.18955E-05
         0.94787E-06
         0.20026E-05
         0.10014E-05
         0.19316E-05
         0.96578E-06
         0.15181E-05
         0.75906E-06
         0.95443E-06
         0.15782E-05
         0.47723E-06
         0.78918E-06
         0.20886E-05
         0.10443E-05
         0.16867E-05
         0.84342E-06
         0.14838E-05
         0.74203E-06
         0.97224E-06
         0.16569E-05
         0.48620E-06
         0.82849E-06
         0.22482E-05
         0.11241E-05
         0.23568E-05
         0.11783E-05
         0.19018E-05
         0.95085E-06
         0.11709E-05
         0.20091E-05
         0.58544E-06
         0.10044E-05
         0.74681E-06
         0.94889E-06
         0.37348E-06
         0.47447E-06
         0.88885E-06
         0.44455E-06
         0.10466E-05
         0.52333E-06
         0.10205E-05
         0.51021E-06
         0.99108E-06
         0.49550E-06
         0.10560E-05
         0.52791E-06
         0.11142E-05
         0.55694E-06
         0.10497E-05
         0.52469E-06
         0.82085E-06
         0.41039E-06
         0.66950E-06
         0.33475E-06
         0.86397E-06
         0.43199E-06
         0.11504E-05
         0.57519E-06
         0.12637E-05
         0.63182E-06
         0.12132E-05
         0.60658E-06
         0.10948E-05
         0.54745E-06
         0.99429E-06
         0.49718E-06
         0.80759E-06
         0.40382E-06
         0.67982E-06
         0.33995E-06
         0.88797E-06
         0.44401E-06
         0.11753E-05
         0.58766E-06
         0.12140E-05
         0.60702E-06
         0.98236E-06
         0.49125E-06
         0.79766E-06
         0.39889E-06
         0.97540E-06
         0.48769E-06
         0.11548E-05
         0.57743E-06
         0.24609E-05
         0.19547E-05
         0.20946E-05
         0.35969E-05
         0.19318E-05
         0.24634E-05
         0.13815E-05
         0.16603E-05
         0.27283E-05
         0.20111E-05
         0.81658E-06
         0.15390E-05
         0.16927E-05
         0.13839E-05
         0.17528E-05
         0.32479E-05
         0.25367E-05
         0.32241E-05
         0.18980E-05
         0.21675E-05
         0.20481E-05
         0.22684E-05
         0.17424E-05
         0.10822E-05
         0.20589E-05
         0.17102E-05
         0.17950E-05
         0.18344E-05
         0.15904E-05
         0.19365E-05
         0.24555E-05
         0.17359E-05
         0.27423E-05
         0.23814E-05
         0.10820E-05
         0.16702E-05
         0.18953E-05
         0.20025E-05
         0.19317E-05
         0.15181E-05
         0.95442E-06
         0.15780E-05
         0.20884E-05
         0.16864E-05
         0.14835E-05
         0.97197E-06
         0.16567E-05
         0.22482E-05
         0.23571E-05
         0.19022E-05
         0.11709E-05
         0.20101E-05
         0.74658E-06
         0.94886E-06
         0.88841E-06
         0.10467E-05
         0.10207E-05
         0.99128E-06
         0.10565E-05
         0.11150E-05
         0.10503E-05
         0.82102E-06
         0.66954E-06
         0.86398E-06
         0.11506E-05
         0.12640E-05
         0.12133E-05
         0.10948E-05
         0.99421E-06
         0.80751E-06
         0.67970E-06
         0.88789E-06
         0.11752E-05
         0.12140E-05
         0.98215E-06
         0.79747E-06
         0.97551E-06
         0.11548E-05
         0.24611E-05
         0.19543E-05
         0.20949E-05
         0.35987E-05
         0.19321E-05
         0.24642E-05
         0.13808E-05
         0.16594E-05
         0.27293E-05
         0.20098E-05
         0.81582E-06
         0.15388E-05
         0.16927E-05
         0.13821E-05
         0.17525E-05
         0.32489E-05
         0.25379E-05
         0.32257E-05
         0.18982E-05
         0.21678E-05
         0.20480E-05
         0.22685E-05
         0.17423E-05
         0.10821E-05
         0.20580E-05
         0.17101E-05
         0.17924E-05
         0.18326E-05
         0.15898E-05
         0.19361E-05
         0.24558E-05
         0.17357E-05
         0.27438E-05
         0.23836E-05
         0.10821E-05
         0.16699E-05
         0.18951E-05
         0.20024E-05
         0.19318E-05
         0.15183E-05
         0.95445E-06
         0.15778E-05
         0.20884E-05
         0.16862E-05
         0.14831E-05
         0.97174E-06
         0.16566E-05
         0.22483E-05
         0.23575E-05
         0.19026E-05
         0.11709E-05
         0.20112E-05
         0.74636E-06
         0.94886E-06
         0.88800E-06
         0.10467E-05
         0.10210E-05
         0.99152E-06
         0.10570E-05
         0.11159E-05
         0.10509E-05
         0.82122E-06
         0.66961E-06
         0.86402E-06
         0.11507E-05
         0.12643E-05
         0.12135E-05
         0.10948E-05
         0.99417E-06
         0.80747E-06
         0.67961E-06
         0.88784E-06
         0.11752E-05
         0.12140E-05
         0.98197E-06
         0.79731E-06
         0.97565E-06
         0.11548E-05
         0.24612E-05
         0.19539E-05
         0.20950E-05
         0.36004E-05
         0.19324E-05
         0.24650E-05
         0.13801E-05
         0.16584E-05
         0.27303E-05
         0.20085E-05
         0.81504E-06
         0.15385E-05
         0.16925E-05
         0.13801E-05
         0.17521E-05
         0.32498E-05
         0.25390E-05
         0.32274E-05
         0.18982E-05
         0.21681E-05
         0.20479E-05
         0.22686E-05
         0.17421E-05
         0.10820E-05
         0.20571E-05
         0.17099E-05
         0.17897E-05
         0.18308E-05
         0.15891E-05
         0.19356E-05
         0.24561E-05
         0.17355E-05
         0.27453E-05
         0.23857E-05
         0.10820E-05
         0.16696E-05
         0.18948E-05
         0.20022E-05
         0.19320E-05
         0.15183E-05
         0.95445E-06
         0.15776E-05
         0.20883E-05
         0.16859E-05
         0.14828E-05
         0.97149E-06
         0.16564E-05
         0.22483E-05
         0.23578E-05
         0.19030E-05
         0.11710E-05
         0.20122E-05
         0.74613E-06
         0.94884E-06
         0.88756E-06
         0.10467E-05
         0.10212E-05
         0.99173E-06
         0.10574E-05
         0.11167E-05
         0.10515E-05
         0.82140E-06
         0.66966E-06
         0.86404E-06
         0.11509E-05
         0.12646E-05
         0.12136E-05
         0.10947E-05
         0.99410E-06
         0.80740E-06
         0.67950E-06
         0.88777E-06
         0.11752E-05
         0.12140E-05
         0.98177E-06
         0.79713E-06
         0.97576E-06
         0.11547E-05
         0.24613E-05
         0.19535E-05
         0.20952E-05
         0.36022E-05
         0.19327E-05
         0.24657E-05
         0.13794E-05
         0.16574E-05
         0.27313E-05
         0.20072E-05
         0.81426E-06
         0.15382E-05
         0.16924E-05
         0.13782E-05
         0.17517E-05
         0.32508E-05
         0.25402E-05
         0.32290E-05
         0.18983E-05
         0.21684E-05
         0.20479E-05
         0.22687E-05
         0.17420E-05
         0.10819E-05
         0.20563E-05
         0.17098E-05
         0.17870E-05
         0.18290E-05
         0.15884E-05
         0.19352E-05
         0.24563E-05
         0.17353E-05
         0.27467E-05
         0.23879E-05
         0.10820E-05
         0.16693E-05
         0.18946E-05
         0.20021E-05
         0.19321E-05
         0.15184E-05
         0.95445E-06
         0.15773E-05
         0.20882E-05
         0.16857E-05
         0.14824E-05
         0.97124E-06
         0.16563E-05
         0.22484E-05
         0.23582E-05
         0.19034E-05
         0.11710E-05
         0.20132E-05
         0.74590E-06
         0.94883E-06
         0.88713E-06
         0.10468E-05
         0.10215E-05
         0.99194E-06
         0.10579E-05
         0.11175E-05
         0.10521E-05
         0.82159E-06
         0.66972E-06
         0.86406E-06
         0.11510E-05
         0.12649E-05
         0.12138E-05
         0.10947E-05
         0.99404E-06
         0.80734E-06
         0.67940E-06
         0.88771E-06
         0.11752E-05
         0.12140E-05
         0.98157E-06
         0.79696E-06
         0.97588E-06
         0.11547E-05
         0.24615E-05
         0.19531E-05
         0.20954E-05
         0.36039E-05
         0.19331E-05
         0.24665E-05
         0.13787E-05
         0.16564E-05
         0.27322E-05
         0.20059E-05
         0.81349E-06
         0.15380E-05
         0.16923E-05
         0.13763E-05
         0.17514E-05
         0.32518E-05
         0.25414E-05
         0.32306E-05
         0.18984E-05
         0.21687E-05
         0.20478E-05
         0.22688E-05
         0.17418E-05
         0.10818E-05
         0.20554E-05
         0.17096E-05
         0.17843E-05
         0.18272E-05
         0.15878E-05
         0.19347E-05
         0.24566E-05
         0.17351E-05
         0.27482E-05
         0.23901E-05
         0.10820E-05
         0.16690E-05
         0.18943E-05
         0.20019E-05
         0.19322E-05
         0.15185E-05
         0.95446E-06
         0.15771E-05
         0.20881E-05
         0.16855E-05
         0.14821E-05
         0.97100E-06
         0.16562E-05
         0.22484E-05
         0.23586E-05
         0.19038E-05
         0.11710E-05
         0.20142E-05
         0.74568E-06
         0.94882E-06
         0.88671E-06
         0.10468E-05
         0.10217E-05
         0.99216E-06
         0.10583E-05
         0.11183E-05
         0.10528E-05
         0.82178E-06
         0.66977E-06
         0.86408E-06
         0.11512E-05
         0.12652E-05
         0.12139E-05
         0.10947E-05
         0.99398E-06
         0.80728E-06
         0.67930E-06
         0.88766E-06
         0.11752E-05
         0.12140E-05
         0.98138E-06
         0.79679E-06
         0.97601E-06
         0.11547E-05
         0.24616E-05
         0.19527E-05
         0.20956E-05
         0.36056E-05
         0.19334E-05
         0.24672E-05
         0.13779E-05
         0.16554E-05
         0.27332E-05
         0.20046E-05
         0.81271E-06
         0.15377E-05
         0.16922E-05
         0.13744E-05
         0.17510E-05
         0.32527E-05
         0.25425E-05
         0.32322E-05
         0.18984E-05
         0.21689E-05
         0.20477E-05
         0.22689E-05
         0.17416E-05
         0.10816E-05
         0.20545E-05
         0.17095E-05
         0.17817E-05
         0.18254E-05
         0.15871E-05
         0.19343E-05
         0.24568E-05
         0.17349E-05
         0.27496E-05
         0.23922E-05
         0.10820E-05
         0.16686E-05
         0.18941E-05
         0.20018E-05
         0.19324E-05
         0.15186E-05
         0.95446E-06
         0.15769E-05
         0.20880E-05
         0.16852E-05
         0.14817E-05
         0.97074E-06
         0.16560E-05
         0.22484E-05
         0.23589E-05
         0.19042E-05
         0.11710E-05
         0.20152E-05
         0.74544E-06
         0.94880E-06
         0.88627E-06
         0.10469E-05
         0.10219E-05
         0.99237E-06
         0.10588E-05
         0.11191E-05
         0.10534E-05
         0.82196E-06
         0.66982E-06
         0.86410E-06
         0.11513E-05
         0.12654E-05
         0.12140E-05
         0.10947E-05
         0.99391E-06
         0.80721E-06
         0.67919E-06
         0.88759E-06
         0.11751E-05
         0.12140E-05
         0.98118E-06
         0.79661E-06
         0.97612E-06
         0.11546E-05
         0.24618E-05
         0.19523E-05
         0.20957E-05
         0.36073E-05
         0.19337E-05
         0.24680E-05
         0.13772E-05
         0.16545E-05
         0.27341E-05
         0.20033E-05
         0.81194E-06
         0.15374E-05
         0.16921E-05
         0.13725E-05
         0.17506E-05
         0.32537E-05
         0.25437E-05
         0.32339E-05
         0.18985E-05
         0.21692E-05
         0.20476E-05
         0.22690E-05
         0.17414E-05
         0.10815E-05
         0.20536E-05
         0.17093E-05
         0.17790E-05
         0.18236E-05
         0.15864E-05
         0.19339E-05
         0.24571E-05
         0.17347E-05
         0.27511E-05
         0.23944E-05
         0.10820E-05
         0.16683E-05
         0.18938E-05
         0.20016E-05
         0.19325E-05
         0.15186E-05
         0.95446E-06
         0.15767E-05
         0.20878E-05
         0.16850E-05
         0.14814E-05
         0.97050E-06
         0.16559E-05
         0.22484E-05
         0.23593E-05
         0.19046E-05
         0.11711E-05
         0.20162E-05
         0.74522E-06
         0.94878E-06
         0.88584E-06
         0.10469E-05
         0.10222E-05
         0.99258E-06
         0.10593E-05
         0.11199E-05
         0.10540E-05
         0.82215E-06
         0.66988E-06
         0.86413E-06
         0.11515E-05
         0.12657E-05
         0.12142E-05
         0.10946E-05
         0.99385E-06
         0.80715E-06
         0.67909E-06
         0.88752E-06
         0.11751E-05
         0.12140E-05
         0.98098E-06
         0.79643E-06
         0.97624E-06
         0.11546E-05
         0.24619E-05
         0.19519E-05
         0.20959E-05
         0.36091E-05
         0.19340E-05
         0.24688E-05
         0.13765E-05
         0.16535E-05
         0.27351E-05
         0.20020E-05
         0.81117E-06
         0.15372E-05
         0.16920E-05
         0.13706E-05
         0.17503E-05
         0.32546E-05
         0.25448E-05
         0.32355E-05
         0.18986E-05
         0.21695E-05
         0.20475E-05
         0.22691E-05
         0.17413E-05
         0.10814E-05
         0.20527E-05
         0.17092E-05
         0.17763E-05
         0.18219E-05
         0.15858E-05
         0.19334E-05
         0.24573E-05
         0.17345E-05
         0.27525E-05
         0.23966E-05
         0.10820E-05
         0.16680E-05
         0.18936E-05
         0.20015E-05
         0.19326E-05
         0.15187E-05
         0.95447E-06
         0.15765E-05
         0.20878E-05
         0.16848E-05
         0.14810E-05
         0.97025E-06
         0.16557E-05
         0.22485E-05
         0.23597E-05
         0.19050E-05
         0.11711E-05
         0.20172E-05
         0.74499E-06
         0.94877E-06
         0.88541E-06
         0.10469E-05
         0.10224E-05
         0.99280E-06
         0.10597E-05
         0.11207E-05
         0.10546E-05
         0.82234E-06
         0.66994E-06
         0.86415E-06
         0.11517E-05
         0.12660E-05
         0.12143E-05
         0.10946E-05
         0.99379E-06
         0.80709E-06
         0.67898E-06
         0.88746E-06
         0.11751E-05
         0.12140E-05
         0.98079E-06
         0.79626E-06
         0.97636E-06
         0.11546E-05
         0.24621E-05
         0.19515E-05
         0.20961E-05
         0.36108E-05
         0.19343E-05
         0.24695E-05
         0.13758E-05
         0.16525E-05
         0.27361E-05
         0.20006E-05
         0.81039E-06
         0.15369E-05
         0.16919E-05
         0.13686E-05
         0.17499E-05
         0.32556E-05
         0.25460E-05
         0.32371E-05
         0.18986E-05
         0.21697E-05
         0.20474E-05
         0.22692E-05
         0.17411E-05
         0.10813E-05
         0.20519E-05
         0.17091E-05
         0.17736E-05
         0.18201E-05
         0.15851E-05
         0.19330E-05
         0.24575E-05
         0.17342E-05
         0.27540E-05
         0.23987E-05
         0.10820E-05
         0.16677E-05
         0.18933E-05
         0.20014E-05
         0.19328E-05
         0.15188E-05
         0.95448E-06
         0.15763E-05
         0.20876E-05
         0.16845E-05
         0.14807E-05
         0.97000E-06
         0.16556E-05
         0.22485E-05
         0.23600E-05
         0.19053E-05
         0.11711E-05
         0.20182E-05
         0.74476E-06
         0.94875E-06
         0.88498E-06
         0.10470E-05
         0.10227E-05
         0.99301E-06
         0.10602E-05
         0.11215E-05
         0.10553E-05
         0.82252E-06
         0.66999E-06
         0.86417E-06
         0.11518E-05
         0.12663E-05
         0.12145E-05
         0.10946E-05
         0.99373E-06
         0.80702E-06
         0.67888E-06
         0.88740E-06
         0.11751E-05
         0.12140E-05
         0.98058E-06
         0.79608E-06
         0.97648E-06
         0.11546E-05
         0.24622E-05
         0.19511E-05
         0.20963E-05
         0.36125E-05
         0.19346E-05
         0.24703E-05
         0.13751E-05
         0.16515E-05
         0.27370E-05
         0.19993E-05
         0.80962E-06
         0.15366E-05
         0.16917E-05
         0.13667E-05
         0.17495E-05
         0.32565E-05
         0.25471E-05
         0.32388E-05
         0.18987E-05
         0.21700E-05
         0.20473E-05
         0.22693E-05
         0.17409E-05
         0.10812E-05
         0.20510E-05
         0.17089E-05
         0.17710E-05
         0.18183E-05
         0.15844E-05
         0.19325E-05
         0.24578E-05
         0.17340E-05
         0.27554E-05
         0.24009E-05
         0.10820E-05
         0.16674E-05
         0.18931E-05
         0.20012E-05
         0.19329E-05
         0.15189E-05
         0.95448E-06
         0.15760E-05
         0.20875E-05
         0.16843E-05
         0.14803E-05
         0.96975E-06
         0.16555E-05
         0.22485E-05
         0.23604E-05
         0.19057E-05
         0.11712E-05
         0.20192E-05
         0.74453E-06
         0.94874E-06
         0.88455E-06
         0.10470E-05
         0.10229E-05
         0.99322E-06
         0.10606E-05
         0.11223E-05
         0.10559E-05
         0.82270E-06
         0.67004E-06
         0.86419E-06
         0.11520E-05
         0.12666E-05
         0.12146E-05
         0.10945E-05
         0.99366E-06
         0.80696E-06
         0.67877E-06
         0.88733E-06
         0.11751E-05
         0.12140E-05
         0.98038E-06
         0.79590E-06
         0.97660E-06
         0.11545E-05
         0.24623E-05
         0.19507E-05
         0.20964E-05
         0.36142E-05
         0.19349E-05
         0.24710E-05
         0.13743E-05
         0.16505E-05
         0.27380E-05
         0.19980E-05
         0.80885E-06
         0.15364E-05
         0.16916E-05
         0.13648E-05
         0.17492E-05
         0.32575E-05
         0.25483E-05
         0.32404E-05
         0.18988E-05
         0.21703E-05
         0.20473E-05
         0.22694E-05
         0.17407E-05
         0.10811E-05
         0.20501E-05
         0.17088E-05
         0.17683E-05
         0.18165E-05
         0.15837E-05
         0.19321E-05
         0.24580E-05
         0.17338E-05
         0.27569E-05
         0.24031E-05
         0.10820E-05
         0.16670E-05
         0.18928E-05
         0.20011E-05
         0.19330E-05
         0.15189E-05
         0.95448E-06
         0.15758E-05
         0.20874E-05
         0.16840E-05
         0.14800E-05
         0.96950E-06
         0.16553E-05
         0.22485E-05
         0.23608E-05
         0.19061E-05
         0.11712E-05
         0.20202E-05
         0.74430E-06
         0.94872E-06
         0.88412E-06
         0.10470E-05
         0.10231E-05
         0.99344E-06
         0.10611E-05
         0.11231E-05
         0.10565E-05
         0.82289E-06
         0.67009E-06
         0.86422E-06
         0.11521E-05
         0.12669E-05
         0.12147E-05
         0.10945E-05
         0.99360E-06
         0.80690E-06
         0.67867E-06
         0.88727E-06
         0.11750E-05
         0.12140E-05
         0.98019E-06
         0.79573E-06
         0.97672E-06
         0.11545E-05
         0.24625E-05
         0.19503E-05
         0.20966E-05
         0.36160E-05
         0.19352E-05
         0.24718E-05
         0.13736E-05
         0.16496E-05
         0.27389E-05
         0.19967E-05
         0.80807E-06
         0.15361E-05
         0.16915E-05
         0.13629E-05
         0.17488E-05
         0.32584E-05
         0.25495E-05
         0.32420E-05
         0.18988E-05
         0.21705E-05
         0.20472E-05
         0.22695E-05
         0.17406E-05
         0.10810E-05
         0.20492E-05
         0.17086E-05
         0.17656E-05
         0.18147E-05
         0.15831E-05
         0.19317E-05
         0.24583E-05
         0.17336E-05
         0.27583E-05
         0.24053E-05
         0.10820E-05
         0.16667E-05
         0.18926E-05
         0.20009E-05
         0.19331E-05
         0.15190E-05
         0.95449E-06
         0.15756E-05
         0.20873E-05
         0.16838E-05
         0.14796E-05
         0.96925E-06
         0.16552E-05
         0.22486E-05
         0.23611E-05
         0.19065E-05
         0.11712E-05
         0.20212E-05
         0.74407E-06
         0.94870E-06
         0.88368E-06
         0.10471E-05
         0.10234E-05
         0.99365E-06
         0.10616E-05
         0.11239E-05
         0.10571E-05
         0.82307E-06
         0.67014E-06
         0.86424E-06
         0.11523E-05
         0.12672E-05
         0.12149E-05
         0.10945E-05
         0.99354E-06
         0.80683E-06
         0.67856E-06
         0.88721E-06
         0.11750E-05
         0.12140E-05
         0.97999E-06
         0.79555E-06
         0.97684E-06
         0.11545E-05
         0.24626E-05
         0.19499E-05
         0.20968E-05
         0.36177E-05
         0.19355E-05
         0.24725E-05
         0.13729E-05
         0.16486E-05
         0.27399E-05
         0.19954E-05
         0.80730E-06
         0.15358E-05
         0.16914E-05
         0.13610E-05
         0.17484E-05
         0.32594E-05
         0.25506E-05
         0.32437E-05
         0.18989E-05
         0.21708E-05
         0.20471E-05
         0.22696E-05
         0.17404E-05
         0.10808E-05
         0.20483E-05
         0.17085E-05
         0.17629E-05
         0.18129E-05
         0.15824E-05
         0.19312E-05
         0.24585E-05
         0.17334E-05
         0.27598E-05
         0.24074E-05
         0.10820E-05
         0.16664E-05
         0.18923E-05
         0.20008E-05
         0.19333E-05
         0.15191E-05
         0.95449E-06
         0.15754E-05
         0.20872E-05
         0.16835E-05
         0.14793E-05
         0.96901E-06
         0.16550E-05
         0.22486E-05
         0.23615E-05
         0.19069E-05
         0.11713E-05
         0.20222E-05
         0.74384E-06
         0.94869E-06
         0.88325E-06
         0.10471E-05
         0.10236E-05
         0.99386E-06
         0.10620E-05
         0.11247E-05
         0.10577E-05
         0.82326E-06
         0.67020E-06
         0.86426E-06
         0.11524E-05
         0.12674E-05
         0.12150E-05
         0.10944E-05
         0.99348E-06
         0.80677E-06
         0.67846E-06
         0.88714E-06
         0.11750E-05
         0.12140E-05
         0.97979E-06
         0.79538E-06
         0.97696E-06
         0.11544E-05
         0.24628E-05
         0.19495E-05
         0.20970E-05
         0.36194E-05
         0.19358E-05
         0.24733E-05
         0.13722E-05
         0.16476E-05
         0.27409E-05
         0.19941E-05
         0.80652E-06
         0.15355E-05
         0.16913E-05
         0.13591E-05
         0.17481E-05
         0.32604E-05
         0.25518E-05
         0.32453E-05
         0.18990E-05
         0.21711E-05
         0.20470E-05
         0.22697E-05
         0.17402E-05
         0.10807E-05
         0.20474E-05
         0.17084E-05
         0.17603E-05
         0.18111E-05
         0.15817E-05
         0.19308E-05
         0.24588E-05
         0.17332E-05
         0.27613E-05
         0.24096E-05
         0.10819E-05
         0.16661E-05
         0.18921E-05
         0.20006E-05
         0.19334E-05
         0.15192E-05
         0.95450E-06
         0.15752E-05
         0.20871E-05
         0.16833E-05
         0.14789E-05
         0.96876E-06
         0.16549E-05
         0.22486E-05
         0.23619E-05
         0.19073E-05
         0.11713E-05
         0.20232E-05
         0.74362E-06
         0.94868E-06
         0.88282E-06
         0.10472E-05
         0.10238E-05
         0.99408E-06
         0.10625E-05
         0.11255E-05
         0.10584E-05
         0.82345E-06
         0.67025E-06
         0.86428E-06
         0.11526E-05
         0.12677E-05
         0.12152E-05
         0.10944E-05
         0.99342E-06
         0.80671E-06
         0.67836E-06
         0.88709E-06
         0.11750E-05
         0.12140E-05
         0.97959E-06
         0.79521E-06
         0.97708E-06
         0.11544E-05
         0.24629E-05
         0.19491E-05
         0.20972E-05
         0.36212E-05
         0.19361E-05
         0.24741E-05
         0.13715E-05
         0.16466E-05
         0.27418E-05
         0.19928E-05
         0.80575E-06
         0.15353E-05
         0.16912E-05
         0.13572E-05
         0.17477E-05
         0.32613E-05
         0.25529E-05
         0.32469E-05
         0.18990E-05
         0.21714E-05
         0.20469E-05
         0.22698E-05
         0.17400E-05
         0.10806E-05
         0.20466E-05
         0.17082E-05
         0.17576E-05
         0.18093E-05
         0.15810E-05
         0.19303E-05
         0.24590E-05
         0.17330E-05
         0.27627E-05
         0.24118E-05
         0.10819E-05
         0.16658E-05
         0.18919E-05
         0.20005E-05
         0.19335E-05
         0.15192E-05
         0.95450E-06
         0.15750E-05
         0.20870E-05
         0.16831E-05
         0.14786E-05
         0.96851E-06
         0.16548E-05
         0.22487E-05
         0.23622E-05
         0.19077E-05
         0.11713E-05
         0.20242E-05
         0.74339E-06
         0.94866E-06
         0.88239E-06
         0.10472E-05
         0.10241E-05
         0.99429E-06
         0.10630E-05
         0.11263E-05
         0.10590E-05
         0.82363E-06
         0.67030E-06
         0.86430E-06
         0.11527E-05
         0.12680E-05
         0.12153E-05
         0.10944E-05
         0.99335E-06
         0.80665E-06
         0.67825E-06
         0.88702E-06
         0.11749E-05
         0.12140E-05
         0.97939E-06
         0.79503E-06
         0.97720E-06
         0.11544E-05
         0.24631E-05
         0.19487E-05
         0.20973E-05
         0.36229E-05
         0.19364E-05
         0.24748E-05
         0.13707E-05
         0.16456E-05
         0.27428E-05
         0.19915E-05
         0.80498E-06
         0.15350E-05
         0.16911E-05
         0.13553E-05
         0.17473E-05
         0.32623E-05
         0.25541E-05
         0.32486E-05
         0.18991E-05
         0.21716E-05
         0.20468E-05
         0.22699E-05
         0.17399E-05
         0.10805E-05
         0.20457E-05
         0.17081E-05
         0.17549E-05
         0.18075E-05
         0.15804E-05
         0.19299E-05
         0.24592E-05
         0.17328E-05
         0.27642E-05
         0.24140E-05
         0.10819E-05
         0.16654E-05
         0.18916E-05
         0.20003E-05
         0.19337E-05
         0.15193E-05
         0.95450E-06
         0.15748E-05
         0.20869E-05
         0.16828E-05
         0.14782E-05
         0.96826E-06
         0.16546E-05
         0.22487E-05
         0.23626E-05
         0.19081E-05
         0.11714E-05
         0.20253E-05
         0.74316E-06
         0.94864E-06
         0.88196E-06
         0.10472E-05
         0.10243E-05
         0.99450E-06
         0.10634E-05
         0.11271E-05
         0.10596E-05
         0.82381E-06
         0.67036E-06
         0.86432E-06
         0.11529E-05
         0.12683E-05
         0.12154E-05
         0.10943E-05
         0.99329E-06
         0.80658E-06
         0.67815E-06
         0.88696E-06
         0.11749E-05
         0.12140E-05
         0.97919E-06
         0.79485E-06
         0.97732E-06
         0.11544E-05
         0.24632E-05
         0.19483E-05
         0.20975E-05
         0.36246E-05
         0.19368E-05
         0.24756E-05
         0.13700E-05
         0.16447E-05
         0.27437E-05
         0.19902E-05
         0.80421E-06
         0.15347E-05
         0.16910E-05
         0.13534E-05
         0.17470E-05
         0.32632E-05
         0.25552E-05
         0.32502E-05
         0.18992E-05
         0.21719E-05
         0.20467E-05
         0.22700E-05
         0.17397E-05
         0.10804E-05
         0.20448E-05
         0.17079E-05
         0.17523E-05
         0.18057E-05
         0.15797E-05
         0.19295E-05
         0.24595E-05
         0.17326E-05
         0.27656E-05
         0.24161E-05
         0.10819E-05
         0.16651E-05
         0.18914E-05
         0.20002E-05
         0.19338E-05
         0.15194E-05
         0.95451E-06
         0.15745E-05
         0.20868E-05
         0.16826E-05
         0.14779E-05
         0.96801E-06
         0.16545E-05
         0.22487E-05
         0.23630E-05
         0.19085E-05
         0.11714E-05
         0.20263E-05
         0.74293E-06
         0.94863E-06
         0.88153E-06
         0.10473E-05
         0.10245E-05
         0.99472E-06
         0.10639E-05
         0.11279E-05
         0.10602E-05
         0.82400E-06
         0.67041E-06
         0.86435E-06
         0.11530E-05
         0.12686E-05
         0.12156E-05
         0.10943E-05
         0.99323E-06
         0.80652E-06
         0.67804E-06
         0.88690E-06
         0.11749E-05
         0.12140E-05
         0.97900E-06
         0.79468E-06
         0.97744E-06
         0.11543E-05
         0.24633E-05
         0.19479E-05
         0.20977E-05
         0.36264E-05
         0.19371E-05
         0.24763E-05
         0.13693E-05
         0.16437E-05
         0.27447E-05
         0.19888E-05
         0.80343E-06
         0.15345E-05
         0.16908E-05
         0.13515E-05
         0.17466E-05
         0.32642E-05
         0.25564E-05
         0.32518E-05
         0.18992E-05
         0.21722E-05
         0.20466E-05
         0.22701E-05
         0.17395E-05
         0.10803E-05
         0.20439E-05
         0.17078E-05
         0.17496E-05
         0.18039E-05
         0.15790E-05
         0.19290E-05
         0.24597E-05
         0.17323E-05
         0.27671E-05
         0.24183E-05
         0.10819E-05
         0.16648E-05
         0.18911E-05
         0.20001E-05
         0.19339E-05
         0.15195E-05
         0.95452E-06
         0.15743E-05
         0.20867E-05
         0.16823E-05
         0.14775E-05
         0.96776E-06
         0.16543E-05
         0.22487E-05
         0.23633E-05
         0.19089E-05
         0.11714E-05
         0.20273E-05
         0.74270E-06
         0.94861E-06
         0.88109E-06
         0.10473E-05
         0.10248E-05
         0.99493E-06
         0.10643E-05
         0.11287E-05
         0.10609E-05
         0.82418E-06
         0.67046E-06
         0.86437E-06
         0.11532E-05
         0.12689E-05
         0.12157E-05
         0.10943E-05
         0.99316E-06
         0.80646E-06
         0.67794E-06
         0.88683E-06
         0.11749E-05
         0.12140E-05
         0.97879E-06
         0.79450E-06
         0.97755E-06
         0.11543E-05
         0.24635E-05
         0.19475E-05
         0.20979E-05
         0.36281E-05
         0.19374E-05
         0.24771E-05
         0.13686E-05
         0.16427E-05
         0.27456E-05
         0.19875E-05
         0.80266E-06
         0.15342E-05
         0.16907E-05
         0.13496E-05
         0.17463E-05
         0.32651E-05
         0.25575E-05
         0.32534E-05
         0.18993E-05
         0.21724E-05
         0.20466E-05
         0.22702E-05
         0.17393E-05
         0.10802E-05
         0.20430E-05
         0.17076E-05
         0.17469E-05
         0.18021E-05
         0.15784E-05
         0.19286E-05
         0.24600E-05
         0.17321E-05
         0.27685E-05
         0.24205E-05
         0.10819E-05
         0.16645E-05
         0.18909E-05
         0.19999E-05
         0.19341E-05
         0.15195E-05
         0.95452E-06
         0.15741E-05
         0.20866E-05
         0.16821E-05
         0.14772E-05
         0.96751E-06
         0.16542E-05
         0.22488E-05
         0.23637E-05
         0.19092E-05
         0.11715E-05
         0.20283E-05
         0.74247E-06
         0.94860E-06
         0.88066E-06
         0.10473E-05
         0.10250E-05
         0.99514E-06
         0.10648E-05
         0.11295E-05
         0.10615E-05
         0.82437E-06
         0.67052E-06
         0.86439E-06
         0.11533E-05
         0.12691E-05
         0.12159E-05
         0.10942E-05
         0.99310E-06
         0.80639E-06
         0.67783E-06
         0.88676E-06
         0.11748E-05
         0.12140E-05
         0.97859E-06
         0.79433E-06
         0.97767E-06
         0.11543E-05
         0.24636E-05
         0.19471E-05
         0.20980E-05
         0.36298E-05
         0.19377E-05
         0.24779E-05
         0.13679E-05
         0.16417E-05
         0.27466E-05
         0.19862E-05
         0.80189E-06
         0.15339E-05
         0.16906E-05
         0.13477E-05
         0.17459E-05
         0.32661E-05
         0.25587E-05
         0.32551E-05
         0.18994E-05
         0.21727E-05
         0.20465E-05
         0.22703E-05
         0.17392E-05
         0.10800E-05
         0.20421E-05
         0.17075E-05
         0.17443E-05
         0.18003E-05
         0.15777E-05
         0.19281E-05
         0.24602E-05
         0.17319E-05
         0.27700E-05
         0.24227E-05
         0.10819E-05
         0.16642E-05
         0.18906E-05
         0.19998E-05
         0.19342E-05
         0.15196E-05
         0.95453E-06
         0.15739E-05
         0.20865E-05
         0.16819E-05
         0.14768E-05
         0.96727E-06
         0.16541E-05
         0.22488E-05
         0.23640E-05
         0.19096E-05
         0.11715E-05
         0.20293E-05
         0.74225E-06
         0.94859E-06
         0.88023E-06
         0.10474E-05
         0.10253E-05
         0.99535E-06
         0.10653E-05
         0.11303E-05
         0.10621E-05
         0.82456E-06
         0.67057E-06
         0.86441E-06
         0.11535E-05
         0.12694E-05
         0.12160E-05
         0.10942E-05
         0.99304E-06
         0.80633E-06
         0.67773E-06
         0.88671E-06
         0.11748E-05
         0.12140E-05
         0.97840E-06
         0.79415E-06
         0.97780E-06
         0.11542E-05
         0.24637E-05
         0.19466E-05
         0.20982E-05
         0.36315E-05
         0.19380E-05
         0.24786E-05
         0.13671E-05
         0.16407E-05
         0.27475E-05
         0.19849E-05
         0.80110E-06
         0.15336E-05
         0.16905E-05
         0.13457E-05
         0.17455E-05
         0.32669E-05
         0.25598E-05
         0.32567E-05
         0.18994E-05
         0.21729E-05
         0.20464E-05
         0.22703E-05
         0.17390E-05
         0.10799E-05
         0.20412E-05
         0.17073E-05
         0.17416E-05
         0.17985E-05
         0.15770E-05
         0.19277E-05
         0.24604E-05
         0.17317E-05
         0.27714E-05
         0.24248E-05
         0.10819E-05
         0.16638E-05
         0.18903E-05
         0.19996E-05
         0.19343E-05
         0.15196E-05
         0.95451E-06
         0.15737E-05
         0.20864E-05
         0.16816E-05
         0.14765E-05
         0.96700E-06
         0.16539E-05
         0.22488E-05
         0.23644E-05
         0.19100E-05
         0.11715E-05
         0.20303E-05
         0.74200E-06
         0.94855E-06
         0.87978E-06
         0.10474E-05
         0.10255E-05
         0.99555E-06
         0.10657E-05
         0.11311E-05
         0.10627E-05
         0.82472E-06
         0.67061E-06
         0.86442E-06
         0.11536E-05
         0.12697E-05
         0.12161E-05
         0.10941E-05
         0.99295E-06
         0.80625E-06
         0.67761E-06
         0.88662E-06
         0.11748E-05
         0.12140E-05
         0.97818E-06
         0.79396E-06
         0.97790E-06
         0.11542E-05
         0.24639E-05
         0.19463E-05
         0.20984E-05
         0.36333E-05
         0.19383E-05
         0.24794E-05
         0.13664E-05
         0.16398E-05
         0.27485E-05
         0.19836E-05
         0.80034E-06
         0.15334E-05
         0.16904E-05
         0.13439E-05
         0.17452E-05
         0.32679E-05
         0.25610E-05
         0.32583E-05
         0.18995E-05
         0.21732E-05
         0.20463E-05
         0.22704E-05
         0.17388E-05
         0.10798E-05
         0.20404E-05
         0.17072E-05
         0.17389E-05
         0.17967E-05
         0.15763E-05
         0.19272E-05
         0.24607E-05
         0.17315E-05
         0.27729E-05
         0.24270E-05
         0.10819E-05
         0.16635E-05
         0.18901E-05
         0.19995E-05
         0.19345E-05
         0.15197E-05
         0.95453E-06
         0.15735E-05
         0.20863E-05
         0.16814E-05
         0.14761E-05
         0.96677E-06
         0.16538E-05
         0.22488E-05
         0.23647E-05
         0.19104E-05
         0.11716E-05
         0.20313E-05
         0.74179E-06
         0.94855E-06
         0.87936E-06
         0.10475E-05
         0.10257E-05
         0.99577E-06
         0.10662E-05
         0.11319E-05
         0.10633E-05
         0.82492E-06
         0.67068E-06
         0.86446E-06
         0.11538E-05
         0.12700E-05
         0.12163E-05
         0.10941E-05
         0.99291E-06
         0.80620E-06
         0.67752E-06
         0.88657E-06
         0.11748E-05
         0.12140E-05
         0.97800E-06
         0.79380E-06
         0.97803E-06
         0.11542E-05
         0.12320E-05
         0.97306E-06
         0.10493E-05
         0.18171E-05
         0.96926E-06
         0.12399E-05
         0.68306E-06
         0.81967E-06
         0.13745E-05
         0.99152E-06
         0.39999E-06
         0.76665E-06
         0.84519E-06
         0.67148E-06
         0.87252E-06
         0.16343E-05
         0.12808E-05
         0.16296E-05
         0.94981E-06
         0.10867E-05
         0.10232E-05
         0.11353E-05
         0.86940E-06
         0.53990E-06
         0.10200E-05
         0.85360E-06
         0.86884E-06
         0.89793E-06
         0.78802E-06
         0.96354E-06
         0.12305E-05
         0.86572E-06
         0.13869E-05
         0.12141E-05
         0.54095E-06
         0.83170E-06
         0.94503E-06
         0.99975E-06
         0.96729E-06
         0.75992E-06
         0.47728E-06
         0.78670E-06
         0.10432E-05
         0.84065E-06
         0.73800E-06
         0.48334E-06
         0.82688E-06
         0.11245E-05
         0.11825E-05
         0.95534E-06
         0.58581E-06
         0.10159E-05
         0.37085E-06
         0.47429E-06
         0.43959E-06
         0.52375E-06
         0.51294E-06
         0.49796E-06
         0.53322E-06
         0.56619E-06
         0.53185E-06
         0.41252E-06
         0.33536E-06
         0.43225E-06
         0.57696E-06
         0.63509E-06
         0.60820E-06
         0.54708E-06
         0.49646E-06
         0.40310E-06
         0.33875E-06
         0.44329E-06
         0.58740E-06
         0.60700E-06
         0.48897E-06
         0.39687E-06
         0.48906E-06
         0.57710E-06
  
SCALARS                 Poissons_ratio  double 1
LOOKUP_TABLE default
         0.30000E+00
         0.30000E+00
         0.30000E+00
         0.30000E+00
         0.30000E+00
         0.30000E+00
         0.30000E+00
         0.30000E+00
         0.30000E+00
         0.30000E+00
         0.30000E+00
         0.30000E+00
         0.30000E+00
         0.30000E+00
         0.30000E+00
         0.30000E+00
         0.30000E+00
         0.30000E+00
         0.30000E+00
         0.30000E+00
         0.30000E+00
         0.30000E+00
         0.30000E+00
         0.30000E+00
         0.30000E+00
         0.30000E+00
         0.30000E+00
         0.30000E+00
         0.30000E+00
         0.30000E+00
         0.30000E+00
         0.30000E+00
         0.30000E+00
         0.30000E+00
         0.30000E+00
         0.30000E+00
         0.30000E+00
         0.30000E+00
         0.30000E+00
         0.30000E+00
         0.30000E+00
         0.30000E+00
         0.30000E+00
         0.30000E+00
         0.30000E+00
         0.30000E+00
         0.30000E+00
         0.30000E+00
         0.30000E+00
         0.30000E+00
         0.30000E+00
         0.30000E+00
         0.30000E+00
         0.30000E+00
         0.30000E+00
         0.30000E+00
         0.30000E+00
         0.30000E+00
         0.30000E+00
         0.30000E+00
         0.30000E+00
         0.30000E+00
         0.30000E+00
         0.30000E+00
         0.30000E+00
         0.30000E+00
         0.30000E+00
         0.30000E+00
         0.30000E+00
         0.30000E+00
         0.30000E+00
         0.30000E+00
         0.30000E+00
         0.30000E+00
         0.30000E+00
         0.30000E+00
         0.30000E+00
         0.30000E+00
         0.30000E+00
         0.30000E+00
         0.30000E+00
         0.30000E+00
         0.30000E+00
         0.30000E+00
         0.30000E+00
         0.30000E+00
         0.30000E+00
         0.30000E+00
         0.30000E+00
         0.30000E+00
         0.30000E+00
         0.30000E+00
         0.30000E+00
         0.30000E+00
         0.30000E+00
         0.30000E+00
         0.30000E+00
         0.30000E+00
         0.30000E+00
         0.30000E+00
         0.30000E+00
         0.30000E+00
         0.30000E+00
         0.30000E+00
         0.30000E+00
         0.30000E+00
         0.30000E+00
         0.30000E+00
         0.30000E+00
         0.30000E+00
         0.30000E+00
         0.30000E+00
         0.30000E+00
         0.30000E+00
         0.30000E+00
         0.30000E+00
         0.30000E+00
         0.30000E+00
         0.30000E+00
         0.30000E+00
         0.30000E+00
         0.30000E+00
         0.30000E+00
         0.30000E+00
         0.30000E+00
         0.30000E+00
         0.30000E+00
         0.30000E+00
         0.30000E+00
         0.30000E+00
         0.30000E+00
         0.30000E+00
         0.30000E+00
         0.30000E+00
         0.30000E+00
         0.30000E+00
         0.30000E+00
         0.30000E+00
         0.30000E+00
         0.30000E+00
         0.30000E+00
         0.30000E+00
         0.30000E+00
         0.30000E+00
         0.30000E+00
         0.30000E+00
         0.30000E+00
         0.30000E+00
         0.30000E+00
         0.30000E+00
         0.30000E+00
         0.30000E+00
         0.30000E+00
         0.30000E+00
         0.30000E+00
         0.30000E+00
         0.30000E+00
         0.30000E+00
         0.30000E+00
         0.30000E+00
         0.30000E+00
         0.30000E+00
         0.30000E+00
         0.30000E+00
         0.30000E+00
         0.30000E+00
         0.30000E+00
         0.30000E+00
         0.30000E+00
         0.30000E+00
         0.30000E+00
         0.30000E+00
         0.30000E+00
         0.30000E+00
         0.30000E+00
         0.30000E+00
         0.30000E+00
         0.30000E+00
         0.30000E+00
         0.30000E+00
         0.30000E+00
         0.30000E+00
         0.30000E+00
         0.30000E+00
         0.30000E+00
         0.30000E+00
         0.30000E+00
         0.30000E+00
         0.30000E+00
         0.30000E+00
         0.30000E+00
         0.30000E+00
         0.30000E+00
         0.30000E+00
         0.30000E+00
         0.30000E+00
         0.30000E+00
         0.30000E+00
         0.30000E+00
         0.30000E+00
         0.30000E+00
         0.30000E+00
         0.30000E+00
         0.30000E+00
         0.30000E+00
         0.30000E+00
         0.30000E+00
         0.30000E+00
         0.30000E+00
         0.30000E+00
         0.30000E+00
         0.30000E+00
         0.30000E+00
         0.30000E+00
         0.30000E+00
         0.30000E+00
         0.30000E+00
         0.30000E+00
         0.30000E+00
         0.30000E+00
         0.30000E+00
         0.30000E+00
         0.30000E+00
         0.30000E+00
         0.30000E+00
         0.30000E+00
         0.30000E+00
         0.30000E+00
         0.30000E+00
         0.30000E+00
         0.30000E+00
         0.30000E+00
         0.30000E+00
         0.30000E+00
         0.30000E+00
         0.30000E+00
         0.30000E+00
         0.30000E+00
         0.30000E+00
         0.30000E+00
         0.30000E+00
         0.30000E+00
         0.30000E+00
         0.30000E+00
         0.30000E+00
         0.30000E+00
         0.30000E+00
         0.30000E+00
         0.30000E+00
         0.30000E+00
         0.30000E+00
         0.30000E+00
         0.30000E+00
         0.30000E+00
         0.30000E+00
         0.30000E+00
         0.30000E+00
         0.30000E+00
         0.30000E+00
         0.30000E+00
         0.30000E+00
         0.30000E+00
         0.30000E+00
         0.30000E+00
         0.30000E+00
         0.30000E+00
         0.30000E+00
         0.30000E+00
         0.30000E+00
         0.30000E+00
         0.30000E+00
         0.30000E+00
         0.30000E+00
         0.30000E+00
         0.30000E+00
         0.30000E+00
         0.30000E+00
         0.30000E+00
         0.30000E+00
         0.30000E+00
         0.30000E+00
         0.30000E+00
         0.30000E+00
         0.30000E+00
         0.30000E+00
         0.30000E+00
         0.30000E+00
         0.30000E+00
         0.30000E+00
         0.30000E+00
         0.30000E+00
         0.30000E+00
         0.30000E+00
         0.30000E+00
         0.30000E+00
         0.30000E+00
         0.30000E+00
         0.30000E+00
         0.30000E+00
         0.30000E+00
         0.30000E+00
         0.30000E+00
         0.30000E+00
         0.30000E+00
         0.30000E+00
         0.30000E+00
         0.30000E+00
         0.30000E+00
         0.30000E+00
         0.30000E+00
         0.30000E+00
         0.30000E+00
         0.30000E+00
         0.30000E+00
         0.30000E+00
         0.30000E+00
         0.30000E+00
         0.30000E+00
         0.30000E+00
         0.30000E+00
         0.30000E+00
         0.30000E+00
         0.30000E+00
         0.30000E+00
         0.30000E+00
         0.30000E+00
         0.30000E+00
         0.30000E+00
         0.30000E+00
         0.30000E+00
         0.30000E+00
         0.30000E+00
         0.30000E+00
         0.30000E+00
         0.30000E+00
         0.30000E+00
         0.30000E+00
         0.30000E+00
         0.30000E+00
         0.30000E+00
         0.30000E+00
         0.30000E+00
         0.30000E+00
         0.30000E+00
         0.30000E+00
         0.30000E+00
         0.30000E+00
         0.30000E+00
         0.30000E+00
         0.30000E+00
         0.30000E+00
         0.30000E+00
         0.30000E+00
         0.30000E+00
         0.30000E+00
         0.30000E+00
         0.30000E+00
         0.30000E+00
         0.30000E+00
         0.30000E+00
         0.30000E+00
         0.30000E+00
         0.30000E+00
         0.30000E+00
         0.30000E+00
         0.30000E+00
         0.30000E+00
         0.30000E+00
         0.30000E+00
         0.30000E+00
         0.30000E+00
         0.30000E+00
         0.30000E+00
         0.30000E+00
         0.30000E+00
         0.30000E+00
         0.30000E+00
         0.30000E+00
         0.30000E+00
         0.30000E+00
         0.30000E+00
         0.30000E+00
         0.30000E+00
         0.30000E+00
         0.30000E+00
         0.30000E+00
         0.30000E+00
         0.30000E+00
         0.30000E+00
         0.30000E+00
         0.30000E+00
         0.30000E+00
         0.30000E+00
         0.30000E+00
         0.30000E+00
         0.30000E+00
         0.30000E+00
         0.30000E+00
         0.30000E+00
         0.30000E+00
         0.30000E+00
         0.30000E+00
         0.30000E+00
         0.30000E+00
         0.30000E+00
         0.30000E+00
         0.30000E+00
         0.30000E+00
         0.30000E+00
         0.30000E+00
         0.30000E+00
         0.30000E+00
         0.30000E+00
         0.30000E+00
         0.30000E+00
         0.30000E+00
         0.30000E+00
         0.30000E+00
         0.30000E+00
         0.30000E+00
         0.30000E+00
         0.30000E+00
         0.30000E+00
         0.30000E+00
         0.30000E+00
         0.30000E+00
         0.30000E+00
         0.30000E+00
         0.30000E+00
         0.30000E+00
         0.30000E+00
         0.30000E+00
         0.30000E+00
         0.30000E+00
         0.30000E+00
         0.30000E+00
         0.30000E+00
         0.30000E+00
         0.30000E+00
         0.30000E+00
         0.30000E+00
         0.30000E+00
         0.30000E+00
         0.30000E+00
         0.30000E+00
         0.30000E+00
         0.30000E+00
         0.30000E+00
         0.30000E+00
         0.30000E+00
         0.30000E+00
         0.30000E+00
         0.30000E+00
         0.30000E+00
         0.30000E+00
         0.30000E+00
         0.30000E+00
         0.30000E+00
         0.30000E+00
         0.30000E+00
         0.30000E+00
         0.30000E+00
         0.30000E+00
         0.30000E+00
         0.30000E+00
         0.30000E+00
         0.30000E+00
         0.30000E+00
         0.30000E+00
         0.30000E+00
         0.30000E+00
         0.30000E+00
         0.30000E+00
         0.30000E+00
         0.30000E+00
         0.30000E+00
         0.30000E+00
         0.30000E+00
         0.30000E+00
         0.30000E+00
         0.30000E+00
         0.30000E+00
         0.30000E+00
         0.30000E+00
         0.30000E+00
         0.30000E+00
         0.30000E+00
         0.30000E+00
         0.30000E+00
         0.30000E+00
         0.30000E+00
         0.30000E+00
         0.30000E+00
         0.30000E+00
         0.30000E+00
         0.30000E+00
         0.30000E+00
         0.30000E+00
         0.30000E+00
         0.30000E+00
         0.30000E+00
         0.30000E+00
         0.30000E+00
         0.30000E+00
         0.30000E+00
         0.30000E+00
         0.30000E+00
         0.30000E+00
         0.30000E+00
         0.30000E+00
         0.30000E+00
         0.30000E+00
         0.30000E+00
         0.30000E+00
         0.30000E+00
         0.30000E+00
         0.30000E+00
         0.30000E+00
         0.30000E+00
         0.30000E+00
         0.30000E+00
         0.30000E+00
         0.30000E+00
         0.30000E+00
         0.30000E+00
         0.30000E+00
         0.30000E+00
         0.30000E+00
         0.30000E+00
         0.30000E+00
         0.30000E+00
         0.30000E+00
         0.30000E+00
         0.30000E+00
         0.30000E+00
         0.30000E+00
         0.30000E+00
         0.30000E+00
         0.30000E+00
         0.30000E+00
         0.30000E+00
         0.30000E+00
         0.30000E+00
         0.30000E+00
         0.30000E+00
         0.30000E+00
         0.30000E+00
         0.30000E+00
         0.30000E+00
         0.30000E+00
         0.30000E+00
         0.30000E+00
         0.30000E+00
         0.30000E+00
         0.30000E+00
         0.30000E+00
         0.30000E+00
         0.30000E+00
         0.30000E+00
         0.30000E+00
         0.30000E+00
         0.30000E+00
         0.30000E+00
         0.30000E+00
         0.30000E+00
         0.30000E+00
         0.30000E+00
         0.30000E+00
         0.30000E+00
         0.30000E+00
         0.30000E+00
         0.30000E+00
         0.30000E+00
         0.30000E+00
         0.30000E+00
         0.30000E+00
         0.30000E+00
         0.30000E+00
         0.30000E+00
         0.30000E+00
         0.30000E+00
         0.30000E+00
         0.30000E+00
         0.30000E+00
         0.30000E+00
         0.30000E+00
         0.30000E+00
         0.30000E+00
         0.30000E+00
         0.30000E+00
         0.30000E+00
         0.30000E+00
         0.30000E+00
         0.30000E+00
         0.30000E+00
         0.30000E+00
         0.30000E+00
         0.30000E+00
         0.30000E+00
         0.30000E+00
         0.30000E+00
         0.30000E+00
         0.30000E+00
         0.30000E+00
         0.30000E+00
         0.30000E+00
         0.30000E+00
         0.30000E+00
         0.30000E+00
         0.30000E+00
         0.30000E+00
         0.30000E+00
         0.30000E+00
         0.30000E+00
         0.30000E+00
         0.30000E+00
         0.30000E+00
         0.30000E+00
         0.30000E+00
         0.30000E+00
         0.30000E+00
         0.30000E+00
         0.30000E+00
         0.30000E+00
         0.30000E+00
         0.30000E+00
         0.30000E+00
         0.30000E+00
         0.30000E+00
         0.30000E+00
         0.30000E+00
         0.30000E+00
         0.30000E+00
         0.30000E+00
         0.30000E+00
         0.30000E+00
         0.30000E+00
         0.30000E+00
         0.30000E+00
         0.30000E+00
         0.30000E+00
         0.30000E+00
         0.30000E+00
         0.30000E+00
         0.30000E+00
         0.30000E+00
         0.30000E+00
         0.30000E+00
         0.30000E+00
         0.30000E+00
         0.30000E+00
         0.30000E+00
         0.30000E+00
         0.30000E+00
         0.30000E+00
         0.30000E+00
         0.30000E+00
         0.30000E+00
         0.30000E+00
         0.30000E+00
         0.30000E+00
         0.30000E+00
         0.30000E+00
         0.30000E+00
         0.30000E+00
         0.30000E+00
         0.30000E+00
         0.30000E+00
         0.30000E+00
         0.30000E+00
         0.30000E+00
         0.30000E+00
         0.30000E+00
         0.30000E+00
         0.30000E+00
         0.30000E+00
         0.30000E+00
         0.30000E+00
         0.30000E+00
         0.30000E+00
         0.30000E+00
         0.30000E+00
         0.30000E+00
         0.30000E+00
         0.30000E+00
         0.30000E+00
         0.30000E+00
         0.30000E+00
         0.30000E+00
         0.30000E+00
         0.30000E+00
         0.30000E+00
         0.30000E+00
         0.30000E+00
         0.30000E+00
         0.30000E+00
         0.30000E+00
         0.30000E+00
         0.30000E+00
         0.30000E+00
         0.30000E+00
         0.30000E+00
         0.30000E+00
         0.30000E+00
         0.30000E+00
         0.30000E+00
         0.30000E+00
         0.30000E+00
         0.30000E+00
         0.30000E+00
         0.30000E+00
         0.30000E+00
         0.30000E+00
         0.30000E+00
         0.30000E+00
         0.30000E+00
         0.30000E+00
         0.30000E+00
         0.30000E+00
         0.30000E+00
         0.30000E+00
         0.30000E+00
         0.30000E+00
         0.30000E+00
         0.30000E+00
         0.30000E+00
         0.30000E+00
         0.30000E+00
         0.30000E+00
         0.30000E+00
         0.30000E+00
         0.30000E+00
         0.30000E+00
         0.30000E+00
         0.30000E+00
         0.30000E+00
         0.30000E+00
         0.30000E+00
         0.30000E+00
         0.30000E+00
         0.30000E+00
         0.30000E+00
         0.30000E+00
         0.30000E+00
         0.30000E+00
         0.30000E+00
         0.30000E+00
         0.30000E+00
         0.30000E+00
         0.30000E+00
         0.30000E+00
         0.30000E+00
         0.30000E+00
         0.30000E+00
         0.30000E+00
         0.30000E+00
         0.30000E+00
         0.30000E+00
         0.30000E+00
         0.30000E+00
         0.30000E+00
         0.30000E+00
         0.30000E+00
         0.30000E+00
         0.30000E+00
         0.30000E+00
         0.30000E+00
         0.30000E+00
         0.30000E+00
         0.30000E+00
         0.30000E+00
         0.30000E+00
         0.30000E+00
         0.30000E+00
         0.30000E+00
         0.30000E+00
         0.30000E+00
         0.30000E+00
         0.30000E+00
         0.30000E+00
         0.30000E+00
         0.30000E+00
         0.30000E+00
         0.30000E+00
         0.30000E+00
         0.30000E+00
         0.30000E+00
         0.30000E+00
         0.30000E+00
         0.30000E+00
         0.30000E+00
         0.30000E+00
         0.30000E+00
         0.30000E+00
         0.30000E+00
         0.30000E+00
         0.30000E+00
         0.30000E+00
         0.30000E+00
         0.30000E+00
         0.30000E+00
         0.30000E+00
         0.30000E+00
         0.30000E+00
         0.30000E+00
         0.30000E+00
         0.30000E+00
         0.30000E+00
         0.30000E+00
         0.30000E+00
         0.30000E+00
         0.30000E+00
         0.30000E+00
         0.30000E+00
         0.30000E+00
         0.30000E+00
         0.30000E+00
         0.30000E+00
         0.30000E+00
         0.30000E+00
         0.30000E+00
         0.30000E+00
         0.30000E+00
         0.30000E+00
         0.30000E+00
         0.30000E+00
         0.30000E+00
         0.30000E+00
         0.30000E+00
         0.30000E+00
         0.30000E+00
         0.30000E+00
         0.30000E+00
         0.30000E+00
         0.30000E+00
         0.30000E+00
         0.30000E+00
         0.30000E+00
         0.30000E+00
         0.30000E+00
         0.30000E+00
         0.30000E+00
         0.30000E+00
         0.30000E+00
         0.30000E+00
         0.30000E+00
         0.30000E+00
         0.30000E+00
         0.30000E+00
         0.30000E+00
         0.30000E+00
         0.30000E+00
         0.30000E+00
         0.30000E+00
         0.30000E+00
         0.30000E+00
         0.30000E+00
         0.30000E+00
         0.30000E+00
         0.30000E+00
         0.30000E+00
         0.30000E+00
         0.30000E+00
         0.30000E+00
         0.30000E+00
         0.30000E+00
         0.30000E+00
         0.30000E+00
         0.30000E+00
         0.30000E+00
         0.30000E+00
         0.30000E+00
         0.30000E+00
         0.30000E+00
         0.30000E+00
         0.30000E+00
         0.30000E+00
         0.30000E+00
         0.30000E+00
         0.30000E+00
         0.30000E+00
         0.30000E+00
         0.30000E+00
         0.30000E+00
         0.30000E+00
         0.30000E+00
         0.30000E+00
         0.30000E+00
         0.30000E+00
         0.30000E+00
         0.30000E+00
         0.30000E+00
         0.30000E+00
         0.30000E+00
         0.30000E+00
         0.30000E+00
         0.30000E+00
         0.30000E+00
         0.30000E+00
         0.30000E+00
         0.30000E+00
         0.30000E+00
         0.30000E+00
         0.30000E+00
         0.30000E+00
         0.30000E+00
         0.30000E+00
         0.30000E+00
         0.30000E+00
         0.30000E+00
         0.30000E+00
         0.30000E+00
         0.30000E+00
         0.30000E+00
         0.30000E+00
         0.30000E+00
         0.30000E+00
         0.30000E+00
         0.30000E+00
         0.30000E+00
         0.30000E+00
         0.30000E+00
         0.30000E+00
         0.30000E+00
         0.30000E+00
         0.30000E+00
         0.30000E+00
         0.30000E+00
         0.30000E+00
         0.30000E+00
         0.30000E+00
         0.30000E+00
         0.30000E+00
         0.30000E+00
         0.30000E+00
         0.30000E+00
         0.30000E+00
         0.30000E+00
         0.30000E+00
         0.30000E+00
         0.30000E+00
         0.30000E+00
         0.30000E+00
         0.30000E+00
         0.30000E+00
         0.30000E+00
         0.30000E+00
         0.30000E+00
         0.30000E+00
         0.30000E+00
         0.30000E+00
         0.30000E+00
         0.30000E+00
         0.30000E+00
         0.30000E+00
         0.30000E+00
         0.30000E+00
         0.30000E+00
         0.30000E+00
         0.30000E+00
         0.30000E+00
         0.30000E+00
         0.30000E+00
         0.30000E+00
         0.30000E+00
         0.30000E+00
         0.30000E+00
         0.30000E+00
         0.30000E+00
         0.30000E+00
         0.30000E+00
         0.30000E+00
         0.30000E+00
         0.30000E+00
         0.30000E+00
         0.30000E+00
         0.30000E+00
         0.30000E+00
         0.30000E+00
         0.30000E+00
         0.30000E+00
         0.30000E+00
         0.30000E+00
         0.30000E+00
         0.30000E+00
         0.30000E+00
         0.30000E+00
         0.30000E+00
         0.30000E+00
         0.30000E+00
         0.30000E+00
         0.30000E+00
         0.30000E+00
         0.30000E+00
         0.30000E+00
         0.30000E+00
         0.30000E+00
         0.30000E+00
         0.30000E+00
         0.30000E+00
         0.30000E+00
         0.30000E+00
         0.30000E+00
         0.30000E+00
         0.30000E+00
         0.30000E+00
         0.30000E+00
         0.30000E+00
         0.30000E+00
         0.30000E+00
         0.30000E+00
         0.30000E+00
         0.30000E+00
         0.30000E+00
         0.30000E+00
         0.30000E+00
         0.30000E+00
         0.30000E+00
         0.30000E+00
         0.30000E+00
         0.30000E+00
         0.30000E+00
         0.30000E+00
         0.30000E+00
         0.30000E+00
         0.30000E+00
         0.30000E+00
         0.30000E+00
         0.30000E+00
         0.30000E+00
         0.30000E+00
         0.30000E+00
         0.30000E+00
         0.30000E+00
         0.30000E+00
         0.30000E+00
         0.30000E+00
         0.30000E+00
         0.30000E+00
         0.30000E+00
         0.30000E+00
         0.30000E+00
         0.30000E+00
         0.30000E+00
         0.30000E+00
         0.30000E+00
         0.30000E+00
         0.30000E+00
         0.30000E+00
         0.30000E+00
         0.30000E+00
         0.30000E+00
         0.30000E+00
         0.30000E+00
         0.30000E+00
         0.30000E+00
         0.30000E+00
         0.30000E+00
         0.30000E+00
         0.30000E+00
         0.30000E+00
         0.30000E+00
         0.30000E+00
         0.30000E+00
         0.30000E+00
         0.30000E+00
         0.30000E+00
         0.30000E+00
         0.30000E+00
         0.30000E+00
         0.30000E+00
         0.30000E+00
         0.30000E+00
         0.30000E+00
         0.30000E+00
         0.30000E+00
         0.30000E+00
         0.30000E+00
         0.30000E+00
         0.30000E+00
         0.30000E+00
         0.30000E+00
         0.30000E+00
         0.30000E+00
         0.30000E+00
         0.30000E+00
         0.30000E+00
         0.30000E+00
         0.30000E+00
         0.30000E+00
         0.30000E+00
         0.30000E+00
         0.30000E+00
         0.30000E+00
         0.30000E+00
         0.30000E+00
         0.30000E+00
         0.30000E+00
         0.30000E+00
         0.30000E+00
         0.30000E+00
         0.30000E+00
         0.30000E+00
         0.30000E+00
         0.30000E+00
         0.30000E+00
         0.30000E+00
         0.30000E+00
         0.30000E+00
         0.30000E+00
         0.30000E+00
         0.30000E+00
         0.30000E+00
         0.30000E+00
         0.30000E+00
         0.30000E+00
         0.30000E+00
         0.30000E+00
         0.30000E+00
         0.30000E+00
         0.30000E+00
         0.30000E+00
         0.30000E+00
         0.30000E+00
         0.30000E+00
         0.30000E+00
         0.30000E+00
         0.30000E+00
         0.30000E+00
         0.30000E+00
         0.30000E+00
         0.30000E+00
         0.30000E+00
         0.30000E+00
         0.30000E+00
         0.30000E+00
         0.30000E+00
         0.30000E+00
         0.30000E+00
         0.30000E+00
         0.30000E+00
         0.30000E+00
         0.30000E+00
         0.30000E+00
         0.30000E+00
         0.30000E+00
         0.30000E+00
         0.30000E+00
         0.30000E+00
         0.30000E+00
         0.30000E+00
         0.30000E+00
         0.30000E+00
         0.30000E+00
         0.30000E+00
         0.30000E+00
         0.30000E+00
         0.30000E+00
         0.30000E+00
         0.30000E+00
         0.30000E+00
         0.30000E+00
         0.30000E+00
         0.30000E+00
         0.30000E+00
         0.30000E+00
         0.30000E+00
         0.30000E+00
         0.30000E+00
         0.30000E+00
         0.30000E+00
         0.30000E+00
         0.30000E+00
         0.30000E+00
         0.30000E+00
         0.30000E+00
         0.30000E+00
         0.30000E+00
         0.30000E+00
         0.30000E+00
         0.30000E+00
         0.30000E+00
         0.30000E+00
         0.30000E+00
         0.30000E+00
         0.30000E+00
         0.30000E+00
         0.30000E+00
         0.30000E+00
         0.30000E+00
         0.30000E+00
         0.30000E+00
         0.30000E+00
         0.30000E+00
         0.30000E+00
         0.30000E+00
         0.30000E+00
         0.30000E+00
         0.30000E+00
         0.30000E+00
         0.30000E+00
         0.30000E+00
         0.30000E+00
         0.30000E+00
         0.30000E+00
         0.30000E+00
         0.30000E+00
         0.30000E+00
         0.30000E+00
         0.30000E+00
         0.30000E+00
         0.30000E+00
         0.30000E+00
         0.30000E+00
         0.30000E+00
         0.30000E+00
         0.30000E+00
         0.30000E+00
         0.30000E+00
         0.30000E+00
         0.30000E+00
         0.30000E+00
         0.30000E+00
         0.30000E+00
         0.30000E+00
         0.30000E+00
         0.30000E+00
         0.30000E+00
         0.30000E+00
         0.30000E+00
         0.30000E+00
         0.30000E+00
         0.30000E+00
         0.30000E+00
         0.30000E+00
         0.30000E+00
         0.30000E+00
         0.30000E+00
         0.30000E+00
         0.30000E+00
         0.30000E+00
         0.30000E+00
         0.30000E+00
         0.30000E+00
         0.30000E+00
         0.30000E+00
         0.30000E+00
         0.30000E+00
         0.30000E+00
         0.30000E+00
         0.30000E+00
         0.30000E+00
         0.30000E+00
         0.30000E+00
         0.30000E+00
         0.30000E+00
         0.30000E+00
         0.30000E+00
         0.30000E+00
         0.30000E+00
         0.30000E+00
         0.30000E+00
         0.30000E+00
         0.30000E+00
         0.30000E+00
         0.30000E+00
         0.30000E+00
         0.30000E+00
         0.30000E+00
         0.30000E+00
         0.30000E+00
         0.30000E+00
         0.30000E+00
         0.30000E+00
         0.30000E+00
         0.30000E+00
         0.30000E+00
         0.30000E+00
         0.30000E+00
         0.30000E+00
         0.30000E+00
         0.30000E+00
         0.30000E+00
         0.30000E+00
         0.30000E+00
         0.30000E+00
         0.30000E+00
         0.30000E+00
         0.30000E+00
         0.30000E+00
         0.30000E+00
         0.30000E+00
         0.30000E+00
         0.30000E+00
         0.30000E+00
         0.30000E+00
         0.30000E+00
         0.30000E+00
         0.30000E+00
         0.30000E+00
         0.30000E+00
         0.30000E+00
         0.30000E+00
         0.30000E+00
         0.30000E+00
         0.30000E+00
         0.30000E+00
         0.30000E+00
         0.30000E+00
         0.30000E+00
         0.30000E+00
         0.30000E+00
         0.30000E+00
         0.30000E+00
         0.30000E+00
         0.30000E+00
         0.30000E+00
         0.30000E+00
         0.30000E+00
         0.30000E+00
         0.30000E+00
         0.30000E+00
         0.30000E+00
         0.30000E+00
         0.30000E+00
         0.30000E+00
         0.30000E+00
         0.30000E+00
         0.30000E+00
         0.30000E+00
         0.30000E+00
         0.30000E+00
         0.30000E+00
         0.30000E+00
         0.30000E+00
         0.30000E+00
         0.30000E+00
         0.30000E+00
         0.30000E+00
         0.30000E+00
         0.30000E+00
         0.30000E+00
         0.30000E+00
         0.30000E+00
         0.30000E+00
         0.30000E+00
         0.30000E+00
         0.30000E+00
         0.30000E+00
         0.30000E+00
         0.30000E+00
         0.30000E+00
         0.30000E+00
         0.30000E+00
         0.30000E+00
         0.30000E+00
         0.30000E+00
         0.30000E+00
         0.30000E+00
         0.30000E+00
         0.30000E+00
         0.30000E+00
         0.30000E+00
         0.30000E+00
         0.30000E+00
         0.30000E+00
         0.30000E+00
         0.30000E+00
         0.30000E+00
         0.30000E+00
         0.30000E+00
         0.30000E+00
         0.30000E+00
         0.30000E+00
         0.30000E+00
         0.30000E+00
         0.30000E+00
         0.30000E+00
         0.30000E+00
         0.30000E+00
         0.30000E+00
         0.30000E+00
         0.30000E+00
         0.30000E+00
         0.30000E+00
         0.30000E+00
         0.30000E+00
         0.30000E+00
         0.30000E+00
         0.30000E+00
         0.30000E+00
         0.30000E+00
         0.30000E+00
         0.30000E+00
         0.30000E+00
         0.30000E+00
         0.30000E+00
         0.30000E+00
         0.30000E+00
         0.30000E+00
         0.30000E+00
         0.30000E+00
         0.30000E+00
         0.30000E+00
         0.30000E+00
         0.30000E+00
         0.30000E+00
         0.30000E+00
         0.30000E+00
         0.30000E+00
         0.30000E+00
         0.30000E+00
         0.30000E+00
         0.30000E+00
         0.30000E+00
         0.30000E+00
         0.30000E+00
         0.30000E+00
         0.30000E+00
         0.30000E+00
         0.30000E+00
         0.30000E+00
         0.30000E+00
         0.30000E+00
         0.30000E+00
         0.30000E+00
         0.30000E+00
         0.30000E+00
         0.30000E+00
         0.30000E+00
         0.30000E+00
         0.30000E+00
         0.30000E+00
         0.30000E+00
         0.30000E+00
         0.30000E+00
         0.30000E+00
         0.30000E+00
         0.30000E+00
         0.30000E+00
         0.30000E+00
         0.30000E+00
         0.30000E+00
         0.30000E+00
         0.30000E+00
         0.30000E+00
         0.30000E+00
         0.30000E+00
         0.30000E+00
         0.30000E+00
         0.30000E+00
         0.30000E+00
         0.30000E+00
         0.30000E+00
         0.30000E+00
         0.30000E+00
         0.30000E+00
         0.30000E+00
         0.30000E+00
         0.30000E+00
         0.30000E+00
         0.30000E+00
         0.30000E+00
         0.30000E+00
         0.30000E+00
         0.30000E+00
         0.30000E+00
         0.30000E+00
         0.30000E+00
         0.30000E+00
         0.30000E+00
         0.30000E+00
         0.30000E+00
         0.30000E+00
         0.30000E+00
         0.30000E+00
         0.30000E+00
         0.30000E+00
         0.30000E+00
         0.30000E+00
         0.30000E+00
         0.30000E+00
         0.30000E+00
         0.30000E+00
         0.30000E+00
         0.30000E+00
         0.30000E+00
         0.30000E+00
         0.30000E+00
         0.30000E+00
         0.30000E+00
         0.30000E+00
         0.30000E+00
         0.30000E+00
         0.30000E+00
         0.30000E+00
         0.30000E+00
         0.30000E+00
         0.30000E+00
         0.30000E+00
         0.30000E+00
         0.30000E+00
         0.30000E+00
         0.30000E+00
         0.30000E+00
         0.30000E+00
         0.30000E+00
         0.30000E+00
         0.30000E+00
         0.30000E+00
         0.30000E+00
         0.30000E+00
         0.30000E+00
         0.30000E+00
         0.30000E+00
         0.30000E+00
         0.30000E+00
         0.30000E+00
         0.30000E+00
         0.30000E+00
         0.30000E+00
         0.30000E+00
         0.30000E+00
         0.30000E+00
         0.30000E+00
         0.30000E+00
         0.30000E+00
         0.30000E+00
         0.30000E+00
         0.30000E+00
         0.30000E+00
         0.30000E+00
         0.30000E+00
         0.30000E+00
         0.30000E+00
         0.30000E+00
         0.30000E+00
         0.30000E+00
         0.30000E+00
         0.30000E+00
         0.30000E+00
         0.30000E+00
         0.30000E+00
         0.30000E+00
         0.30000E+00
         0.30000E+00
         0.30000E+00
         0.30000E+00
         0.30000E+00
         0.30000E+00
         0.30000E+00
         0.30000E+00
         0.30000E+00
         0.30000E+00
         0.30000E+00
         0.30000E+00
         0.30000E+00
         0.30000E+00
         0.30000E+00
         0.30000E+00
         0.30000E+00
         0.30000E+00
         0.30000E+00
         0.30000E+00
         0.30000E+00
         0.30000E+00
         0.30000E+00
         0.30000E+00
         0.30000E+00
         0.30000E+00
         0.30000E+00
         0.30000E+00
         0.30000E+00
         0.30000E+00
         0.30000E+00
         0.30000E+00
         0.30000E+00
         0.30000E+00
         0.30000E+00
         0.30000E+00
         0.30000E+00
         0.30000E+00
         0.30000E+00
         0.30000E+00
         0.30000E+00
         0.30000E+00
         0.30000E+00
         0.30000E+00
         0.30000E+00
         0.30000E+00
         0.30000E+00
         0.30000E+00
         0.30000E+00
         0.30000E+00
         0.30000E+00
         0.30000E+00
         0.30000E+00
         0.30000E+00
         0.30000E+00
         0.30000E+00
         0.30000E+00
         0.30000E+00
         0.30000E+00
         0.30000E+00
         0.30000E+00
         0.30000E+00
         0.30000E+00
         0.30000E+00
         0.30000E+00
         0.30000E+00
         0.30000E+00
         0.30000E+00
         0.30000E+00
         0.30000E+00
         0.30000E+00
         0.30000E+00
         0.30000E+00
         0.30000E+00
         0.30000E+00
         0.30000E+00
         0.30000E+00
         0.30000E+00
         0.30000E+00
         0.30000E+00
         0.30000E+00
         0.30000E+00
         0.30000E+00
         0.30000E+00
         0.30000E+00
         0.30000E+00
         0.30000E+00
         0.30000E+00
         0.30000E+00
         0.30000E+00
         0.30000E+00
         0.30000E+00
         0.30000E+00
         0.30000E+00
         0.30000E+00
         0.30000E+00
         0.30000E+00
         0.30000E+00
         0.30000E+00
         0.30000E+00
         0.30000E+00
         0.30000E+00
         0.30000E+00
         0.30000E+00
         0.30000E+00
         0.30000E+00
         0.30000E+00
         0.30000E+00
         0.30000E+00
         0.30000E+00
         0.30000E+00
         0.30000E+00
         0.30000E+00
         0.30000E+00
         0.30000E+00
         0.30000E+00
         0.30000E+00
         0.30000E+00
         0.30000E+00
         0.30000E+00
         0.30000E+00
         0.30000E+00
         0.30000E+00
         0.30000E+00
         0.30000E+00
         0.30000E+00
         0.30000E+00
         0.30000E+00
         0.30000E+00
         0.30000E+00
         0.30000E+00
         0.30000E+00
         0.30000E+00
         0.30000E+00
         0.30000E+00
         0.30000E+00
         0.30000E+00
         0.30000E+00
         0.30000E+00
         0.30000E+00
         0.30000E+00
         0.30000E+00
         0.30000E+00
         0.30000E+00
         0.30000E+00
         0.30000E+00
         0.30000E+00
         0.30000E+00
         0.30000E+00
         0.30000E+00
         0.30000E+00
         0.30000E+00
         0.30000E+00
         0.30000E+00
         0.30000E+00
         0.30000E+00
         0.30000E+00
         0.30000E+00
         0.30000E+00
         0.30000E+00
         0.30000E+00
         0.30000E+00
         0.30000E+00
         0.30000E+00
         0.30000E+00
         0.30000E+00
         0.30000E+00
         0.30000E+00
         0.30000E+00
         0.30000E+00
         0.30000E+00
         0.30000E+00
         0.30000E+00
         0.30000E+00
         0.30000E+00
         0.30000E+00
         0.30000E+00
         0.30000E+00
         0.30000E+00
         0.30000E+00
         0.30000E+00
         0.30000E+00
         0.30000E+00
         0.30000E+00
         0.30000E+00
         0.30000E+00
         0.30000E+00
         0.30000E+00
         0.30000E+00
         0.30000E+00
         0.30000E+00
         0.30000E+00
         0.30000E+00
         0.30000E+00
         0.30000E+00
         0.30000E+00
         0.30000E+00
         0.30000E+00
         0.30000E+00
         0.30000E+00
         0.30000E+00
         0.30000E+00
         0.30000E+00
         0.30000E+00
         0.30000E+00
         0.30000E+00
         0.30000E+00
         0.30000E+00
         0.30000E+00
         0.30000E+00
         0.30000E+00
         0.30000E+00
         0.30000E+00
         0.30000E+00
         0.30000E+00
         0.30000E+00
         0.30000E+00
         0.30000E+00
         0.30000E+00
         0.30000E+00
         0.30000E+00
         0.30000E+00
         0.30000E+00
         0.30000E+00
         0.30000E+00
         0.30000E+00
         0.30000E+00
         0.30000E+00
         0.30000E+00
         0.30000E+00
         0.30000E+00
         0.30000E+00
         0.30000E+00
         0.30000E+00
         0.30000E+00
         0.30000E+00
         0.30000E+00
         0.30000E+00
         0.30000E+00
         0.30000E+00
         0.30000E+00
         0.30000E+00
         0.30000E+00
         0.30000E+00
         0.30000E+00
         0.30000E+00
         0.30000E+00
         0.30000E+00
         0.30000E+00
         0.30000E+00
         0.30000E+00
         0.30000E+00
         0.30000E+00
         0.30000E+00
         0.30000E+00
         0.30000E+00
         0.30000E+00
         0.30000E+00
         0.30000E+00
         0.30000E+00
         0.30000E+00
         0.30000E+00
         0.30000E+00
         0.30000E+00
         0.30000E+00
         0.30000E+00
         0.30000E+00
         0.30000E+00
         0.30000E+00
         0.30000E+00
         0.30000E+00
         0.30000E+00
         0.30000E+00
         0.30000E+00
         0.30000E+00
         0.30000E+00
         0.30000E+00
         0.30000E+00
         0.30000E+00
         0.30000E+00
         0.30000E+00
         0.30000E+00
         0.30000E+00
         0.30000E+00
         0.30000E+00
         0.30000E+00
         0.30000E+00
         0.30000E+00
         0.30000E+00
         0.30000E+00
         0.30000E+00
         0.30000E+00
         0.30000E+00
         0.30000E+00
         0.30000E+00
         0.30000E+00
         0.30000E+00
         0.30000E+00
         0.30000E+00
         0.30000E+00
         0.30000E+00
         0.30000E+00
         0.30000E+00
         0.30000E+00
         0.30000E+00
         0.30000E+00
         0.30000E+00
         0.30000E+00
         0.30000E+00
         0.30000E+00
         0.30000E+00
         0.30000E+00
         0.30000E+00
         0.30000E+00
         0.30000E+00
         0.30000E+00
         0.30000E+00
         0.30000E+00
         0.30000E+00
         0.30000E+00
         0.30000E+00
         0.30000E+00
         0.30000E+00
         0.30000E+00
         0.30000E+00
         0.30000E+00
         0.30000E+00
         0.30000E+00
         0.30000E+00
         0.30000E+00
         0.30000E+00
         0.30000E+00
         0.30000E+00
         0.30000E+00
         0.30000E+00
         0.30000E+00
         0.30000E+00
         0.30000E+00
         0.30000E+00
         0.30000E+00
         0.30000E+00
         0.30000E+00
         0.30000E+00
         0.30000E+00
         0.30000E+00
         0.30000E+00
         0.30000E+00
         0.30000E+00
         0.30000E+00
         0.30000E+00
         0.30000E+00
         0.30000E+00
         0.30000E+00
         0.30000E+00
         0.30000E+00
         0.30000E+00
         0.30000E+00
         0.30000E+00
         0.30000E+00
         0.30000E+00
         0.30000E+00
         0.30000E+00
         0.30000E+00
         0.30000E+00
         0.30000E+00
         0.30000E+00
         0.30000E+00
         0.30000E+00
         0.30000E+00
         0.30000E+00
         0.30000E+00
         0.30000E+00
         0.30000E+00
         0.30000E+00
         0.30000E+00
         0.30000E+00
         0.30000E+00
         0.30000E+00
         0.30000E+00
         0.30000E+00
         0.30000E+00
         0.30000E+00
         0.30000E+00
         0.30000E+00
         0.30000E+00
         0.30000E+00
         0.30000E+00
         0.30000E+00
         0.30000E+00
         0.30000E+00
         0.30000E+00
         0.30000E+00
         0.30000E+00
         0.30000E+00
         0.30000E+00
         0.30000E+00
         0.30000E+00
         0.30000E+00
         0.30000E+00
         0.30000E+00
         0.30000E+00
         0.30000E+00
         0.30000E+00
         0.30000E+00
         0.30000E+00
         0.30000E+00
  
SCALARS                 Youngs_modulus  double 1
LOOKUP_TABLE default
         0.78200E+11
         0.78200E+11
         0.78200E+11
         0.78200E+11
         0.78200E+11
         0.78200E+11
         0.78200E+11
         0.78200E+11
         0.78200E+11
         0.78200E+11
         0.78200E+11
         0.78200E+11
         0.78200E+11
         0.78200E+11
         0.78200E+11
         0.78200E+11
         0.78200E+11
         0.78200E+11
         0.78200E+11
         0.78200E+11
         0.78200E+11
         0.78200E+11
         0.78200E+11
         0.78200E+11
         0.78200E+11
         0.78200E+11
         0.78200E+11
         0.78200E+11
         0.78200E+11
         0.78200E+11
         0.78200E+11
         0.78200E+11
         0.78200E+11
         0.78200E+11
         0.78200E+11
         0.78200E+11
         0.78200E+11
         0.78200E+11
         0.78200E+11
         0.78200E+11
         0.78200E+11
         0.78200E+11
         0.78200E+11
         0.78200E+11
         0.78200E+11
         0.78200E+11
         0.78200E+11
         0.78200E+11
         0.78200E+11
         0.78200E+11
         0.78200E+11
         0.78200E+11
         0.78200E+11
         0.78200E+11
         0.78200E+11
         0.78200E+11
         0.78200E+11
         0.78200E+11
         0.78200E+11
         0.78200E+11
         0.78200E+11
         0.78200E+11
         0.78200E+11
         0.78200E+11
         0.78200E+11
         0.78200E+11
         0.78200E+11
         0.78200E+11
         0.78200E+11
         0.78200E+11
         0.78200E+11
         0.78200E+11
         0.78200E+11
         0.78200E+11
         0.78200E+11
         0.78200E+11
         0.78200E+11
         0.78200E+11
         0.78200E+11
         0.78200E+11
         0.78200E+11
         0.78200E+11
         0.78200E+11
         0.78200E+11
         0.78200E+11
         0.78200E+11
         0.78200E+11
         0.78200E+11
         0.78200E+11
         0.78200E+11
         0.78200E+11
         0.78200E+11
         0.78200E+11
         0.78200E+11
         0.78200E+11
         0.78200E+11
         0.78200E+11
         0.78200E+11
         0.78200E+11
         0.78200E+11
         0.78200E+11
         0.78200E+11
         0.78200E+11
         0.78200E+11
         0.78200E+11
         0.78200E+11
         0.78200E+11
         0.78200E+11
         0.78200E+11
         0.78200E+11
         0.78200E+11
         0.78200E+11
         0.78200E+11
         0.78200E+11
         0.78200E+11
         0.78200E+11
         0.78200E+11
         0.78200E+11
         0.78200E+11
         0.78200E+11
         0.78200E+11
         0.78200E+11
         0.78200E+11
         0.78200E+11
         0.78200E+11
         0.78200E+11
         0.78200E+11
         0.78200E+11
         0.78200E+11
         0.78200E+11
         0.78200E+11
         0.78200E+11
         0.78200E+11
         0.78200E+11
         0.78200E+11
         0.78200E+11
         0.78200E+11
         0.78200E+11
         0.78200E+11
         0.78200E+11
         0.78200E+11
         0.78200E+11
         0.78200E+11
         0.78200E+11
         0.78200E+11
         0.78200E+11
         0.78200E+11
         0.78200E+11
         0.78200E+11
         0.78200E+11
         0.78200E+11
         0.78200E+11
         0.78200E+11
         0.78200E+11
         0.78200E+11
         0.78200E+11
         0.78200E+11
         0.78200E+11
         0.78200E+11
         0.78200E+11
         0.78200E+11
         0.78200E+11
         0.78200E+11
         0.78200E+11
         0.78200E+11
         0.78200E+11
         0.78200E+11
         0.78200E+11
         0.78200E+11
         0.78200E+11
         0.78200E+11
         0.78200E+11
         0.78200E+11
         0.78200E+11
         0.78200E+11
         0.78200E+11
         0.78200E+11
         0.78200E+11
         0.78200E+11
         0.78200E+11
         0.78200E+11
         0.78200E+11
         0.78200E+11
         0.78200E+11
         0.78200E+11
         0.78200E+11
         0.78200E+11
         0.78200E+11
         0.78200E+11
         0.78200E+11
         0.78200E+11
         0.78200E+11
         0.78200E+11
         0.78200E+11
         0.78200E+11
         0.78200E+11
         0.78200E+11
         0.78200E+11
         0.78200E+11
         0.78200E+11
         0.78200E+11
         0.78200E+11
         0.78200E+11
         0.78200E+11
         0.78200E+11
         0.78200E+11
         0.78200E+11
         0.78200E+11
         0.78200E+11
         0.78200E+11
         0.78200E+11
         0.78200E+11
         0.78200E+11
         0.78200E+11
         0.78200E+11
         0.78200E+11
         0.78200E+11
         0.78200E+11
         0.78200E+11
         0.78200E+11
         0.78200E+11
         0.78200E+11
         0.78200E+11
         0.78200E+11
         0.78200E+11
         0.78200E+11
         0.78200E+11
         0.78200E+11
         0.78200E+11
         0.78200E+11
         0.78200E+11
         0.78200E+11
         0.78200E+11
         0.78200E+11
         0.78200E+11
         0.78200E+11
         0.78200E+11
         0.78200E+11
         0.78200E+11
         0.78200E+11
         0.78200E+11
         0.78200E+11
         0.78200E+11
         0.78200E+11
         0.78200E+11
         0.78200E+11
         0.78200E+11
         0.78200E+11
         0.78200E+11
         0.78200E+11
         0.78200E+11
         0.78200E+11
         0.78200E+11
         0.78200E+11
         0.78200E+11
         0.78200E+11
         0.78200E+11
         0.78200E+11
         0.78200E+11
         0.78200E+11
         0.78200E+11
         0.78200E+11
         0.78200E+11
         0.78200E+11
         0.78200E+11
         0.78200E+11
         0.78200E+11
         0.78200E+11
         0.78200E+11
         0.78200E+11
         0.78200E+11
         0.78200E+11
         0.78200E+11
         0.78200E+11
         0.78200E+11
         0.78200E+11
         0.78200E+11
         0.78200E+11
         0.78200E+11
         0.78200E+11
         0.78200E+11
         0.78200E+11
         0.78200E+11
         0.78200E+11
         0.78200E+11
         0.78200E+11
         0.78200E+11
         0.78200E+11
         0.78200E+11
         0.78200E+11
         0.78200E+11
         0.78200E+11
         0.78200E+11
         0.78200E+11
         0.78200E+11
         0.78200E+11
         0.78200E+11
         0.78200E+11
         0.78200E+11
         0.78200E+11
         0.78200E+11
         0.78200E+11
         0.78200E+11
         0.78200E+11
         0.78200E+11
         0.78200E+11
         0.78200E+11
         0.78200E+11
         0.78200E+11
         0.78200E+11
         0.78200E+11
         0.78200E+11
         0.78200E+11
         0.78200E+11
         0.78200E+11
         0.78200E+11
         0.78200E+11
         0.78200E+11
         0.78200E+11
         0.78200E+11
         0.78200E+11
         0.78200E+11
         0.78200E+11
         0.78200E+11
         0.78200E+11
         0.78200E+11
         0.78200E+11
         0.78200E+11
         0.78200E+11
         0.78200E+11
         0.78200E+11
         0.78200E+11
         0.78200E+11
         0.78200E+11
         0.78200E+11
         0.78200E+11
         0.78200E+11
         0.78200E+11
         0.78200E+11
         0.78200E+11
         0.78200E+11
         0.78200E+11
         0.78200E+11
         0.78200E+11
         0.78200E+11
         0.78200E+11
         0.78200E+11
         0.78200E+11
         0.78200E+11
         0.78200E+11
         0.78200E+11
         0.78200E+11
         0.78200E+11
         0.78200E+11
         0.78200E+11
         0.78200E+11
         0.78200E+11
         0.78200E+11
         0.78200E+11
         0.78200E+11
         0.78200E+11
         0.78200E+11
         0.78200E+11
         0.78200E+11
         0.78200E+11
         0.78200E+11
         0.78200E+11
         0.78200E+11
         0.78200E+11
         0.78200E+11
         0.78200E+11
         0.78200E+11
         0.78200E+11
         0.78200E+11
         0.78200E+11
         0.78200E+11
         0.78200E+11
         0.78200E+11
         0.78200E+11
         0.78200E+11
         0.78200E+11
         0.78200E+11
         0.78200E+11
         0.78200E+11
         0.78200E+11
         0.78200E+11
         0.78200E+11
         0.78200E+11
         0.78200E+11
         0.78200E+11
         0.78200E+11
         0.78200E+11
         0.78200E+11
         0.78200E+11
         0.78200E+11
         0.78200E+11
         0.78200E+11
         0.78200E+11
         0.78200E+11
         0.78200E+11
         0.78200E+11
         0.78200E+11
         0.78200E+11
         0.78200E+11
         0.78200E+11
         0.78200E+11
         0.78200E+11
         0.78200E+11
         0.78200E+11
         0.78200E+11
         0.78200E+11
         0.78200E+11
         0.78200E+11
         0.78200E+11
         0.78200E+11
         0.78200E+11
         0.78200E+11
         0.78200E+11
         0.78200E+11
         0.78200E+11
         0.78200E+11
         0.78200E+11
         0.78200E+11
         0.78200E+11
         0.78200E+11
         0.78200E+11
         0.78200E+11
         0.78200E+11
         0.78200E+11
         0.78200E+11
         0.78200E+11
         0.78200E+11
         0.78200E+11
         0.78200E+11
         0.78200E+11
         0.78200E+11
         0.78200E+11
         0.78200E+11
         0.78200E+11
         0.78200E+11
         0.78200E+11
         0.78200E+11
         0.78200E+11
         0.78200E+11
         0.78200E+11
         0.78200E+11
         0.78200E+11
         0.78200E+11
         0.78200E+11
         0.78200E+11
         0.78200E+11
         0.78200E+11
         0.78200E+11
         0.78200E+11
         0.78200E+11
         0.78200E+11
         0.78200E+11
         0.78200E+11
         0.78200E+11
         0.78200E+11
         0.78200E+11
         0.78200E+11
         0.78200E+11
         0.78200E+11
         0.78200E+11
         0.78200E+11
         0.78200E+11
         0.78200E+11
         0.78200E+11
         0.78200E+11
         0.78200E+11
         0.78200E+11
         0.78200E+11
         0.78200E+11
         0.78200E+11
         0.78200E+11
         0.78200E+11
         0.78200E+11
         0.78200E+11
         0.78200E+11
         0.78200E+11
         0.78200E+11
         0.78200E+11
         0.78200E+11
         0.78200E+11
         0.78200E+11
         0.78200E+11
         0.78200E+11
         0.78200E+11
         0.78200E+11
         0.78200E+11
         0.78200E+11
         0.78200E+11
         0.78200E+11
         0.78200E+11
         0.78200E+11
         0.78200E+11
         0.78200E+11
         0.78200E+11
         0.78200E+11
         0.78200E+11
         0.78200E+11
         0.78200E+11
         0.78200E+11
         0.78200E+11
         0.78200E+11
         0.78200E+11
         0.78200E+11
         0.78200E+11
         0.78200E+11
         0.78200E+11
         0.78200E+11
         0.78200E+11
         0.78200E+11
         0.78200E+11
         0.78200E+11
         0.78200E+11
         0.78200E+11
         0.78200E+11
         0.78200E+11
         0.78200E+11
         0.78200E+11
         0.78200E+11
         0.78200E+11
         0.78200E+11
         0.78200E+11
         0.78200E+11
         0.78200E+11
         0.78200E+11
         0.78200E+11
         0.78200E+11
         0.78200E+11
         0.78200E+11
         0.78200E+11
         0.78200E+11
         0.78200E+11
         0.78200E+11
         0.78200E+11
         0.78200E+11
         0.78200E+11
         0.78200E+11
         0.78200E+11
         0.78200E+11
         0.78200E+11
         0.78200E+11
         0.78200E+11
         0.78200E+11
         0.78200E+11
         0.78200E+11
         0.78200E+11
         0.78200E+11
         0.78200E+11
         0.78200E+11
         0.78200E+11
         0.78200E+11
         0.78200E+11
         0.78200E+11
         0.78200E+11
         0.78200E+11
         0.78200E+11
         0.78200E+11
         0.78200E+11
         0.78200E+11
         0.78200E+11
         0.78200E+11
         0.78200E+11
         0.78200E+11
         0.78200E+11
         0.78200E+11
         0.78200E+11
         0.78200E+11
         0.78200E+11
         0.78200E+11
         0.78200E+11
         0.78200E+11
         0.78200E+11
         0.78200E+11
         0.78200E+11
         0.78200E+11
         0.78200E+11
         0.78200E+11
         0.78200E+11
         0.78200E+11
         0.78200E+11
         0.78200E+11
         0.78200E+11
         0.78200E+11
         0.78200E+11
         0.78200E+11
         0.78200E+11
         0.78200E+11
         0.78200E+11
         0.78200E+11
         0.78200E+11
         0.78200E+11
         0.78200E+11
         0.78200E+11
         0.78200E+11
         0.78200E+11
         0.78200E+11
         0.78200E+11
         0.78200E+11
         0.78200E+11
         0.78200E+11
         0.78200E+11
         0.78200E+11
         0.78200E+11
         0.78200E+11
         0.78200E+11
         0.78200E+11
         0.78200E+11
         0.78200E+11
         0.78200E+11
         0.78200E+11
         0.78200E+11
         0.78200E+11
         0.78200E+11
         0.78200E+11
         0.78200E+11
         0.78200E+11
         0.78200E+11
         0.78200E+11
         0.78200E+11
         0.78200E+11
         0.78200E+11
         0.78200E+11
         0.78200E+11
         0.78200E+11
         0.78200E+11
         0.78200E+11
         0.78200E+11
         0.78200E+11
         0.78200E+11
         0.78200E+11
         0.78200E+11
         0.78200E+11
         0.78200E+11
         0.78200E+11
         0.78200E+11
         0.78200E+11
         0.78200E+11
         0.78200E+11
         0.78200E+11
         0.78200E+11
         0.78200E+11
         0.78200E+11
         0.78200E+11
         0.78200E+11
         0.78200E+11
         0.78200E+11
         0.78200E+11
         0.78200E+11
         0.78200E+11
         0.78200E+11
         0.78200E+11
         0.78200E+11
         0.78200E+11
         0.78200E+11
         0.78200E+11
         0.78200E+11
         0.78200E+11
         0.78200E+11
         0.78200E+11
         0.78200E+11
         0.78200E+11
         0.78200E+11
         0.78200E+11
         0.78200E+11
         0.78200E+11
         0.78200E+11
         0.78200E+11
         0.78200E+11
         0.78200E+11
         0.78200E+11
         0.78200E+11
         0.78200E+11
         0.78200E+11
         0.78200E+11
         0.78200E+11
         0.78200E+11
         0.78200E+11
         0.78200E+11
         0.78200E+11
         0.78200E+11
         0.78200E+11
         0.78200E+11
         0.78200E+11
         0.78200E+11
         0.78200E+11
         0.78200E+11
         0.78200E+11
         0.78200E+11
         0.78200E+11
         0.78200E+11
         0.78200E+11
         0.78200E+11
         0.78200E+11
         0.78200E+11
         0.78200E+11
         0.78200E+11
         0.78200E+11
         0.78200E+11
         0.78200E+11
         0.78200E+11
         0.78200E+11
         0.78200E+11
         0.78200E+11
         0.78200E+11
         0.78200E+11
         0.78200E+11
         0.78200E+11
         0.78200E+11
         0.78200E+11
         0.78200E+11
         0.78200E+11
         0.78200E+11
         0.78200E+11
         0.78200E+11
         0.78200E+11
         0.78200E+11
         0.78200E+11
         0.78200E+11
         0.78200E+11
         0.78200E+11
         0.78200E+11
         0.78200E+11
         0.78200E+11
         0.78200E+11
         0.78200E+11
         0.78200E+11
         0.78200E+11
         0.78200E+11
         0.78200E+11
         0.78200E+11
         0.78200E+11
         0.78200E+11
         0.78200E+11
         0.78200E+11
         0.78200E+11
         0.78200E+11
         0.78200E+11
         0.78200E+11
         0.78200E+11
         0.78200E+11
         0.78200E+11
         0.78200E+11
         0.78200E+11
         0.78200E+11
         0.78200E+11
         0.78200E+11
         0.78200E+11
         0.78200E+11
         0.78200E+11
         0.78200E+11
         0.78200E+11
         0.78200E+11
         0.78200E+11
         0.78200E+11
         0.78200E+11
         0.78200E+11
         0.78200E+11
         0.78200E+11
         0.78200E+11
         0.78200E+11
         0.78200E+11
         0.78200E+11
         0.78200E+11
         0.78200E+11
         0.78200E+11
         0.78200E+11
         0.78200E+11
         0.78200E+11
         0.78200E+11
         0.78200E+11
         0.78200E+11
         0.78200E+11
         0.78200E+11
         0.78200E+11
         0.78200E+11
         0.78200E+11
         0.78200E+11
         0.78200E+11
         0.78200E+11
         0.78200E+11
         0.78200E+11
         0.78200E+11
         0.78200E+11
         0.78200E+11
         0.78200E+11
         0.78200E+11
         0.78200E+11
         0.78200E+11
         0.78200E+11
         0.78200E+11
         0.78200E+11
         0.78200E+11
         0.78200E+11
         0.78200E+11
         0.78200E+11
         0.78200E+11
         0.78200E+11
         0.78200E+11
         0.78200E+11
         0.78200E+11
         0.78200E+11
         0.78200E+11
         0.78200E+11
         0.78200E+11
         0.78200E+11
         0.78200E+11
         0.78200E+11
         0.78200E+11
         0.78200E+11
         0.78200E+11
         0.78200E+11
         0.78200E+11
         0.78200E+11
         0.78200E+11
         0.78200E+11
         0.78200E+11
         0.78200E+11
         0.78200E+11
         0.78200E+11
         0.78200E+11
         0.78200E+11
         0.78200E+11
         0.78200E+11
         0.78200E+11
         0.78200E+11
         0.78200E+11
         0.78200E+11
         0.78200E+11
         0.78200E+11
         0.78200E+11
         0.78200E+11
         0.78200E+11
         0.78200E+11
         0.78200E+11
         0.78200E+11
         0.78200E+11
         0.78200E+11
         0.78200E+11
         0.78200E+11
         0.78200E+11
         0.78200E+11
         0.78200E+11
         0.78200E+11
         0.78200E+11
         0.78200E+11
         0.78200E+11
         0.78200E+11
         0.78200E+11
         0.78200E+11
         0.78200E+11
         0.78200E+11
         0.78200E+11
         0.78200E+11
         0.78200E+11
         0.78200E+11
         0.78200E+11
         0.78200E+11
         0.78200E+11
         0.78200E+11
         0.78200E+11
         0.78200E+11
         0.78200E+11
         0.78200E+11
         0.78200E+11
         0.78200E+11
         0.78200E+11
         0.78200E+11
         0.78200E+11
         0.78200E+11
         0.78200E+11
         0.78200E+11
         0.78200E+11
         0.78200E+11
         0.78200E+11
         0.78200E+11
         0.78200E+11
         0.78200E+11
         0.78200E+11
         0.78200E+11
         0.78200E+11
         0.78200E+11
         0.78200E+11
         0.78200E+11
         0.78200E+11
         0.78200E+11
         0.78200E+11
         0.78200E+11
         0.78200E+11
         0.78200E+11
         0.78200E+11
         0.78200E+11
         0.78200E+11
         0.78200E+11
         0.78200E+11
         0.78200E+11
         0.78200E+11
         0.78200E+11
         0.78200E+11
         0.78200E+11
         0.78200E+11
         0.78200E+11
         0.78200E+11
         0.78200E+11
         0.78200E+11
         0.78200E+11
         0.78200E+11
         0.78200E+11
         0.78200E+11
         0.78200E+11
         0.78200E+11
         0.78200E+11
         0.78200E+11
         0.78200E+11
         0.78200E+11
         0.78200E+11
         0.78200E+11
         0.78200E+11
         0.78200E+11
         0.78200E+11
         0.78200E+11
         0.78200E+11
         0.78200E+11
         0.78200E+11
         0.78200E+11
         0.78200E+11
         0.78200E+11
         0.78200E+11
         0.78200E+11
         0.78200E+11
         0.78200E+11
         0.78200E+11
         0.78200E+11
         0.78200E+11
         0.78200E+11
         0.78200E+11
         0.78200E+11
         0.78200E+11
         0.78200E+11
         0.78200E+11
         0.78200E+11
         0.78200E+11
         0.78200E+11
         0.78200E+11
         0.78200E+11
         0.78200E+11
         0.78200E+11
         0.78200E+11
         0.78200E+11
         0.78200E+11
         0.78200E+11
         0.78200E+11
         0.78200E+11
         0.78200E+11
         0.78200E+11
         0.78200E+11
         0.78200E+11
         0.78200E+11
         0.78200E+11
         0.78200E+11
         0.78200E+11
         0.78200E+11
         0.78200E+11
         0.78200E+11
         0.78200E+11
         0.78200E+11
         0.78200E+11
         0.78200E+11
         0.78200E+11
         0.78200E+11
         0.78200E+11
         0.78200E+11
         0.78200E+11
         0.78200E+11
         0.78200E+11
         0.78200E+11
         0.78200E+11
         0.78200E+11
         0.78200E+11
         0.78200E+11
         0.78200E+11
         0.78200E+11
         0.78200E+11
         0.78200E+11
         0.78200E+11
         0.78200E+11
         0.78200E+11
         0.78200E+11
         0.78200E+11
         0.78200E+11
         0.78200E+11
         0.78200E+11
         0.78200E+11
         0.78200E+11
         0.78200E+11
         0.78200E+11
         0.78200E+11
         0.78200E+11
         0.78200E+11
         0.78200E+11
         0.78200E+11
         0.78200E+11
         0.78200E+11
         0.78200E+11
         0.78200E+11
         0.78200E+11
         0.78200E+11
         0.78200E+11
         0.78200E+11
         0.78200E+11
         0.78200E+11
         0.78200E+11
         0.78200E+11
         0.78200E+11
         0.78200E+11
         0.78200E+11
         0.78200E+11
         0.78200E+11
         0.78200E+11
         0.78200E+11
         0.78200E+11
         0.78200E+11
         0.78200E+11
         0.78200E+11
         0.78200E+11
         0.78200E+11
         0.78200E+11
         0.78200E+11
         0.78200E+11
         0.78200E+11
         0.78200E+11
         0.78200E+11
         0.78200E+11
         0.78200E+11
         0.78200E+11
         0.78200E+11
         0.78200E+11
         0.78200E+11
         0.78200E+11
         0.78200E+11
         0.78200E+11
         0.78200E+11
         0.78200E+11
         0.78200E+11
         0.78200E+11
         0.78200E+11
         0.78200E+11
         0.78200E+11
         0.78200E+11
         0.78200E+11
         0.78200E+11
         0.78200E+11
         0.78200E+11
         0.78200E+11
         0.78200E+11
         0.78200E+11
         0.78200E+11
         0.78200E+11
         0.78200E+11
         0.78200E+11
         0.78200E+11
         0.78200E+11
         0.78200E+11
         0.78200E+11
         0.78200E+11
         0.78200E+11
         0.78200E+11
         0.78200E+11
         0.78200E+11
         0.78200E+11
         0.78200E+11
         0.78200E+11
         0.78200E+11
         0.78200E+11
         0.78200E+11
         0.78200E+11
         0.78200E+11
         0.78200E+11
         0.78200E+11
         0.78200E+11
         0.78200E+11
         0.78200E+11
         0.78200E+11
         0.78200E+11
         0.78200E+11
         0.78200E+11
         0.78200E+11
         0.78200E+11
         0.78200E+11
         0.78200E+11
         0.78200E+11
         0.78200E+11
         0.78200E+11
         0.78200E+11
         0.78200E+11
         0.78200E+11
         0.78200E+11
         0.78200E+11
         0.78200E+11
         0.78200E+11
         0.78200E+11
         0.78200E+11
         0.78200E+11
         0.78200E+11
         0.78200E+11
         0.78200E+11
         0.78200E+11
         0.78200E+11
         0.78200E+11
         0.78200E+11
         0.78200E+11
         0.78200E+11
         0.78200E+11
         0.78200E+11
         0.78200E+11
         0.78200E+11
         0.78200E+11
         0.78200E+11
         0.78200E+11
         0.78200E+11
         0.78200E+11
         0.78200E+11
         0.78200E+11
         0.78200E+11
         0.78200E+11
         0.78200E+11
         0.78200E+11
         0.78200E+11
         0.78200E+11
         0.78200E+11
         0.78200E+11
         0.78200E+11
         0.78200E+11
         0.78200E+11
         0.78200E+11
         0.78200E+11
         0.78200E+11
         0.78200E+11
         0.78200E+11
         0.78200E+11
         0.78200E+11
         0.78200E+11
         0.78200E+11
         0.78200E+11
         0.78200E+11
         0.78200E+11
         0.78200E+11
         0.78200E+11
         0.78200E+11
         0.78200E+11
         0.78200E+11
         0.78200E+11
         0.78200E+11
         0.78200E+11
         0.78200E+11
         0.78200E+11
         0.78200E+11
         0.78200E+11
         0.78200E+11
         0.78200E+11
         0.78200E+11
         0.78200E+11
         0.78200E+11
         0.78200E+11
         0.78200E+11
         0.78200E+11
         0.78200E+11
         0.78200E+11
         0.78200E+11
         0.78200E+11
         0.78200E+11
         0.78200E+11
         0.78200E+11
         0.78200E+11
         0.78200E+11
         0.78200E+11
         0.78200E+11
         0.78200E+11
         0.78200E+11
         0.78200E+11
         0.78200E+11
         0.78200E+11
         0.78200E+11
         0.78200E+11
         0.78200E+11
         0.78200E+11
         0.78200E+11
         0.78200E+11
         0.78200E+11
         0.78200E+11
         0.78200E+11
         0.78200E+11
         0.78200E+11
         0.78200E+11
         0.78200E+11
         0.78200E+11
         0.78200E+11
         0.78200E+11
         0.78200E+11
         0.78200E+11
         0.78200E+11
         0.78200E+11
         0.78200E+11
         0.78200E+11
         0.78200E+11
         0.78200E+11
         0.78200E+11
         0.78200E+11
         0.78200E+11
         0.78200E+11
         0.78200E+11
         0.78200E+11
         0.78200E+11
         0.78200E+11
         0.78200E+11
         0.78200E+11
         0.78200E+11
         0.78200E+11
         0.78200E+11
         0.78200E+11
         0.78200E+11
         0.78200E+11
         0.78200E+11
         0.78200E+11
         0.78200E+11
         0.78200E+11
         0.78200E+11
         0.78200E+11
         0.78200E+11
         0.78200E+11
         0.78200E+11
         0.78200E+11
         0.78200E+11
         0.78200E+11
         0.78200E+11
         0.78200E+11
         0.78200E+11
         0.78200E+11
         0.78200E+11
         0.78200E+11
         0.78200E+11
         0.78200E+11
         0.78200E+11
         0.78200E+11
         0.78200E+11
         0.78200E+11
         0.78200E+11
         0.78200E+11
         0.78200E+11
         0.78200E+11
         0.78200E+11
         0.78200E+11
         0.78200E+11
         0.78200E+11
         0.78200E+11
         0.78200E+11
         0.78200E+11
         0.78200E+11
         0.78200E+11
         0.78200E+11
         0.78200E+11
         0.78200E+11
         0.78200E+11
         0.78200E+11
         0.78200E+11
         0.78200E+11
         0.78200E+11
         0.78200E+11
         0.78200E+11
         0.78200E+11
         0.78200E+11
         0.78200E+11
         0.78200E+11
         0.78200E+11
         0.78200E+11
         0.78200E+11
         0.78200E+11
         0.78200E+11
         0.78200E+11
         0.78200E+11
         0.78200E+11
         0.78200E+11
         0.78200E+11
         0.78200E+11
         0.78200E+11
         0.78200E+11
         0.78200E+11
         0.78200E+11
         0.78200E+11
         0.78200E+11
         0.78200E+11
         0.78200E+11
         0.78200E+11
         0.78200E+11
         0.78200E+11
         0.78200E+11
         0.78200E+11
         0.78200E+11
         0.78200E+11
         0.78200E+11
         0.78200E+11
         0.78200E+11
         0.78200E+11
         0.78200E+11
         0.78200E+11
         0.78200E+11
         0.78200E+11
         0.78200E+11
         0.78200E+11
         0.78200E+11
         0.78200E+11
         0.78200E+11
         0.78200E+11
         0.78200E+11
         0.78200E+11
         0.78200E+11
         0.78200E+11
         0.78200E+11
         0.78200E+11
         0.78200E+11
         0.78200E+11
         0.78200E+11
         0.78200E+11
         0.78200E+11
         0.78200E+11
         0.78200E+11
         0.78200E+11
         0.78200E+11
         0.78200E+11
         0.78200E+11
         0.78200E+11
         0.78200E+11
         0.78200E+11
         0.78200E+11
         0.78200E+11
         0.78200E+11
         0.78200E+11
         0.78200E+11
         0.78200E+11
         0.78200E+11
         0.78200E+11
         0.78200E+11
         0.78200E+11
         0.78200E+11
         0.78200E+11
         0.78200E+11
         0.78200E+11
         0.78200E+11
         0.78200E+11
         0.78200E+11
         0.78200E+11
         0.78200E+11
         0.78200E+11
         0.78200E+11
         0.78200E+11
         0.78200E+11
         0.78200E+11
         0.78200E+11
         0.78200E+11
         0.78200E+11
         0.78200E+11
         0.78200E+11
         0.78200E+11
         0.78200E+11
         0.78200E+11
         0.78200E+11
         0.78200E+11
         0.78200E+11
         0.78200E+11
         0.78200E+11
         0.78200E+11
         0.78200E+11
         0.78200E+11
         0.78200E+11
         0.78200E+11
         0.78200E+11
         0.78200E+11
         0.78200E+11
         0.78200E+11
         0.78200E+11
         0.78200E+11
         0.78200E+11
         0.78200E+11
         0.78200E+11
         0.78200E+11
         0.78200E+11
         0.78200E+11
         0.78200E+11
         0.78200E+11
         0.78200E+11
         0.78200E+11
         0.78200E+11
         0.78200E+11
         0.78200E+11
         0.78200E+11
         0.78200E+11
         0.78200E+11
         0.78200E+11
         0.78200E+11
         0.78200E+11
         0.78200E+11
         0.78200E+11
         0.78200E+11
         0.78200E+11
         0.78200E+11
         0.78200E+11
         0.78200E+11
         0.78200E+11
         0.78200E+11
         0.78200E+11
         0.78200E+11
         0.78200E+11
         0.78200E+11
         0.78200E+11
         0.78200E+11
         0.78200E+11
         0.78200E+11
         0.78200E+11
         0.78200E+11
         0.78200E+11
         0.78200E+11
         0.78200E+11
         0.78200E+11
         0.78200E+11
         0.78200E+11
         0.78200E+11
         0.78200E+11
         0.78200E+11
         0.78200E+11
         0.78200E+11
         0.78200E+11
         0.78200E+11
         0.78200E+11
         0.78200E+11
         0.78200E+11
         0.78200E+11
         0.78200E+11
         0.78200E+11
         0.78200E+11
         0.78200E+11
         0.78200E+11
         0.78200E+11
         0.78200E+11
         0.78200E+11
         0.78200E+11
         0.78200E+11
         0.78200E+11
         0.78200E+11
         0.78200E+11
         0.78200E+11
         0.78200E+11
         0.78200E+11
         0.78200E+11
         0.78200E+11
         0.78200E+11
         0.78200E+11
         0.78200E+11
         0.78200E+11
         0.78200E+11
         0.78200E+11
         0.78200E+11
         0.78200E+11
         0.78200E+11
         0.78200E+11
         0.78200E+11
         0.78200E+11
         0.78200E+11
         0.78200E+11
         0.78200E+11
         0.78200E+11
         0.78200E+11
         0.78200E+11
         0.78200E+11
         0.78200E+11
         0.78200E+11
         0.78200E+11
         0.78200E+11
         0.78200E+11
         0.78200E+11
         0.78200E+11
         0.78200E+11
         0.78200E+11
         0.78200E+11
         0.78200E+11
         0.78200E+11
         0.78200E+11
         0.78200E+11
         0.78200E+11
         0.78200E+11
         0.78200E+11
         0.78200E+11
         0.78200E+11
         0.78200E+11
         0.78200E+11
         0.78200E+11
         0.78200E+11
         0.78200E+11
         0.78200E+11
         0.78200E+11
         0.78200E+11
         0.78200E+11
         0.78200E+11
         0.78200E+11
         0.78200E+11
         0.78200E+11
         0.78200E+11
         0.78200E+11
         0.78200E+11
         0.78200E+11
         0.78200E+11
         0.78200E+11
         0.78200E+11
         0.78200E+11
         0.78200E+11
         0.78200E+11
         0.78200E+11
         0.78200E+11
         0.78200E+11
         0.78200E+11
         0.78200E+11
         0.78200E+11
         0.78200E+11
         0.78200E+11
         0.78200E+11
         0.78200E+11
         0.78200E+11
         0.78200E+11
         0.78200E+11
         0.78200E+11
         0.78200E+11
         0.78200E+11
         0.78200E+11
         0.78200E+11
         0.78200E+11
         0.78200E+11
         0.78200E+11
         0.78200E+11
         0.78200E+11
         0.78200E+11
         0.78200E+11
         0.78200E+11
         0.78200E+11
         0.78200E+11
         0.78200E+11
         0.78200E+11
         0.78200E+11
         0.78200E+11
         0.78200E+11
         0.78200E+11
         0.78200E+11
         0.78200E+11
         0.78200E+11
         0.78200E+11
         0.78200E+11
         0.78200E+11
         0.78200E+11
         0.78200E+11
         0.78200E+11
         0.78200E+11
         0.78200E+11
         0.78200E+11
         0.78200E+11
         0.78200E+11
         0.78200E+11
         0.78200E+11
         0.78200E+11
         0.78200E+11
         0.78200E+11
         0.78200E+11
         0.78200E+11
         0.78200E+11
         0.78200E+11
         0.78200E+11
         0.78200E+11
         0.78200E+11
         0.78200E+11
         0.78200E+11
         0.78200E+11
         0.78200E+11
         0.78200E+11
         0.78200E+11
         0.78200E+11
         0.78200E+11
         0.78200E+11
         0.78200E+11
         0.78200E+11
         0.78200E+11
         0.78200E+11
         0.78200E+11
         0.78200E+11
         0.78200E+11
         0.78200E+11
         0.78200E+11
         0.78200E+11
         0.78200E+11
         0.78200E+11
         0.78200E+11
         0.78200E+11
         0.78200E+11
         0.78200E+11
         0.78200E+11
         0.78200E+11
         0.78200E+11
         0.78200E+11
         0.78200E+11
         0.78200E+11
         0.78200E+11
         0.78200E+11
         0.78200E+11
         0.78200E+11
         0.78200E+11
         0.78200E+11
         0.78200E+11
         0.78200E+11
         0.78200E+11
         0.78200E+11
         0.78200E+11
         0.78200E+11
         0.78200E+11
         0.78200E+11
         0.78200E+11
         0.78200E+11
         0.78200E+11
         0.78200E+11
         0.78200E+11
         0.78200E+11
         0.78200E+11
         0.78200E+11
         0.78200E+11
         0.78200E+11
         0.78200E+11
         0.78200E+11
         0.78200E+11
         0.78200E+11
         0.78200E+11
         0.78200E+11
         0.78200E+11
         0.78200E+11
         0.78200E+11
         0.78200E+11
         0.78200E+11
         0.78200E+11
         0.78200E+11
         0.78200E+11
         0.78200E+11
         0.78200E+11
         0.78200E+11
         0.78200E+11
         0.78200E+11
         0.78200E+11
         0.78200E+11
         0.78200E+11
         0.78200E+11
         0.78200E+11
         0.78200E+11
         0.78200E+11
         0.78200E+11
         0.78200E+11
         0.78200E+11
         0.78200E+11
         0.78200E+11
         0.78200E+11
         0.78200E+11
         0.78200E+11
         0.78200E+11
         0.78200E+11
         0.78200E+11
         0.78200E+11
         0.78200E+11
         0.78200E+11
         0.78200E+11
         0.78200E+11
         0.78200E+11
         0.78200E+11
         0.78200E+11
         0.78200E+11
         0.78200E+11
         0.78200E+11
         0.78200E+11
         0.78200E+11
         0.78200E+11
         0.78200E+11
         0.78200E+11
         0.78200E+11
         0.78200E+11
         0.78200E+11
         0.78200E+11
         0.78200E+11
         0.78200E+11
         0.78200E+11
         0.78200E+11
         0.78200E+11
         0.78200E+11
         0.78200E+11
         0.78200E+11
         0.78200E+11
         0.78200E+11
         0.78200E+11
         0.78200E+11
         0.78200E+11
         0.78200E+11
         0.78200E+11
         0.78200E+11
         0.78200E+11
         0.78200E+11
         0.78200E+11
         0.78200E+11
         0.78200E+11
         0.78200E+11
         0.78200E+11
         0.78200E+11
         0.78200E+11
         0.78200E+11
         0.78200E+11
         0.78200E+11
         0.78200E+11
         0.78200E+11
         0.78200E+11
         0.78200E+11
         0.78200E+11
         0.78200E+11
         0.78200E+11
         0.78200E+11
         0.78200E+11
         0.78200E+11
         0.78200E+11
         0.78200E+11
         0.78200E+11
         0.78200E+11
         0.78200E+11
         0.78200E+11
         0.78200E+11
         0.78200E+11
         0.78200E+11
         0.78200E+11
         0.78200E+11
         0.78200E+11
         0.78200E+11
         0.78200E+11
         0.78200E+11
         0.78200E+11
         0.78200E+11
         0.78200E+11
         0.78200E+11
         0.78200E+11
         0.78200E+11
         0.78200E+11
         0.78200E+11
         0.78200E+11
         0.78200E+11
         0.78200E+11
         0.78200E+11
         0.78200E+11
         0.78200E+11
         0.78200E+11
         0.78200E+11
         0.78200E+11
         0.78200E+11
         0.78200E+11
         0.78200E+11
         0.78200E+11
         0.78200E+11
         0.78200E+11
         0.78200E+11
         0.78200E+11
         0.78200E+11
         0.78200E+11
         0.78200E+11
         0.78200E+11
         0.78200E+11
         0.78200E+11
         0.78200E+11
         0.78200E+11
         0.78200E+11
         0.78200E+11
         0.78200E+11
         0.78200E+11
         0.78200E+11
         0.78200E+11
         0.78200E+11
         0.78200E+11
         0.78200E+11
         0.78200E+11
         0.78200E+11
         0.78200E+11
         0.78200E+11
         0.78200E+11
         0.78200E+11
         0.78200E+11
         0.78200E+11
         0.78200E+11
         0.78200E+11
         0.78200E+11
         0.78200E+11
         0.78200E+11
         0.78200E+11
         0.78200E+11
         0.78200E+11
         0.78200E+11
         0.78200E+11
         0.78200E+11
         0.78200E+11
         0.78200E+11
         0.78200E+11
         0.78200E+11
         0.78200E+11
         0.78200E+11
         0.78200E+11
         0.78200E+11
         0.78200E+11
         0.78200E+11
         0.78200E+11
         0.78200E+11
         0.78200E+11
         0.78200E+11
         0.78200E+11
         0.78200E+11
         0.78200E+11
         0.78200E+11
         0.78200E+11
         0.78200E+11
         0.78200E+11
         0.78200E+11
         0.78200E+11
         0.78200E+11
         0.78200E+11
         0.78200E+11
         0.78200E+11
         0.78200E+11
         0.78200E+11
         0.78200E+11
         0.78200E+11
         0.78200E+11
         0.78200E+11
         0.78200E+11
         0.78200E+11
         0.78200E+11
         0.78200E+11
         0.78200E+11
         0.78200E+11
         0.78200E+11
         0.78200E+11
         0.78200E+11
         0.78200E+11
         0.78200E+11
         0.78200E+11
         0.78200E+11
         0.78200E+11
         0.78200E+11
         0.78200E+11
         0.78200E+11
         0.78200E+11
         0.78200E+11
         0.78200E+11
         0.78200E+11
         0.78200E+11
         0.78200E+11
         0.78200E+11
         0.78200E+11
         0.78200E+11
         0.78200E+11
         0.78200E+11
         0.78200E+11
         0.78200E+11
         0.78200E+11
         0.78200E+11
         0.78200E+11
         0.78200E+11
         0.78200E+11
         0.78200E+11
         0.78200E+11
         0.78200E+11
         0.78200E+11
         0.78200E+11
         0.78200E+11
         0.78200E+11
         0.78200E+11
         0.78200E+11
         0.78200E+11
         0.78200E+11
         0.78200E+11
         0.78200E+11
         0.78200E+11
         0.78200E+11
         0.78200E+11
         0.78200E+11
         0.78200E+11
         0.78200E+11
         0.78200E+11
         0.78200E+11
         0.78200E+11
         0.78200E+11
         0.78200E+11
         0.78200E+11
         0.78200E+11
         0.78200E+11
         0.78200E+11
         0.78200E+11
         0.78200E+11
         0.78200E+11
         0.78200E+11
         0.78200E+11
         0.78200E+11
         0.78200E+11
         0.78200E+11
         0.78200E+11
         0.78200E+11
         0.78200E+11
         0.78200E+11
         0.78200E+11
         0.78200E+11
         0.78200E+11
         0.78200E+11
         0.78200E+11
         0.78200E+11
         0.78200E+11
         0.78200E+11
         0.78200E+11
         0.78200E+11
         0.78200E+11
         0.78200E+11
         0.78200E+11
         0.78200E+11
         0.78200E+11
         0.78200E+11
         0.78200E+11
         0.78200E+11
         0.78200E+11
         0.78200E+11
         0.78200E+11
         0.78200E+11
         0.78200E+11
         0.78200E+11
         0.78200E+11
         0.78200E+11
         0.78200E+11
         0.78200E+11
         0.78200E+11
         0.78200E+11
         0.78200E+11
         0.78200E+11
         0.78200E+11
         0.78200E+11
         0.78200E+11
         0.78200E+11
         0.78200E+11
         0.78200E+11
  
SCALARS                        density  double 1
LOOKUP_TABLE default
         0.27000E+04
         0.27000E+04
         0.27000E+04
         0.27000E+04
         0.27000E+04
         0.27000E+04
         0.27000E+04
         0.27000E+04
         0.27000E+04
         0.27000E+04
         0.27000E+04
         0.27000E+04
         0.27000E+04
         0.27000E+04
         0.27000E+04
         0.27000E+04
         0.27000E+04
         0.27000E+04
         0.27000E+04
         0.27000E+04
         0.27000E+04
         0.27000E+04
         0.27000E+04
         0.27000E+04
         0.27000E+04
         0.27000E+04
         0.27000E+04
         0.27000E+04
         0.27000E+04
         0.27000E+04
         0.27000E+04
         0.27000E+04
         0.27000E+04
         0.27000E+04
         0.27000E+04
         0.27000E+04
         0.27000E+04
         0.27000E+04
         0.27000E+04
         0.27000E+04
         0.27000E+04
         0.27000E+04
         0.27000E+04
         0.27000E+04
         0.27000E+04
         0.27000E+04
         0.27000E+04
         0.27000E+04
         0.27000E+04
         0.27000E+04
         0.27000E+04
         0.27000E+04
         0.27000E+04
         0.27000E+04
         0.27000E+04
         0.27000E+04
         0.27000E+04
         0.27000E+04
         0.27000E+04
         0.27000E+04
         0.27000E+04
         0.27000E+04
         0.27000E+04
         0.27000E+04
         0.27000E+04
         0.27000E+04
         0.27000E+04
         0.27000E+04
         0.27000E+04
         0.27000E+04
         0.27000E+04
         0.27000E+04
         0.27000E+04
         0.27000E+04
         0.27000E+04
         0.27000E+04
         0.27000E+04
         0.27000E+04
         0.27000E+04
         0.27000E+04
         0.27000E+04
         0.27000E+04
         0.27000E+04
         0.27000E+04
         0.27000E+04
         0.27000E+04
         0.27000E+04
         0.27000E+04
         0.27000E+04
         0.27000E+04
         0.27000E+04
         0.27000E+04
         0.27000E+04
         0.27000E+04
         0.27000E+04
         0.27000E+04
         0.27000E+04
         0.27000E+04
         0.27000E+04
         0.27000E+04
         0.27000E+04
         0.27000E+04
         0.27000E+04
         0.27000E+04
         0.27000E+04
         0.27000E+04
         0.27000E+04
         0.27000E+04
         0.27000E+04
         0.27000E+04
         0.27000E+04
         0.27000E+04
         0.27000E+04
         0.27000E+04
         0.27000E+04
         0.27000E+04
         0.27000E+04
         0.27000E+04
         0.27000E+04
         0.27000E+04
         0.27000E+04
         0.27000E+04
         0.27000E+04
         0.27000E+04
         0.27000E+04
         0.27000E+04
         0.27000E+04
         0.27000E+04
         0.27000E+04
         0.27000E+04
         0.27000E+04
         0.27000E+04
         0.27000E+04
         0.27000E+04
         0.27000E+04
         0.27000E+04
         0.27000E+04
         0.27000E+04
         0.27000E+04
         0.27000E+04
         0.27000E+04
         0.27000E+04
         0.27000E+04
         0.27000E+04
         0.27000E+04
         0.27000E+04
         0.27000E+04
         0.27000E+04
         0.27000E+04
         0.27000E+04
         0.27000E+04
         0.27000E+04
         0.27000E+04
         0.27000E+04
         0.27000E+04
         0.27000E+04
         0.27000E+04
         0.27000E+04
         0.27000E+04
         0.27000E+04
         0.27000E+04
         0.27000E+04
         0.27000E+04
         0.27000E+04
         0.27000E+04
         0.27000E+04
         0.27000E+04
         0.27000E+04
         0.27000E+04
         0.27000E+04
         0.27000E+04
         0.27000E+04
         0.27000E+04
         0.27000E+04
         0.27000E+04
         0.27000E+04
         0.27000E+04
         0.27000E+04
         0.27000E+04
         0.27000E+04
         0.27000E+04
         0.27000E+04
         0.27000E+04
         0.27000E+04
         0.27000E+04
         0.27000E+04
         0.27000E+04
         0.27000E+04
         0.27000E+04
         0.27000E+04
         0.27000E+04
         0.27000E+04
         0.27000E+04
         0.27000E+04
         0.27000E+04
         0.27000E+04
         0.27000E+04
         0.27000E+04
         0.27000E+04
         0.27000E+04
         0.27000E+04
         0.27000E+04
         0.27000E+04
         0.27000E+04
         0.27000E+04
         0.27000E+04
         0.27000E+04
         0.27000E+04
         0.27000E+04
         0.27000E+04
         0.27000E+04
         0.27000E+04
         0.27000E+04
         0.27000E+04
         0.27000E+04
         0.27000E+04
         0.27000E+04
         0.27000E+04
         0.27000E+04
         0.27000E+04
         0.27000E+04
         0.27000E+04
         0.27000E+04
         0.27000E+04
         0.27000E+04
         0.27000E+04
         0.27000E+04
         0.27000E+04
         0.27000E+04
         0.27000E+04
         0.27000E+04
         0.27000E+04
         0.27000E+04
         0.27000E+04
         0.27000E+04
         0.27000E+04
         0.27000E+04
         0.27000E+04
         0.27000E+04
         0.27000E+04
         0.27000E+04
         0.27000E+04
         0.27000E+04
         0.27000E+04
         0.27000E+04
         0.27000E+04
         0.27000E+04
         0.27000E+04
         0.27000E+04
         0.27000E+04
         0.27000E+04
         0.27000E+04
         0.27000E+04
         0.27000E+04
         0.27000E+04
         0.27000E+04
         0.27000E+04
         0.27000E+04
         0.27000E+04
         0.27000E+04
         0.27000E+04
         0.27000E+04
         0.27000E+04
         0.27000E+04
         0.27000E+04
         0.27000E+04
         0.27000E+04
         0.27000E+04
         0.27000E+04
         0.27000E+04
         0.27000E+04
         0.27000E+04
         0.27000E+04
         0.27000E+04
         0.27000E+04
         0.27000E+04
         0.27000E+04
         0.27000E+04
         0.27000E+04
         0.27000E+04
         0.27000E+04
         0.27000E+04
         0.27000E+04
         0.27000E+04
         0.27000E+04
         0.27000E+04
         0.27000E+04
         0.27000E+04
         0.27000E+04
         0.27000E+04
         0.27000E+04
         0.27000E+04
         0.27000E+04
         0.27000E+04
         0.27000E+04
         0.27000E+04
         0.27000E+04
         0.27000E+04
         0.27000E+04
         0.27000E+04
         0.27000E+04
         0.27000E+04
         0.27000E+04
         0.27000E+04
         0.27000E+04
         0.27000E+04
         0.27000E+04
         0.27000E+04
         0.27000E+04
         0.27000E+04
         0.27000E+04
         0.27000E+04
         0.27000E+04
         0.27000E+04
         0.27000E+04
         0.27000E+04
         0.27000E+04
         0.27000E+04
         0.27000E+04
         0.27000E+04
         0.27000E+04
         0.27000E+04
         0.27000E+04
         0.27000E+04
         0.27000E+04
         0.27000E+04
         0.27000E+04
         0.27000E+04
         0.27000E+04
         0.27000E+04
         0.27000E+04
         0.27000E+04
         0.27000E+04
         0.27000E+04
         0.27000E+04
         0.27000E+04
         0.27000E+04
         0.27000E+04
         0.27000E+04
         0.27000E+04
         0.27000E+04
         0.27000E+04
         0.27000E+04
         0.27000E+04
         0.27000E+04
         0.27000E+04
         0.27000E+04
         0.27000E+04
         0.27000E+04
         0.27000E+04
         0.27000E+04
         0.27000E+04
         0.27000E+04
         0.27000E+04
         0.27000E+04
         0.27000E+04
         0.27000E+04
         0.27000E+04
         0.27000E+04
         0.27000E+04
         0.27000E+04
         0.27000E+04
         0.27000E+04
         0.27000E+04
         0.27000E+04
         0.27000E+04
         0.27000E+04
         0.27000E+04
         0.27000E+04
         0.27000E+04
         0.27000E+04
         0.27000E+04
         0.27000E+04
         0.27000E+04
         0.27000E+04
         0.27000E+04
         0.27000E+04
         0.27000E+04
         0.27000E+04
         0.27000E+04
         0.27000E+04
         0.27000E+04
         0.27000E+04
         0.27000E+04
         0.27000E+04
         0.27000E+04
         0.27000E+04
         0.27000E+04
         0.27000E+04
         0.27000E+04
         0.27000E+04
         0.27000E+04
         0.27000E+04
         0.27000E+04
         0.27000E+04
         0.27000E+04
         0.27000E+04
         0.27000E+04
         0.27000E+04
         0.27000E+04
         0.27000E+04
         0.27000E+04
         0.27000E+04
         0.27000E+04
         0.27000E+04
         0.27000E+04
         0.27000E+04
         0.27000E+04
         0.27000E+04
         0.27000E+04
         0.27000E+04
         0.27000E+04
         0.27000E+04
         0.27000E+04
         0.27000E+04
         0.27000E+04
         0.27000E+04
         0.27000E+04
         0.27000E+04
         0.27000E+04
         0.27000E+04
         0.27000E+04
         0.27000E+04
         0.27000E+04
         0.27000E+04
         0.27000E+04
         0.27000E+04
         0.27000E+04
         0.27000E+04
         0.27000E+04
         0.27000E+04
         0.27000E+04
         0.27000E+04
         0.27000E+04
         0.27000E+04
         0.27000E+04
         0.27000E+04
         0.27000E+04
         0.27000E+04
         0.27000E+04
         0.27000E+04
         0.27000E+04
         0.27000E+04
         0.27000E+04
         0.27000E+04
         0.27000E+04
         0.27000E+04
         0.27000E+04
         0.27000E+04
         0.27000E+04
         0.27000E+04
         0.27000E+04
         0.27000E+04
         0.27000E+04
         0.27000E+04
         0.27000E+04
         0.27000E+04
         0.27000E+04
         0.27000E+04
         0.27000E+04
         0.27000E+04
         0.27000E+04
         0.27000E+04
         0.27000E+04
         0.27000E+04
         0.27000E+04
         0.27000E+04
         0.27000E+04
         0.27000E+04
         0.27000E+04
         0.27000E+04
         0.27000E+04
         0.27000E+04
         0.27000E+04
         0.27000E+04
         0.27000E+04
         0.27000E+04
         0.27000E+04
         0.27000E+04
         0.27000E+04
         0.27000E+04
         0.27000E+04
         0.27000E+04
         0.27000E+04
         0.27000E+04
         0.27000E+04
         0.27000E+04
         0.27000E+04
         0.27000E+04
         0.27000E+04
         0.27000E+04
         0.27000E+04
         0.27000E+04
         0.27000E+04
         0.27000E+04
         0.27000E+04
         0.27000E+04
         0.27000E+04
         0.27000E+04
         0.27000E+04
         0.27000E+04
         0.27000E+04
         0.27000E+04
         0.27000E+04
         0.27000E+04
         0.27000E+04
         0.27000E+04
         0.27000E+04
         0.27000E+04
         0.27000E+04
         0.27000E+04
         0.27000E+04
         0.27000E+04
         0.27000E+04
         0.27000E+04
         0.27000E+04
         0.27000E+04
         0.27000E+04
         0.27000E+04
         0.27000E+04
         0.27000E+04
         0.27000E+04
         0.27000E+04
         0.27000E+04
         0.27000E+04
         0.27000E+04
         0.27000E+04
         0.27000E+04
         0.27000E+04
         0.27000E+04
         0.27000E+04
         0.27000E+04
         0.27000E+04
         0.27000E+04
         0.27000E+04
         0.27000E+04
         0.27000E+04
         0.27000E+04
         0.27000E+04
         0.27000E+04
         0.27000E+04
         0.27000E+04
         0.27000E+04
         0.27000E+04
         0.27000E+04
         0.27000E+04
         0.27000E+04
         0.27000E+04
         0.27000E+04
         0.27000E+04
         0.27000E+04
         0.27000E+04
         0.27000E+04
         0.27000E+04
         0.27000E+04
         0.27000E+04
         0.27000E+04
         0.27000E+04
         0.27000E+04
         0.27000E+04
         0.27000E+04
         0.27000E+04
         0.27000E+04
         0.27000E+04
         0.27000E+04
         0.27000E+04
         0.27000E+04
         0.27000E+04
         0.27000E+04
         0.27000E+04
         0.27000E+04
         0.27000E+04
         0.27000E+04
         0.27000E+04
         0.27000E+04
         0.27000E+04
         0.27000E+04
         0.27000E+04
         0.27000E+04
         0.27000E+04
         0.27000E+04
         0.27000E+04
         0.27000E+04
         0.27000E+04
         0.27000E+04
         0.27000E+04
         0.27000E+04
         0.27000E+04
         0.27000E+04
         0.27000E+04
         0.27000E+04
         0.27000E+04
         0.27000E+04
         0.27000E+04
         0.27000E+04
         0.27000E+04
         0.27000E+04
         0.27000E+04
         0.27000E+04
         0.27000E+04
         0.27000E+04
         0.27000E+04
         0.27000E+04
         0.27000E+04
         0.27000E+04
         0.27000E+04
         0.27000E+04
         0.27000E+04
         0.27000E+04
         0.27000E+04
         0.27000E+04
         0.27000E+04
         0.27000E+04
         0.27000E+04
         0.27000E+04
         0.27000E+04
         0.27000E+04
         0.27000E+04
         0.27000E+04
         0.27000E+04
         0.27000E+04
         0.27000E+04
         0.27000E+04
         0.27000E+04
         0.27000E+04
         0.27000E+04
         0.27000E+04
         0.27000E+04
         0.27000E+04
         0.27000E+04
         0.27000E+04
         0.27000E+04
         0.27000E+04
         0.27000E+04
         0.27000E+04
         0.27000E+04
         0.27000E+04
         0.27000E+04
         0.27000E+04
         0.27000E+04
         0.27000E+04
         0.27000E+04
         0.27000E+04
         0.27000E+04
         0.27000E+04
         0.27000E+04
         0.27000E+04
         0.27000E+04
         0.27000E+04
         0.27000E+04
         0.27000E+04
         0.27000E+04
         0.27000E+04
         0.27000E+04
         0.27000E+04
         0.27000E+04
         0.27000E+04
         0.27000E+04
         0.27000E+04
         0.27000E+04
         0.27000E+04
         0.27000E+04
         0.27000E+04
         0.27000E+04
         0.27000E+04
         0.27000E+04
         0.27000E+04
         0.27000E+04
         0.27000E+04
         0.27000E+04
         0.27000E+04
         0.27000E+04
         0.27000E+04
         0.27000E+04
         0.27000E+04
         0.27000E+04
         0.27000E+04
         0.27000E+04
         0.27000E+04
         0.27000E+04
         0.27000E+04
         0.27000E+04
         0.27000E+04
         0.27000E+04
         0.27000E+04
         0.27000E+04
         0.27000E+04
         0.27000E+04
         0.27000E+04
         0.27000E+04
         0.27000E+04
         0.27000E+04
         0.27000E+04
         0.27000E+04
         0.27000E+04
         0.27000E+04
         0.27000E+04
         0.27000E+04
         0.27000E+04
         0.27000E+04
         0.27000E+04
         0.27000E+04
         0.27000E+04
         0.27000E+04
         0.27000E+04
         0.27000E+04
         0.27000E+04
         0.27000E+04
         0.27000E+04
         0.27000E+04
         0.27000E+04
         0.27000E+04
         0.27000E+04
         0.27000E+04
         0.27000E+04
         0.27000E+04
         0.27000E+04
         0.27000E+04
         0.27000E+04
         0.27000E+04
         0.27000E+04
         0.27000E+04
         0.27000E+04
         0.27000E+04
         0.27000E+04
         0.27000E+04
         0.27000E+04
         0.27000E+04
         0.27000E+04
         0.27000E+04
         0.27000E+04
         0.27000E+04
         0.27000E+04
         0.27000E+04
         0.27000E+04
         0.27000E+04
         0.27000E+04
         0.27000E+04
         0.27000E+04
         0.27000E+04
         0.27000E+04
         0.27000E+04
         0.27000E+04
         0.27000E+04
         0.27000E+04
         0.27000E+04
         0.27000E+04
         0.27000E+04
         0.27000E+04
         0.27000E+04
         0.27000E+04
         0.27000E+04
         0.27000E+04
         0.27000E+04
         0.27000E+04
         0.27000E+04
         0.27000E+04
         0.27000E+04
         0.27000E+04
         0.27000E+04
         0.27000E+04
         0.27000E+04
         0.27000E+04
         0.27000E+04
         0.27000E+04
         0.27000E+04
         0.27000E+04
         0.27000E+04
         0.27000E+04
         0.27000E+04
         0.27000E+04
         0.27000E+04
         0.27000E+04
         0.27000E+04
         0.27000E+04
         0.27000E+04
         0.27000E+04
         0.27000E+04
         0.27000E+04
         0.27000E+04
         0.27000E+04
         0.27000E+04
         0.27000E+04
         0.27000E+04
         0.27000E+04
         0.27000E+04
         0.27000E+04
         0.27000E+04
         0.27000E+04
         0.27000E+04
         0.27000E+04
         0.27000E+04
         0.27000E+04
         0.27000E+04
         0.27000E+04
         0.27000E+04
         0.27000E+04
         0.27000E+04
         0.27000E+04
         0.27000E+04
         0.27000E+04
         0.27000E+04
         0.27000E+04
         0.27000E+04
         0.27000E+04
         0.27000E+04
         0.27000E+04
         0.27000E+04
         0.27000E+04
         0.27000E+04
         0.27000E+04
         0.27000E+04
         0.27000E+04
         0.27000E+04
         0.27000E+04
         0.27000E+04
         0.27000E+04
         0.27000E+04
         0.27000E+04
         0.27000E+04
         0.27000E+04
         0.27000E+04
         0.27000E+04
         0.27000E+04
         0.27000E+04
         0.27000E+04
         0.27000E+04
         0.27000E+04
         0.27000E+04
         0.27000E+04
         0.27000E+04
         0.27000E+04
         0.27000E+04
         0.27000E+04
         0.27000E+04
         0.27000E+04
         0.27000E+04
         0.27000E+04
         0.27000E+04
         0.27000E+04
         0.27000E+04
         0.27000E+04
         0.27000E+04
         0.27000E+04
         0.27000E+04
         0.27000E+04
         0.27000E+04
         0.27000E+04
         0.27000E+04
         0.27000E+04
         0.27000E+04
         0.27000E+04
         0.27000E+04
         0.27000E+04
         0.27000E+04
         0.27000E+04
         0.27000E+04
         0.27000E+04
         0.27000E+04
         0.27000E+04
         0.27000E+04
         0.27000E+04
         0.27000E+04
         0.27000E+04
         0.27000E+04
         0.27000E+04
         0.27000E+04
         0.27000E+04
         0.27000E+04
         0.27000E+04
         0.27000E+04
         0.27000E+04
         0.27000E+04
         0.27000E+04
         0.27000E+04
         0.27000E+04
         0.27000E+04
         0.27000E+04
         0.27000E+04
         0.27000E+04
         0.27000E+04
         0.27000E+04
         0.27000E+04
         0.27000E+04
         0.27000E+04
         0.27000E+04
         0.27000E+04
         0.27000E+04
         0.27000E+04
         0.27000E+04
         0.27000E+04
         0.27000E+04
         0.27000E+04
         0.27000E+04
         0.27000E+04
         0.27000E+04
         0.27000E+04
         0.27000E+04
         0.27000E+04
         0.27000E+04
         0.27000E+04
         0.27000E+04
         0.27000E+04
         0.27000E+04
         0.27000E+04
         0.27000E+04
         0.27000E+04
         0.27000E+04
         0.27000E+04
         0.27000E+04
         0.27000E+04
         0.27000E+04
         0.27000E+04
         0.27000E+04
         0.27000E+04
         0.27000E+04
         0.27000E+04
         0.27000E+04
         0.27000E+04
         0.27000E+04
         0.27000E+04
         0.27000E+04
         0.27000E+04
         0.27000E+04
         0.27000E+04
         0.27000E+04
         0.27000E+04
         0.27000E+04
         0.27000E+04
         0.27000E+04
         0.27000E+04
         0.27000E+04
         0.27000E+04
         0.27000E+04
         0.27000E+04
         0.27000E+04
         0.27000E+04
         0.27000E+04
         0.27000E+04
         0.27000E+04
         0.27000E+04
         0.27000E+04
         0.27000E+04
         0.27000E+04
         0.27000E+04
         0.27000E+04
         0.27000E+04
         0.27000E+04
         0.27000E+04
         0.27000E+04
         0.27000E+04
         0.27000E+04
         0.27000E+04
         0.27000E+04
         0.27000E+04
         0.27000E+04
         0.27000E+04
         0.27000E+04
         0.27000E+04
         0.27000E+04
         0.27000E+04
         0.27000E+04
         0.27000E+04
         0.27000E+04
         0.27000E+04
         0.27000E+04
         0.27000E+04
         0.27000E+04
         0.27000E+04
         0.27000E+04
         0.27000E+04
         0.27000E+04
         0.27000E+04
         0.27000E+04
         0.27000E+04
         0.27000E+04
         0.27000E+04
         0.27000E+04
         0.27000E+04
         0.27000E+04
         0.27000E+04
         0.27000E+04
         0.27000E+04
         0.27000E+04
         0.27000E+04
         0.27000E+04
         0.27000E+04
         0.27000E+04
         0.27000E+04
         0.27000E+04
         0.27000E+04
         0.27000E+04
         0.27000E+04
         0.27000E+04
         0.27000E+04
         0.27000E+04
         0.27000E+04
         0.27000E+04
         0.27000E+04
         0.27000E+04
         0.27000E+04
         0.27000E+04
         0.27000E+04
         0.27000E+04
         0.27000E+04
         0.27000E+04
         0.27000E+04
         0.27000E+04
         0.27000E+04
         0.27000E+04
         0.27000E+04
         0.27000E+04
         0.27000E+04
         0.27000E+04
         0.27000E+04
         0.27000E+04
         0.27000E+04
         0.27000E+04
         0.27000E+04
         0.27000E+04
         0.27000E+04
         0.27000E+04
         0.27000E+04
         0.27000E+04
         0.27000E+04
         0.27000E+04
         0.27000E+04
         0.27000E+04
         0.27000E+04
         0.27000E+04
         0.27000E+04
         0.27000E+04
         0.27000E+04
         0.27000E+04
         0.27000E+04
         0.27000E+04
         0.27000E+04
         0.27000E+04
         0.27000E+04
         0.27000E+04
         0.27000E+04
         0.27000E+04
         0.27000E+04
         0.27000E+04
         0.27000E+04
         0.27000E+04
         0.27000E+04
         0.27000E+04
         0.27000E+04
         0.27000E+04
         0.27000E+04
         0.27000E+04
         0.27000E+04
         0.27000E+04
         0.27000E+04
         0.27000E+04
         0.27000E+04
         0.27000E+04
         0.27000E+04
         0.27000E+04
         0.27000E+04
         0.27000E+04
         0.27000E+04
         0.27000E+04
         0.27000E+04
         0.27000E+04
         0.27000E+04
         0.27000E+04
         0.27000E+04
         0.27000E+04
         0.27000E+04
         0.27000E+04
         0.27000E+04
         0.27000E+04
         0.27000E+04
         0.27000E+04
         0.27000E+04
         0.27000E+04
         0.27000E+04
         0.27000E+04
         0.27000E+04
         0.27000E+04
         0.27000E+04
         0.27000E+04
         0.27000E+04
         0.27000E+04
         0.27000E+04
         0.27000E+04
         0.27000E+04
         0.27000E+04
         0.27000E+04
         0.27000E+04
         0.27000E+04
         0.27000E+04
         0.27000E+04
         0.27000E+04
         0.27000E+04
         0.27000E+04
         0.27000E+04
         0.27000E+04
         0.27000E+04
         0.27000E+04
         0.27000E+04
         0.27000E+04
         0.27000E+04
         0.27000E+04
         0.27000E+04
         0.27000E+04
         0.27000E+04
         0.27000E+04
         0.27000E+04
         0.27000E+04
         0.27000E+04
         0.27000E+04
         0.27000E+04
         0.27000E+04
         0.27000E+04
         0.27000E+04
         0.27000E+04
         0.27000E+04
         0.27000E+04
         0.27000E+04
         0.27000E+04
         0.27000E+04
         0.27000E+04
         0.27000E+04
         0.27000E+04
         0.27000E+04
         0.27000E+04
         0.27000E+04
         0.27000E+04
         0.27000E+04
         0.27000E+04
         0.27000E+04
         0.27000E+04
         0.27000E+04
         0.27000E+04
         0.27000E+04
         0.27000E+04
         0.27000E+04
         0.27000E+04
         0.27000E+04
         0.27000E+04
         0.27000E+04
         0.27000E+04
         0.27000E+04
         0.27000E+04
         0.27000E+04
         0.27000E+04
         0.27000E+04
         0.27000E+04
         0.27000E+04
         0.27000E+04
         0.27000E+04
         0.27000E+04
         0.27000E+04
         0.27000E+04
         0.27000E+04
         0.27000E+04
         0.27000E+04
         0.27000E+04
         0.27000E+04
         0.27000E+04
         0.27000E+04
         0.27000E+04
         0.27000E+04
         0.27000E+04
         0.27000E+04
         0.27000E+04
         0.27000E+04
         0.27000E+04
         0.27000E+04
         0.27000E+04
         0.27000E+04
         0.27000E+04
         0.27000E+04
         0.27000E+04
         0.27000E+04
         0.27000E+04
         0.27000E+04
         0.27000E+04
         0.27000E+04
         0.27000E+04
         0.27000E+04
         0.27000E+04
         0.27000E+04
         0.27000E+04
         0.27000E+04
         0.27000E+04
         0.27000E+04
         0.27000E+04
         0.27000E+04
         0.27000E+04
         0.27000E+04
         0.27000E+04
         0.27000E+04
         0.27000E+04
         0.27000E+04
         0.27000E+04
         0.27000E+04
         0.27000E+04
         0.27000E+04
         0.27000E+04
         0.27000E+04
         0.27000E+04
         0.27000E+04
         0.27000E+04
         0.27000E+04
         0.27000E+04
         0.27000E+04
         0.27000E+04
         0.27000E+04
         0.27000E+04
         0.27000E+04
         0.27000E+04
         0.27000E+04
         0.27000E+04
         0.27000E+04
         0.27000E+04
         0.27000E+04
         0.27000E+04
         0.27000E+04
         0.27000E+04
         0.27000E+04
         0.27000E+04
         0.27000E+04
         0.27000E+04
         0.27000E+04
         0.27000E+04
         0.27000E+04
         0.27000E+04
         0.27000E+04
         0.27000E+04
         0.27000E+04
         0.27000E+04
         0.27000E+04
         0.27000E+04
         0.27000E+04
         0.27000E+04
         0.27000E+04
         0.27000E+04
         0.27000E+04
         0.27000E+04
         0.27000E+04
         0.27000E+04
         0.27000E+04
         0.27000E+04
         0.27000E+04
         0.27000E+04
         0.27000E+04
         0.27000E+04
         0.27000E+04
         0.27000E+04
         0.27000E+04
         0.27000E+04
         0.27000E+04
         0.27000E+04
         0.27000E+04
         0.27000E+04
         0.27000E+04
         0.27000E+04
         0.27000E+04
         0.27000E+04
         0.27000E+04
         0.27000E+04
         0.27000E+04
         0.27000E+04
         0.27000E+04
         0.27000E+04
         0.27000E+04
         0.27000E+04
         0.27000E+04
         0.27000E+04
         0.27000E+04
         0.27000E+04
         0.27000E+04
         0.27000E+04
         0.27000E+04
         0.27000E+04
         0.27000E+04
         0.27000E+04
         0.27000E+04
         0.27000E+04
         0.27000E+04
         0.27000E+04
         0.27000E+04
         0.27000E+04
         0.27000E+04
         0.27000E+04
         0.27000E+04
         0.27000E+04
         0.27000E+04
         0.27000E+04
         0.27000E+04
         0.27000E+04
         0.27000E+04
         0.27000E+04
         0.27000E+04
         0.27000E+04
         0.27000E+04
         0.27000E+04
         0.27000E+04
         0.27000E+04
         0.27000E+04
         0.27000E+04
         0.27000E+04
         0.27000E+04
         0.27000E+04
         0.27000E+04
         0.27000E+04
         0.27000E+04
         0.27000E+04
         0.27000E+04
         0.27000E+04
         0.27000E+04
         0.27000E+04
         0.27000E+04
         0.27000E+04
         0.27000E+04
         0.27000E+04
         0.27000E+04
         0.27000E+04
         0.27000E+04
         0.27000E+04
         0.27000E+04
         0.27000E+04
         0.27000E+04
         0.27000E+04
         0.27000E+04
         0.27000E+04
         0.27000E+04
         0.27000E+04
         0.27000E+04
         0.27000E+04
         0.27000E+04
         0.27000E+04
         0.27000E+04
         0.27000E+04
         0.27000E+04
         0.27000E+04
         0.27000E+04
         0.27000E+04
         0.27000E+04
         0.27000E+04
         0.27000E+04
         0.27000E+04
         0.27000E+04
         0.27000E+04
         0.27000E+04
         0.27000E+04
         0.27000E+04
         0.27000E+04
         0.27000E+04
         0.27000E+04
         0.27000E+04
         0.27000E+04
         0.27000E+04
         0.27000E+04
         0.27000E+04
         0.27000E+04
         0.27000E+04
         0.27000E+04
         0.27000E+04
         0.27000E+04
         0.27000E+04
         0.27000E+04
         0.27000E+04
         0.27000E+04
         0.27000E+04
         0.27000E+04
         0.27000E+04
         0.27000E+04
         0.27000E+04
         0.27000E+04
         0.27000E+04
         0.27000E+04
         0.27000E+04
         0.27000E+04
         0.27000E+04
         0.27000E+04
         0.27000E+04
         0.27000E+04
         0.27000E+04
         0.27000E+04
         0.27000E+04
         0.27000E+04
         0.27000E+04
         0.27000E+04
         0.27000E+04
         0.27000E+04
         0.27000E+04
         0.27000E+04
         0.27000E+04
         0.27000E+04
         0.27000E+04
         0.27000E+04
         0.27000E+04
         0.27000E+04
         0.27000E+04
         0.27000E+04
         0.27000E+04
         0.27000E+04
         0.27000E+04
         0.27000E+04
         0.27000E+04
         0.27000E+04
         0.27000E+04
         0.27000E+04
         0.27000E+04
         0.27000E+04
         0.27000E+04
         0.27000E+04
         0.27000E+04
         0.27000E+04
         0.27000E+04
         0.27000E+04
         0.27000E+04
         0.27000E+04
         0.27000E+04
         0.27000E+04
         0.27000E+04
         0.27000E+04
         0.27000E+04
         0.27000E+04
         0.27000E+04
         0.27000E+04
         0.27000E+04
         0.27000E+04
         0.27000E+04
         0.27000E+04
         0.27000E+04
         0.27000E+04
         0.27000E+04
         0.27000E+04
         0.27000E+04
         0.27000E+04
         0.27000E+04
         0.27000E+04
         0.27000E+04
         0.27000E+04
         0.27000E+04
         0.27000E+04
         0.27000E+04
         0.27000E+04
         0.27000E+04
         0.27000E+04
         0.27000E+04
         0.27000E+04
         0.27000E+04
         0.27000E+04
         0.27000E+04
         0.27000E+04
         0.27000E+04
         0.27000E+04
         0.27000E+04
         0.27000E+04
         0.27000E+04
         0.27000E+04
         0.27000E+04
         0.27000E+04
         0.27000E+04
         0.27000E+04
         0.27000E+04
         0.27000E+04
         0.27000E+04
         0.27000E+04
         0.27000E+04
         0.27000E+04
         0.27000E+04
         0.27000E+04
         0.27000E+04
         0.27000E+04
         0.27000E+04
         0.27000E+04
         0.27000E+04
         0.27000E+04
         0.27000E+04
         0.27000E+04
         0.27000E+04
         0.27000E+04
         0.27000E+04
         0.27000E+04
         0.27000E+04
         0.27000E+04
         0.27000E+04
         0.27000E+04
         0.27000E+04
         0.27000E+04
         0.27000E+04
         0.27000E+04
         0.27000E+04
         0.27000E+04
         0.27000E+04
         0.27000E+04
         0.27000E+04
         0.27000E+04
         0.27000E+04
         0.27000E+04
         0.27000E+04
         0.27000E+04
         0.27000E+04
         0.27000E+04
         0.27000E+04
         0.27000E+04
         0.27000E+04
         0.27000E+04
         0.27000E+04
         0.27000E+04
         0.27000E+04
         0.27000E+04
         0.27000E+04
         0.27000E+04
         0.27000E+04
         0.27000E+04
         0.27000E+04
         0.27000E+04
         0.27000E+04
         0.27000E+04
         0.27000E+04
         0.27000E+04
         0.27000E+04
         0.27000E+04
         0.27000E+04
         0.27000E+04
         0.27000E+04
         0.27000E+04
         0.27000E+04
         0.27000E+04
         0.27000E+04
         0.27000E+04
         0.27000E+04
         0.27000E+04
         0.27000E+04
         0.27000E+04
         0.27000E+04
         0.27000E+04
         0.27000E+04
         0.27000E+04
         0.27000E+04
         0.27000E+04
         0.27000E+04
         0.27000E+04
         0.27000E+04
         0.27000E+04
         0.27000E+04
         0.27000E+04
         0.27000E+04
         0.27000E+04
         0.27000E+04
         0.27000E+04
         0.27000E+04
         0.27000E+04
         0.27000E+04
         0.27000E+04
         0.27000E+04
         0.27000E+04
         0.27000E+04
         0.27000E+04
         0.27000E+04
         0.27000E+04
         0.27000E+04
         0.27000E+04
         0.27000E+04
         0.27000E+04
         0.27000E+04
         0.27000E+04
         0.27000E+04
         0.27000E+04
         0.27000E+04
         0.27000E+04
         0.27000E+04
         0.27000E+04
         0.27000E+04
         0.27000E+04
         0.27000E+04
         0.27000E+04
         0.27000E+04
         0.27000E+04
         0.27000E+04
         0.27000E+04
         0.27000E+04
         0.27000E+04
         0.27000E+04
         0.27000E+04
         0.27000E+04
         0.27000E+04
         0.27000E+04
         0.27000E+04
         0.27000E+04
         0.27000E+04
         0.27000E+04
         0.27000E+04
         0.27000E+04
         0.27000E+04
         0.27000E+04
         0.27000E+04
         0.27000E+04
         0.27000E+04
         0.27000E+04
         0.27000E+04
         0.27000E+04
         0.27000E+04
         0.27000E+04
         0.27000E+04
         0.27000E+04
         0.27000E+04
         0.27000E+04
         0.27000E+04
         0.27000E+04
         0.27000E+04
         0.27000E+04
         0.27000E+04
         0.27000E+04
         0.27000E+04
         0.27000E+04
         0.27000E+04
         0.27000E+04
         0.27000E+04
         0.27000E+04
         0.27000E+04
         0.27000E+04
         0.27000E+04
         0.27000E+04
         0.27000E+04
         0.27000E+04
         0.27000E+04
         0.27000E+04
         0.27000E+04
         0.27000E+04
         0.27000E+04
         0.27000E+04
         0.27000E+04
         0.27000E+04
         0.27000E+04
         0.27000E+04
         0.27000E+04
         0.27000E+04
         0.27000E+04
         0.27000E+04
         0.27000E+04
         0.27000E+04
         0.27000E+04
         0.27000E+04
         0.27000E+04
         0.27000E+04
         0.27000E+04
         0.27000E+04
         0.27000E+04
         0.27000E+04
         0.27000E+04
         0.27000E+04
         0.27000E+04
         0.27000E+04
         0.27000E+04
         0.27000E+04
         0.27000E+04
         0.27000E+04
         0.27000E+04
         0.27000E+04
         0.27000E+04
         0.27000E+04
         0.27000E+04
         0.27000E+04
         0.27000E+04
         0.27000E+04
         0.27000E+04
         0.27000E+04
         0.27000E+04
         0.27000E+04
         0.27000E+04
         0.27000E+04
         0.27000E+04
         0.27000E+04
         0.27000E+04
         0.27000E+04
         0.27000E+04
         0.27000E+04
         0.27000E+04
         0.27000E+04
         0.27000E+04
         0.27000E+04
         0.27000E+04
         0.27000E+04
         0.27000E+04
         0.27000E+04
         0.27000E+04
         0.27000E+04
         0.27000E+04
         0.27000E+04
         0.27000E+04
         0.27000E+04
         0.27000E+04
         0.27000E+04
         0.27000E+04
         0.27000E+04
         0.27000E+04
         0.27000E+04
         0.27000E+04
         0.27000E+04
         0.27000E+04
         0.27000E+04
         0.27000E+04
         0.27000E+04
         0.27000E+04
         0.27000E+04
         0.27000E+04
         0.27000E+04
         0.27000E+04
         0.27000E+04
         0.27000E+04
         0.27000E+04
         0.27000E+04
         0.27000E+04
         0.27000E+04
         0.27000E+04
         0.27000E+04
         0.27000E+04
         0.27000E+04
         0.27000E+04
         0.27000E+04
         0.27000E+04
         0.27000E+04
         0.27000E+04
         0.27000E+04
         0.27000E+04
         0.27000E+04
         0.27000E+04
         0.27000E+04
         0.27000E+04
         0.27000E+04
         0.27000E+04
         0.27000E+04
         0.27000E+04
         0.27000E+04
         0.27000E+04
         0.27000E+04
         0.27000E+04
         0.27000E+04
         0.27000E+04
         0.27000E+04
         0.27000E+04
         0.27000E+04
         0.27000E+04
         0.27000E+04
         0.27000E+04
         0.27000E+04
         0.27000E+04
         0.27000E+04
         0.27000E+04
         0.27000E+04
         0.27000E+04
         0.27000E+04
         0.27000E+04
         0.27000E+04
         0.27000E+04
         0.27000E+04
         0.27000E+04
         0.27000E+04
         0.27000E+04
         0.27000E+04
         0.27000E+04
         0.27000E+04
         0.27000E+04
         0.27000E+04
         0.27000E+04
         0.27000E+04
         0.27000E+04
         0.27000E+04
         0.27000E+04
         0.27000E+04
         0.27000E+04
         0.27000E+04
         0.27000E+04
         0.27000E+04
         0.27000E+04
         0.27000E+04
         0.27000E+04
         0.27000E+04
         0.27000E+04
         0.27000E+04
         0.27000E+04
         0.27000E+04
         0.27000E+04
         0.27000E+04
         0.27000E+04
         0.27000E+04
         0.27000E+04
         0.27000E+04
         0.27000E+04
         0.27000E+04
         0.27000E+04
         0.27000E+04
         0.27000E+04
         0.27000E+04
         0.27000E+04
         0.27000E+04
         0.27000E+04
         0.27000E+04
         0.27000E+04
         0.27000E+04
         0.27000E+04
         0.27000E+04
         0.27000E+04
         0.27000E+04
         0.27000E+04
         0.27000E+04
         0.27000E+04
         0.27000E+04
         0.27000E+04
         0.27000E+04
         0.27000E+04
         0.27000E+04
         0.27000E+04
         0.27000E+04
         0.27000E+04
         0.27000E+04
         0.27000E+04
         0.27000E+04
         0.27000E+04
         0.27000E+04
         0.27000E+04
         0.27000E+04
         0.27000E+04
         0.27000E+04
         0.27000E+04
         0.27000E+04
         0.27000E+04
         0.27000E+04
         0.27000E+04
         0.27000E+04
         0.27000E+04
         0.27000E+04
         0.27000E+04
         0.27000E+04
         0.27000E+04
         0.27000E+04
         0.27000E+04
         0.27000E+04
         0.27000E+04
         0.27000E+04
         0.27000E+04
         0.27000E+04
         0.27000E+04
         0.27000E+04
         0.27000E+04
         0.27000E+04
         0.27000E+04
         0.27000E+04
         0.27000E+04
         0.27000E+04
         0.27000E+04
         0.27000E+04
         0.27000E+04
         0.27000E+04
         0.27000E+04
         0.27000E+04
         0.27000E+04
         0.27000E+04
         0.27000E+04
         0.27000E+04
         0.27000E+04
         0.27000E+04
         0.27000E+04
         0.27000E+04
         0.27000E+04
         0.27000E+04
         0.27000E+04
         0.27000E+04
         0.27000E+04
         0.27000E+04
         0.27000E+04
         0.27000E+04
         0.27000E+04
         0.27000E+04
         0.27000E+04
         0.27000E+04
         0.27000E+04
         0.27000E+04
         0.27000E+04
         0.27000E+04
         0.27000E+04
         0.27000E+04
         0.27000E+04
         0.27000E+04
         0.27000E+04
         0.27000E+04
         0.27000E+04
         0.27000E+04
         0.27000E+04
         0.27000E+04
         0.27000E+04
         0.27000E+04
         0.27000E+04
         0.27000E+04
         0.27000E+04
         0.27000E+04
         0.27000E+04
         0.27000E+04
         0.27000E+04
         0.27000E+04
         0.27000E+04
         0.27000E+04
         0.27000E+04
         0.27000E+04
         0.27000E+04
         0.27000E+04
         0.27000E+04
         0.27000E+04
         0.27000E+04
         0.27000E+04
         0.27000E+04
         0.27000E+04
         0.27000E+04
         0.27000E+04
         0.27000E+04
         0.27000E+04
         0.27000E+04
         0.27000E+04
         0.27000E+04
         0.27000E+04
         0.27000E+04
         0.27000E+04
         0.27000E+04
         0.27000E+04
         0.27000E+04
         0.27000E+04
         0.27000E+04
         0.27000E+04
         0.27000E+04
         0.27000E+04
         0.27000E+04
         0.27000E+04
         0.27000E+04
         0.27000E+04
         0.27000E+04
         0.27000E+04
         0.27000E+04
         0.27000E+04
         0.27000E+04
         0.27000E+04
         0.27000E+04
         0.27000E+04
         0.27000E+04
         0.27000E+04
         0.27000E+04
         0.27000E+04
         0.27000E+04
         0.27000E+04
         0.27000E+04
         0.27000E+04
