# vtk DataFile Version 2.0
               (MEGA VTK FILE)
ASCII
DATASET UNSTRUCTURED_GRID
POINTS       1950    double
  0.10378E-02  0.67292E-03 -0.20838E-01
  0.17452E-02  0.12308E-02 -0.20822E-01
  0.23177E-02  0.59151E-03 -0.20819E-01
  0.16698E-02 -0.33775E-03 -0.20849E-01
  0.10379E-02  0.67237E-03 -0.11750E-01
  0.17453E-02  0.12301E-02 -0.11750E-01
  0.23178E-02  0.59098E-03 -0.11750E-01
  0.16700E-02 -0.33851E-03 -0.11750E-01
  0.30377E-02  0.14882E-03 -0.20789E-01
  0.27791E-02 -0.67643E-03 -0.20825E-01
  0.30377E-02  0.14846E-03 -0.11750E-01
  0.27788E-02 -0.67692E-03 -0.11750E-01
  0.12850E-02  0.18412E-02 -0.20804E-01
  0.65139E-03  0.14576E-02 -0.20827E-01
  0.12851E-02  0.18410E-02 -0.11750E-01
  0.65164E-03  0.14566E-02 -0.11750E-01
  0.12757E-03  0.29933E-03 -0.20839E-01
 -0.12822E-03  0.11672E-02 -0.20844E-01
  0.12783E-03  0.29819E-03 -0.11750E-01
 -0.12804E-03  0.11655E-02 -0.11750E-01
  0.94500E-03  0.22748E-02 -0.20792E-01
  0.11327E-02  0.28286E-02 -0.20779E-01
  0.17490E-02  0.24238E-02 -0.20785E-01
  0.94533E-03  0.22746E-02 -0.11750E-01
  0.11330E-02  0.28291E-02 -0.11750E-01
  0.17494E-02  0.24236E-02 -0.11750E-01
  0.40588E-03  0.21685E-02 -0.20820E-01
  0.39779E-03  0.29366E-02 -0.20811E-01
  0.40594E-03  0.21684E-02 -0.11750E-01
  0.39781E-03  0.29369E-02 -0.11750E-01
 -0.76303E-03 -0.10033E-02 -0.20852E-01
 -0.86604E-03  0.78969E-04 -0.20860E-01
  0.46119E-03 -0.70318E-03 -0.20847E-01
 -0.76268E-03 -0.10032E-02 -0.11750E-01
 -0.86593E-03  0.78160E-04 -0.11750E-01
  0.46164E-03 -0.70391E-03 -0.11750E-01
 -0.18300E-02 -0.71196E-03 -0.20820E-01
 -0.18440E-02  0.82749E-04 -0.20853E-01
 -0.18297E-02 -0.71210E-03 -0.11750E-01
 -0.18441E-02  0.82626E-04 -0.11750E-01
 -0.27238E-02 -0.77865E-03 -0.20811E-01
 -0.28028E-02  0.40713E-04 -0.20838E-01
 -0.27238E-02 -0.77882E-03 -0.11750E-01
 -0.28031E-02  0.40439E-04 -0.11750E-01
 -0.25365E-02 -0.15195E-02 -0.20785E-01
 -0.19287E-02 -0.13230E-02 -0.20798E-01
 -0.25363E-02 -0.15195E-02 -0.11750E-01
 -0.19283E-02 -0.13231E-02 -0.11750E-01
 -0.99363E-03  0.98847E-03 -0.20862E-01
 -0.99377E-03  0.98712E-03 -0.11750E-01
 -0.14380E-02 -0.17325E-02 -0.20816E-01
 -0.14377E-02 -0.17325E-02 -0.11750E-01
 -0.31574E-03  0.20220E-02 -0.20850E-01
 -0.31594E-03  0.20217E-02 -0.11750E-01
 -0.11068E-02  0.18615E-02 -0.20860E-01
 -0.11071E-02  0.18616E-02 -0.11750E-01
 -0.18845E-02  0.17175E-02 -0.20833E-01
 -0.18713E-02  0.90940E-03 -0.20854E-01
 -0.18846E-02  0.17175E-02 -0.11750E-01
 -0.18714E-02  0.90916E-03 -0.11750E-01
 -0.15871E-03 -0.19800E-02 -0.20845E-01
 -0.94089E-03 -0.23489E-02 -0.20816E-01
 -0.15844E-03 -0.19800E-02 -0.11750E-01
 -0.94029E-03 -0.23489E-02 -0.11750E-01
  0.78856E-03 -0.17074E-02 -0.20843E-01
  0.78922E-03 -0.17074E-02 -0.11750E-01
  0.17211E-02 -0.14894E-02 -0.20831E-01
  0.17211E-02 -0.14892E-02 -0.11750E-01
  0.32050E-02  0.76036E-03 -0.20745E-01
  0.28046E-02  0.12477E-02 -0.20779E-01
  0.32047E-02  0.75936E-03 -0.11750E-01
  0.28047E-02  0.12473E-02 -0.11750E-01
  0.23059E-02  0.18665E-02 -0.20792E-01
  0.23060E-02  0.18664E-02 -0.11750E-01
 -0.40614E-03  0.29038E-02 -0.20830E-01
 -0.40627E-03  0.29049E-02 -0.11750E-01
 -0.12092E-02  0.27207E-02 -0.20826E-01
 -0.12092E-02  0.27212E-02 -0.11750E-01
 -0.19448E-02  0.24642E-02 -0.20794E-01
 -0.19448E-02  0.24645E-02 -0.11750E-01
 -0.25029E-02  0.22359E-02 -0.20756E-01
 -0.26371E-02  0.16503E-02 -0.20803E-01
 -0.25029E-02  0.22359E-02 -0.11750E-01
 -0.26372E-02  0.16503E-02 -0.11750E-01
 -0.27671E-02  0.87493E-03 -0.20841E-01
 -0.27674E-02  0.87466E-03 -0.11750E-01
 -0.21123E-02 -0.21373E-02 -0.20788E-01
 -0.21122E-02 -0.21373E-02 -0.11750E-01
 -0.16087E-02 -0.26931E-02 -0.20775E-01
 -0.16087E-02 -0.26931E-02 -0.11750E-01
 -0.11939E-02 -0.31291E-02 -0.20741E-01
 -0.58641E-03 -0.30382E-02 -0.20787E-01
 -0.11937E-02 -0.31291E-02 -0.11750E-01
 -0.58606E-03 -0.30382E-02 -0.11750E-01
  0.20912E-03 -0.28748E-02 -0.20819E-01
  0.20952E-03 -0.28748E-02 -0.11750E-01
  0.10586E-02 -0.26423E-02 -0.20814E-01
  0.10589E-02 -0.26420E-02 -0.11750E-01
  0.18413E-02 -0.23707E-02 -0.20789E-01
  0.18413E-02 -0.23705E-02 -0.11750E-01
  0.24544E-02 -0.21445E-02 -0.20753E-01
  0.26022E-02 -0.15105E-02 -0.20795E-01
  0.24543E-02 -0.21439E-02 -0.11750E-01
  0.26021E-02 -0.15106E-02 -0.11750E-01
  0.37964E-02  0.93572E-03 -0.20649E-01
  0.39100E-02  0.00000E+00 -0.20665E-01
  0.37964E-02  0.93572E-03 -0.11750E-01
  0.39100E-02  0.00000E+00 -0.11750E-01
  0.34621E-02  0.18171E-02 -0.20663E-01
  0.34621E-02  0.18171E-02 -0.11750E-01
  0.29267E-02  0.25928E-02 -0.20651E-01
  0.29267E-02  0.25928E-02 -0.11750E-01
  0.22211E-02  0.32179E-02 -0.20652E-01
  0.22211E-02  0.32179E-02 -0.11750E-01
  0.13865E-02  0.36559E-02 -0.20651E-01
  0.13865E-02  0.36559E-02 -0.11750E-01
  0.47130E-03  0.38815E-02 -0.20660E-01
  0.47130E-03  0.38815E-02 -0.11750E-01
 -0.47130E-03  0.38815E-02 -0.20664E-01
 -0.47130E-03  0.38815E-02 -0.11750E-01
 -0.13865E-02  0.36559E-02 -0.20662E-01
 -0.13865E-02  0.36559E-02 -0.11750E-01
 -0.22211E-02  0.32179E-02 -0.20660E-01
 -0.22211E-02  0.32179E-02 -0.11750E-01
 -0.29267E-02  0.25928E-02 -0.20645E-01
 -0.29267E-02  0.25928E-02 -0.11750E-01
 -0.34621E-02  0.18171E-02 -0.20664E-01
 -0.34621E-02  0.18171E-02 -0.11750E-01
 -0.37964E-02  0.93572E-03 -0.20671E-01
 -0.37964E-02  0.93572E-03 -0.11750E-01
 -0.39100E-02  0.22152E-17 -0.20669E-01
 -0.39100E-02 -0.47884E-18 -0.11750E-01
 -0.37964E-02 -0.93572E-03 -0.20661E-01
 -0.37964E-02 -0.93572E-03 -0.11750E-01
 -0.34621E-02 -0.18171E-02 -0.20654E-01
 -0.34621E-02 -0.18171E-02 -0.11750E-01
 -0.29267E-02 -0.25928E-02 -0.20650E-01
 -0.29267E-02 -0.25928E-02 -0.11750E-01
 -0.22211E-02 -0.32179E-02 -0.20662E-01
 -0.22211E-02 -0.32179E-02 -0.11750E-01
 -0.13865E-02 -0.36559E-02 -0.20651E-01
 -0.13865E-02 -0.36559E-02 -0.11750E-01
 -0.47130E-03 -0.38815E-02 -0.20668E-01
 -0.47130E-03 -0.38815E-02 -0.11750E-01
  0.47130E-03 -0.38815E-02 -0.20662E-01
  0.47130E-03 -0.38815E-02 -0.11750E-01
  0.13865E-02 -0.36559E-02 -0.20656E-01
  0.13865E-02 -0.36559E-02 -0.11750E-01
  0.22211E-02 -0.32179E-02 -0.20666E-01
  0.22211E-02 -0.32179E-02 -0.11750E-01
  0.29267E-02 -0.25928E-02 -0.20652E-01
  0.29267E-02 -0.25928E-02 -0.11750E-01
  0.34621E-02 -0.18171E-02 -0.20666E-01
  0.34621E-02 -0.18171E-02 -0.11750E-01
  0.37964E-02 -0.93572E-03 -0.20666E-01
  0.37964E-02 -0.93572E-03 -0.11750E-01
  0.10376E-02  0.67348E-03 -0.23981E-01
  0.17450E-02  0.12314E-02 -0.23978E-01
  0.23175E-02  0.59203E-03 -0.23978E-01
  0.16696E-02 -0.33700E-03 -0.23982E-01
  0.30377E-02  0.14918E-03 -0.23973E-01
  0.27795E-02 -0.67594E-03 -0.23979E-01
  0.12849E-02  0.18414E-02 -0.23975E-01
  0.65115E-03  0.14586E-02 -0.23979E-01
  0.12731E-03  0.30048E-03 -0.23982E-01
 -0.12841E-03  0.11690E-02 -0.23982E-01
  0.94467E-03  0.22749E-02 -0.23974E-01
  0.11323E-02  0.28282E-02 -0.23972E-01
  0.17487E-02  0.24239E-02 -0.23972E-01
  0.40583E-03  0.21685E-02 -0.23978E-01
  0.39777E-03  0.29364E-02 -0.23977E-01
 -0.76338E-03 -0.10035E-02 -0.23982E-01
 -0.86615E-03  0.79778E-04 -0.23984E-01
  0.46074E-03 -0.70245E-03 -0.23982E-01
 -0.18303E-02 -0.71182E-03 -0.23978E-01
 -0.18439E-02  0.82873E-04 -0.23983E-01
 -0.27238E-02 -0.77848E-03 -0.23977E-01
 -0.28025E-02  0.40986E-04 -0.23981E-01
 -0.25366E-02 -0.15194E-02 -0.23973E-01
 -0.19292E-02 -0.13228E-02 -0.23975E-01
 -0.99349E-03  0.98983E-03 -0.23985E-01
 -0.14384E-02 -0.17324E-02 -0.23977E-01
 -0.31554E-03  0.20223E-02 -0.23983E-01
 -0.11064E-02  0.18614E-02 -0.23984E-01
 -0.18845E-02  0.17175E-02 -0.23980E-01
 -0.18712E-02  0.90964E-03 -0.23983E-01
 -0.15899E-03 -0.19800E-02 -0.23982E-01
 -0.94149E-03 -0.23489E-02 -0.23977E-01
  0.78790E-03 -0.17074E-02 -0.23982E-01
  0.17210E-02 -0.14896E-02 -0.23979E-01
  0.32053E-02  0.76137E-03 -0.23967E-01
  0.28046E-02  0.12481E-02 -0.23972E-01
  0.23058E-02  0.18665E-02 -0.23974E-01
 -0.40600E-03  0.29027E-02 -0.23980E-01
 -0.12092E-02  0.27202E-02 -0.23979E-01
 -0.19447E-02  0.24640E-02 -0.23974E-01
 -0.25028E-02  0.22359E-02 -0.23969E-01
 -0.26370E-02  0.16503E-02 -0.23975E-01
 -0.27668E-02  0.87519E-03 -0.23981E-01
 -0.21125E-02 -0.21373E-02 -0.23973E-01
 -0.16088E-02 -0.26932E-02 -0.23971E-01
 -0.11940E-02 -0.31291E-02 -0.23967E-01
 -0.58676E-03 -0.30382E-02 -0.23973E-01
  0.20871E-03 -0.28748E-02 -0.23978E-01
  0.10583E-02 -0.26426E-02 -0.23977E-01
  0.18413E-02 -0.23709E-02 -0.23973E-01
  0.24545E-02 -0.21450E-02 -0.23968E-01
  0.26022E-02 -0.15104E-02 -0.23974E-01
  0.37964E-02  0.93572E-03 -0.23957E-01
  0.39100E-02  0.00000E+00 -0.23960E-01
  0.34621E-02  0.18171E-02 -0.23959E-01
  0.29267E-02  0.25928E-02 -0.23958E-01
  0.22211E-02  0.32179E-02 -0.23958E-01
  0.13865E-02  0.36559E-02 -0.23958E-01
  0.47130E-03  0.38815E-02 -0.23960E-01
 -0.47130E-03  0.38815E-02 -0.23960E-01
 -0.13865E-02  0.36559E-02 -0.23959E-01
 -0.22211E-02  0.32179E-02 -0.23958E-01
 -0.29267E-02  0.25928E-02 -0.23956E-01
 -0.34621E-02  0.18171E-02 -0.23959E-01
 -0.37964E-02  0.93572E-03 -0.23961E-01
 -0.39100E-02 -0.47884E-18 -0.23961E-01
 -0.37964E-02 -0.93572E-03 -0.23959E-01
 -0.34621E-02 -0.18171E-02 -0.23958E-01
 -0.29267E-02 -0.25928E-02 -0.23958E-01
 -0.22211E-02 -0.32179E-02 -0.23959E-01
 -0.13865E-02 -0.36559E-02 -0.23957E-01
 -0.47130E-03 -0.38815E-02 -0.23960E-01
  0.47130E-03 -0.38815E-02 -0.23960E-01
  0.13865E-02 -0.36559E-02 -0.23959E-01
  0.22211E-02 -0.32179E-02 -0.23960E-01
  0.29267E-02 -0.25928E-02 -0.23957E-01
  0.34621E-02 -0.18171E-02 -0.23960E-01
  0.37964E-02 -0.93572E-03 -0.23961E-01
  0.10375E-02  0.67403E-03 -0.23340E-01
  0.17448E-02  0.12321E-02 -0.23340E-01
  0.23174E-02  0.59255E-03 -0.23340E-01
  0.16694E-02 -0.33624E-03 -0.23340E-01
  0.30377E-02  0.14955E-03 -0.23340E-01
  0.27798E-02 -0.67544E-03 -0.23340E-01
  0.12848E-02  0.18415E-02 -0.23340E-01
  0.65090E-03  0.14596E-02 -0.23340E-01
  0.12705E-03  0.30163E-03 -0.23340E-01
 -0.12859E-03  0.11707E-02 -0.23340E-01
  0.94434E-03  0.22750E-02 -0.23340E-01
  0.11320E-02  0.28277E-02 -0.23340E-01
  0.17483E-02  0.24241E-02 -0.23340E-01
  0.40577E-03  0.21685E-02 -0.23340E-01
  0.39776E-03  0.29361E-02 -0.23340E-01
 -0.76374E-03 -0.10036E-02 -0.23340E-01
 -0.86626E-03  0.80588E-04 -0.23340E-01
  0.46029E-03 -0.70173E-03 -0.23340E-01
 -0.18306E-02 -0.71168E-03 -0.23340E-01
 -0.18438E-02  0.82996E-04 -0.23340E-01
 -0.27238E-02 -0.77831E-03 -0.23340E-01
 -0.28022E-02  0.41259E-04 -0.23340E-01
 -0.25368E-02 -0.15194E-02 -0.23340E-01
 -0.19296E-02 -0.13227E-02 -0.23340E-01
 -0.99334E-03  0.99119E-03 -0.23340E-01
 -0.14387E-02 -0.17324E-02 -0.23340E-01
 -0.31534E-03  0.20226E-02 -0.23340E-01
 -0.11061E-02  0.18613E-02 -0.23340E-01
 -0.18844E-02  0.17175E-02 -0.23340E-01
 -0.18710E-02  0.90988E-03 -0.23340E-01
 -0.15926E-03 -0.19801E-02 -0.23340E-01
 -0.94209E-03 -0.23490E-02 -0.23340E-01
  0.78724E-03 -0.17074E-02 -0.23340E-01
  0.17210E-02 -0.14899E-02 -0.23340E-01
  0.32056E-02  0.76237E-03 -0.23340E-01
  0.28046E-02  0.12485E-02 -0.23340E-01
  0.23057E-02  0.18666E-02 -0.23340E-01
 -0.40586E-03  0.29017E-02 -0.23340E-01
 -0.12092E-02  0.27198E-02 -0.23340E-01
 -0.19447E-02  0.24638E-02 -0.23340E-01
 -0.25028E-02  0.22359E-02 -0.23340E-01
 -0.26369E-02  0.16503E-02 -0.23340E-01
 -0.27665E-02  0.87545E-03 -0.23340E-01
 -0.21126E-02 -0.21374E-02 -0.23340E-01
 -0.16088E-02 -0.26932E-02 -0.23340E-01
 -0.11941E-02 -0.31291E-02 -0.23340E-01
 -0.58711E-03 -0.30382E-02 -0.23340E-01
  0.20830E-03 -0.28748E-02 -0.23340E-01
  0.10580E-02 -0.26428E-02 -0.23340E-01
  0.18414E-02 -0.23711E-02 -0.23340E-01
  0.24546E-02 -0.21456E-02 -0.23340E-01
  0.26023E-02 -0.15103E-02 -0.23340E-01
  0.37964E-02  0.93572E-03 -0.23340E-01
  0.39100E-02  0.00000E+00 -0.23340E-01
  0.34621E-02  0.18171E-02 -0.23340E-01
  0.29267E-02  0.25928E-02 -0.23340E-01
  0.22211E-02  0.32179E-02 -0.23340E-01
  0.13865E-02  0.36559E-02 -0.23340E-01
  0.47130E-03  0.38815E-02 -0.23340E-01
 -0.47130E-03  0.38815E-02 -0.23340E-01
 -0.13865E-02  0.36559E-02 -0.23340E-01
 -0.22211E-02  0.32179E-02 -0.23340E-01
 -0.29267E-02  0.25928E-02 -0.23340E-01
 -0.34621E-02  0.18171E-02 -0.23340E-01
 -0.37964E-02  0.93572E-03 -0.23340E-01
 -0.39100E-02  0.39516E-17 -0.23340E-01
 -0.37964E-02 -0.93572E-03 -0.23340E-01
 -0.34621E-02 -0.18171E-02 -0.23340E-01
 -0.29267E-02 -0.25928E-02 -0.23340E-01
 -0.22211E-02 -0.32179E-02 -0.23340E-01
 -0.13865E-02 -0.36559E-02 -0.23340E-01
 -0.47130E-03 -0.38815E-02 -0.23340E-01
  0.47130E-03 -0.38815E-02 -0.23340E-01
  0.13865E-02 -0.36559E-02 -0.23340E-01
  0.22211E-02 -0.32179E-02 -0.23340E-01
  0.29267E-02 -0.25928E-02 -0.23340E-01
  0.34621E-02 -0.18171E-02 -0.23340E-01
  0.37964E-02 -0.93572E-03 -0.23340E-01
  0.10374E-02  0.67459E-03 -0.22360E-01
  0.17446E-02  0.12328E-02 -0.22360E-01
  0.23173E-02  0.59308E-03 -0.22360E-01
  0.16692E-02 -0.33549E-03 -0.22360E-01
  0.30376E-02  0.14991E-03 -0.22360E-01
  0.27801E-02 -0.67495E-03 -0.22360E-01
  0.12847E-02  0.18417E-02 -0.22360E-01
  0.65065E-03  0.14606E-02 -0.22360E-01
  0.12678E-03  0.30278E-03 -0.22360E-01
 -0.12878E-03  0.11725E-02 -0.22360E-01
  0.94401E-03  0.22752E-02 -0.22360E-01
  0.11316E-02  0.28273E-02 -0.22360E-01
  0.17479E-02  0.24242E-02 -0.22360E-01
  0.40572E-03  0.21686E-02 -0.22360E-01
  0.39774E-03  0.29359E-02 -0.22360E-01
 -0.76409E-03 -0.10038E-02 -0.22360E-01
 -0.86637E-03  0.81397E-04 -0.22360E-01
  0.45985E-03 -0.70100E-03 -0.22360E-01
 -0.18309E-02 -0.71154E-03 -0.22360E-01
 -0.18437E-02  0.83120E-04 -0.22360E-01
 -0.27237E-02 -0.77814E-03 -0.22360E-01
 -0.28020E-02  0.41533E-04 -0.22360E-01
 -0.25369E-02 -0.15193E-02 -0.22360E-01
 -0.19300E-02 -0.13227E-02 -0.22360E-01
 -0.99320E-03  0.99254E-03 -0.22360E-01
 -0.14391E-02 -0.17324E-02 -0.22360E-01
 -0.31514E-03  0.20228E-02 -0.22360E-01
 -0.11057E-02  0.18611E-02 -0.22360E-01
 -0.18844E-02  0.17175E-02 -0.22360E-01
 -0.18709E-02  0.91012E-03 -0.22360E-01
 -0.15954E-03 -0.19801E-02 -0.22360E-01
 -0.94269E-03 -0.23490E-02 -0.22360E-01
  0.78658E-03 -0.17074E-02 -0.22360E-01
  0.17209E-02 -0.14901E-02 -0.22360E-01
  0.32060E-02  0.76338E-03 -0.22360E-01
  0.28046E-02  0.12490E-02 -0.22360E-01
  0.23056E-02  0.18666E-02 -0.22360E-01
 -0.40572E-03  0.29006E-02 -0.22360E-01
 -0.12092E-02  0.27193E-02 -0.22360E-01
 -0.19446E-02  0.24636E-02 -0.22360E-01
 -0.25028E-02  0.22359E-02 -0.22360E-01
 -0.26368E-02  0.16503E-02 -0.22360E-01
 -0.27662E-02  0.87571E-03 -0.22360E-01
 -0.21128E-02 -0.21374E-02 -0.22360E-01
 -0.16088E-02 -0.26932E-02 -0.22360E-01
 -0.11942E-02 -0.31291E-02 -0.22360E-01
 -0.58746E-03 -0.30382E-02 -0.22360E-01
  0.20790E-03 -0.28748E-02 -0.22360E-01
  0.10577E-02 -0.26431E-02 -0.22360E-01
  0.18414E-02 -0.23713E-02 -0.22360E-01
  0.24548E-02 -0.21461E-02 -0.22360E-01
  0.26024E-02 -0.15102E-02 -0.22360E-01
  0.37964E-02  0.93572E-03 -0.22360E-01
  0.39100E-02  0.00000E+00 -0.22360E-01
  0.34621E-02  0.18171E-02 -0.22360E-01
  0.29267E-02  0.25928E-02 -0.22360E-01
  0.22211E-02  0.32179E-02 -0.22360E-01
  0.13865E-02  0.36559E-02 -0.22360E-01
  0.47130E-03  0.38815E-02 -0.22360E-01
 -0.47130E-03  0.38815E-02 -0.22360E-01
 -0.13865E-02  0.36559E-02 -0.22360E-01
 -0.22211E-02  0.32179E-02 -0.22360E-01
 -0.29267E-02  0.25928E-02 -0.22360E-01
 -0.34621E-02  0.18171E-02 -0.22360E-01
 -0.37964E-02  0.93572E-03 -0.22360E-01
 -0.39100E-02 -0.47884E-18 -0.22360E-01
 -0.37964E-02 -0.93572E-03 -0.22360E-01
 -0.34621E-02 -0.18171E-02 -0.22360E-01
 -0.29267E-02 -0.25928E-02 -0.22360E-01
 -0.22211E-02 -0.32179E-02 -0.22360E-01
 -0.13865E-02 -0.36559E-02 -0.22360E-01
 -0.47130E-03 -0.38815E-02 -0.22360E-01
  0.47130E-03 -0.38815E-02 -0.22360E-01
  0.13865E-02 -0.36559E-02 -0.22360E-01
  0.22211E-02 -0.32179E-02 -0.22360E-01
  0.29267E-02 -0.25928E-02 -0.22360E-01
  0.34621E-02 -0.18171E-02 -0.22360E-01
  0.37964E-02 -0.93572E-03 -0.22360E-01
  0.10373E-02  0.67514E-03 -0.21381E-01
  0.17445E-02  0.12334E-02 -0.21381E-01
  0.23172E-02  0.59360E-03 -0.21381E-01
  0.16689E-02 -0.33474E-03 -0.21381E-01
  0.30376E-02  0.15027E-03 -0.21381E-01
  0.27805E-02 -0.67446E-03 -0.21381E-01
  0.12846E-02  0.18419E-02 -0.21381E-01
  0.65041E-03  0.14616E-02 -0.21381E-01
  0.12652E-03  0.30393E-03 -0.21381E-01
 -0.12896E-03  0.11742E-02 -0.21381E-01
  0.94367E-03  0.22753E-02 -0.21381E-01
  0.11313E-02  0.28269E-02 -0.21381E-01
  0.17475E-02  0.24244E-02 -0.21381E-01
  0.40566E-03  0.21686E-02 -0.21381E-01
  0.39772E-03  0.29356E-02 -0.21381E-01
 -0.76444E-03 -0.10039E-02 -0.21381E-01
 -0.86648E-03  0.82206E-04 -0.21381E-01
  0.45940E-03 -0.70028E-03 -0.21381E-01
 -0.18312E-02 -0.71140E-03 -0.21381E-01
 -0.18436E-02  0.83243E-04 -0.21381E-01
 -0.27237E-02 -0.77797E-03 -0.21381E-01
 -0.28017E-02  0.41806E-04 -0.21381E-01
 -0.25371E-02 -0.15193E-02 -0.21381E-01
 -0.19305E-02 -0.13226E-02 -0.21381E-01
 -0.99305E-03  0.99390E-03 -0.21381E-01
 -0.14394E-02 -0.17323E-02 -0.21381E-01
 -0.31494E-03  0.20231E-02 -0.21381E-01
 -0.11054E-02  0.18610E-02 -0.21381E-01
 -0.18843E-02  0.17175E-02 -0.21381E-01
 -0.18708E-02  0.91036E-03 -0.21381E-01
 -0.15981E-03 -0.19801E-02 -0.21381E-01
 -0.94328E-03 -0.23490E-02 -0.21381E-01
  0.78592E-03 -0.17074E-02 -0.21381E-01
  0.17209E-02 -0.14904E-02 -0.21381E-01
  0.32063E-02  0.76439E-03 -0.21381E-01
  0.28045E-02  0.12494E-02 -0.21381E-01
  0.23055E-02  0.18666E-02 -0.21381E-01
 -0.40558E-03  0.28995E-02 -0.21381E-01
 -0.12092E-02  0.27188E-02 -0.21381E-01
 -0.19446E-02  0.24633E-02 -0.21381E-01
 -0.25027E-02  0.22359E-02 -0.21381E-01
 -0.26367E-02  0.16503E-02 -0.21381E-01
 -0.27658E-02  0.87597E-03 -0.21381E-01
 -0.21129E-02 -0.21374E-02 -0.21381E-01
 -0.16089E-02 -0.26932E-02 -0.21381E-01
 -0.11943E-02 -0.31291E-02 -0.21381E-01
 -0.58781E-03 -0.30382E-02 -0.21381E-01
  0.20749E-03 -0.28748E-02 -0.21381E-01
  0.10574E-02 -0.26434E-02 -0.21381E-01
  0.18415E-02 -0.23715E-02 -0.21381E-01
  0.24549E-02 -0.21467E-02 -0.21381E-01
  0.26025E-02 -0.15101E-02 -0.21381E-01
  0.37964E-02  0.93572E-03 -0.21381E-01
  0.39100E-02  0.00000E+00 -0.21381E-01
  0.34621E-02  0.18171E-02 -0.21381E-01
  0.29267E-02  0.25928E-02 -0.21381E-01
  0.22211E-02  0.32179E-02 -0.21381E-01
  0.13865E-02  0.36559E-02 -0.21381E-01
  0.47130E-03  0.38815E-02 -0.21381E-01
 -0.47130E-03  0.38815E-02 -0.21381E-01
 -0.13865E-02  0.36559E-02 -0.21381E-01
 -0.22211E-02  0.32179E-02 -0.21381E-01
 -0.29267E-02  0.25928E-02 -0.21381E-01
 -0.34621E-02  0.18171E-02 -0.21381E-01
 -0.37964E-02  0.93572E-03 -0.21381E-01
 -0.39100E-02 -0.47884E-18 -0.21381E-01
 -0.37964E-02 -0.93572E-03 -0.21381E-01
 -0.34621E-02 -0.18171E-02 -0.21381E-01
 -0.29267E-02 -0.25928E-02 -0.21381E-01
 -0.22211E-02 -0.32179E-02 -0.21381E-01
 -0.13865E-02 -0.36559E-02 -0.21381E-01
 -0.47130E-03 -0.38815E-02 -0.21381E-01
  0.47130E-03 -0.38815E-02 -0.21381E-01
  0.13865E-02 -0.36559E-02 -0.21381E-01
  0.22211E-02 -0.32179E-02 -0.21381E-01
  0.29267E-02 -0.25928E-02 -0.21381E-01
  0.34621E-02 -0.18171E-02 -0.21381E-01
  0.37964E-02 -0.93572E-03 -0.21381E-01
  0.10372E-02  0.67570E-03 -0.20402E-01
  0.17443E-02  0.12341E-02 -0.20402E-01
  0.23171E-02  0.59412E-03 -0.20402E-01
  0.16687E-02 -0.33398E-03 -0.20402E-01
  0.30376E-02  0.15064E-03 -0.20402E-01
  0.27808E-02 -0.67396E-03 -0.20402E-01
  0.12845E-02  0.18421E-02 -0.20402E-01
  0.65016E-03  0.14626E-02 -0.20402E-01
  0.12626E-03  0.30507E-03 -0.20402E-01
 -0.12915E-03  0.11760E-02 -0.20402E-01
  0.94334E-03  0.22754E-02 -0.20402E-01
  0.11310E-02  0.28264E-02 -0.20402E-01
  0.17471E-02  0.24245E-02 -0.20402E-01
  0.40561E-03  0.21686E-02 -0.20402E-01
  0.39770E-03  0.29353E-02 -0.20402E-01
 -0.76480E-03 -0.10040E-02 -0.20402E-01
 -0.86659E-03  0.83015E-04 -0.20402E-01
  0.45895E-03 -0.69955E-03 -0.20402E-01
 -0.18315E-02 -0.71126E-03 -0.20402E-01
 -0.18435E-02  0.83367E-04 -0.20402E-01
 -0.27237E-02 -0.77780E-03 -0.20402E-01
 -0.28014E-02  0.42080E-04 -0.20402E-01
 -0.25372E-02 -0.15192E-02 -0.20402E-01
 -0.19309E-02 -0.13224E-02 -0.20402E-01
 -0.99291E-03  0.99526E-03 -0.20402E-01
 -0.14398E-02 -0.17323E-02 -0.20402E-01
 -0.31474E-03  0.20234E-02 -0.20402E-01
 -0.11051E-02  0.18609E-02 -0.20402E-01
 -0.18843E-02  0.17175E-02 -0.20402E-01
 -0.18706E-02  0.91060E-03 -0.20402E-01
 -0.16009E-03 -0.19801E-02 -0.20402E-01
 -0.94388E-03 -0.23490E-02 -0.20402E-01
  0.78526E-03 -0.17074E-02 -0.20402E-01
  0.17208E-02 -0.14906E-02 -0.20402E-01
  0.32066E-02  0.76539E-03 -0.20402E-01
  0.28045E-02  0.12498E-02 -0.20402E-01
  0.23053E-02  0.18667E-02 -0.20402E-01
 -0.40545E-03  0.28984E-02 -0.20402E-01
 -0.12092E-02  0.27184E-02 -0.20402E-01
 -0.19446E-02  0.24631E-02 -0.20402E-01
 -0.25027E-02  0.22359E-02 -0.20402E-01
 -0.26366E-02  0.16503E-02 -0.20402E-01
 -0.27655E-02  0.87623E-03 -0.20402E-01
 -0.21130E-02 -0.21374E-02 -0.20402E-01
 -0.16089E-02 -0.26932E-02 -0.20402E-01
 -0.11944E-02 -0.31291E-02 -0.20402E-01
 -0.58816E-03 -0.30382E-02 -0.20402E-01
  0.20709E-03 -0.28748E-02 -0.20402E-01
  0.10571E-02 -0.26436E-02 -0.20402E-01
  0.18415E-02 -0.23717E-02 -0.20402E-01
  0.24550E-02 -0.21472E-02 -0.20402E-01
  0.26025E-02 -0.15100E-02 -0.20402E-01
  0.37964E-02  0.93572E-03 -0.20402E-01
  0.39100E-02  0.00000E+00 -0.20402E-01
  0.34621E-02  0.18171E-02 -0.20402E-01
  0.29267E-02  0.25928E-02 -0.20402E-01
  0.22211E-02  0.32179E-02 -0.20402E-01
  0.13865E-02  0.36559E-02 -0.20402E-01
  0.47130E-03  0.38815E-02 -0.20402E-01
 -0.47130E-03  0.38815E-02 -0.20402E-01
 -0.13865E-02  0.36559E-02 -0.20402E-01
 -0.22211E-02  0.32179E-02 -0.20402E-01
 -0.29267E-02  0.25928E-02 -0.20402E-01
 -0.34621E-02  0.18171E-02 -0.20402E-01
 -0.37964E-02  0.93572E-03 -0.20402E-01
 -0.39100E-02 -0.47884E-18 -0.20402E-01
 -0.37964E-02 -0.93572E-03 -0.20402E-01
 -0.34621E-02 -0.18171E-02 -0.20402E-01
 -0.29267E-02 -0.25928E-02 -0.20402E-01
 -0.22211E-02 -0.32179E-02 -0.20402E-01
 -0.13865E-02 -0.36559E-02 -0.20402E-01
 -0.47130E-03 -0.38815E-02 -0.20402E-01
  0.47130E-03 -0.38815E-02 -0.20402E-01
  0.13865E-02 -0.36559E-02 -0.20402E-01
  0.22211E-02 -0.32179E-02 -0.20402E-01
  0.29267E-02 -0.25928E-02 -0.20402E-01
  0.34621E-02 -0.18171E-02 -0.20402E-01
  0.37964E-02 -0.93572E-03 -0.20402E-01
  0.10371E-02  0.67625E-03 -0.19423E-01
  0.17441E-02  0.12348E-02 -0.19423E-01
  0.23169E-02  0.59465E-03 -0.19423E-01
  0.16685E-02 -0.33323E-03 -0.19423E-01
  0.30376E-02  0.15100E-03 -0.19423E-01
  0.27812E-02 -0.67347E-03 -0.19423E-01
  0.12844E-02  0.18423E-02 -0.19423E-01
  0.64992E-03  0.14636E-02 -0.19423E-01
  0.12600E-03  0.30622E-03 -0.19423E-01
 -0.12933E-03  0.11777E-02 -0.19423E-01
  0.94301E-03  0.22755E-02 -0.19423E-01
  0.11306E-02  0.28260E-02 -0.19423E-01
  0.17467E-02  0.24247E-02 -0.19423E-01
  0.40556E-03  0.21687E-02 -0.19423E-01
  0.39769E-03  0.29351E-02 -0.19423E-01
 -0.76515E-03 -0.10042E-02 -0.19423E-01
 -0.86670E-03  0.83825E-04 -0.19423E-01
  0.45850E-03 -0.69882E-03 -0.19423E-01
 -0.18318E-02 -0.71112E-03 -0.19423E-01
 -0.18434E-02  0.83490E-04 -0.19423E-01
 -0.27236E-02 -0.77763E-03 -0.19423E-01
 -0.28011E-02  0.42353E-04 -0.19423E-01
 -0.25374E-02 -0.15192E-02 -0.19423E-01
 -0.19313E-02 -0.13223E-02 -0.19423E-01
 -0.99277E-03  0.99661E-03 -0.19423E-01
 -0.14401E-02 -0.17322E-02 -0.19423E-01
 -0.31454E-03  0.20237E-02 -0.19423E-01
 -0.11047E-02  0.18607E-02 -0.19423E-01
 -0.18842E-02  0.17175E-02 -0.19423E-01
 -0.18705E-02  0.91084E-03 -0.19423E-01
 -0.16036E-03 -0.19801E-02 -0.19423E-01
 -0.94448E-03 -0.23491E-02 -0.19423E-01
  0.78460E-03 -0.17074E-02 -0.19423E-01
  0.17208E-02 -0.14909E-02 -0.19423E-01
  0.32070E-02  0.76640E-03 -0.19423E-01
  0.28045E-02  0.12503E-02 -0.19423E-01
  0.23052E-02  0.18667E-02 -0.19423E-01
 -0.40531E-03  0.28974E-02 -0.19423E-01
 -0.12092E-02  0.27179E-02 -0.19423E-01
 -0.19445E-02  0.24629E-02 -0.19423E-01
 -0.25027E-02  0.22359E-02 -0.19423E-01
 -0.26366E-02  0.16503E-02 -0.19423E-01
 -0.27652E-02  0.87650E-03 -0.19423E-01
 -0.21132E-02 -0.21374E-02 -0.19423E-01
 -0.16090E-02 -0.26933E-02 -0.19423E-01
 -0.11946E-02 -0.31291E-02 -0.19423E-01
 -0.58851E-03 -0.30382E-02 -0.19423E-01
  0.20668E-03 -0.28749E-02 -0.19423E-01
  0.10567E-02 -0.26439E-02 -0.19423E-01
  0.18416E-02 -0.23719E-02 -0.19423E-01
  0.24551E-02 -0.21478E-02 -0.19423E-01
  0.26026E-02 -0.15099E-02 -0.19423E-01
  0.37964E-02  0.93572E-03 -0.19423E-01
  0.39100E-02  0.00000E+00 -0.19423E-01
  0.34621E-02  0.18171E-02 -0.19423E-01
  0.29267E-02  0.25928E-02 -0.19423E-01
  0.22211E-02  0.32179E-02 -0.19423E-01
  0.13865E-02  0.36559E-02 -0.19423E-01
  0.47130E-03  0.38815E-02 -0.19423E-01
 -0.47130E-03  0.38815E-02 -0.19423E-01
 -0.13865E-02  0.36559E-02 -0.19423E-01
 -0.22211E-02  0.32179E-02 -0.19423E-01
 -0.29267E-02  0.25928E-02 -0.19423E-01
 -0.34621E-02  0.18171E-02 -0.19423E-01
 -0.37964E-02  0.93572E-03 -0.19423E-01
 -0.39100E-02 -0.47884E-18 -0.19423E-01
 -0.37964E-02 -0.93572E-03 -0.19423E-01
 -0.34621E-02 -0.18171E-02 -0.19423E-01
 -0.29267E-02 -0.25928E-02 -0.19423E-01
 -0.22211E-02 -0.32179E-02 -0.19423E-01
 -0.13865E-02 -0.36559E-02 -0.19423E-01
 -0.47130E-03 -0.38815E-02 -0.19423E-01
  0.47130E-03 -0.38815E-02 -0.19423E-01
  0.13865E-02 -0.36559E-02 -0.19423E-01
  0.22211E-02 -0.32179E-02 -0.19423E-01
  0.29267E-02 -0.25928E-02 -0.19423E-01
  0.34621E-02 -0.18171E-02 -0.19423E-01
  0.37964E-02 -0.93572E-03 -0.19423E-01
  0.10370E-02  0.67680E-03 -0.18444E-01
  0.17439E-02  0.12354E-02 -0.18444E-01
  0.23168E-02  0.59517E-03 -0.18444E-01
  0.16683E-02 -0.33247E-03 -0.18444E-01
  0.30375E-02  0.15136E-03 -0.18444E-01
  0.27815E-02 -0.67298E-03 -0.18444E-01
  0.12843E-02  0.18425E-02 -0.18444E-01
  0.64967E-03  0.14646E-02 -0.18444E-01
  0.12573E-03  0.30737E-03 -0.18444E-01
 -0.12952E-03  0.11795E-02 -0.18444E-01
  0.94268E-03  0.22757E-02 -0.18444E-01
  0.11303E-02  0.28255E-02 -0.18444E-01
  0.17463E-02  0.24248E-02 -0.18444E-01
  0.40550E-03  0.21687E-02 -0.18444E-01
  0.39767E-03  0.29348E-02 -0.18444E-01
 -0.76551E-03 -0.10043E-02 -0.18444E-01
 -0.86680E-03  0.84634E-04 -0.18444E-01
  0.45806E-03 -0.69810E-03 -0.18444E-01
 -0.18321E-02 -0.71098E-03 -0.18444E-01
 -0.18433E-02  0.83614E-04 -0.18444E-01
 -0.27236E-02 -0.77746E-03 -0.18444E-01
 -0.28009E-02  0.42626E-04 -0.18444E-01
 -0.25375E-02 -0.15191E-02 -0.18444E-01
 -0.19317E-02 -0.13223E-02 -0.18444E-01
 -0.99262E-03  0.99797E-03 -0.18444E-01
 -0.14405E-02 -0.17322E-02 -0.18444E-01
 -0.31434E-03  0.20240E-02 -0.18444E-01
 -0.11044E-02  0.18606E-02 -0.18444E-01
 -0.18842E-02  0.17175E-02 -0.18444E-01
 -0.18704E-02  0.91108E-03 -0.18444E-01
 -0.16064E-03 -0.19802E-02 -0.18444E-01
 -0.94508E-03 -0.23491E-02 -0.18444E-01
  0.78394E-03 -0.17074E-02 -0.18444E-01
  0.17208E-02 -0.14911E-02 -0.18444E-01
  0.32073E-02  0.76740E-03 -0.18444E-01
  0.28045E-02  0.12507E-02 -0.18444E-01
  0.23051E-02  0.18668E-02 -0.18444E-01
 -0.40517E-03  0.28963E-02 -0.18444E-01
 -0.12092E-02  0.27174E-02 -0.18444E-01
 -0.19445E-02  0.24627E-02 -0.18444E-01
 -0.25026E-02  0.22358E-02 -0.18444E-01
 -0.26365E-02  0.16503E-02 -0.18444E-01
 -0.27649E-02  0.87676E-03 -0.18444E-01
 -0.21133E-02 -0.21374E-02 -0.18444E-01
 -0.16090E-02 -0.26933E-02 -0.18444E-01
 -0.11947E-02 -0.31291E-02 -0.18444E-01
 -0.58886E-03 -0.30382E-02 -0.18444E-01
  0.20627E-03 -0.28749E-02 -0.18444E-01
  0.10564E-02 -0.26442E-02 -0.18444E-01
  0.18416E-02 -0.23721E-02 -0.18444E-01
  0.24553E-02 -0.21483E-02 -0.18444E-01
  0.26027E-02 -0.15097E-02 -0.18444E-01
  0.37964E-02  0.93572E-03 -0.18444E-01
  0.39100E-02  0.00000E+00 -0.18444E-01
  0.34621E-02  0.18171E-02 -0.18444E-01
  0.29267E-02  0.25928E-02 -0.18444E-01
  0.22211E-02  0.32179E-02 -0.18444E-01
  0.13865E-02  0.36559E-02 -0.18444E-01
  0.47130E-03  0.38815E-02 -0.18444E-01
 -0.47130E-03  0.38815E-02 -0.18444E-01
 -0.13865E-02  0.36559E-02 -0.18444E-01
 -0.22211E-02  0.32179E-02 -0.18444E-01
 -0.29267E-02  0.25928E-02 -0.18444E-01
 -0.34621E-02  0.18171E-02 -0.18444E-01
 -0.37964E-02  0.93572E-03 -0.18444E-01
 -0.39100E-02 -0.47884E-18 -0.18444E-01
 -0.37964E-02 -0.93572E-03 -0.18444E-01
 -0.34621E-02 -0.18171E-02 -0.18444E-01
 -0.29267E-02 -0.25928E-02 -0.18444E-01
 -0.22211E-02 -0.32179E-02 -0.18444E-01
 -0.13865E-02 -0.36559E-02 -0.18444E-01
 -0.47130E-03 -0.38815E-02 -0.18444E-01
  0.47130E-03 -0.38815E-02 -0.18444E-01
  0.13865E-02 -0.36559E-02 -0.18444E-01
  0.22211E-02 -0.32179E-02 -0.18444E-01
  0.29267E-02 -0.25928E-02 -0.18444E-01
  0.34621E-02 -0.18171E-02 -0.18444E-01
  0.37964E-02 -0.93572E-03 -0.18444E-01
  0.10368E-02  0.67736E-03 -0.17465E-01
  0.17438E-02  0.12361E-02 -0.17465E-01
  0.23167E-02  0.59570E-03 -0.17465E-01
  0.16681E-02 -0.33172E-03 -0.17465E-01
  0.30375E-02  0.15173E-03 -0.17465E-01
  0.27819E-02 -0.67248E-03 -0.17465E-01
  0.12842E-02  0.18427E-02 -0.17465E-01
  0.64943E-03  0.14656E-02 -0.17465E-01
  0.12547E-03  0.30852E-03 -0.17465E-01
 -0.12970E-03  0.11812E-02 -0.17465E-01
  0.94235E-03  0.22758E-02 -0.17465E-01
  0.11300E-02  0.28251E-02 -0.17465E-01
  0.17459E-02  0.24249E-02 -0.17465E-01
  0.40545E-03  0.21688E-02 -0.17465E-01
  0.39766E-03  0.29345E-02 -0.17465E-01
 -0.76586E-03 -0.10044E-02 -0.17465E-01
 -0.86691E-03  0.85443E-04 -0.17465E-01
  0.45761E-03 -0.69737E-03 -0.17465E-01
 -0.18324E-02 -0.71084E-03 -0.17465E-01
 -0.18432E-02  0.83737E-04 -0.17465E-01
 -0.27236E-02 -0.77729E-03 -0.17465E-01
 -0.28006E-02  0.42899E-04 -0.17465E-01
 -0.25377E-02 -0.15191E-02 -0.17465E-01
 -0.19322E-02 -0.13222E-02 -0.17465E-01
 -0.99248E-03  0.99932E-03 -0.17465E-01
 -0.14408E-02 -0.17322E-02 -0.17465E-01
 -0.31414E-03  0.20243E-02 -0.17465E-01
 -0.11040E-02  0.18605E-02 -0.17465E-01
 -0.18841E-02  0.17175E-02 -0.17465E-01
 -0.18703E-02  0.91132E-03 -0.17465E-01
 -0.16091E-03 -0.19802E-02 -0.17465E-01
 -0.94568E-03 -0.23491E-02 -0.17465E-01
  0.78328E-03 -0.17074E-02 -0.17465E-01
  0.17207E-02 -0.14914E-02 -0.17465E-01
  0.32076E-02  0.76841E-03 -0.17465E-01
  0.28044E-02  0.12511E-02 -0.17465E-01
  0.23050E-02  0.18668E-02 -0.17465E-01
 -0.40503E-03  0.28952E-02 -0.17465E-01
 -0.12092E-02  0.27170E-02 -0.17465E-01
 -0.19445E-02  0.24624E-02 -0.17465E-01
 -0.25026E-02  0.22358E-02 -0.17465E-01
 -0.26364E-02  0.16503E-02 -0.17465E-01
 -0.27646E-02  0.87702E-03 -0.17465E-01
 -0.21134E-02 -0.21374E-02 -0.17465E-01
 -0.16091E-02 -0.26933E-02 -0.17465E-01
 -0.11948E-02 -0.31291E-02 -0.17465E-01
 -0.58921E-03 -0.30382E-02 -0.17465E-01
  0.20587E-03 -0.28749E-02 -0.17465E-01
  0.10561E-02 -0.26444E-02 -0.17465E-01
  0.18416E-02 -0.23723E-02 -0.17465E-01
  0.24554E-02 -0.21489E-02 -0.17465E-01
  0.26027E-02 -0.15096E-02 -0.17465E-01
  0.37964E-02  0.93572E-03 -0.17465E-01
  0.39100E-02  0.00000E+00 -0.17465E-01
  0.34621E-02  0.18171E-02 -0.17465E-01
  0.29267E-02  0.25928E-02 -0.17465E-01
  0.22211E-02  0.32179E-02 -0.17465E-01
  0.13865E-02  0.36559E-02 -0.17465E-01
  0.47130E-03  0.38815E-02 -0.17465E-01
 -0.47130E-03  0.38815E-02 -0.17465E-01
 -0.13865E-02  0.36559E-02 -0.17465E-01
 -0.22211E-02  0.32179E-02 -0.17465E-01
 -0.29267E-02  0.25928E-02 -0.17465E-01
 -0.34621E-02  0.18171E-02 -0.17465E-01
 -0.37964E-02  0.93572E-03 -0.17465E-01
 -0.39100E-02 -0.47884E-18 -0.17465E-01
 -0.37964E-02 -0.93572E-03 -0.17465E-01
 -0.34621E-02 -0.18171E-02 -0.17465E-01
 -0.29267E-02 -0.25928E-02 -0.17465E-01
 -0.22211E-02 -0.32179E-02 -0.17465E-01
 -0.13865E-02 -0.36559E-02 -0.17465E-01
 -0.47130E-03 -0.38815E-02 -0.17465E-01
  0.47130E-03 -0.38815E-02 -0.17465E-01
  0.13865E-02 -0.36559E-02 -0.17465E-01
  0.22211E-02 -0.32179E-02 -0.17465E-01
  0.29267E-02 -0.25928E-02 -0.17465E-01
  0.34621E-02 -0.18171E-02 -0.17465E-01
  0.37964E-02 -0.93572E-03 -0.17465E-01
  0.10367E-02  0.67791E-03 -0.16485E-01
  0.17436E-02  0.12368E-02 -0.16485E-01
  0.23166E-02  0.59622E-03 -0.16485E-01
  0.16679E-02 -0.33096E-03 -0.16485E-01
  0.30375E-02  0.15209E-03 -0.16485E-01
  0.27822E-02 -0.67199E-03 -0.16485E-01
  0.12841E-02  0.18429E-02 -0.16485E-01
  0.64918E-03  0.14666E-02 -0.16485E-01
  0.12521E-03  0.30967E-03 -0.16485E-01
 -0.12989E-03  0.11830E-02 -0.16485E-01
  0.94202E-03  0.22759E-02 -0.16485E-01
  0.11296E-02  0.28247E-02 -0.16485E-01
  0.17455E-02  0.24251E-02 -0.16485E-01
  0.40539E-03  0.21688E-02 -0.16485E-01
  0.39764E-03  0.29343E-02 -0.16485E-01
 -0.76621E-03 -0.10046E-02 -0.16485E-01
 -0.86702E-03  0.86253E-04 -0.16485E-01
  0.45716E-03 -0.69665E-03 -0.16485E-01
 -0.18326E-02 -0.71070E-03 -0.16485E-01
 -0.18431E-02  0.83861E-04 -0.16485E-01
 -0.27235E-02 -0.77712E-03 -0.16485E-01
 -0.28003E-02  0.43173E-04 -0.16485E-01
 -0.25379E-02 -0.15190E-02 -0.16485E-01
 -0.19326E-02 -0.13220E-02 -0.16485E-01
 -0.99233E-03  0.10007E-02 -0.16485E-01
 -0.14412E-02 -0.17321E-02 -0.16485E-01
 -0.31394E-03  0.20245E-02 -0.16485E-01
 -0.11037E-02  0.18603E-02 -0.16485E-01
 -0.18841E-02  0.17175E-02 -0.16485E-01
 -0.18701E-02  0.91156E-03 -0.16485E-01
 -0.16119E-03 -0.19802E-02 -0.16485E-01
 -0.94628E-03 -0.23491E-02 -0.16485E-01
  0.78262E-03 -0.17074E-02 -0.16485E-01
  0.17207E-02 -0.14916E-02 -0.16485E-01
  0.32079E-02  0.76941E-03 -0.16485E-01
  0.28044E-02  0.12515E-02 -0.16485E-01
  0.23049E-02  0.18668E-02 -0.16485E-01
 -0.40490E-03  0.28942E-02 -0.16485E-01
 -0.12093E-02  0.27165E-02 -0.16485E-01
 -0.19444E-02  0.24622E-02 -0.16485E-01
 -0.25026E-02  0.22358E-02 -0.16485E-01
 -0.26363E-02  0.16503E-02 -0.16485E-01
 -0.27643E-02  0.87728E-03 -0.16485E-01
 -0.21136E-02 -0.21374E-02 -0.16485E-01
 -0.16091E-02 -0.26933E-02 -0.16485E-01
 -0.11949E-02 -0.31291E-02 -0.16485E-01
 -0.58956E-03 -0.30382E-02 -0.16485E-01
  0.20546E-03 -0.28749E-02 -0.16485E-01
  0.10558E-02 -0.26447E-02 -0.16485E-01
  0.18417E-02 -0.23725E-02 -0.16485E-01
  0.24555E-02 -0.21494E-02 -0.16485E-01
  0.26028E-02 -0.15095E-02 -0.16485E-01
  0.37964E-02  0.93572E-03 -0.16485E-01
  0.39100E-02  0.00000E+00 -0.16485E-01
  0.34621E-02  0.18171E-02 -0.16485E-01
  0.29267E-02  0.25928E-02 -0.16485E-01
  0.22211E-02  0.32179E-02 -0.16485E-01
  0.13865E-02  0.36559E-02 -0.16485E-01
  0.47130E-03  0.38815E-02 -0.16485E-01
 -0.47130E-03  0.38815E-02 -0.16485E-01
 -0.13865E-02  0.36559E-02 -0.16485E-01
 -0.22211E-02  0.32179E-02 -0.16485E-01
 -0.29267E-02  0.25928E-02 -0.16485E-01
 -0.34621E-02  0.18171E-02 -0.16485E-01
 -0.37964E-02  0.93572E-03 -0.16485E-01
 -0.39100E-02 -0.47884E-18 -0.16485E-01
 -0.37964E-02 -0.93572E-03 -0.16485E-01
 -0.34621E-02 -0.18171E-02 -0.16485E-01
 -0.29267E-02 -0.25928E-02 -0.16485E-01
 -0.22211E-02 -0.32179E-02 -0.16485E-01
 -0.13865E-02 -0.36559E-02 -0.16485E-01
 -0.47130E-03 -0.38815E-02 -0.16485E-01
  0.47130E-03 -0.38815E-02 -0.16485E-01
  0.13865E-02 -0.36559E-02 -0.16485E-01
  0.22211E-02 -0.32179E-02 -0.16485E-01
  0.29267E-02 -0.25928E-02 -0.16485E-01
  0.34621E-02 -0.18171E-02 -0.16485E-01
  0.37964E-02 -0.93572E-03 -0.16485E-01
  0.10366E-02  0.67847E-03 -0.15506E-01
  0.17434E-02  0.12374E-02 -0.15506E-01
  0.23164E-02  0.59674E-03 -0.15506E-01
  0.16677E-02 -0.33021E-03 -0.15506E-01
  0.30375E-02  0.15245E-03 -0.15506E-01
  0.27825E-02 -0.67150E-03 -0.15506E-01
  0.12840E-02  0.18430E-02 -0.15506E-01
  0.64894E-03  0.14676E-02 -0.15506E-01
  0.12495E-03  0.31081E-03 -0.15506E-01
 -0.13007E-03  0.11847E-02 -0.15506E-01
  0.94169E-03  0.22761E-02 -0.15506E-01
  0.11293E-02  0.28242E-02 -0.15506E-01
  0.17451E-02  0.24252E-02 -0.15506E-01
  0.40534E-03  0.21688E-02 -0.15506E-01
  0.39762E-03  0.29340E-02 -0.15506E-01
 -0.76657E-03 -0.10047E-02 -0.15506E-01
 -0.86713E-03  0.87062E-04 -0.15506E-01
  0.45671E-03 -0.69592E-03 -0.15506E-01
 -0.18329E-02 -0.71056E-03 -0.15506E-01
 -0.18430E-02  0.83985E-04 -0.15506E-01
 -0.27235E-02 -0.77695E-03 -0.15506E-01
 -0.28001E-02  0.43446E-04 -0.15506E-01
 -0.25380E-02 -0.15190E-02 -0.15506E-01
 -0.19330E-02 -0.13219E-02 -0.15506E-01
 -0.99219E-03  0.10020E-02 -0.15506E-01
 -0.14415E-02 -0.17321E-02 -0.15506E-01
 -0.31374E-03  0.20248E-02 -0.15506E-01
 -0.11033E-02  0.18602E-02 -0.15506E-01
 -0.18840E-02  0.17175E-02 -0.15506E-01
 -0.18700E-02  0.91180E-03 -0.15506E-01
 -0.16146E-03 -0.19803E-02 -0.15506E-01
 -0.94687E-03 -0.23491E-02 -0.15506E-01
  0.78195E-03 -0.17073E-02 -0.15506E-01
  0.17207E-02 -0.14919E-02 -0.15506E-01
  0.32083E-02  0.77042E-03 -0.15506E-01
  0.28044E-02  0.12520E-02 -0.15506E-01
  0.23048E-02  0.18669E-02 -0.15506E-01
 -0.40476E-03  0.28931E-02 -0.15506E-01
 -0.12093E-02  0.27160E-02 -0.15506E-01
 -0.19444E-02  0.24620E-02 -0.15506E-01
 -0.25026E-02  0.22358E-02 -0.15506E-01
 -0.26362E-02  0.16503E-02 -0.15506E-01
 -0.27640E-02  0.87754E-03 -0.15506E-01
 -0.21137E-02 -0.21374E-02 -0.15506E-01
 -0.16091E-02 -0.26933E-02 -0.15506E-01
 -0.11950E-02 -0.31291E-02 -0.15506E-01
 -0.58991E-03 -0.30382E-02 -0.15506E-01
  0.20505E-03 -0.28749E-02 -0.15506E-01
  0.10555E-02 -0.26450E-02 -0.15506E-01
  0.18417E-02 -0.23727E-02 -0.15506E-01
  0.24556E-02 -0.21500E-02 -0.15506E-01
  0.26029E-02 -0.15094E-02 -0.15506E-01
  0.37964E-02  0.93572E-03 -0.15506E-01
  0.39100E-02  0.00000E+00 -0.15506E-01
  0.34621E-02  0.18171E-02 -0.15506E-01
  0.29267E-02  0.25928E-02 -0.15506E-01
  0.22211E-02  0.32179E-02 -0.15506E-01
  0.13865E-02  0.36559E-02 -0.15506E-01
  0.47130E-03  0.38815E-02 -0.15506E-01
 -0.47130E-03  0.38815E-02 -0.15506E-01
 -0.13865E-02  0.36559E-02 -0.15506E-01
 -0.22211E-02  0.32179E-02 -0.15506E-01
 -0.29267E-02  0.25928E-02 -0.15506E-01
 -0.34621E-02  0.18171E-02 -0.15506E-01
 -0.37964E-02  0.93572E-03 -0.15506E-01
 -0.39100E-02  0.39516E-17 -0.15506E-01
 -0.37964E-02 -0.93572E-03 -0.15506E-01
 -0.34621E-02 -0.18171E-02 -0.15506E-01
 -0.29267E-02 -0.25928E-02 -0.15506E-01
 -0.22211E-02 -0.32179E-02 -0.15506E-01
 -0.13865E-02 -0.36559E-02 -0.15506E-01
 -0.47130E-03 -0.38815E-02 -0.15506E-01
  0.47130E-03 -0.38815E-02 -0.15506E-01
  0.13865E-02 -0.36559E-02 -0.15506E-01
  0.22211E-02 -0.32179E-02 -0.15506E-01
  0.29267E-02 -0.25928E-02 -0.15506E-01
  0.34621E-02 -0.18171E-02 -0.15506E-01
  0.37964E-02 -0.93572E-03 -0.15506E-01
  0.10365E-02  0.67902E-03 -0.14527E-01
  0.17432E-02  0.12381E-02 -0.14527E-01
  0.23163E-02  0.59727E-03 -0.14527E-01
  0.16675E-02 -0.32945E-03 -0.14527E-01
  0.30374E-02  0.15282E-03 -0.14527E-01
  0.27829E-02 -0.67100E-03 -0.14527E-01
  0.12839E-02  0.18432E-02 -0.14527E-01
  0.64869E-03  0.14686E-02 -0.14527E-01
  0.12468E-03  0.31196E-03 -0.14527E-01
 -0.13026E-03  0.11865E-02 -0.14527E-01
  0.94135E-03  0.22762E-02 -0.14527E-01
  0.11289E-02  0.28238E-02 -0.14527E-01
  0.17447E-02  0.24254E-02 -0.14527E-01
  0.40528E-03  0.21688E-02 -0.14527E-01
  0.39760E-03  0.29337E-02 -0.14527E-01
 -0.76692E-03 -0.10049E-02 -0.14527E-01
 -0.86724E-03  0.87871E-04 -0.14527E-01
  0.45626E-03 -0.69519E-03 -0.14527E-01
 -0.18332E-02 -0.71042E-03 -0.14527E-01
 -0.18430E-02  0.84108E-04 -0.14527E-01
 -0.27235E-02 -0.77678E-03 -0.14527E-01
 -0.27998E-02  0.43720E-04 -0.14527E-01
 -0.25382E-02 -0.15189E-02 -0.14527E-01
 -0.19334E-02 -0.13219E-02 -0.14527E-01
 -0.99205E-03  0.10034E-02 -0.14527E-01
 -0.14419E-02 -0.17320E-02 -0.14527E-01
 -0.31354E-03  0.20251E-02 -0.14527E-01
 -0.11030E-02  0.18601E-02 -0.14527E-01
 -0.18840E-02  0.17175E-02 -0.14527E-01
 -0.18699E-02  0.91204E-03 -0.14527E-01
 -0.16174E-03 -0.19803E-02 -0.14527E-01
 -0.94747E-03 -0.23492E-02 -0.14527E-01
  0.78129E-03 -0.17073E-02 -0.14527E-01
  0.17206E-02 -0.14921E-02 -0.14527E-01
  0.32086E-02  0.77142E-03 -0.14527E-01
  0.28044E-02  0.12524E-02 -0.14527E-01
  0.23047E-02  0.18669E-02 -0.14527E-01
 -0.40462E-03  0.28920E-02 -0.14527E-01
 -0.12093E-02  0.27155E-02 -0.14527E-01
 -0.19444E-02  0.24618E-02 -0.14527E-01
 -0.25025E-02  0.22358E-02 -0.14527E-01
 -0.26361E-02  0.16503E-02 -0.14527E-01
 -0.27637E-02  0.87781E-03 -0.14527E-01
 -0.21139E-02 -0.21374E-02 -0.14527E-01
 -0.16092E-02 -0.26934E-02 -0.14527E-01
 -0.11951E-02 -0.31291E-02 -0.14527E-01
 -0.59025E-03 -0.30382E-02 -0.14527E-01
  0.20465E-03 -0.28749E-02 -0.14527E-01
  0.10552E-02 -0.26452E-02 -0.14527E-01
  0.18418E-02 -0.23729E-02 -0.14527E-01
  0.24558E-02 -0.21505E-02 -0.14527E-01
  0.26030E-02 -0.15093E-02 -0.14527E-01
  0.37964E-02  0.93572E-03 -0.14527E-01
  0.39100E-02  0.00000E+00 -0.14527E-01
  0.34621E-02  0.18171E-02 -0.14527E-01
  0.29267E-02  0.25928E-02 -0.14527E-01
  0.22211E-02  0.32179E-02 -0.14527E-01
  0.13865E-02  0.36559E-02 -0.14527E-01
  0.47130E-03  0.38815E-02 -0.14527E-01
 -0.47130E-03  0.38815E-02 -0.14527E-01
 -0.13865E-02  0.36559E-02 -0.14527E-01
 -0.22211E-02  0.32179E-02 -0.14527E-01
 -0.29267E-02  0.25928E-02 -0.14527E-01
 -0.34621E-02  0.18171E-02 -0.14527E-01
 -0.37964E-02  0.93572E-03 -0.14527E-01
 -0.39100E-02 -0.47884E-18 -0.14527E-01
 -0.37964E-02 -0.93572E-03 -0.14527E-01
 -0.34621E-02 -0.18171E-02 -0.14527E-01
 -0.29267E-02 -0.25928E-02 -0.14527E-01
 -0.22211E-02 -0.32179E-02 -0.14527E-01
 -0.13865E-02 -0.36559E-02 -0.14527E-01
 -0.47130E-03 -0.38815E-02 -0.14527E-01
  0.47130E-03 -0.38815E-02 -0.14527E-01
  0.13865E-02 -0.36559E-02 -0.14527E-01
  0.22211E-02 -0.32179E-02 -0.14527E-01
  0.29267E-02 -0.25928E-02 -0.14527E-01
  0.34621E-02 -0.18171E-02 -0.14527E-01
  0.37964E-02 -0.93572E-03 -0.14527E-01
  0.10364E-02  0.67958E-03 -0.13548E-01
  0.17430E-02  0.12387E-02 -0.13548E-01
  0.23162E-02  0.59779E-03 -0.13548E-01
  0.16672E-02 -0.32870E-03 -0.13548E-01
  0.30374E-02  0.15318E-03 -0.13548E-01
  0.27832E-02 -0.67051E-03 -0.13548E-01
  0.12838E-02  0.18434E-02 -0.13548E-01
  0.64845E-03  0.14696E-02 -0.13548E-01
  0.12442E-03  0.31311E-03 -0.13548E-01
 -0.13044E-03  0.11882E-02 -0.13548E-01
  0.94102E-03  0.22763E-02 -0.13548E-01
  0.11286E-02  0.28233E-02 -0.13548E-01
  0.17443E-02  0.24255E-02 -0.13548E-01
  0.40523E-03  0.21689E-02 -0.13548E-01
  0.39759E-03  0.29335E-02 -0.13548E-01
 -0.76727E-03 -0.10050E-02 -0.13548E-01
 -0.86735E-03  0.88681E-04 -0.13548E-01
  0.45582E-03 -0.69447E-03 -0.13548E-01
 -0.18335E-02 -0.71028E-03 -0.13548E-01
 -0.18429E-02  0.84232E-04 -0.13548E-01
 -0.27235E-02 -0.77661E-03 -0.13548E-01
 -0.27995E-02  0.43993E-04 -0.13548E-01
 -0.25383E-02 -0.15189E-02 -0.13548E-01
 -0.19339E-02 -0.13218E-02 -0.13548E-01
 -0.99190E-03  0.10048E-02 -0.13548E-01
 -0.14422E-02 -0.17320E-02 -0.13548E-01
 -0.31334E-03  0.20254E-02 -0.13548E-01
 -0.11026E-02  0.18599E-02 -0.13548E-01
 -0.18839E-02  0.17175E-02 -0.13548E-01
 -0.18697E-02  0.91228E-03 -0.13548E-01
 -0.16201E-03 -0.19803E-02 -0.13548E-01
 -0.94807E-03 -0.23492E-02 -0.13548E-01
  0.78063E-03 -0.17073E-02 -0.13548E-01
  0.17206E-02 -0.14923E-02 -0.13548E-01
  0.32089E-02  0.77243E-03 -0.13548E-01
  0.28043E-02  0.12528E-02 -0.13548E-01
  0.23046E-02  0.18670E-02 -0.13548E-01
 -0.40448E-03  0.28910E-02 -0.13548E-01
 -0.12093E-02  0.27151E-02 -0.13548E-01
 -0.19443E-02  0.24615E-02 -0.13548E-01
 -0.25025E-02  0.22358E-02 -0.13548E-01
 -0.26360E-02  0.16503E-02 -0.13548E-01
 -0.27633E-02  0.87807E-03 -0.13548E-01
 -0.21140E-02 -0.21374E-02 -0.13548E-01
 -0.16092E-02 -0.26934E-02 -0.13548E-01
 -0.11953E-02 -0.31291E-02 -0.13548E-01
 -0.59060E-03 -0.30382E-02 -0.13548E-01
  0.20424E-03 -0.28749E-02 -0.13548E-01
  0.10549E-02 -0.26455E-02 -0.13548E-01
  0.18418E-02 -0.23732E-02 -0.13548E-01
  0.24559E-02 -0.21511E-02 -0.13548E-01
  0.26030E-02 -0.15092E-02 -0.13548E-01
  0.37964E-02  0.93572E-03 -0.13548E-01
  0.39100E-02  0.00000E+00 -0.13548E-01
  0.34621E-02  0.18171E-02 -0.13548E-01
  0.29267E-02  0.25928E-02 -0.13548E-01
  0.22211E-02  0.32179E-02 -0.13548E-01
  0.13865E-02  0.36559E-02 -0.13548E-01
  0.47130E-03  0.38815E-02 -0.13548E-01
 -0.47130E-03  0.38815E-02 -0.13548E-01
 -0.13865E-02  0.36559E-02 -0.13548E-01
 -0.22211E-02  0.32179E-02 -0.13548E-01
 -0.29267E-02  0.25928E-02 -0.13548E-01
 -0.34621E-02  0.18171E-02 -0.13548E-01
 -0.37964E-02  0.93572E-03 -0.13548E-01
 -0.39100E-02  0.22152E-17 -0.13548E-01
 -0.37964E-02 -0.93572E-03 -0.13548E-01
 -0.34621E-02 -0.18171E-02 -0.13548E-01
 -0.29267E-02 -0.25928E-02 -0.13548E-01
 -0.22211E-02 -0.32179E-02 -0.13548E-01
 -0.13865E-02 -0.36559E-02 -0.13548E-01
 -0.47130E-03 -0.38815E-02 -0.13548E-01
  0.47130E-03 -0.38815E-02 -0.13548E-01
  0.13865E-02 -0.36559E-02 -0.13548E-01
  0.22211E-02 -0.32179E-02 -0.13548E-01
  0.29267E-02 -0.25928E-02 -0.13548E-01
  0.34621E-02 -0.18171E-02 -0.13548E-01
  0.37964E-02 -0.93572E-03 -0.13548E-01
  0.10363E-02  0.68013E-03 -0.12569E-01
  0.17429E-02  0.12394E-02 -0.12569E-01
  0.23161E-02  0.59831E-03 -0.12569E-01
  0.16670E-02 -0.32794E-03 -0.12569E-01
  0.30374E-02  0.15354E-03 -0.12569E-01
  0.27836E-02 -0.67002E-03 -0.12569E-01
  0.12837E-02  0.18436E-02 -0.12569E-01
  0.64820E-03  0.14706E-02 -0.12569E-01
  0.12416E-03  0.31426E-03 -0.12569E-01
 -0.13063E-03  0.11900E-02 -0.12569E-01
  0.94069E-03  0.22765E-02 -0.12569E-01
  0.11282E-02  0.28229E-02 -0.12569E-01
  0.17439E-02  0.24257E-02 -0.12569E-01
  0.40518E-03  0.21689E-02 -0.12569E-01
  0.39757E-03  0.29332E-02 -0.12569E-01
 -0.76763E-03 -0.10051E-02 -0.12569E-01
 -0.86746E-03  0.89490E-04 -0.12569E-01
  0.45537E-03 -0.69374E-03 -0.12569E-01
 -0.18338E-02 -0.71013E-03 -0.12569E-01
 -0.18428E-02  0.84355E-04 -0.12569E-01
 -0.27234E-02 -0.77644E-03 -0.12569E-01
 -0.27992E-02  0.44266E-04 -0.12569E-01
 -0.25385E-02 -0.15188E-02 -0.12569E-01
 -0.19343E-02 -0.13216E-02 -0.12569E-01
 -0.99176E-03  0.10061E-02 -0.12569E-01
 -0.14425E-02 -0.17320E-02 -0.12569E-01
 -0.31314E-03  0.20257E-02 -0.12569E-01
 -0.11023E-02  0.18598E-02 -0.12569E-01
 -0.18839E-02  0.17175E-02 -0.12569E-01
 -0.18696E-02  0.91252E-03 -0.12569E-01
 -0.16229E-03 -0.19803E-02 -0.12569E-01
 -0.94867E-03 -0.23492E-02 -0.12569E-01
  0.77997E-03 -0.17073E-02 -0.12569E-01
  0.17205E-02 -0.14926E-02 -0.12569E-01
  0.32092E-02  0.77343E-03 -0.12569E-01
  0.28043E-02  0.12533E-02 -0.12569E-01
  0.23044E-02  0.18670E-02 -0.12569E-01
 -0.40434E-03  0.28899E-02 -0.12569E-01
 -0.12093E-02  0.27146E-02 -0.12569E-01
 -0.19443E-02  0.24613E-02 -0.12569E-01
 -0.25025E-02  0.22358E-02 -0.12569E-01
 -0.26359E-02  0.16503E-02 -0.12569E-01
 -0.27630E-02  0.87833E-03 -0.12569E-01
 -0.21141E-02 -0.21374E-02 -0.12569E-01
 -0.16093E-02 -0.26934E-02 -0.12569E-01
 -0.11954E-02 -0.31291E-02 -0.12569E-01
 -0.59095E-03 -0.30382E-02 -0.12569E-01
  0.20384E-03 -0.28750E-02 -0.12569E-01
  0.10546E-02 -0.26458E-02 -0.12569E-01
  0.18419E-02 -0.23734E-02 -0.12569E-01
  0.24560E-02 -0.21516E-02 -0.12569E-01
  0.26031E-02 -0.15091E-02 -0.12569E-01
  0.37964E-02  0.93572E-03 -0.12569E-01
  0.39100E-02  0.00000E+00 -0.12569E-01
  0.34621E-02  0.18171E-02 -0.12569E-01
  0.29267E-02  0.25928E-02 -0.12569E-01
  0.22211E-02  0.32179E-02 -0.12569E-01
  0.13865E-02  0.36559E-02 -0.12569E-01
  0.47130E-03  0.38815E-02 -0.12569E-01
 -0.47130E-03  0.38815E-02 -0.12569E-01
 -0.13865E-02  0.36559E-02 -0.12569E-01
 -0.22211E-02  0.32179E-02 -0.12569E-01
 -0.29267E-02  0.25928E-02 -0.12569E-01
 -0.34621E-02  0.18171E-02 -0.12569E-01
 -0.37964E-02  0.93572E-03 -0.12569E-01
 -0.39100E-02 -0.47884E-18 -0.12569E-01
 -0.37964E-02 -0.93572E-03 -0.12569E-01
 -0.34621E-02 -0.18171E-02 -0.12569E-01
 -0.29267E-02 -0.25928E-02 -0.12569E-01
 -0.22211E-02 -0.32179E-02 -0.12569E-01
 -0.13865E-02 -0.36559E-02 -0.12569E-01
 -0.47130E-03 -0.38815E-02 -0.12569E-01
  0.47130E-03 -0.38815E-02 -0.12569E-01
  0.13865E-02 -0.36559E-02 -0.12569E-01
  0.22211E-02 -0.32179E-02 -0.12569E-01
  0.29267E-02 -0.25928E-02 -0.12569E-01
  0.34621E-02 -0.18171E-02 -0.12569E-01
  0.37964E-02 -0.93572E-03 -0.12569E-01
  0.10362E-02  0.68068E-03 -0.11590E-01
  0.17427E-02  0.12401E-02 -0.11590E-01
  0.23160E-02  0.59884E-03 -0.11590E-01
  0.16668E-02 -0.32719E-03 -0.11590E-01
  0.30373E-02  0.15391E-03 -0.11590E-01
  0.27839E-02 -0.66953E-03 -0.11590E-01
  0.12836E-02  0.18438E-02 -0.11590E-01
  0.64796E-03  0.14716E-02 -0.11590E-01
  0.12390E-03  0.31541E-03 -0.11590E-01
 -0.13082E-03  0.11917E-02 -0.11590E-01
  0.94036E-03  0.22766E-02 -0.11590E-01
  0.11279E-02  0.28225E-02 -0.11590E-01
  0.17435E-02  0.24258E-02 -0.11590E-01
  0.40512E-03  0.21690E-02 -0.11590E-01
  0.39755E-03  0.29330E-02 -0.11590E-01
 -0.76798E-03 -0.10053E-02 -0.11590E-01
 -0.86756E-03  0.90299E-04 -0.11590E-01
  0.45492E-03 -0.69302E-03 -0.11590E-01
 -0.18341E-02 -0.70999E-03 -0.11590E-01
 -0.18427E-02  0.84479E-04 -0.11590E-01
 -0.27234E-02 -0.77627E-03 -0.11590E-01
 -0.27990E-02  0.44540E-04 -0.11590E-01
 -0.25386E-02 -0.15188E-02 -0.11590E-01
 -0.19347E-02 -0.13215E-02 -0.11590E-01
 -0.99161E-03  0.10075E-02 -0.11590E-01
 -0.14429E-02 -0.17319E-02 -0.11590E-01
 -0.31294E-03  0.20260E-02 -0.11590E-01
 -0.11019E-02  0.18597E-02 -0.11590E-01
 -0.18838E-02  0.17175E-02 -0.11590E-01
 -0.18695E-02  0.91276E-03 -0.11590E-01
 -0.16256E-03 -0.19804E-02 -0.11590E-01
 -0.94927E-03 -0.23493E-02 -0.11590E-01
  0.77931E-03 -0.17073E-02 -0.11590E-01
  0.17205E-02 -0.14928E-02 -0.11590E-01
  0.32096E-02  0.77444E-03 -0.11590E-01
  0.28043E-02  0.12537E-02 -0.11590E-01
  0.23043E-02  0.18670E-02 -0.11590E-01
 -0.40420E-03  0.28888E-02 -0.11590E-01
 -0.12093E-02  0.27141E-02 -0.11590E-01
 -0.19443E-02  0.24611E-02 -0.11590E-01
 -0.25024E-02  0.22358E-02 -0.11590E-01
 -0.26358E-02  0.16503E-02 -0.11590E-01
 -0.27627E-02  0.87859E-03 -0.11590E-01
 -0.21143E-02 -0.21374E-02 -0.11590E-01
 -0.16093E-02 -0.26934E-02 -0.11590E-01
 -0.11955E-02 -0.31291E-02 -0.11590E-01
 -0.59130E-03 -0.30382E-02 -0.11590E-01
  0.20343E-03 -0.28750E-02 -0.11590E-01
  0.10543E-02 -0.26460E-02 -0.11590E-01
  0.18419E-02 -0.23736E-02 -0.11590E-01
  0.24561E-02 -0.21521E-02 -0.11590E-01
  0.26032E-02 -0.15090E-02 -0.11590E-01
  0.37964E-02  0.93572E-03 -0.11590E-01
  0.39100E-02  0.00000E+00 -0.11590E-01
  0.34621E-02  0.18171E-02 -0.11590E-01
  0.29267E-02  0.25928E-02 -0.11590E-01
  0.22211E-02  0.32179E-02 -0.11590E-01
  0.13865E-02  0.36559E-02 -0.11590E-01
  0.47130E-03  0.38815E-02 -0.11590E-01
 -0.47130E-03  0.38815E-02 -0.11590E-01
 -0.13865E-02  0.36559E-02 -0.11590E-01
 -0.22211E-02  0.32179E-02 -0.11590E-01
 -0.29267E-02  0.25928E-02 -0.11590E-01
 -0.34621E-02  0.18171E-02 -0.11590E-01
 -0.37964E-02  0.93572E-03 -0.11590E-01
 -0.39100E-02  0.22152E-17 -0.11590E-01
 -0.37964E-02 -0.93572E-03 -0.11590E-01
 -0.34621E-02 -0.18171E-02 -0.11590E-01
 -0.29267E-02 -0.25928E-02 -0.11590E-01
 -0.22211E-02 -0.32179E-02 -0.11590E-01
 -0.13865E-02 -0.36559E-02 -0.11590E-01
 -0.47130E-03 -0.38815E-02 -0.11590E-01
  0.47130E-03 -0.38815E-02 -0.11590E-01
  0.13865E-02 -0.36559E-02 -0.11590E-01
  0.22211E-02 -0.32179E-02 -0.11590E-01
  0.29267E-02 -0.25928E-02 -0.11590E-01
  0.34621E-02 -0.18171E-02 -0.11590E-01
  0.37964E-02 -0.93572E-03 -0.11590E-01
  0.10360E-02  0.68124E-03 -0.10610E-01
  0.17425E-02  0.12407E-02 -0.10610E-01
  0.23158E-02  0.59936E-03 -0.10610E-01
  0.16666E-02 -0.32643E-03 -0.10610E-01
  0.30373E-02  0.15427E-03 -0.10610E-01
  0.27842E-02 -0.66903E-03 -0.10610E-01
  0.12835E-02  0.18440E-02 -0.10610E-01
  0.64771E-03  0.14727E-02 -0.10610E-01
  0.12363E-03  0.31656E-03 -0.10610E-01
 -0.13100E-03  0.11935E-02 -0.10610E-01
  0.94003E-03  0.22767E-02 -0.10610E-01
  0.11276E-02  0.28220E-02 -0.10610E-01
  0.17432E-02  0.24260E-02 -0.10610E-01
  0.40507E-03  0.21690E-02 -0.10610E-01
  0.39754E-03  0.29327E-02 -0.10610E-01
 -0.76834E-03 -0.10054E-02 -0.10610E-01
 -0.86767E-03  0.91108E-04 -0.10610E-01
  0.45447E-03 -0.69229E-03 -0.10610E-01
 -0.18344E-02 -0.70985E-03 -0.10610E-01
 -0.18426E-02  0.84602E-04 -0.10610E-01
 -0.27234E-02 -0.77610E-03 -0.10610E-01
 -0.27987E-02  0.44813E-04 -0.10610E-01
 -0.25388E-02 -0.15187E-02 -0.10610E-01
 -0.19352E-02 -0.13215E-02 -0.10610E-01
 -0.99147E-03  0.10088E-02 -0.10610E-01
 -0.14433E-02 -0.17319E-02 -0.10610E-01
 -0.31274E-03  0.20262E-02 -0.10610E-01
 -0.11016E-02  0.18595E-02 -0.10610E-01
 -0.18838E-02  0.17175E-02 -0.10610E-01
 -0.18694E-02  0.91300E-03 -0.10610E-01
 -0.16284E-03 -0.19804E-02 -0.10610E-01
 -0.94986E-03 -0.23493E-02 -0.10610E-01
  0.77865E-03 -0.17073E-02 -0.10610E-01
  0.17205E-02 -0.14931E-02 -0.10610E-01
  0.32099E-02  0.77544E-03 -0.10610E-01
  0.28042E-02  0.12541E-02 -0.10610E-01
  0.23042E-02  0.18671E-02 -0.10610E-01
 -0.40407E-03  0.28877E-02 -0.10610E-01
 -0.12093E-02  0.27137E-02 -0.10610E-01
 -0.19442E-02  0.24609E-02 -0.10610E-01
 -0.25024E-02  0.22358E-02 -0.10610E-01
 -0.26358E-02  0.16503E-02 -0.10610E-01
 -0.27624E-02  0.87885E-03 -0.10610E-01
 -0.21144E-02 -0.21374E-02 -0.10610E-01
 -0.16094E-02 -0.26934E-02 -0.10610E-01
 -0.11956E-02 -0.31291E-02 -0.10610E-01
 -0.59165E-03 -0.30382E-02 -0.10610E-01
  0.20302E-03 -0.28750E-02 -0.10610E-01
  0.10540E-02 -0.26463E-02 -0.10610E-01
  0.18419E-02 -0.23738E-02 -0.10610E-01
  0.24563E-02 -0.21527E-02 -0.10610E-01
  0.26033E-02 -0.15088E-02 -0.10610E-01
  0.37964E-02  0.93572E-03 -0.10610E-01
  0.39100E-02  0.00000E+00 -0.10610E-01
  0.34621E-02  0.18171E-02 -0.10610E-01
  0.29267E-02  0.25928E-02 -0.10610E-01
  0.22211E-02  0.32179E-02 -0.10610E-01
  0.13865E-02  0.36559E-02 -0.10610E-01
  0.47130E-03  0.38815E-02 -0.10610E-01
 -0.47130E-03  0.38815E-02 -0.10610E-01
 -0.13865E-02  0.36559E-02 -0.10610E-01
 -0.22211E-02  0.32179E-02 -0.10610E-01
 -0.29267E-02  0.25928E-02 -0.10610E-01
 -0.34621E-02  0.18171E-02 -0.10610E-01
 -0.37964E-02  0.93572E-03 -0.10610E-01
 -0.39100E-02 -0.47884E-18 -0.10610E-01
 -0.37964E-02 -0.93572E-03 -0.10610E-01
 -0.34621E-02 -0.18171E-02 -0.10610E-01
 -0.29267E-02 -0.25928E-02 -0.10610E-01
 -0.22211E-02 -0.32179E-02 -0.10610E-01
 -0.13865E-02 -0.36559E-02 -0.10610E-01
 -0.47130E-03 -0.38815E-02 -0.10610E-01
  0.47130E-03 -0.38815E-02 -0.10610E-01
  0.13865E-02 -0.36559E-02 -0.10610E-01
  0.22211E-02 -0.32179E-02 -0.10610E-01
  0.29267E-02 -0.25928E-02 -0.10610E-01
  0.34621E-02 -0.18171E-02 -0.10610E-01
  0.37964E-02 -0.93572E-03 -0.10610E-01
  0.10359E-02  0.68179E-03 -0.96312E-02
  0.17423E-02  0.12414E-02 -0.96312E-02
  0.23157E-02  0.59988E-03 -0.96312E-02
  0.16664E-02 -0.32568E-03 -0.96312E-02
  0.30373E-02  0.15463E-03 -0.96312E-02
  0.27846E-02 -0.66854E-03 -0.96312E-02
  0.12834E-02  0.18442E-02 -0.96312E-02
  0.64747E-03  0.14736E-02 -0.96312E-02
  0.12337E-03  0.31770E-03 -0.96312E-02
 -0.13118E-03  0.11952E-02 -0.96312E-02
  0.93970E-03  0.22768E-02 -0.96312E-02
  0.11272E-02  0.28216E-02 -0.96312E-02
  0.17428E-02  0.24261E-02 -0.96312E-02
  0.40501E-03  0.21690E-02 -0.96312E-02
  0.39752E-03  0.29324E-02 -0.96312E-02
 -0.76869E-03 -0.10056E-02 -0.96312E-02
 -0.86778E-03  0.91918E-04 -0.96312E-02
  0.45402E-03 -0.69156E-03 -0.96312E-02
 -0.18347E-02 -0.70971E-03 -0.96312E-02
 -0.18425E-02  0.84726E-04 -0.96312E-02
 -0.27234E-02 -0.77593E-03 -0.96312E-02
 -0.27984E-02  0.45086E-04 -0.96312E-02
 -0.25389E-02 -0.15187E-02 -0.96312E-02
 -0.19356E-02 -0.13213E-02 -0.96312E-02
 -0.99133E-03  0.10102E-02 -0.96312E-02
 -0.14436E-02 -0.17318E-02 -0.96312E-02
 -0.31254E-03  0.20265E-02 -0.96312E-02
 -0.11013E-02  0.18594E-02 -0.96312E-02
 -0.18837E-02  0.17175E-02 -0.96312E-02
 -0.18692E-02  0.91324E-03 -0.96312E-02
 -0.16311E-03 -0.19804E-02 -0.96312E-02
 -0.95046E-03 -0.23493E-02 -0.96312E-02
  0.77799E-03 -0.17073E-02 -0.96312E-02
  0.17204E-02 -0.14933E-02 -0.96312E-02
  0.32102E-02  0.77645E-03 -0.96312E-02
  0.28042E-02  0.12545E-02 -0.96312E-02
  0.23041E-02  0.18671E-02 -0.96312E-02
 -0.40393E-03  0.28867E-02 -0.96312E-02
 -0.12093E-02  0.27132E-02 -0.96312E-02
 -0.19442E-02  0.24606E-02 -0.96312E-02
 -0.25024E-02  0.22358E-02 -0.96312E-02
 -0.26357E-02  0.16503E-02 -0.96312E-02
 -0.27621E-02  0.87912E-03 -0.96312E-02
 -0.21146E-02 -0.21374E-02 -0.96312E-02
 -0.16094E-02 -0.26935E-02 -0.96312E-02
 -0.11957E-02 -0.31291E-02 -0.96312E-02
 -0.59200E-03 -0.30381E-02 -0.96312E-02
  0.20262E-03 -0.28750E-02 -0.96312E-02
  0.10536E-02 -0.26466E-02 -0.96312E-02
  0.18420E-02 -0.23740E-02 -0.96312E-02
  0.24564E-02 -0.21533E-02 -0.96312E-02
  0.26033E-02 -0.15087E-02 -0.96312E-02
  0.37964E-02  0.93572E-03 -0.96312E-02
  0.39100E-02  0.00000E+00 -0.96312E-02
  0.34621E-02  0.18171E-02 -0.96312E-02
  0.29267E-02  0.25928E-02 -0.96312E-02
  0.22211E-02  0.32179E-02 -0.96312E-02
  0.13865E-02  0.36559E-02 -0.96312E-02
  0.47130E-03  0.38815E-02 -0.96312E-02
 -0.47130E-03  0.38815E-02 -0.96312E-02
 -0.13865E-02  0.36559E-02 -0.96312E-02
 -0.22211E-02  0.32179E-02 -0.96312E-02
 -0.29267E-02  0.25928E-02 -0.96312E-02
 -0.34621E-02  0.18171E-02 -0.96312E-02
 -0.37964E-02  0.93572E-03 -0.96312E-02
 -0.39100E-02 -0.47884E-18 -0.96312E-02
 -0.37964E-02 -0.93572E-03 -0.96312E-02
 -0.34621E-02 -0.18171E-02 -0.96312E-02
 -0.29267E-02 -0.25928E-02 -0.96312E-02
 -0.22211E-02 -0.32179E-02 -0.96312E-02
 -0.13865E-02 -0.36559E-02 -0.96312E-02
 -0.47130E-03 -0.38815E-02 -0.96312E-02
  0.47130E-03 -0.38815E-02 -0.96312E-02
  0.13865E-02 -0.36559E-02 -0.96312E-02
  0.22211E-02 -0.32179E-02 -0.96312E-02
  0.29267E-02 -0.25928E-02 -0.96312E-02
  0.34621E-02 -0.18171E-02 -0.96312E-02
  0.37964E-02 -0.93572E-03 -0.96312E-02
  0.10358E-02  0.68235E-03 -0.86520E-02
  0.17422E-02  0.12421E-02 -0.86520E-02
  0.23156E-02  0.60041E-03 -0.86520E-02
  0.16662E-02 -0.32493E-03 -0.86520E-02
  0.30373E-02  0.15500E-03 -0.86520E-02
  0.27849E-02 -0.66805E-03 -0.86520E-02
  0.12833E-02  0.18444E-02 -0.86520E-02
  0.64722E-03  0.14747E-02 -0.86520E-02
  0.12311E-03  0.31885E-03 -0.86520E-02
 -0.13137E-03  0.11970E-02 -0.86520E-02
  0.93937E-03  0.22770E-02 -0.86520E-02
  0.11269E-02  0.28211E-02 -0.86520E-02
  0.17424E-02  0.24262E-02 -0.86520E-02
  0.40496E-03  0.21691E-02 -0.86520E-02
  0.39750E-03  0.29322E-02 -0.86520E-02
 -0.76904E-03 -0.10057E-02 -0.86520E-02
 -0.86789E-03  0.92727E-04 -0.86520E-02
  0.45358E-03 -0.69084E-03 -0.86520E-02
 -0.18350E-02 -0.70957E-03 -0.86520E-02
 -0.18424E-02  0.84849E-04 -0.86520E-02
 -0.27233E-02 -0.77576E-03 -0.86520E-02
 -0.27981E-02  0.45359E-04 -0.86520E-02
 -0.25391E-02 -0.15186E-02 -0.86520E-02
 -0.19360E-02 -0.13212E-02 -0.86520E-02
 -0.99118E-03  0.10115E-02 -0.86520E-02
 -0.14440E-02 -0.17318E-02 -0.86520E-02
 -0.31234E-03  0.20268E-02 -0.86520E-02
 -0.11009E-02  0.18593E-02 -0.86520E-02
 -0.18836E-02  0.17175E-02 -0.86520E-02
 -0.18691E-02  0.91347E-03 -0.86520E-02
 -0.16339E-03 -0.19804E-02 -0.86520E-02
 -0.95106E-03 -0.23493E-02 -0.86520E-02
  0.77733E-03 -0.17073E-02 -0.86520E-02
  0.17204E-02 -0.14936E-02 -0.86520E-02
  0.32105E-02  0.77745E-03 -0.86520E-02
  0.28042E-02  0.12550E-02 -0.86520E-02
  0.23040E-02  0.18671E-02 -0.86520E-02
 -0.40379E-03  0.28856E-02 -0.86520E-02
 -0.12093E-02  0.27127E-02 -0.86520E-02
 -0.19441E-02  0.24604E-02 -0.86520E-02
 -0.25023E-02  0.22358E-02 -0.86520E-02
 -0.26356E-02  0.16503E-02 -0.86520E-02
 -0.27618E-02  0.87938E-03 -0.86520E-02
 -0.21147E-02 -0.21374E-02 -0.86520E-02
 -0.16094E-02 -0.26935E-02 -0.86520E-02
 -0.11958E-02 -0.31291E-02 -0.86520E-02
 -0.59235E-03 -0.30381E-02 -0.86520E-02
  0.20221E-03 -0.28750E-02 -0.86520E-02
  0.10533E-02 -0.26468E-02 -0.86520E-02
  0.18420E-02 -0.23742E-02 -0.86520E-02
  0.24565E-02 -0.21538E-02 -0.86520E-02
  0.26034E-02 -0.15086E-02 -0.86520E-02
  0.37964E-02  0.93572E-03 -0.86520E-02
  0.39100E-02  0.00000E+00 -0.86520E-02
  0.34621E-02  0.18171E-02 -0.86520E-02
  0.29267E-02  0.25928E-02 -0.86520E-02
  0.22211E-02  0.32179E-02 -0.86520E-02
  0.13865E-02  0.36559E-02 -0.86520E-02
  0.47130E-03  0.38815E-02 -0.86520E-02
 -0.47130E-03  0.38815E-02 -0.86520E-02
 -0.13865E-02  0.36559E-02 -0.86520E-02
 -0.22211E-02  0.32179E-02 -0.86520E-02
 -0.29267E-02  0.25928E-02 -0.86520E-02
 -0.34621E-02  0.18171E-02 -0.86520E-02
 -0.37964E-02  0.93572E-03 -0.86520E-02
 -0.39100E-02 -0.47884E-18 -0.86520E-02
 -0.37964E-02 -0.93572E-03 -0.86520E-02
 -0.34621E-02 -0.18171E-02 -0.86520E-02
 -0.29267E-02 -0.25928E-02 -0.86520E-02
 -0.22211E-02 -0.32179E-02 -0.86520E-02
 -0.13865E-02 -0.36559E-02 -0.86520E-02
 -0.47130E-03 -0.38815E-02 -0.86520E-02
  0.47130E-03 -0.38815E-02 -0.86520E-02
  0.13865E-02 -0.36559E-02 -0.86520E-02
  0.22211E-02 -0.32179E-02 -0.86520E-02
  0.29267E-02 -0.25928E-02 -0.86520E-02
  0.34621E-02 -0.18171E-02 -0.86520E-02
  0.37964E-02 -0.93572E-03 -0.86520E-02
  0.10357E-02  0.68290E-03 -0.76728E-02
  0.17420E-02  0.12427E-02 -0.76728E-02
  0.23155E-02  0.60093E-03 -0.76728E-02
  0.16660E-02 -0.32417E-03 -0.76728E-02
  0.30372E-02  0.15536E-03 -0.76728E-02
  0.27853E-02 -0.66755E-03 -0.76728E-02
  0.12832E-02  0.18445E-02 -0.76728E-02
  0.64698E-03  0.14757E-02 -0.76728E-02
  0.12285E-03  0.32000E-03 -0.76728E-02
 -0.13155E-03  0.11987E-02 -0.76728E-02
  0.93903E-03  0.22771E-02 -0.76728E-02
  0.11266E-02  0.28207E-02 -0.76728E-02
  0.17420E-02  0.24264E-02 -0.76728E-02
  0.40490E-03  0.21691E-02 -0.76728E-02
  0.39749E-03  0.29319E-02 -0.76728E-02
 -0.76940E-03 -0.10058E-02 -0.76728E-02
 -0.86800E-03  0.93536E-04 -0.76728E-02
  0.45313E-03 -0.69011E-03 -0.76728E-02
 -0.18353E-02 -0.70943E-03 -0.76728E-02
 -0.18423E-02  0.84973E-04 -0.76728E-02
 -0.27233E-02 -0.77559E-03 -0.76728E-02
 -0.27979E-02  0.45633E-04 -0.76728E-02
 -0.25393E-02 -0.15186E-02 -0.76728E-02
 -0.19365E-02 -0.13212E-02 -0.76728E-02
 -0.99104E-03  0.10129E-02 -0.76728E-02
 -0.14443E-02 -0.17318E-02 -0.76728E-02
 -0.31214E-03  0.20271E-02 -0.76728E-02
 -0.11006E-02  0.18592E-02 -0.76728E-02
 -0.18836E-02  0.17175E-02 -0.76728E-02
 -0.18690E-02  0.91371E-03 -0.76728E-02
 -0.16366E-03 -0.19805E-02 -0.76728E-02
 -0.95166E-03 -0.23493E-02 -0.76728E-02
  0.77667E-03 -0.17073E-02 -0.76728E-02
  0.17203E-02 -0.14938E-02 -0.76728E-02
  0.32109E-02  0.77846E-03 -0.76728E-02
  0.28042E-02  0.12554E-02 -0.76728E-02
  0.23039E-02  0.18672E-02 -0.76728E-02
 -0.40365E-03  0.28845E-02 -0.76728E-02
 -0.12093E-02  0.27122E-02 -0.76728E-02
 -0.19441E-02  0.24602E-02 -0.76728E-02
 -0.25023E-02  0.22358E-02 -0.76728E-02
 -0.26355E-02  0.16502E-02 -0.76728E-02
 -0.27615E-02  0.87964E-03 -0.76728E-02
 -0.21148E-02 -0.21374E-02 -0.76728E-02
 -0.16095E-02 -0.26935E-02 -0.76728E-02
 -0.11960E-02 -0.31291E-02 -0.76728E-02
 -0.59270E-03 -0.30381E-02 -0.76728E-02
  0.20180E-03 -0.28750E-02 -0.76728E-02
  0.10530E-02 -0.26471E-02 -0.76728E-02
  0.18421E-02 -0.23744E-02 -0.76728E-02
  0.24566E-02 -0.21543E-02 -0.76728E-02
  0.26035E-02 -0.15085E-02 -0.76728E-02
  0.37964E-02  0.93572E-03 -0.76728E-02
  0.39100E-02  0.00000E+00 -0.76728E-02
  0.34621E-02  0.18171E-02 -0.76728E-02
  0.29267E-02  0.25928E-02 -0.76728E-02
  0.22211E-02  0.32179E-02 -0.76728E-02
  0.13865E-02  0.36559E-02 -0.76728E-02
  0.47130E-03  0.38815E-02 -0.76728E-02
 -0.47130E-03  0.38815E-02 -0.76728E-02
 -0.13865E-02  0.36559E-02 -0.76728E-02
 -0.22211E-02  0.32179E-02 -0.76728E-02
 -0.29267E-02  0.25928E-02 -0.76728E-02
 -0.34621E-02  0.18171E-02 -0.76728E-02
 -0.37964E-02  0.93572E-03 -0.76728E-02
 -0.39100E-02 -0.47884E-18 -0.76728E-02
 -0.37964E-02 -0.93572E-03 -0.76728E-02
 -0.34621E-02 -0.18171E-02 -0.76728E-02
 -0.29267E-02 -0.25928E-02 -0.76728E-02
 -0.22211E-02 -0.32179E-02 -0.76728E-02
 -0.13865E-02 -0.36559E-02 -0.76728E-02
 -0.47130E-03 -0.38815E-02 -0.76728E-02
  0.47130E-03 -0.38815E-02 -0.76728E-02
  0.13865E-02 -0.36559E-02 -0.76728E-02
  0.22211E-02 -0.32179E-02 -0.76728E-02
  0.29267E-02 -0.25928E-02 -0.76728E-02
  0.34621E-02 -0.18171E-02 -0.76728E-02
  0.37964E-02 -0.93572E-03 -0.76728E-02
  0.10356E-02  0.68346E-03 -0.66937E-02
  0.17418E-02  0.12434E-02 -0.66937E-02
  0.23153E-02  0.60145E-03 -0.66937E-02
  0.16657E-02 -0.32342E-03 -0.66937E-02
  0.30372E-02  0.15572E-03 -0.66937E-02
  0.27856E-02 -0.66706E-03 -0.66937E-02
  0.12830E-02  0.18447E-02 -0.66937E-02
  0.64673E-03  0.14767E-02 -0.66937E-02
  0.12259E-03  0.32115E-03 -0.66937E-02
 -0.13174E-03  0.12005E-02 -0.66937E-02
  0.93870E-03  0.22772E-02 -0.66937E-02
  0.11262E-02  0.28203E-02 -0.66937E-02
  0.17416E-02  0.24265E-02 -0.66937E-02
  0.40485E-03  0.21691E-02 -0.66937E-02
  0.39747E-03  0.29316E-02 -0.66937E-02
 -0.76975E-03 -0.10060E-02 -0.66937E-02
 -0.86811E-03  0.94345E-04 -0.66937E-02
  0.45268E-03 -0.68939E-03 -0.66937E-02
 -0.18356E-02 -0.70929E-03 -0.66937E-02
 -0.18422E-02  0.85096E-04 -0.66937E-02
 -0.27233E-02 -0.77542E-03 -0.66937E-02
 -0.27976E-02  0.45906E-04 -0.66937E-02
 -0.25394E-02 -0.15185E-02 -0.66937E-02
 -0.19369E-02 -0.13211E-02 -0.66937E-02
 -0.99090E-03  0.10142E-02 -0.66937E-02
 -0.14446E-02 -0.17317E-02 -0.66937E-02
 -0.31194E-03  0.20274E-02 -0.66937E-02
 -0.11002E-02  0.18590E-02 -0.66937E-02
 -0.18835E-02  0.17175E-02 -0.66937E-02
 -0.18689E-02  0.91395E-03 -0.66937E-02
 -0.16394E-03 -0.19805E-02 -0.66937E-02
 -0.95226E-03 -0.23494E-02 -0.66937E-02
  0.77601E-03 -0.17073E-02 -0.66937E-02
  0.17203E-02 -0.14941E-02 -0.66937E-02
  0.32112E-02  0.77946E-03 -0.66937E-02
  0.28042E-02  0.12558E-02 -0.66937E-02
  0.23038E-02  0.18672E-02 -0.66937E-02
 -0.40352E-03  0.28835E-02 -0.66937E-02
 -0.12093E-02  0.27118E-02 -0.66937E-02
 -0.19441E-02  0.24600E-02 -0.66937E-02
 -0.25023E-02  0.22358E-02 -0.66937E-02
 -0.26354E-02  0.16502E-02 -0.66937E-02
 -0.27612E-02  0.87990E-03 -0.66937E-02
 -0.21150E-02 -0.21374E-02 -0.66937E-02
 -0.16095E-02 -0.26935E-02 -0.66937E-02
 -0.11961E-02 -0.31291E-02 -0.66937E-02
 -0.59305E-03 -0.30381E-02 -0.66937E-02
  0.20140E-03 -0.28750E-02 -0.66937E-02
  0.10527E-02 -0.26474E-02 -0.66937E-02
  0.18421E-02 -0.23746E-02 -0.66937E-02
  0.24568E-02 -0.21549E-02 -0.66937E-02
  0.26036E-02 -0.15084E-02 -0.66937E-02
  0.37964E-02  0.93572E-03 -0.66937E-02
  0.39100E-02  0.00000E+00 -0.66937E-02
  0.34621E-02  0.18171E-02 -0.66937E-02
  0.29267E-02  0.25928E-02 -0.66937E-02
  0.22211E-02  0.32179E-02 -0.66937E-02
  0.13865E-02  0.36559E-02 -0.66937E-02
  0.47130E-03  0.38815E-02 -0.66937E-02
 -0.47130E-03  0.38815E-02 -0.66937E-02
 -0.13865E-02  0.36559E-02 -0.66937E-02
 -0.22211E-02  0.32179E-02 -0.66937E-02
 -0.29267E-02  0.25928E-02 -0.66937E-02
 -0.34621E-02  0.18171E-02 -0.66937E-02
 -0.37964E-02  0.93572E-03 -0.66937E-02
 -0.39100E-02  0.22152E-17 -0.66937E-02
 -0.37964E-02 -0.93572E-03 -0.66937E-02
 -0.34621E-02 -0.18171E-02 -0.66937E-02
 -0.29267E-02 -0.25928E-02 -0.66937E-02
 -0.22211E-02 -0.32179E-02 -0.66937E-02
 -0.13865E-02 -0.36559E-02 -0.66937E-02
 -0.47130E-03 -0.38815E-02 -0.66937E-02
  0.47130E-03 -0.38815E-02 -0.66937E-02
  0.13865E-02 -0.36559E-02 -0.66937E-02
  0.22211E-02 -0.32179E-02 -0.66937E-02
  0.29267E-02 -0.25928E-02 -0.66937E-02
  0.34621E-02 -0.18171E-02 -0.66937E-02
  0.37964E-02 -0.93572E-03 -0.66937E-02
  0.10355E-02  0.68401E-03 -0.57145E-02
  0.17416E-02  0.12440E-02 -0.57145E-02
  0.23152E-02  0.60198E-03 -0.57145E-02
  0.16655E-02 -0.32266E-03 -0.57145E-02
  0.30372E-02  0.15609E-03 -0.57145E-02
  0.27860E-02 -0.66657E-03 -0.57145E-02
  0.12829E-02  0.18449E-02 -0.57145E-02
  0.64649E-03  0.14777E-02 -0.57145E-02
  0.12232E-03  0.32230E-03 -0.57145E-02
 -0.13193E-03  0.12022E-02 -0.57145E-02
  0.93837E-03  0.22774E-02 -0.57145E-02
  0.11259E-02  0.28198E-02 -0.57145E-02
  0.17412E-02  0.24267E-02 -0.57145E-02
  0.40480E-03  0.21692E-02 -0.57145E-02
  0.39745E-03  0.29314E-02 -0.57145E-02
 -0.77011E-03 -0.10061E-02 -0.57145E-02
 -0.86822E-03  0.95155E-04 -0.57145E-02
  0.45223E-03 -0.68866E-03 -0.57145E-02
 -0.18359E-02 -0.70915E-03 -0.57145E-02
 -0.18421E-02  0.85220E-04 -0.57145E-02
 -0.27232E-02 -0.77525E-03 -0.57145E-02
 -0.27973E-02  0.46180E-04 -0.57145E-02
 -0.25396E-02 -0.15185E-02 -0.57145E-02
 -0.19373E-02 -0.13210E-02 -0.57145E-02
 -0.99075E-03  0.10156E-02 -0.57145E-02
 -0.14450E-02 -0.17317E-02 -0.57145E-02
 -0.31173E-03  0.20277E-02 -0.57145E-02
 -0.10999E-02  0.18589E-02 -0.57145E-02
 -0.18835E-02  0.17175E-02 -0.57145E-02
 -0.18687E-02  0.91419E-03 -0.57145E-02
 -0.16421E-03 -0.19805E-02 -0.57145E-02
 -0.95285E-03 -0.23494E-02 -0.57145E-02
  0.77535E-03 -0.17073E-02 -0.57145E-02
  0.17202E-02 -0.14943E-02 -0.57145E-02
  0.32115E-02  0.78047E-03 -0.57145E-02
  0.28041E-02  0.12563E-02 -0.57145E-02
  0.23037E-02  0.18672E-02 -0.57145E-02
 -0.40338E-03  0.28824E-02 -0.57145E-02
 -0.12093E-02  0.27113E-02 -0.57145E-02
 -0.19440E-02  0.24597E-02 -0.57145E-02
 -0.25023E-02  0.22358E-02 -0.57145E-02
 -0.26353E-02  0.16502E-02 -0.57145E-02
 -0.27609E-02  0.88016E-03 -0.57145E-02
 -0.21151E-02 -0.21374E-02 -0.57145E-02
 -0.16096E-02 -0.26935E-02 -0.57145E-02
 -0.11962E-02 -0.31291E-02 -0.57145E-02
 -0.59340E-03 -0.30381E-02 -0.57145E-02
  0.20099E-03 -0.28751E-02 -0.57145E-02
  0.10524E-02 -0.26476E-02 -0.57145E-02
  0.18422E-02 -0.23748E-02 -0.57145E-02
  0.24569E-02 -0.21554E-02 -0.57145E-02
  0.26036E-02 -0.15083E-02 -0.57145E-02
  0.37964E-02  0.93572E-03 -0.57145E-02
  0.39100E-02  0.00000E+00 -0.57145E-02
  0.34621E-02  0.18171E-02 -0.57145E-02
  0.29267E-02  0.25928E-02 -0.57145E-02
  0.22211E-02  0.32179E-02 -0.57145E-02
  0.13865E-02  0.36559E-02 -0.57145E-02
  0.47130E-03  0.38815E-02 -0.57145E-02
 -0.47130E-03  0.38815E-02 -0.57145E-02
 -0.13865E-02  0.36559E-02 -0.57145E-02
 -0.22211E-02  0.32179E-02 -0.57145E-02
 -0.29267E-02  0.25928E-02 -0.57145E-02
 -0.34621E-02  0.18171E-02 -0.57145E-02
 -0.37964E-02  0.93572E-03 -0.57145E-02
 -0.39100E-02 -0.47884E-18 -0.57145E-02
 -0.37964E-02 -0.93572E-03 -0.57145E-02
 -0.34621E-02 -0.18171E-02 -0.57145E-02
 -0.29267E-02 -0.25928E-02 -0.57145E-02
 -0.22211E-02 -0.32179E-02 -0.57145E-02
 -0.13865E-02 -0.36559E-02 -0.57145E-02
 -0.47130E-03 -0.38815E-02 -0.57145E-02
  0.47130E-03 -0.38815E-02 -0.57145E-02
  0.13865E-02 -0.36559E-02 -0.57145E-02
  0.22211E-02 -0.32179E-02 -0.57145E-02
  0.29267E-02 -0.25928E-02 -0.57145E-02
  0.34621E-02 -0.18171E-02 -0.57145E-02
  0.37964E-02 -0.93572E-03 -0.57145E-02
  0.10354E-02  0.68457E-03 -0.47353E-02
  0.17414E-02  0.12447E-02 -0.47353E-02
  0.23151E-02  0.60250E-03 -0.47353E-02
  0.16653E-02 -0.32191E-03 -0.47353E-02
  0.30372E-02  0.15645E-03 -0.47353E-02
  0.27863E-02 -0.66607E-03 -0.47353E-02
  0.12829E-02  0.18451E-02 -0.47353E-02
  0.64624E-03  0.14787E-02 -0.47353E-02
  0.12206E-03  0.32345E-03 -0.47353E-02
 -0.13211E-03  0.12040E-02 -0.47353E-02
  0.93804E-03  0.22775E-02 -0.47353E-02
  0.11255E-02  0.28194E-02 -0.47353E-02
  0.17408E-02  0.24268E-02 -0.47353E-02
  0.40474E-03  0.21692E-02 -0.47353E-02
  0.39744E-03  0.29311E-02 -0.47353E-02
 -0.77046E-03 -0.10062E-02 -0.47353E-02
 -0.86832E-03  0.95964E-04 -0.47353E-02
  0.45179E-03 -0.68793E-03 -0.47353E-02
 -0.18362E-02 -0.70901E-03 -0.47353E-02
 -0.18420E-02  0.85343E-04 -0.47353E-02
 -0.27232E-02 -0.77507E-03 -0.47353E-02
 -0.27970E-02  0.46453E-04 -0.47353E-02
 -0.25397E-02 -0.15184E-02 -0.47353E-02
 -0.19377E-02 -0.13209E-02 -0.47353E-02
 -0.99061E-03  0.10169E-02 -0.47353E-02
 -0.14453E-02 -0.17316E-02 -0.47353E-02
 -0.31153E-03  0.20280E-02 -0.47353E-02
 -0.10995E-02  0.18588E-02 -0.47353E-02
 -0.18834E-02  0.17175E-02 -0.47353E-02
 -0.18686E-02  0.91443E-03 -0.47353E-02
 -0.16449E-03 -0.19806E-02 -0.47353E-02
 -0.95345E-03 -0.23494E-02 -0.47353E-02
  0.77469E-03 -0.17073E-02 -0.47353E-02
  0.17202E-02 -0.14945E-02 -0.47353E-02
  0.32119E-02  0.78148E-03 -0.47353E-02
  0.28041E-02  0.12567E-02 -0.47353E-02
  0.23036E-02  0.18673E-02 -0.47353E-02
 -0.40324E-03  0.28813E-02 -0.47353E-02
 -0.12093E-02  0.27108E-02 -0.47353E-02
 -0.19440E-02  0.24595E-02 -0.47353E-02
 -0.25022E-02  0.22358E-02 -0.47353E-02
 -0.26352E-02  0.16502E-02 -0.47353E-02
 -0.27606E-02  0.88043E-03 -0.47353E-02
 -0.21152E-02 -0.21374E-02 -0.47353E-02
 -0.16096E-02 -0.26936E-02 -0.47353E-02
 -0.11963E-02 -0.31291E-02 -0.47353E-02
 -0.59375E-03 -0.30381E-02 -0.47353E-02
  0.20059E-03 -0.28751E-02 -0.47353E-02
  0.10521E-02 -0.26479E-02 -0.47353E-02
  0.18422E-02 -0.23750E-02 -0.47353E-02
  0.24570E-02 -0.21560E-02 -0.47353E-02
  0.26037E-02 -0.15082E-02 -0.47353E-02
  0.37964E-02  0.93572E-03 -0.47353E-02
  0.39100E-02  0.00000E+00 -0.47353E-02
  0.34621E-02  0.18171E-02 -0.47353E-02
  0.29267E-02  0.25928E-02 -0.47353E-02
  0.22211E-02  0.32179E-02 -0.47353E-02
  0.13865E-02  0.36559E-02 -0.47353E-02
  0.47130E-03  0.38815E-02 -0.47353E-02
 -0.47130E-03  0.38815E-02 -0.47353E-02
 -0.13865E-02  0.36559E-02 -0.47353E-02
 -0.22211E-02  0.32179E-02 -0.47353E-02
 -0.29267E-02  0.25928E-02 -0.47353E-02
 -0.34621E-02  0.18171E-02 -0.47353E-02
 -0.37964E-02  0.93572E-03 -0.47353E-02
 -0.39100E-02 -0.47884E-18 -0.47353E-02
 -0.37964E-02 -0.93572E-03 -0.47353E-02
 -0.34621E-02 -0.18171E-02 -0.47353E-02
 -0.29267E-02 -0.25928E-02 -0.47353E-02
 -0.22211E-02 -0.32179E-02 -0.47353E-02
 -0.13865E-02 -0.36559E-02 -0.47353E-02
 -0.47130E-03 -0.38815E-02 -0.47353E-02
  0.47130E-03 -0.38815E-02 -0.47353E-02
  0.13865E-02 -0.36559E-02 -0.47353E-02
  0.22211E-02 -0.32179E-02 -0.47353E-02
  0.29267E-02 -0.25928E-02 -0.47353E-02
  0.34621E-02 -0.18171E-02 -0.47353E-02
  0.37964E-02 -0.93572E-03 -0.47353E-02
  0.10352E-02  0.68512E-03 -0.37562E-02
  0.17413E-02  0.12454E-02 -0.37562E-02
  0.23150E-02  0.60302E-03 -0.37562E-02
  0.16651E-02 -0.32115E-03 -0.37562E-02
  0.30371E-02  0.15681E-03 -0.37562E-02
  0.27866E-02 -0.66558E-03 -0.37562E-02
  0.12827E-02  0.18453E-02 -0.37562E-02
  0.64600E-03  0.14797E-02 -0.37562E-02
  0.12180E-03  0.32459E-03 -0.37562E-02
 -0.13230E-03  0.12058E-02 -0.37562E-02
  0.93771E-03  0.22776E-02 -0.37562E-02
  0.11252E-02  0.28189E-02 -0.37562E-02
  0.17404E-02  0.24270E-02 -0.37562E-02
  0.40469E-03  0.21693E-02 -0.37562E-02
  0.39742E-03  0.29308E-02 -0.37562E-02
 -0.77081E-03 -0.10064E-02 -0.37562E-02
 -0.86843E-03  0.96773E-04 -0.37562E-02
  0.45134E-03 -0.68721E-03 -0.37562E-02
 -0.18365E-02 -0.70887E-03 -0.37562E-02
 -0.18419E-02  0.85467E-04 -0.37562E-02
 -0.27232E-02 -0.77490E-03 -0.37562E-02
 -0.27968E-02  0.46726E-04 -0.37562E-02
 -0.25399E-02 -0.15184E-02 -0.37562E-02
 -0.19382E-02 -0.13208E-02 -0.37562E-02
 -0.99046E-03  0.10183E-02 -0.37562E-02
 -0.14457E-02 -0.17316E-02 -0.37562E-02
 -0.31133E-03  0.20283E-02 -0.37562E-02
 -0.10992E-02  0.18586E-02 -0.37562E-02
 -0.18834E-02  0.17175E-02 -0.37562E-02
 -0.18685E-02  0.91467E-03 -0.37562E-02
 -0.16476E-03 -0.19806E-02 -0.37562E-02
 -0.95405E-03 -0.23494E-02 -0.37562E-02
  0.77402E-03 -0.17073E-02 -0.37562E-02
  0.17202E-02 -0.14948E-02 -0.37562E-02
  0.32122E-02  0.78248E-03 -0.37562E-02
  0.28041E-02  0.12571E-02 -0.37562E-02
  0.23034E-02  0.18673E-02 -0.37562E-02
 -0.40310E-03  0.28802E-02 -0.37562E-02
 -0.12093E-02  0.27103E-02 -0.37562E-02
 -0.19440E-02  0.24593E-02 -0.37562E-02
 -0.25022E-02  0.22358E-02 -0.37562E-02
 -0.26351E-02  0.16502E-02 -0.37562E-02
 -0.27602E-02  0.88069E-03 -0.37562E-02
 -0.21154E-02 -0.21374E-02 -0.37562E-02
 -0.16097E-02 -0.26936E-02 -0.37562E-02
 -0.11964E-02 -0.31291E-02 -0.37562E-02
 -0.59409E-03 -0.30381E-02 -0.37562E-02
  0.20018E-03 -0.28751E-02 -0.37562E-02
  0.10518E-02 -0.26482E-02 -0.37562E-02
  0.18422E-02 -0.23752E-02 -0.37562E-02
  0.24571E-02 -0.21565E-02 -0.37562E-02
  0.26038E-02 -0.15081E-02 -0.37562E-02
  0.37964E-02  0.93572E-03 -0.37562E-02
  0.39100E-02  0.00000E+00 -0.37562E-02
  0.34621E-02  0.18171E-02 -0.37562E-02
  0.29267E-02  0.25928E-02 -0.37562E-02
  0.22211E-02  0.32179E-02 -0.37562E-02
  0.13865E-02  0.36559E-02 -0.37562E-02
  0.47130E-03  0.38815E-02 -0.37562E-02
 -0.47130E-03  0.38815E-02 -0.37562E-02
 -0.13865E-02  0.36559E-02 -0.37562E-02
 -0.22211E-02  0.32179E-02 -0.37562E-02
 -0.29267E-02  0.25928E-02 -0.37562E-02
 -0.34621E-02  0.18171E-02 -0.37562E-02
 -0.37964E-02  0.93572E-03 -0.37562E-02
 -0.39100E-02 -0.47884E-18 -0.37562E-02
 -0.37964E-02 -0.93572E-03 -0.37562E-02
 -0.34621E-02 -0.18171E-02 -0.37562E-02
 -0.29267E-02 -0.25928E-02 -0.37562E-02
 -0.22211E-02 -0.32179E-02 -0.37562E-02
 -0.13865E-02 -0.36559E-02 -0.37562E-02
 -0.47130E-03 -0.38815E-02 -0.37562E-02
  0.47130E-03 -0.38815E-02 -0.37562E-02
  0.13865E-02 -0.36559E-02 -0.37562E-02
  0.22211E-02 -0.32179E-02 -0.37562E-02
  0.29267E-02 -0.25928E-02 -0.37562E-02
  0.34621E-02 -0.18171E-02 -0.37562E-02
  0.37964E-02 -0.93572E-03 -0.37562E-02
  0.10351E-02  0.68567E-03 -0.27770E-02
  0.17411E-02  0.12460E-02 -0.27770E-02
  0.23149E-02  0.60355E-03 -0.27770E-02
  0.16649E-02 -0.32040E-03 -0.27770E-02
  0.30371E-02  0.15718E-03 -0.27770E-02
  0.27870E-02 -0.66509E-03 -0.27770E-02
  0.12826E-02  0.18455E-02 -0.27770E-02
  0.64575E-03  0.14807E-02 -0.27770E-02
  0.12154E-03  0.32574E-03 -0.27770E-02
 -0.13248E-03  0.12075E-02 -0.27770E-02
  0.93738E-03  0.22777E-02 -0.27770E-02
  0.11249E-02  0.28185E-02 -0.27770E-02
  0.17400E-02  0.24271E-02 -0.27770E-02
  0.40463E-03  0.21693E-02 -0.27770E-02
  0.39740E-03  0.29306E-02 -0.27770E-02
 -0.77117E-03 -0.10065E-02 -0.27770E-02
 -0.86854E-03  0.97583E-04 -0.27770E-02
  0.45089E-03 -0.68648E-03 -0.27770E-02
 -0.18368E-02 -0.70873E-03 -0.27770E-02
 -0.18418E-02  0.85591E-04 -0.27770E-02
 -0.27232E-02 -0.77474E-03 -0.27770E-02
 -0.27965E-02  0.47000E-04 -0.27770E-02
 -0.25400E-02 -0.15183E-02 -0.27770E-02
 -0.19386E-02 -0.13207E-02 -0.27770E-02
 -0.99032E-03  0.10197E-02 -0.27770E-02
 -0.14460E-02 -0.17316E-02 -0.27770E-02
 -0.31113E-03  0.20285E-02 -0.27770E-02
 -0.10988E-02  0.18585E-02 -0.27770E-02
 -0.18833E-02  0.17175E-02 -0.27770E-02
 -0.18683E-02  0.91491E-03 -0.27770E-02
 -0.16504E-03 -0.19806E-02 -0.27770E-02
 -0.95465E-03 -0.23495E-02 -0.27770E-02
  0.77336E-03 -0.17073E-02 -0.27770E-02
  0.17201E-02 -0.14950E-02 -0.27770E-02
  0.32125E-02  0.78348E-03 -0.27770E-02
  0.28041E-02  0.12576E-02 -0.27770E-02
  0.23033E-02  0.18674E-02 -0.27770E-02
 -0.40296E-03  0.28792E-02 -0.27770E-02
 -0.12093E-02  0.27099E-02 -0.27770E-02
 -0.19439E-02  0.24591E-02 -0.27770E-02
 -0.25022E-02  0.22358E-02 -0.27770E-02
 -0.26350E-02  0.16502E-02 -0.27770E-02
 -0.27599E-02  0.88095E-03 -0.27770E-02
 -0.21155E-02 -0.21374E-02 -0.27770E-02
 -0.16097E-02 -0.26936E-02 -0.27770E-02
 -0.11965E-02 -0.31290E-02 -0.27770E-02
 -0.59444E-03 -0.30381E-02 -0.27770E-02
  0.19977E-03 -0.28751E-02 -0.27770E-02
  0.10515E-02 -0.26484E-02 -0.27770E-02
  0.18423E-02 -0.23754E-02 -0.27770E-02
  0.24573E-02 -0.21571E-02 -0.27770E-02
  0.26039E-02 -0.15080E-02 -0.27770E-02
  0.37964E-02  0.93572E-03 -0.27770E-02
  0.39100E-02  0.00000E+00 -0.27770E-02
  0.34621E-02  0.18171E-02 -0.27770E-02
  0.29267E-02  0.25928E-02 -0.27770E-02
  0.22211E-02  0.32179E-02 -0.27770E-02
  0.13865E-02  0.36559E-02 -0.27770E-02
  0.47130E-03  0.38815E-02 -0.27770E-02
 -0.47130E-03  0.38815E-02 -0.27770E-02
 -0.13865E-02  0.36559E-02 -0.27770E-02
 -0.22211E-02  0.32179E-02 -0.27770E-02
 -0.29267E-02  0.25928E-02 -0.27770E-02
 -0.34621E-02  0.18171E-02 -0.27770E-02
 -0.37964E-02  0.93572E-03 -0.27770E-02
 -0.39100E-02  0.47884E-18 -0.27770E-02
 -0.37964E-02 -0.93572E-03 -0.27770E-02
 -0.34621E-02 -0.18171E-02 -0.27770E-02
 -0.29267E-02 -0.25928E-02 -0.27770E-02
 -0.22211E-02 -0.32179E-02 -0.27770E-02
 -0.13865E-02 -0.36559E-02 -0.27770E-02
 -0.47130E-03 -0.38815E-02 -0.27770E-02
  0.47130E-03 -0.38815E-02 -0.27770E-02
  0.13865E-02 -0.36559E-02 -0.27770E-02
  0.22211E-02 -0.32179E-02 -0.27770E-02
  0.29267E-02 -0.25928E-02 -0.27770E-02
  0.34621E-02 -0.18171E-02 -0.27770E-02
  0.37964E-02 -0.93572E-03 -0.27770E-02
  
CELLS       3486               17724
       1       0
       1       1
       1       2
       1       3
       1       4
       1       5
       1       6
       1       7
       1       8
       1       9
       1      10
       1      11
       1      12
       1      13
       1      14
       1      15
       1      16
       1      17
       1      18
       1      19
       1      20
       1      21
       1      22
       1      23
       1      24
       1      25
       1      26
       1      27
       1      28
       1      29
       1      30
       1      31
       1      32
       1      33
       1      34
       1      35
       1      36
       1      37
       1      38
       1      39
       1      40
       1      41
       1      42
       1      43
       1      44
       1      45
       1      46
       1      47
       1      48
       1      49
       1      50
       1      51
       1      52
       1      53
       1      54
       1      55
       1      56
       1      57
       1      58
       1      59
       1      60
       1      61
       1      62
       1      63
       1      64
       1      65
       1      66
       1      67
       1      68
       1      69
       1      70
       1      71
       1      72
       1      73
       1      74
       1      75
       1      76
       1      77
       1      78
       1      79
       1      80
       1      81
       1      82
       1      83
       1      84
       1      85
       1      86
       1      87
       1      88
       1      89
       1      90
       1      91
       1      92
       1      93
       1      94
       1      95
       1      96
       1      97
       1      98
       1      99
       1     100
       1     101
       1     102
       1     103
       1     104
       1     105
       1     106
       1     107
       1     108
       1     109
       1     110
       1     111
       1     112
       1     113
       1     114
       1     115
       1     116
       1     117
       1     118
       1     119
       1     120
       1     121
       1     122
       1     123
       1     124
       1     125
       1     126
       1     127
       1     128
       1     129
       1     130
       1     131
       1     132
       1     133
       1     134
       1     135
       1     136
       1     137
       1     138
       1     139
       1     140
       1     141
       1     142
       1     143
       1     144
       1     145
       1     146
       1     147
       1     148
       1     149
       1     150
       1     151
       1     152
       1     153
       1     154
       1     155
       1     156
       1     157
       1     158
       1     159
       1     160
       1     161
       1     162
       1     163
       1     164
       1     165
       1     166
       1     167
       1     168
       1     169
       1     170
       1     171
       1     172
       1     173
       1     174
       1     175
       1     176
       1     177
       1     178
       1     179
       1     180
       1     181
       1     182
       1     183
       1     184
       1     185
       1     186
       1     187
       1     188
       1     189
       1     190
       1     191
       1     192
       1     193
       1     194
       1     195
       1     196
       1     197
       1     198
       1     199
       1     200
       1     201
       1     202
       1     203
       1     204
       1     205
       1     206
       1     207
       1     208
       1     209
       1     210
       1     211
       1     212
       1     213
       1     214
       1     215
       1     216
       1     217
       1     218
       1     219
       1     220
       1     221
       1     222
       1     223
       1     224
       1     225
       1     226
       1     227
       1     228
       1     229
       1     230
       1     231
       1     232
       1     233
       1     234
       1     235
       1     236
       1     237
       1     238
       1     239
       1     240
       1     241
       1     242
       1     243
       1     244
       1     245
       1     246
       1     247
       1     248
       1     249
       1     250
       1     251
       1     252
       1     253
       1     254
       1     255
       1     256
       1     257
       1     258
       1     259
       1     260
       1     261
       1     262
       1     263
       1     264
       1     265
       1     266
       1     267
       1     268
       1     269
       1     270
       1     271
       1     272
       1     273
       1     274
       1     275
       1     276
       1     277
       1     278
       1     279
       1     280
       1     281
       1     282
       1     283
       1     284
       1     285
       1     286
       1     287
       1     288
       1     289
       1     290
       1     291
       1     292
       1     293
       1     294
       1     295
       1     296
       1     297
       1     298
       1     299
       1     300
       1     301
       1     302
       1     303
       1     304
       1     305
       1     306
       1     307
       1     308
       1     309
       1     310
       1     311
       1     312
       1     313
       1     314
       1     315
       1     316
       1     317
       1     318
       1     319
       1     320
       1     321
       1     322
       1     323
       1     324
       1     325
       1     326
       1     327
       1     328
       1     329
       1     330
       1     331
       1     332
       1     333
       1     334
       1     335
       1     336
       1     337
       1     338
       1     339
       1     340
       1     341
       1     342
       1     343
       1     344
       1     345
       1     346
       1     347
       1     348
       1     349
       1     350
       1     351
       1     352
       1     353
       1     354
       1     355
       1     356
       1     357
       1     358
       1     359
       1     360
       1     361
       1     362
       1     363
       1     364
       1     365
       1     366
       1     367
       1     368
       1     369
       1     370
       1     371
       1     372
       1     373
       1     374
       1     375
       1     376
       1     377
       1     378
       1     379
       1     380
       1     381
       1     382
       1     383
       1     384
       1     385
       1     386
       1     387
       1     388
       1     389
       1     390
       1     391
       1     392
       1     393
       1     394
       1     395
       1     396
       1     397
       1     398
       1     399
       1     400
       1     401
       1     402
       1     403
       1     404
       1     405
       1     406
       1     407
       1     408
       1     409
       1     410
       1     411
       1     412
       1     413
       1     414
       1     415
       1     416
       1     417
       1     418
       1     419
       1     420
       1     421
       1     422
       1     423
       1     424
       1     425
       1     426
       1     427
       1     428
       1     429
       1     430
       1     431
       1     432
       1     433
       1     434
       1     435
       1     436
       1     437
       1     438
       1     439
       1     440
       1     441
       1     442
       1     443
       1     444
       1     445
       1     446
       1     447
       1     448
       1     449
       1     450
       1     451
       1     452
       1     453
       1     454
       1     455
       1     456
       1     457
       1     458
       1     459
       1     460
       1     461
       1     462
       1     463
       1     464
       1     465
       1     466
       1     467
       1     468
       1     469
       1     470
       1     471
       1     472
       1     473
       1     474
       1     475
       1     476
       1     477
       1     478
       1     479
       1     480
       1     481
       1     482
       1     483
       1     484
       1     485
       1     486
       1     487
       1     488
       1     489
       1     490
       1     491
       1     492
       1     493
       1     494
       1     495
       1     496
       1     497
       1     498
       1     499
       1     500
       1     501
       1     502
       1     503
       1     504
       1     505
       1     506
       1     507
       1     508
       1     509
       1     510
       1     511
       1     512
       1     513
       1     514
       1     515
       1     516
       1     517
       1     518
       1     519
       1     520
       1     521
       1     522
       1     523
       1     524
       1     525
       1     526
       1     527
       1     528
       1     529
       1     530
       1     531
       1     532
       1     533
       1     534
       1     535
       1     536
       1     537
       1     538
       1     539
       1     540
       1     541
       1     542
       1     543
       1     544
       1     545
       1     546
       1     547
       1     548
       1     549
       1     550
       1     551
       1     552
       1     553
       1     554
       1     555
       1     556
       1     557
       1     558
       1     559
       1     560
       1     561
       1     562
       1     563
       1     564
       1     565
       1     566
       1     567
       1     568
       1     569
       1     570
       1     571
       1     572
       1     573
       1     574
       1     575
       1     576
       1     577
       1     578
       1     579
       1     580
       1     581
       1     582
       1     583
       1     584
       1     585
       1     586
       1     587
       1     588
       1     589
       1     590
       1     591
       1     592
       1     593
       1     594
       1     595
       1     596
       1     597
       1     598
       1     599
       1     600
       1     601
       1     602
       1     603
       1     604
       1     605
       1     606
       1     607
       1     608
       1     609
       1     610
       1     611
       1     612
       1     613
       1     614
       1     615
       1     616
       1     617
       1     618
       1     619
       1     620
       1     621
       1     622
       1     623
       1     624
       1     625
       1     626
       1     627
       1     628
       1     629
       1     630
       1     631
       1     632
       1     633
       1     634
       1     635
       1     636
       1     637
       1     638
       1     639
       1     640
       1     641
       1     642
       1     643
       1     644
       1     645
       1     646
       1     647
       1     648
       1     649
       1     650
       1     651
       1     652
       1     653
       1     654
       1     655
       1     656
       1     657
       1     658
       1     659
       1     660
       1     661
       1     662
       1     663
       1     664
       1     665
       1     666
       1     667
       1     668
       1     669
       1     670
       1     671
       1     672
       1     673
       1     674
       1     675
       1     676
       1     677
       1     678
       1     679
       1     680
       1     681
       1     682
       1     683
       1     684
       1     685
       1     686
       1     687
       1     688
       1     689
       1     690
       1     691
       1     692
       1     693
       1     694
       1     695
       1     696
       1     697
       1     698
       1     699
       1     700
       1     701
       1     702
       1     703
       1     704
       1     705
       1     706
       1     707
       1     708
       1     709
       1     710
       1     711
       1     712
       1     713
       1     714
       1     715
       1     716
       1     717
       1     718
       1     719
       1     720
       1     721
       1     722
       1     723
       1     724
       1     725
       1     726
       1     727
       1     728
       1     729
       1     730
       1     731
       1     732
       1     733
       1     734
       1     735
       1     736
       1     737
       1     738
       1     739
       1     740
       1     741
       1     742
       1     743
       1     744
       1     745
       1     746
       1     747
       1     748
       1     749
       1     750
       1     751
       1     752
       1     753
       1     754
       1     755
       1     756
       1     757
       1     758
       1     759
       1     760
       1     761
       1     762
       1     763
       1     764
       1     765
       1     766
       1     767
       1     768
       1     769
       1     770
       1     771
       1     772
       1     773
       1     774
       1     775
       1     776
       1     777
       1     778
       1     779
       1     780
       1     781
       1     782
       1     783
       1     784
       1     785
       1     786
       1     787
       1     788
       1     789
       1     790
       1     791
       1     792
       1     793
       1     794
       1     795
       1     796
       1     797
       1     798
       1     799
       1     800
       1     801
       1     802
       1     803
       1     804
       1     805
       1     806
       1     807
       1     808
       1     809
       1     810
       1     811
       1     812
       1     813
       1     814
       1     815
       1     816
       1     817
       1     818
       1     819
       1     820
       1     821
       1     822
       1     823
       1     824
       1     825
       1     826
       1     827
       1     828
       1     829
       1     830
       1     831
       1     832
       1     833
       1     834
       1     835
       1     836
       1     837
       1     838
       1     839
       1     840
       1     841
       1     842
       1     843
       1     844
       1     845
       1     846
       1     847
       1     848
       1     849
       1     850
       1     851
       1     852
       1     853
       1     854
       1     855
       1     856
       1     857
       1     858
       1     859
       1     860
       1     861
       1     862
       1     863
       1     864
       1     865
       1     866
       1     867
       1     868
       1     869
       1     870
       1     871
       1     872
       1     873
       1     874
       1     875
       1     876
       1     877
       1     878
       1     879
       1     880
       1     881
       1     882
       1     883
       1     884
       1     885
       1     886
       1     887
       1     888
       1     889
       1     890
       1     891
       1     892
       1     893
       1     894
       1     895
       1     896
       1     897
       1     898
       1     899
       1     900
       1     901
       1     902
       1     903
       1     904
       1     905
       1     906
       1     907
       1     908
       1     909
       1     910
       1     911
       1     912
       1     913
       1     914
       1     915
       1     916
       1     917
       1     918
       1     919
       1     920
       1     921
       1     922
       1     923
       1     924
       1     925
       1     926
       1     927
       1     928
       1     929
       1     930
       1     931
       1     932
       1     933
       1     934
       1     935
       1     936
       1     937
       1     938
       1     939
       1     940
       1     941
       1     942
       1     943
       1     944
       1     945
       1     946
       1     947
       1     948
       1     949
       1     950
       1     951
       1     952
       1     953
       1     954
       1     955
       1     956
       1     957
       1     958
       1     959
       1     960
       1     961
       1     962
       1     963
       1     964
       1     965
       1     966
       1     967
       1     968
       1     969
       1     970
       1     971
       1     972
       1     973
       1     974
       1     975
       1     976
       1     977
       1     978
       1     979
       1     980
       1     981
       1     982
       1     983
       1     984
       1     985
       1     986
       1     987
       1     988
       1     989
       1     990
       1     991
       1     992
       1     993
       1     994
       1     995
       1     996
       1     997
       1     998
       1     999
       1    1000
       1    1001
       1    1002
       1    1003
       1    1004
       1    1005
       1    1006
       1    1007
       1    1008
       1    1009
       1    1010
       1    1011
       1    1012
       1    1013
       1    1014
       1    1015
       1    1016
       1    1017
       1    1018
       1    1019
       1    1020
       1    1021
       1    1022
       1    1023
       1    1024
       1    1025
       1    1026
       1    1027
       1    1028
       1    1029
       1    1030
       1    1031
       1    1032
       1    1033
       1    1034
       1    1035
       1    1036
       1    1037
       1    1038
       1    1039
       1    1040
       1    1041
       1    1042
       1    1043
       1    1044
       1    1045
       1    1046
       1    1047
       1    1048
       1    1049
       1    1050
       1    1051
       1    1052
       1    1053
       1    1054
       1    1055
       1    1056
       1    1057
       1    1058
       1    1059
       1    1060
       1    1061
       1    1062
       1    1063
       1    1064
       1    1065
       1    1066
       1    1067
       1    1068
       1    1069
       1    1070
       1    1071
       1    1072
       1    1073
       1    1074
       1    1075
       1    1076
       1    1077
       1    1078
       1    1079
       1    1080
       1    1081
       1    1082
       1    1083
       1    1084
       1    1085
       1    1086
       1    1087
       1    1088
       1    1089
       1    1090
       1    1091
       1    1092
       1    1093
       1    1094
       1    1095
       1    1096
       1    1097
       1    1098
       1    1099
       1    1100
       1    1101
       1    1102
       1    1103
       1    1104
       1    1105
       1    1106
       1    1107
       1    1108
       1    1109
       1    1110
       1    1111
       1    1112
       1    1113
       1    1114
       1    1115
       1    1116
       1    1117
       1    1118
       1    1119
       1    1120
       1    1121
       1    1122
       1    1123
       1    1124
       1    1125
       1    1126
       1    1127
       1    1128
       1    1129
       1    1130
       1    1131
       1    1132
       1    1133
       1    1134
       1    1135
       1    1136
       1    1137
       1    1138
       1    1139
       1    1140
       1    1141
       1    1142
       1    1143
       1    1144
       1    1145
       1    1146
       1    1147
       1    1148
       1    1149
       1    1150
       1    1151
       1    1152
       1    1153
       1    1154
       1    1155
       1    1156
       1    1157
       1    1158
       1    1159
       1    1160
       1    1161
       1    1162
       1    1163
       1    1164
       1    1165
       1    1166
       1    1167
       1    1168
       1    1169
       1    1170
       1    1171
       1    1172
       1    1173
       1    1174
       1    1175
       1    1176
       1    1177
       1    1178
       1    1179
       1    1180
       1    1181
       1    1182
       1    1183
       1    1184
       1    1185
       1    1186
       1    1187
       1    1188
       1    1189
       1    1190
       1    1191
       1    1192
       1    1193
       1    1194
       1    1195
       1    1196
       1    1197
       1    1198
       1    1199
       1    1200
       1    1201
       1    1202
       1    1203
       1    1204
       1    1205
       1    1206
       1    1207
       1    1208
       1    1209
       1    1210
       1    1211
       1    1212
       1    1213
       1    1214
       1    1215
       1    1216
       1    1217
       1    1218
       1    1219
       1    1220
       1    1221
       1    1222
       1    1223
       1    1224
       1    1225
       1    1226
       1    1227
       1    1228
       1    1229
       1    1230
       1    1231
       1    1232
       1    1233
       1    1234
       1    1235
       1    1236
       1    1237
       1    1238
       1    1239
       1    1240
       1    1241
       1    1242
       1    1243
       1    1244
       1    1245
       1    1246
       1    1247
       1    1248
       1    1249
       1    1250
       1    1251
       1    1252
       1    1253
       1    1254
       1    1255
       1    1256
       1    1257
       1    1258
       1    1259
       1    1260
       1    1261
       1    1262
       1    1263
       1    1264
       1    1265
       1    1266
       1    1267
       1    1268
       1    1269
       1    1270
       1    1271
       1    1272
       1    1273
       1    1274
       1    1275
       1    1276
       1    1277
       1    1278
       1    1279
       1    1280
       1    1281
       1    1282
       1    1283
       1    1284
       1    1285
       1    1286
       1    1287
       1    1288
       1    1289
       1    1290
       1    1291
       1    1292
       1    1293
       1    1294
       1    1295
       1    1296
       1    1297
       1    1298
       1    1299
       1    1300
       1    1301
       1    1302
       1    1303
       1    1304
       1    1305
       1    1306
       1    1307
       1    1308
       1    1309
       1    1310
       1    1311
       1    1312
       1    1313
       1    1314
       1    1315
       1    1316
       1    1317
       1    1318
       1    1319
       1    1320
       1    1321
       1    1322
       1    1323
       1    1324
       1    1325
       1    1326
       1    1327
       1    1328
       1    1329
       1    1330
       1    1331
       1    1332
       1    1333
       1    1334
       1    1335
       1    1336
       1    1337
       1    1338
       1    1339
       1    1340
       1    1341
       1    1342
       1    1343
       1    1344
       1    1345
       1    1346
       1    1347
       1    1348
       1    1349
       1    1350
       1    1351
       1    1352
       1    1353
       1    1354
       1    1355
       1    1356
       1    1357
       1    1358
       1    1359
       1    1360
       1    1361
       1    1362
       1    1363
       1    1364
       1    1365
       1    1366
       1    1367
       1    1368
       1    1369
       1    1370
       1    1371
       1    1372
       1    1373
       1    1374
       1    1375
       1    1376
       1    1377
       1    1378
       1    1379
       1    1380
       1    1381
       1    1382
       1    1383
       1    1384
       1    1385
       1    1386
       1    1387
       1    1388
       1    1389
       1    1390
       1    1391
       1    1392
       1    1393
       1    1394
       1    1395
       1    1396
       1    1397
       1    1398
       1    1399
       1    1400
       1    1401
       1    1402
       1    1403
       1    1404
       1    1405
       1    1406
       1    1407
       1    1408
       1    1409
       1    1410
       1    1411
       1    1412
       1    1413
       1    1414
       1    1415
       1    1416
       1    1417
       1    1418
       1    1419
       1    1420
       1    1421
       1    1422
       1    1423
       1    1424
       1    1425
       1    1426
       1    1427
       1    1428
       1    1429
       1    1430
       1    1431
       1    1432
       1    1433
       1    1434
       1    1435
       1    1436
       1    1437
       1    1438
       1    1439
       1    1440
       1    1441
       1    1442
       1    1443
       1    1444
       1    1445
       1    1446
       1    1447
       1    1448
       1    1449
       1    1450
       1    1451
       1    1452
       1    1453
       1    1454
       1    1455
       1    1456
       1    1457
       1    1458
       1    1459
       1    1460
       1    1461
       1    1462
       1    1463
       1    1464
       1    1465
       1    1466
       1    1467
       1    1468
       1    1469
       1    1470
       1    1471
       1    1472
       1    1473
       1    1474
       1    1475
       1    1476
       1    1477
       1    1478
       1    1479
       1    1480
       1    1481
       1    1482
       1    1483
       1    1484
       1    1485
       1    1486
       1    1487
       1    1488
       1    1489
       1    1490
       1    1491
       1    1492
       1    1493
       1    1494
       1    1495
       1    1496
       1    1497
       1    1498
       1    1499
       1    1500
       1    1501
       1    1502
       1    1503
       1    1504
       1    1505
       1    1506
       1    1507
       1    1508
       1    1509
       1    1510
       1    1511
       1    1512
       1    1513
       1    1514
       1    1515
       1    1516
       1    1517
       1    1518
       1    1519
       1    1520
       1    1521
       1    1522
       1    1523
       1    1524
       1    1525
       1    1526
       1    1527
       1    1528
       1    1529
       1    1530
       1    1531
       1    1532
       1    1533
       1    1534
       1    1535
       1    1536
       1    1537
       1    1538
       1    1539
       1    1540
       1    1541
       1    1542
       1    1543
       1    1544
       1    1545
       1    1546
       1    1547
       1    1548
       1    1549
       1    1550
       1    1551
       1    1552
       1    1553
       1    1554
       1    1555
       1    1556
       1    1557
       1    1558
       1    1559
       1    1560
       1    1561
       1    1562
       1    1563
       1    1564
       1    1565
       1    1566
       1    1567
       1    1568
       1    1569
       1    1570
       1    1571
       1    1572
       1    1573
       1    1574
       1    1575
       1    1576
       1    1577
       1    1578
       1    1579
       1    1580
       1    1581
       1    1582
       1    1583
       1    1584
       1    1585
       1    1586
       1    1587
       1    1588
       1    1589
       1    1590
       1    1591
       1    1592
       1    1593
       1    1594
       1    1595
       1    1596
       1    1597
       1    1598
       1    1599
       1    1600
       1    1601
       1    1602
       1    1603
       1    1604
       1    1605
       1    1606
       1    1607
       1    1608
       1    1609
       1    1610
       1    1611
       1    1612
       1    1613
       1    1614
       1    1615
       1    1616
       1    1617
       1    1618
       1    1619
       1    1620
       1    1621
       1    1622
       1    1623
       1    1624
       1    1625
       1    1626
       1    1627
       1    1628
       1    1629
       1    1630
       1    1631
       1    1632
       1    1633
       1    1634
       1    1635
       1    1636
       1    1637
       1    1638
       1    1639
       1    1640
       1    1641
       1    1642
       1    1643
       1    1644
       1    1645
       1    1646
       1    1647
       1    1648
       1    1649
       1    1650
       1    1651
       1    1652
       1    1653
       1    1654
       1    1655
       1    1656
       1    1657
       1    1658
       1    1659
       1    1660
       1    1661
       1    1662
       1    1663
       1    1664
       1    1665
       1    1666
       1    1667
       1    1668
       1    1669
       1    1670
       1    1671
       1    1672
       1    1673
       1    1674
       1    1675
       1    1676
       1    1677
       1    1678
       1    1679
       1    1680
       1    1681
       1    1682
       1    1683
       1    1684
       1    1685
       1    1686
       1    1687
       1    1688
       1    1689
       1    1690
       1    1691
       1    1692
       1    1693
       1    1694
       1    1695
       1    1696
       1    1697
       1    1698
       1    1699
       1    1700
       1    1701
       1    1702
       1    1703
       1    1704
       1    1705
       1    1706
       1    1707
       1    1708
       1    1709
       1    1710
       1    1711
       1    1712
       1    1713
       1    1714
       1    1715
       1    1716
       1    1717
       1    1718
       1    1719
       1    1720
       1    1721
       1    1722
       1    1723
       1    1724
       1    1725
       1    1726
       1    1727
       1    1728
       1    1729
       1    1730
       1    1731
       1    1732
       1    1733
       1    1734
       1    1735
       1    1736
       1    1737
       1    1738
       1    1739
       1    1740
       1    1741
       1    1742
       1    1743
       1    1744
       1    1745
       1    1746
       1    1747
       1    1748
       1    1749
       1    1750
       1    1751
       1    1752
       1    1753
       1    1754
       1    1755
       1    1756
       1    1757
       1    1758
       1    1759
       1    1760
       1    1761
       1    1762
       1    1763
       1    1764
       1    1765
       1    1766
       1    1767
       1    1768
       1    1769
       1    1770
       1    1771
       1    1772
       1    1773
       1    1774
       1    1775
       1    1776
       1    1777
       1    1778
       1    1779
       1    1780
       1    1781
       1    1782
       1    1783
       1    1784
       1    1785
       1    1786
       1    1787
       1    1788
       1    1789
       1    1790
       1    1791
       1    1792
       1    1793
       1    1794
       1    1795
       1    1796
       1    1797
       1    1798
       1    1799
       1    1800
       1    1801
       1    1802
       1    1803
       1    1804
       1    1805
       1    1806
       1    1807
       1    1808
       1    1809
       1    1810
       1    1811
       1    1812
       1    1813
       1    1814
       1    1815
       1    1816
       1    1817
       1    1818
       1    1819
       1    1820
       1    1821
       1    1822
       1    1823
       1    1824
       1    1825
       1    1826
       1    1827
       1    1828
       1    1829
       1    1830
       1    1831
       1    1832
       1    1833
       1    1834
       1    1835
       1    1836
       1    1837
       1    1838
       1    1839
       1    1840
       1    1841
       1    1842
       1    1843
       1    1844
       1    1845
       1    1846
       1    1847
       1    1848
       1    1849
       1    1850
       1    1851
       1    1852
       1    1853
       1    1854
       1    1855
       1    1856
       1    1857
       1    1858
       1    1859
       1    1860
       1    1861
       1    1862
       1    1863
       1    1864
       1    1865
       1    1866
       1    1867
       1    1868
       1    1869
       1    1870
       1    1871
       1    1872
       1    1873
       1    1874
       1    1875
       1    1876
       1    1877
       1    1878
       1    1879
       1    1880
       1    1881
       1    1882
       1    1883
       1    1884
       1    1885
       1    1886
       1    1887
       1    1888
       1    1889
       1    1890
       1    1891
       1    1892
       1    1893
       1    1894
       1    1895
       1    1896
       1    1897
       1    1898
       1    1899
       1    1900
       1    1901
       1    1902
       1    1903
       1    1904
       1    1905
       1    1906
       1    1907
       1    1908
       1    1909
       1    1910
       1    1911
       1    1912
       1    1913
       1    1914
       1    1915
       1    1916
       1    1917
       1    1918
       1    1919
       1    1920
       1    1921
       1    1922
       1    1923
       1    1924
       1    1925
       1    1926
       1    1927
       1    1928
       1    1929
       1    1930
       1    1931
       1    1932
       1    1933
       1    1934
       1    1935
       1    1936
       1    1937
       1    1938
       1    1939
       1    1940
       1    1941
       1    1942
       1    1943
       1    1944
       1    1945
       1    1946
       1    1947
       1    1948
       1    1949
       8       0       1       2       3       4       5       6       7
       8       2       8       9       3       6      10      11       7
       8      12       1       0      13      14       5       4      15
       8       0      16      17      13       4      18      19      15
       8      20      21      22      12      23      24      25      14
       8      26      27      21      20      28      29      24      23
       8      13      26      20      12      15      28      23      14
       8      30      31      16      32      33      34      18      35
       8      36      37      31      30      38      39      34      33
       8      40      41      37      36      42      43      39      38
       8      44      40      36      45      46      42      38      47
       8      48      17      16      31      49      19      18      34
       8      30      50      45      36      33      51      47      38
       8       0       3      32      16       4       7      35      18
       8      52      26      13      17      53      28      15      19
       8      54      52      17      48      55      53      19      49
       8      56      54      48      57      58      55      49      59
       8      37      57      48      31      39      59      49      34
       8      60      61      50      30      62      63      51      33
       8      64      60      30      32      65      62      33      35
       8      66      64      32       3      67      65      35       7
       8      68       8       2      69      70      10       6      71
       8      72      69       2       1      73      71       6       5
       8      22      72       1      12      25      73       5      14
       8      74      27      26      52      75      29      28      53
       8      76      74      52      54      77      75      53      55
       8      78      76      54      56      79      77      55      58
       8      80      78      56      81      82      79      58      83
       8      84      81      56      57      85      83      58      59
       8      41      84      57      37      43      85      59      39
       8      86      44      45      50      87      46      47      51
       8      88      86      50      61      89      87      51      63
       8      90      88      61      91      92      89      63      93
       8      94      91      61      60      95      93      63      62
       8      96      94      60      64      97      95      62      65
       8      98      96      64      66      99      97      65      67
       8     100      98      66     101     102      99      67     103
       8       9     101      66       3      11     103      67       7
       8     104     105       8      68     106     107      10      70
       8     108     104      68      69     109     106      70      71
       8     110     108      69      72     111     109      71      73
       8     112     110      72      22     113     111      73      25
       8     114     112      22      21     115     113      25      24
       8     116     114      21      27     117     115      24      29
       8     118     116      27      74     119     117      29      75
       8     120     118      74      76     121     119      75      77
       8     122     120      76      78     123     121      77      79
       8     124     122      78      80     125     123      79      82
       8     126     124      80      81     127     125      82      83
       8     128     126      81      84     129     127      83      85
       8     130     128      84      41     131     129      85      43
       8     132     130      41      40     133     131      43      42
       8     134     132      40      44     135     133      42      46
       8     136     134      44      86     137     135      46      87
       8     138     136      86      88     139     137      87      89
       8     140     138      88      90     141     139      89      92
       8     142     140      90      91     143     141      92      93
       8     144     142      91      94     145     143      93      95
       8     146     144      94      96     147     145      95      97
       8     148     146      96      98     149     147      97      99
       8     150     148      98     100     151     149      99     102
       8     152     150     100     101     153     151     102     103
       8     154     152     101       9     155     153     103      11
       8     105     154       9       8     107     155      11      10
       8     156     157     158     159       0       1       2       3
       8     158     160     161     159       2       8       9       3
       8     162     157     156     163      12       1       0      13
       8     156     164     165     163       0      16      17      13
       8     166     167     168     162      20      21      22      12
       8     169     170     167     166      26      27      21      20
       8     163     169     166     162      13      26      20      12
       8     171     172     164     173      30      31      16      32
       8     174     175     172     171      36      37      31      30
       8     176     177     175     174      40      41      37      36
       8     178     176     174     179      44      40      36      45
       8     180     165     164     172      48      17      16      31
       8     171     181     179     174      30      50      45      36
       8     156     159     173     164       0       3      32      16
       8     182     169     163     165      52      26      13      17
       8     183     182     165     180      54      52      17      48
       8     184     183     180     185      56      54      48      57
       8     175     185     180     172      37      57      48      31
       8     186     187     181     171      60      61      50      30
       8     188     186     171     173      64      60      30      32
       8     189     188     173     159      66      64      32       3
       8     190     160     158     191      68       8       2      69
       8     192     191     158     157      72      69       2       1
       8     168     192     157     162      22      72       1      12
       8     193     170     169     182      74      27      26      52
       8     194     193     182     183      76      74      52      54
       8     195     194     183     184      78      76      54      56
       8     196     195     184     197      80      78      56      81
       8     198     197     184     185      84      81      56      57
       8     177     198     185     175      41      84      57      37
       8     199     178     179     181      86      44      45      50
       8     200     199     181     187      88      86      50      61
       8     201     200     187     202      90      88      61      91
       8     203     202     187     186      94      91      61      60
       8     204     203     186     188      96      94      60      64
       8     205     204     188     189      98      96      64      66
       8     206     205     189     207     100      98      66     101
       8     161     207     189     159       9     101      66       3
       8     208     209     160     190     104     105       8      68
       8     210     208     190     191     108     104      68      69
       8     211     210     191     192     110     108      69      72
       8     212     211     192     168     112     110      72      22
       8     213     212     168     167     114     112      22      21
       8     214     213     167     170     116     114      21      27
       8     215     214     170     193     118     116      27      74
       8     216     215     193     194     120     118      74      76
       8     217     216     194     195     122     120      76      78
       8     218     217     195     196     124     122      78      80
       8     219     218     196     197     126     124      80      81
       8     220     219     197     198     128     126      81      84
       8     221     220     198     177     130     128      84      41
       8     222     221     177     176     132     130      41      40
       8     223     222     176     178     134     132      40      44
       8     224     223     178     199     136     134      44      86
       8     225     224     199     200     138     136      86      88
       8     226     225     200     201     140     138      88      90
       8     227     226     201     202     142     140      90      91
       8     228     227     202     203     144     142      91      94
       8     229     228     203     204     146     144      94      96
       8     230     229     204     205     148     146      96      98
       8     231     230     205     206     150     148      98     100
       8     232     231     206     207     152     150     100     101
       8     233     232     207     161     154     152     101       9
       8     209     233     161     160     105     154       9       8
       8     234     235     236     237     156     157     158     159
       8     236     238     239     237     158     160     161     159
       8     240     235     234     241     162     157     156     163
       8     234     242     243     241     156     164     165     163
       8     244     245     246     240     166     167     168     162
       8     247     248     245     244     169     170     167     166
       8     241     247     244     240     163     169     166     162
       8     249     250     242     251     171     172     164     173
       8     252     253     250     249     174     175     172     171
       8     254     255     253     252     176     177     175     174
       8     256     254     252     257     178     176     174     179
       8     258     243     242     250     180     165     164     172
       8     249     259     257     252     171     181     179     174
       8     234     237     251     242     156     159     173     164
       8     260     247     241     243     182     169     163     165
       8     261     260     243     258     183     182     165     180
       8     262     261     258     263     184     183     180     185
       8     253     263     258     250     175     185     180     172
       8     264     265     259     249     186     187     181     171
       8     266     264     249     251     188     186     171     173
       8     267     266     251     237     189     188     173     159
       8     268     238     236     269     190     160     158     191
       8     270     269     236     235     192     191     158     157
       8     246     270     235     240     168     192     157     162
       8     271     248     247     260     193     170     169     182
       8     272     271     260     261     194     193     182     183
       8     273     272     261     262     195     194     183     184
       8     274     273     262     275     196     195     184     197
       8     276     275     262     263     198     197     184     185
       8     255     276     263     253     177     198     185     175
       8     277     256     257     259     199     178     179     181
       8     278     277     259     265     200     199     181     187
       8     279     278     265     280     201     200     187     202
       8     281     280     265     264     203     202     187     186
       8     282     281     264     266     204     203     186     188
       8     283     282     266     267     205     204     188     189
       8     284     283     267     285     206     205     189     207
       8     239     285     267     237     161     207     189     159
       8     286     287     238     268     208     209     160     190
       8     288     286     268     269     210     208     190     191
       8     289     288     269     270     211     210     191     192
       8     290     289     270     246     212     211     192     168
       8     291     290     246     245     213     212     168     167
       8     292     291     245     248     214     213     167     170
       8     293     292     248     271     215     214     170     193
       8     294     293     271     272     216     215     193     194
       8     295     294     272     273     217     216     194     195
       8     296     295     273     274     218     217     195     196
       8     297     296     274     275     219     218     196     197
       8     298     297     275     276     220     219     197     198
       8     299     298     276     255     221     220     198     177
       8     300     299     255     254     222     221     177     176
       8     301     300     254     256     223     222     176     178
       8     302     301     256     277     224     223     178     199
       8     303     302     277     278     225     224     199     200
       8     304     303     278     279     226     225     200     201
       8     305     304     279     280     227     226     201     202
       8     306     305     280     281     228     227     202     203
       8     307     306     281     282     229     228     203     204
       8     308     307     282     283     230     229     204     205
       8     309     308     283     284     231     230     205     206
       8     310     309     284     285     232     231     206     207
       8     311     310     285     239     233     232     207     161
       8     287     311     239     238     209     233     161     160
       8     312     313     314     315     234     235     236     237
       8     314     316     317     315     236     238     239     237
       8     318     313     312     319     240     235     234     241
       8     312     320     321     319     234     242     243     241
       8     322     323     324     318     244     245     246     240
       8     325     326     323     322     247     248     245     244
       8     319     325     322     318     241     247     244     240
       8     327     328     320     329     249     250     242     251
       8     330     331     328     327     252     253     250     249
       8     332     333     331     330     254     255     253     252
       8     334     332     330     335     256     254     252     257
       8     336     321     320     328     258     243     242     250
       8     327     337     335     330     249     259     257     252
       8     312     315     329     320     234     237     251     242
       8     338     325     319     321     260     247     241     243
       8     339     338     321     336     261     260     243     258
       8     340     339     336     341     262     261     258     263
       8     331     341     336     328     253     263     258     250
       8     342     343     337     327     264     265     259     249
       8     344     342     327     329     266     264     249     251
       8     345     344     329     315     267     266     251     237
       8     346     316     314     347     268     238     236     269
       8     348     347     314     313     270     269     236     235
       8     324     348     313     318     246     270     235     240
       8     349     326     325     338     271     248     247     260
       8     350     349     338     339     272     271     260     261
       8     351     350     339     340     273     272     261     262
       8     352     351     340     353     274     273     262     275
       8     354     353     340     341     276     275     262     263
       8     333     354     341     331     255     276     263     253
       8     355     334     335     337     277     256     257     259
       8     356     355     337     343     278     277     259     265
       8     357     356     343     358     279     278     265     280
       8     359     358     343     342     281     280     265     264
       8     360     359     342     344     282     281     264     266
       8     361     360     344     345     283     282     266     267
       8     362     361     345     363     284     283     267     285
       8     317     363     345     315     239     285     267     237
       8     364     365     316     346     286     287     238     268
       8     366     364     346     347     288     286     268     269
       8     367     366     347     348     289     288     269     270
       8     368     367     348     324     290     289     270     246
       8     369     368     324     323     291     290     246     245
       8     370     369     323     326     292     291     245     248
       8     371     370     326     349     293     292     248     271
       8     372     371     349     350     294     293     271     272
       8     373     372     350     351     295     294     272     273
       8     374     373     351     352     296     295     273     274
       8     375     374     352     353     297     296     274     275
       8     376     375     353     354     298     297     275     276
       8     377     376     354     333     299     298     276     255
       8     378     377     333     332     300     299     255     254
       8     379     378     332     334     301     300     254     256
       8     380     379     334     355     302     301     256     277
       8     381     380     355     356     303     302     277     278
       8     382     381     356     357     304     303     278     279
       8     383     382     357     358     305     304     279     280
       8     384     383     358     359     306     305     280     281
       8     385     384     359     360     307     306     281     282
       8     386     385     360     361     308     307     282     283
       8     387     386     361     362     309     308     283     284
       8     388     387     362     363     310     309     284     285
       8     389     388     363     317     311     310     285     239
       8     365     389     317     316     287     311     239     238
       8     390     391     392     393     312     313     314     315
       8     392     394     395     393     314     316     317     315
       8     396     391     390     397     318     313     312     319
       8     390     398     399     397     312     320     321     319
       8     400     401     402     396     322     323     324     318
       8     403     404     401     400     325     326     323     322
       8     397     403     400     396     319     325     322     318
       8     405     406     398     407     327     328     320     329
       8     408     409     406     405     330     331     328     327
       8     410     411     409     408     332     333     331     330
       8     412     410     408     413     334     332     330     335
       8     414     399     398     406     336     321     320     328
       8     405     415     413     408     327     337     335     330
       8     390     393     407     398     312     315     329     320
       8     416     403     397     399     338     325     319     321
       8     417     416     399     414     339     338     321     336
       8     418     417     414     419     340     339     336     341
       8     409     419     414     406     331     341     336     328
       8     420     421     415     405     342     343     337     327
       8     422     420     405     407     344     342     327     329
       8     423     422     407     393     345     344     329     315
       8     424     394     392     425     346     316     314     347
       8     426     425     392     391     348     347     314     313
       8     402     426     391     396     324     348     313     318
       8     427     404     403     416     349     326     325     338
       8     428     427     416     417     350     349     338     339
       8     429     428     417     418     351     350     339     340
       8     430     429     418     431     352     351     340     353
       8     432     431     418     419     354     353     340     341
       8     411     432     419     409     333     354     341     331
       8     433     412     413     415     355     334     335     337
       8     434     433     415     421     356     355     337     343
       8     435     434     421     436     357     356     343     358
       8     437     436     421     420     359     358     343     342
       8     438     437     420     422     360     359     342     344
       8     439     438     422     423     361     360     344     345
       8     440     439     423     441     362     361     345     363
       8     395     441     423     393     317     363     345     315
       8     442     443     394     424     364     365     316     346
       8     444     442     424     425     366     364     346     347
       8     445     444     425     426     367     366     347     348
       8     446     445     426     402     368     367     348     324
       8     447     446     402     401     369     368     324     323
       8     448     447     401     404     370     369     323     326
       8     449     448     404     427     371     370     326     349
       8     450     449     427     428     372     371     349     350
       8     451     450     428     429     373     372     350     351
       8     452     451     429     430     374     373     351     352
       8     453     452     430     431     375     374     352     353
       8     454     453     431     432     376     375     353     354
       8     455     454     432     411     377     376     354     333
       8     456     455     411     410     378     377     333     332
       8     457     456     410     412     379     378     332     334
       8     458     457     412     433     380     379     334     355
       8     459     458     433     434     381     380     355     356
       8     460     459     434     435     382     381     356     357
       8     461     460     435     436     383     382     357     358
       8     462     461     436     437     384     383     358     359
       8     463     462     437     438     385     384     359     360
       8     464     463     438     439     386     385     360     361
       8     465     464     439     440     387     386     361     362
       8     466     465     440     441     388     387     362     363
       8     467     466     441     395     389     388     363     317
       8     443     467     395     394     365     389     317     316
       8     468     469     470     471     390     391     392     393
       8     470     472     473     471     392     394     395     393
       8     474     469     468     475     396     391     390     397
       8     468     476     477     475     390     398     399     397
       8     478     479     480     474     400     401     402     396
       8     481     482     479     478     403     404     401     400
       8     475     481     478     474     397     403     400     396
       8     483     484     476     485     405     406     398     407
       8     486     487     484     483     408     409     406     405
       8     488     489     487     486     410     411     409     408
       8     490     488     486     491     412     410     408     413
       8     492     477     476     484     414     399     398     406
       8     483     493     491     486     405     415     413     408
       8     468     471     485     476     390     393     407     398
       8     494     481     475     477     416     403     397     399
       8     495     494     477     492     417     416     399     414
       8     496     495     492     497     418     417     414     419
       8     487     497     492     484     409     419     414     406
       8     498     499     493     483     420     421     415     405
       8     500     498     483     485     422     420     405     407
       8     501     500     485     471     423     422     407     393
       8     502     472     470     503     424     394     392     425
       8     504     503     470     469     426     425     392     391
       8     480     504     469     474     402     426     391     396
       8     505     482     481     494     427     404     403     416
       8     506     505     494     495     428     427     416     417
       8     507     506     495     496     429     428     417     418
       8     508     507     496     509     430     429     418     431
       8     510     509     496     497     432     431     418     419
       8     489     510     497     487     411     432     419     409
       8     511     490     491     493     433     412     413     415
       8     512     511     493     499     434     433     415     421
       8     513     512     499     514     435     434     421     436
       8     515     514     499     498     437     436     421     420
       8     516     515     498     500     438     437     420     422
       8     517     516     500     501     439     438     422     423
       8     518     517     501     519     440     439     423     441
       8     473     519     501     471     395     441     423     393
       8     520     521     472     502     442     443     394     424
       8     522     520     502     503     444     442     424     425
       8     523     522     503     504     445     444     425     426
       8     524     523     504     480     446     445     426     402
       8     525     524     480     479     447     446     402     401
       8     526     525     479     482     448     447     401     404
       8     527     526     482     505     449     448     404     427
       8     528     527     505     506     450     449     427     428
       8     529     528     506     507     451     450     428     429
       8     530     529     507     508     452     451     429     430
       8     531     530     508     509     453     452     430     431
       8     532     531     509     510     454     453     431     432
       8     533     532     510     489     455     454     432     411
       8     534     533     489     488     456     455     411     410
       8     535     534     488     490     457     456     410     412
       8     536     535     490     511     458     457     412     433
       8     537     536     511     512     459     458     433     434
       8     538     537     512     513     460     459     434     435
       8     539     538     513     514     461     460     435     436
       8     540     539     514     515     462     461     436     437
       8     541     540     515     516     463     462     437     438
       8     542     541     516     517     464     463     438     439
       8     543     542     517     518     465     464     439     440
       8     544     543     518     519     466     465     440     441
       8     545     544     519     473     467     466     441     395
       8     521     545     473     472     443     467     395     394
       8     546     547     548     549     468     469     470     471
       8     548     550     551     549     470     472     473     471
       8     552     547     546     553     474     469     468     475
       8     546     554     555     553     468     476     477     475
       8     556     557     558     552     478     479     480     474
       8     559     560     557     556     481     482     479     478
       8     553     559     556     552     475     481     478     474
       8     561     562     554     563     483     484     476     485
       8     564     565     562     561     486     487     484     483
       8     566     567     565     564     488     489     487     486
       8     568     566     564     569     490     488     486     491
       8     570     555     554     562     492     477     476     484
       8     561     571     569     564     483     493     491     486
       8     546     549     563     554     468     471     485     476
       8     572     559     553     555     494     481     475     477
       8     573     572     555     570     495     494     477     492
       8     574     573     570     575     496     495     492     497
       8     565     575     570     562     487     497     492     484
       8     576     577     571     561     498     499     493     483
       8     578     576     561     563     500     498     483     485
       8     579     578     563     549     501     500     485     471
       8     580     550     548     581     502     472     470     503
       8     582     581     548     547     504     503     470     469
       8     558     582     547     552     480     504     469     474
       8     583     560     559     572     505     482     481     494
       8     584     583     572     573     506     505     494     495
       8     585     584     573     574     507     506     495     496
       8     586     585     574     587     508     507     496     509
       8     588     587     574     575     510     509     496     497
       8     567     588     575     565     489     510     497     487
       8     589     568     569     571     511     490     491     493
       8     590     589     571     577     512     511     493     499
       8     591     590     577     592     513     512     499     514
       8     593     592     577     576     515     514     499     498
       8     594     593     576     578     516     515     498     500
       8     595     594     578     579     517     516     500     501
       8     596     595     579     597     518     517     501     519
       8     551     597     579     549     473     519     501     471
       8     598     599     550     580     520     521     472     502
       8     600     598     580     581     522     520     502     503
       8     601     600     581     582     523     522     503     504
       8     602     601     582     558     524     523     504     480
       8     603     602     558     557     525     524     480     479
       8     604     603     557     560     526     525     479     482
       8     605     604     560     583     527     526     482     505
       8     606     605     583     584     528     527     505     506
       8     607     606     584     585     529     528     506     507
       8     608     607     585     586     530     529     507     508
       8     609     608     586     587     531     530     508     509
       8     610     609     587     588     532     531     509     510
       8     611     610     588     567     533     532     510     489
       8     612     611     567     566     534     533     489     488
       8     613     612     566     568     535     534     488     490
       8     614     613     568     589     536     535     490     511
       8     615     614     589     590     537     536     511     512
       8     616     615     590     591     538     537     512     513
       8     617     616     591     592     539     538     513     514
       8     618     617     592     593     540     539     514     515
       8     619     618     593     594     541     540     515     516
       8     620     619     594     595     542     541     516     517
       8     621     620     595     596     543     542     517     518
       8     622     621     596     597     544     543     518     519
       8     623     622     597     551     545     544     519     473
       8     599     623     551     550     521     545     473     472
       8     624     625     626     627     546     547     548     549
       8     626     628     629     627     548     550     551     549
       8     630     625     624     631     552     547     546     553
       8     624     632     633     631     546     554     555     553
       8     634     635     636     630     556     557     558     552
       8     637     638     635     634     559     560     557     556
       8     631     637     634     630     553     559     556     552
       8     639     640     632     641     561     562     554     563
       8     642     643     640     639     564     565     562     561
       8     644     645     643     642     566     567     565     564
       8     646     644     642     647     568     566     564     569
       8     648     633     632     640     570     555     554     562
       8     639     649     647     642     561     571     569     564
       8     624     627     641     632     546     549     563     554
       8     650     637     631     633     572     559     553     555
       8     651     650     633     648     573     572     555     570
       8     652     651     648     653     574     573     570     575
       8     643     653     648     640     565     575     570     562
       8     654     655     649     639     576     577     571     561
       8     656     654     639     641     578     576     561     563
       8     657     656     641     627     579     578     563     549
       8     658     628     626     659     580     550     548     581
       8     660     659     626     625     582     581     548     547
       8     636     660     625     630     558     582     547     552
       8     661     638     637     650     583     560     559     572
       8     662     661     650     651     584     583     572     573
       8     663     662     651     652     585     584     573     574
       8     664     663     652     665     586     585     574     587
       8     666     665     652     653     588     587     574     575
       8     645     666     653     643     567     588     575     565
       8     667     646     647     649     589     568     569     571
       8     668     667     649     655     590     589     571     577
       8     669     668     655     670     591     590     577     592
       8     671     670     655     654     593     592     577     576
       8     672     671     654     656     594     593     576     578
       8     673     672     656     657     595     594     578     579
       8     674     673     657     675     596     595     579     597
       8     629     675     657     627     551     597     579     549
       8     676     677     628     658     598     599     550     580
       8     678     676     658     659     600     598     580     581
       8     679     678     659     660     601     600     581     582
       8     680     679     660     636     602     601     582     558
       8     681     680     636     635     603     602     558     557
       8     682     681     635     638     604     603     557     560
       8     683     682     638     661     605     604     560     583
       8     684     683     661     662     606     605     583     584
       8     685     684     662     663     607     606     584     585
       8     686     685     663     664     608     607     585     586
       8     687     686     664     665     609     608     586     587
       8     688     687     665     666     610     609     587     588
       8     689     688     666     645     611     610     588     567
       8     690     689     645     644     612     611     567     566
       8     691     690     644     646     613     612     566     568
       8     692     691     646     667     614     613     568     589
       8     693     692     667     668     615     614     589     590
       8     694     693     668     669     616     615     590     591
       8     695     694     669     670     617     616     591     592
       8     696     695     670     671     618     617     592     593
       8     697     696     671     672     619     618     593     594
       8     698     697     672     673     620     619     594     595
       8     699     698     673     674     621     620     595     596
       8     700     699     674     675     622     621     596     597
       8     701     700     675     629     623     622     597     551
       8     677     701     629     628     599     623     551     550
       8     702     703     704     705     624     625     626     627
       8     704     706     707     705     626     628     629     627
       8     708     703     702     709     630     625     624     631
       8     702     710     711     709     624     632     633     631
       8     712     713     714     708     634     635     636     630
       8     715     716     713     712     637     638     635     634
       8     709     715     712     708     631     637     634     630
       8     717     718     710     719     639     640     632     641
       8     720     721     718     717     642     643     640     639
       8     722     723     721     720     644     645     643     642
       8     724     722     720     725     646     644     642     647
       8     726     711     710     718     648     633     632     640
       8     717     727     725     720     639     649     647     642
       8     702     705     719     710     624     627     641     632
       8     728     715     709     711     650     637     631     633
       8     729     728     711     726     651     650     633     648
       8     730     729     726     731     652     651     648     653
       8     721     731     726     718     643     653     648     640
       8     732     733     727     717     654     655     649     639
       8     734     732     717     719     656     654     639     641
       8     735     734     719     705     657     656     641     627
       8     736     706     704     737     658     628     626     659
       8     738     737     704     703     660     659     626     625
       8     714     738     703     708     636     660     625     630
       8     739     716     715     728     661     638     637     650
       8     740     739     728     729     662     661     650     651
       8     741     740     729     730     663     662     651     652
       8     742     741     730     743     664     663     652     665
       8     744     743     730     731     666     665     652     653
       8     723     744     731     721     645     666     653     643
       8     745     724     725     727     667     646     647     649
       8     746     745     727     733     668     667     649     655
       8     747     746     733     748     669     668     655     670
       8     749     748     733     732     671     670     655     654
       8     750     749     732     734     672     671     654     656
       8     751     750     734     735     673     672     656     657
       8     752     751     735     753     674     673     657     675
       8     707     753     735     705     629     675     657     627
       8     754     755     706     736     676     677     628     658
       8     756     754     736     737     678     676     658     659
       8     757     756     737     738     679     678     659     660
       8     758     757     738     714     680     679     660     636
       8     759     758     714     713     681     680     636     635
       8     760     759     713     716     682     681     635     638
       8     761     760     716     739     683     682     638     661
       8     762     761     739     740     684     683     661     662
       8     763     762     740     741     685     684     662     663
       8     764     763     741     742     686     685     663     664
       8     765     764     742     743     687     686     664     665
       8     766     765     743     744     688     687     665     666
       8     767     766     744     723     689     688     666     645
       8     768     767     723     722     690     689     645     644
       8     769     768     722     724     691     690     644     646
       8     770     769     724     745     692     691     646     667
       8     771     770     745     746     693     692     667     668
       8     772     771     746     747     694     693     668     669
       8     773     772     747     748     695     694     669     670
       8     774     773     748     749     696     695     670     671
       8     775     774     749     750     697     696     671     672
       8     776     775     750     751     698     697     672     673
       8     777     776     751     752     699     698     673     674
       8     778     777     752     753     700     699     674     675
       8     779     778     753     707     701     700     675     629
       8     755     779     707     706     677     701     629     628
       8     780     781     782     783     702     703     704     705
       8     782     784     785     783     704     706     707     705
       8     786     781     780     787     708     703     702     709
       8     780     788     789     787     702     710     711     709
       8     790     791     792     786     712     713     714     708
       8     793     794     791     790     715     716     713     712
       8     787     793     790     786     709     715     712     708
       8     795     796     788     797     717     718     710     719
       8     798     799     796     795     720     721     718     717
       8     800     801     799     798     722     723     721     720
       8     802     800     798     803     724     722     720     725
       8     804     789     788     796     726     711     710     718
       8     795     805     803     798     717     727     725     720
       8     780     783     797     788     702     705     719     710
       8     806     793     787     789     728     715     709     711
       8     807     806     789     804     729     728     711     726
       8     808     807     804     809     730     729     726     731
       8     799     809     804     796     721     731     726     718
       8     810     811     805     795     732     733     727     717
       8     812     810     795     797     734     732     717     719
       8     813     812     797     783     735     734     719     705
       8     814     784     782     815     736     706     704     737
       8     816     815     782     781     738     737     704     703
       8     792     816     781     786     714     738     703     708
       8     817     794     793     806     739     716     715     728
       8     818     817     806     807     740     739     728     729
       8     819     818     807     808     741     740     729     730
       8     820     819     808     821     742     741     730     743
       8     822     821     808     809     744     743     730     731
       8     801     822     809     799     723     744     731     721
       8     823     802     803     805     745     724     725     727
       8     824     823     805     811     746     745     727     733
       8     825     824     811     826     747     746     733     748
       8     827     826     811     810     749     748     733     732
       8     828     827     810     812     750     749     732     734
       8     829     828     812     813     751     750     734     735
       8     830     829     813     831     752     751     735     753
       8     785     831     813     783     707     753     735     705
       8     832     833     784     814     754     755     706     736
       8     834     832     814     815     756     754     736     737
       8     835     834     815     816     757     756     737     738
       8     836     835     816     792     758     757     738     714
       8     837     836     792     791     759     758     714     713
       8     838     837     791     794     760     759     713     716
       8     839     838     794     817     761     760     716     739
       8     840     839     817     818     762     761     739     740
       8     841     840     818     819     763     762     740     741
       8     842     841     819     820     764     763     741     742
       8     843     842     820     821     765     764     742     743
       8     844     843     821     822     766     765     743     744
       8     845     844     822     801     767     766     744     723
       8     846     845     801     800     768     767     723     722
       8     847     846     800     802     769     768     722     724
       8     848     847     802     823     770     769     724     745
       8     849     848     823     824     771     770     745     746
       8     850     849     824     825     772     771     746     747
       8     851     850     825     826     773     772     747     748
       8     852     851     826     827     774     773     748     749
       8     853     852     827     828     775     774     749     750
       8     854     853     828     829     776     775     750     751
       8     855     854     829     830     777     776     751     752
       8     856     855     830     831     778     777     752     753
       8     857     856     831     785     779     778     753     707
       8     833     857     785     784     755     779     707     706
       8     858     859     860     861     780     781     782     783
       8     860     862     863     861     782     784     785     783
       8     864     859     858     865     786     781     780     787
       8     858     866     867     865     780     788     789     787
       8     868     869     870     864     790     791     792     786
       8     871     872     869     868     793     794     791     790
       8     865     871     868     864     787     793     790     786
       8     873     874     866     875     795     796     788     797
       8     876     877     874     873     798     799     796     795
       8     878     879     877     876     800     801     799     798
       8     880     878     876     881     802     800     798     803
       8     882     867     866     874     804     789     788     796
       8     873     883     881     876     795     805     803     798
       8     858     861     875     866     780     783     797     788
       8     884     871     865     867     806     793     787     789
       8     885     884     867     882     807     806     789     804
       8     886     885     882     887     808     807     804     809
       8     877     887     882     874     799     809     804     796
       8     888     889     883     873     810     811     805     795
       8     890     888     873     875     812     810     795     797
       8     891     890     875     861     813     812     797     783
       8     892     862     860     893     814     784     782     815
       8     894     893     860     859     816     815     782     781
       8     870     894     859     864     792     816     781     786
       8     895     872     871     884     817     794     793     806
       8     896     895     884     885     818     817     806     807
       8     897     896     885     886     819     818     807     808
       8     898     897     886     899     820     819     808     821
       8     900     899     886     887     822     821     808     809
       8     879     900     887     877     801     822     809     799
       8     901     880     881     883     823     802     803     805
       8     902     901     883     889     824     823     805     811
       8     903     902     889     904     825     824     811     826
       8     905     904     889     888     827     826     811     810
       8     906     905     888     890     828     827     810     812
       8     907     906     890     891     829     828     812     813
       8     908     907     891     909     830     829     813     831
       8     863     909     891     861     785     831     813     783
       8     910     911     862     892     832     833     784     814
       8     912     910     892     893     834     832     814     815
       8     913     912     893     894     835     834     815     816
       8     914     913     894     870     836     835     816     792
       8     915     914     870     869     837     836     792     791
       8     916     915     869     872     838     837     791     794
       8     917     916     872     895     839     838     794     817
       8     918     917     895     896     840     839     817     818
       8     919     918     896     897     841     840     818     819
       8     920     919     897     898     842     841     819     820
       8     921     920     898     899     843     842     820     821
       8     922     921     899     900     844     843     821     822
       8     923     922     900     879     845     844     822     801
       8     924     923     879     878     846     845     801     800
       8     925     924     878     880     847     846     800     802
       8     926     925     880     901     848     847     802     823
       8     927     926     901     902     849     848     823     824
       8     928     927     902     903     850     849     824     825
       8     929     928     903     904     851     850     825     826
       8     930     929     904     905     852     851     826     827
       8     931     930     905     906     853     852     827     828
       8     932     931     906     907     854     853     828     829
       8     933     932     907     908     855     854     829     830
       8     934     933     908     909     856     855     830     831
       8     935     934     909     863     857     856     831     785
       8     911     935     863     862     833     857     785     784
       8     936     937     938     939     858     859     860     861
       8     938     940     941     939     860     862     863     861
       8     942     937     936     943     864     859     858     865
       8     936     944     945     943     858     866     867     865
       8     946     947     948     942     868     869     870     864
       8     949     950     947     946     871     872     869     868
       8     943     949     946     942     865     871     868     864
       8     951     952     944     953     873     874     866     875
       8     954     955     952     951     876     877     874     873
       8     956     957     955     954     878     879     877     876
       8     958     956     954     959     880     878     876     881
       8     960     945     944     952     882     867     866     874
       8     951     961     959     954     873     883     881     876
       8     936     939     953     944     858     861     875     866
       8     962     949     943     945     884     871     865     867
       8     963     962     945     960     885     884     867     882
       8     964     963     960     965     886     885     882     887
       8     955     965     960     952     877     887     882     874
       8     966     967     961     951     888     889     883     873
       8     968     966     951     953     890     888     873     875
       8     969     968     953     939     891     890     875     861
       8     970     940     938     971     892     862     860     893
       8     972     971     938     937     894     893     860     859
       8     948     972     937     942     870     894     859     864
       8     973     950     949     962     895     872     871     884
       8     974     973     962     963     896     895     884     885
       8     975     974     963     964     897     896     885     886
       8     976     975     964     977     898     897     886     899
       8     978     977     964     965     900     899     886     887
       8     957     978     965     955     879     900     887     877
       8     979     958     959     961     901     880     881     883
       8     980     979     961     967     902     901     883     889
       8     981     980     967     982     903     902     889     904
       8     983     982     967     966     905     904     889     888
       8     984     983     966     968     906     905     888     890
       8     985     984     968     969     907     906     890     891
       8     986     985     969     987     908     907     891     909
       8     941     987     969     939     863     909     891     861
       8     988     989     940     970     910     911     862     892
       8     990     988     970     971     912     910     892     893
       8     991     990     971     972     913     912     893     894
       8     992     991     972     948     914     913     894     870
       8     993     992     948     947     915     914     870     869
       8     994     993     947     950     916     915     869     872
       8     995     994     950     973     917     916     872     895
       8     996     995     973     974     918     917     895     896
       8     997     996     974     975     919     918     896     897
       8     998     997     975     976     920     919     897     898
       8     999     998     976     977     921     920     898     899
       8    1000     999     977     978     922     921     899     900
       8    1001    1000     978     957     923     922     900     879
       8    1002    1001     957     956     924     923     879     878
       8    1003    1002     956     958     925     924     878     880
       8    1004    1003     958     979     926     925     880     901
       8    1005    1004     979     980     927     926     901     902
       8    1006    1005     980     981     928     927     902     903
       8    1007    1006     981     982     929     928     903     904
       8    1008    1007     982     983     930     929     904     905
       8    1009    1008     983     984     931     930     905     906
       8    1010    1009     984     985     932     931     906     907
       8    1011    1010     985     986     933     932     907     908
       8    1012    1011     986     987     934     933     908     909
       8    1013    1012     987     941     935     934     909     863
       8     989    1013     941     940     911     935     863     862
       8    1014    1015    1016    1017     936     937     938     939
       8    1016    1018    1019    1017     938     940     941     939
       8    1020    1015    1014    1021     942     937     936     943
       8    1014    1022    1023    1021     936     944     945     943
       8    1024    1025    1026    1020     946     947     948     942
       8    1027    1028    1025    1024     949     950     947     946
       8    1021    1027    1024    1020     943     949     946     942
       8    1029    1030    1022    1031     951     952     944     953
       8    1032    1033    1030    1029     954     955     952     951
       8    1034    1035    1033    1032     956     957     955     954
       8    1036    1034    1032    1037     958     956     954     959
       8    1038    1023    1022    1030     960     945     944     952
       8    1029    1039    1037    1032     951     961     959     954
       8    1014    1017    1031    1022     936     939     953     944
       8    1040    1027    1021    1023     962     949     943     945
       8    1041    1040    1023    1038     963     962     945     960
       8    1042    1041    1038    1043     964     963     960     965
       8    1033    1043    1038    1030     955     965     960     952
       8    1044    1045    1039    1029     966     967     961     951
       8    1046    1044    1029    1031     968     966     951     953
       8    1047    1046    1031    1017     969     968     953     939
       8    1048    1018    1016    1049     970     940     938     971
       8    1050    1049    1016    1015     972     971     938     937
       8    1026    1050    1015    1020     948     972     937     942
       8    1051    1028    1027    1040     973     950     949     962
       8    1052    1051    1040    1041     974     973     962     963
       8    1053    1052    1041    1042     975     974     963     964
       8    1054    1053    1042    1055     976     975     964     977
       8    1056    1055    1042    1043     978     977     964     965
       8    1035    1056    1043    1033     957     978     965     955
       8    1057    1036    1037    1039     979     958     959     961
       8    1058    1057    1039    1045     980     979     961     967
       8    1059    1058    1045    1060     981     980     967     982
       8    1061    1060    1045    1044     983     982     967     966
       8    1062    1061    1044    1046     984     983     966     968
       8    1063    1062    1046    1047     985     984     968     969
       8    1064    1063    1047    1065     986     985     969     987
       8    1019    1065    1047    1017     941     987     969     939
       8    1066    1067    1018    1048     988     989     940     970
       8    1068    1066    1048    1049     990     988     970     971
       8    1069    1068    1049    1050     991     990     971     972
       8    1070    1069    1050    1026     992     991     972     948
       8    1071    1070    1026    1025     993     992     948     947
       8    1072    1071    1025    1028     994     993     947     950
       8    1073    1072    1028    1051     995     994     950     973
       8    1074    1073    1051    1052     996     995     973     974
       8    1075    1074    1052    1053     997     996     974     975
       8    1076    1075    1053    1054     998     997     975     976
       8    1077    1076    1054    1055     999     998     976     977
       8    1078    1077    1055    1056    1000     999     977     978
       8    1079    1078    1056    1035    1001    1000     978     957
       8    1080    1079    1035    1034    1002    1001     957     956
       8    1081    1080    1034    1036    1003    1002     956     958
       8    1082    1081    1036    1057    1004    1003     958     979
       8    1083    1082    1057    1058    1005    1004     979     980
       8    1084    1083    1058    1059    1006    1005     980     981
       8    1085    1084    1059    1060    1007    1006     981     982
       8    1086    1085    1060    1061    1008    1007     982     983
       8    1087    1086    1061    1062    1009    1008     983     984
       8    1088    1087    1062    1063    1010    1009     984     985
       8    1089    1088    1063    1064    1011    1010     985     986
       8    1090    1089    1064    1065    1012    1011     986     987
       8    1091    1090    1065    1019    1013    1012     987     941
       8    1067    1091    1019    1018     989    1013     941     940
       8    1092    1093    1094    1095    1014    1015    1016    1017
       8    1094    1096    1097    1095    1016    1018    1019    1017
       8    1098    1093    1092    1099    1020    1015    1014    1021
       8    1092    1100    1101    1099    1014    1022    1023    1021
       8    1102    1103    1104    1098    1024    1025    1026    1020
       8    1105    1106    1103    1102    1027    1028    1025    1024
       8    1099    1105    1102    1098    1021    1027    1024    1020
       8    1107    1108    1100    1109    1029    1030    1022    1031
       8    1110    1111    1108    1107    1032    1033    1030    1029
       8    1112    1113    1111    1110    1034    1035    1033    1032
       8    1114    1112    1110    1115    1036    1034    1032    1037
       8    1116    1101    1100    1108    1038    1023    1022    1030
       8    1107    1117    1115    1110    1029    1039    1037    1032
       8    1092    1095    1109    1100    1014    1017    1031    1022
       8    1118    1105    1099    1101    1040    1027    1021    1023
       8    1119    1118    1101    1116    1041    1040    1023    1038
       8    1120    1119    1116    1121    1042    1041    1038    1043
       8    1111    1121    1116    1108    1033    1043    1038    1030
       8    1122    1123    1117    1107    1044    1045    1039    1029
       8    1124    1122    1107    1109    1046    1044    1029    1031
       8    1125    1124    1109    1095    1047    1046    1031    1017
       8    1126    1096    1094    1127    1048    1018    1016    1049
       8    1128    1127    1094    1093    1050    1049    1016    1015
       8    1104    1128    1093    1098    1026    1050    1015    1020
       8    1129    1106    1105    1118    1051    1028    1027    1040
       8    1130    1129    1118    1119    1052    1051    1040    1041
       8    1131    1130    1119    1120    1053    1052    1041    1042
       8    1132    1131    1120    1133    1054    1053    1042    1055
       8    1134    1133    1120    1121    1056    1055    1042    1043
       8    1113    1134    1121    1111    1035    1056    1043    1033
       8    1135    1114    1115    1117    1057    1036    1037    1039
       8    1136    1135    1117    1123    1058    1057    1039    1045
       8    1137    1136    1123    1138    1059    1058    1045    1060
       8    1139    1138    1123    1122    1061    1060    1045    1044
       8    1140    1139    1122    1124    1062    1061    1044    1046
       8    1141    1140    1124    1125    1063    1062    1046    1047
       8    1142    1141    1125    1143    1064    1063    1047    1065
       8    1097    1143    1125    1095    1019    1065    1047    1017
       8    1144    1145    1096    1126    1066    1067    1018    1048
       8    1146    1144    1126    1127    1068    1066    1048    1049
       8    1147    1146    1127    1128    1069    1068    1049    1050
       8    1148    1147    1128    1104    1070    1069    1050    1026
       8    1149    1148    1104    1103    1071    1070    1026    1025
       8    1150    1149    1103    1106    1072    1071    1025    1028
       8    1151    1150    1106    1129    1073    1072    1028    1051
       8    1152    1151    1129    1130    1074    1073    1051    1052
       8    1153    1152    1130    1131    1075    1074    1052    1053
       8    1154    1153    1131    1132    1076    1075    1053    1054
       8    1155    1154    1132    1133    1077    1076    1054    1055
       8    1156    1155    1133    1134    1078    1077    1055    1056
       8    1157    1156    1134    1113    1079    1078    1056    1035
       8    1158    1157    1113    1112    1080    1079    1035    1034
       8    1159    1158    1112    1114    1081    1080    1034    1036
       8    1160    1159    1114    1135    1082    1081    1036    1057
       8    1161    1160    1135    1136    1083    1082    1057    1058
       8    1162    1161    1136    1137    1084    1083    1058    1059
       8    1163    1162    1137    1138    1085    1084    1059    1060
       8    1164    1163    1138    1139    1086    1085    1060    1061
       8    1165    1164    1139    1140    1087    1086    1061    1062
       8    1166    1165    1140    1141    1088    1087    1062    1063
       8    1167    1166    1141    1142    1089    1088    1063    1064
       8    1168    1167    1142    1143    1090    1089    1064    1065
       8    1169    1168    1143    1097    1091    1090    1065    1019
       8    1145    1169    1097    1096    1067    1091    1019    1018
       8    1170    1171    1172    1173    1092    1093    1094    1095
       8    1172    1174    1175    1173    1094    1096    1097    1095
       8    1176    1171    1170    1177    1098    1093    1092    1099
       8    1170    1178    1179    1177    1092    1100    1101    1099
       8    1180    1181    1182    1176    1102    1103    1104    1098
       8    1183    1184    1181    1180    1105    1106    1103    1102
       8    1177    1183    1180    1176    1099    1105    1102    1098
       8    1185    1186    1178    1187    1107    1108    1100    1109
       8    1188    1189    1186    1185    1110    1111    1108    1107
       8    1190    1191    1189    1188    1112    1113    1111    1110
       8    1192    1190    1188    1193    1114    1112    1110    1115
       8    1194    1179    1178    1186    1116    1101    1100    1108
       8    1185    1195    1193    1188    1107    1117    1115    1110
       8    1170    1173    1187    1178    1092    1095    1109    1100
       8    1196    1183    1177    1179    1118    1105    1099    1101
       8    1197    1196    1179    1194    1119    1118    1101    1116
       8    1198    1197    1194    1199    1120    1119    1116    1121
       8    1189    1199    1194    1186    1111    1121    1116    1108
       8    1200    1201    1195    1185    1122    1123    1117    1107
       8    1202    1200    1185    1187    1124    1122    1107    1109
       8    1203    1202    1187    1173    1125    1124    1109    1095
       8    1204    1174    1172    1205    1126    1096    1094    1127
       8    1206    1205    1172    1171    1128    1127    1094    1093
       8    1182    1206    1171    1176    1104    1128    1093    1098
       8    1207    1184    1183    1196    1129    1106    1105    1118
       8    1208    1207    1196    1197    1130    1129    1118    1119
       8    1209    1208    1197    1198    1131    1130    1119    1120
       8    1210    1209    1198    1211    1132    1131    1120    1133
       8    1212    1211    1198    1199    1134    1133    1120    1121
       8    1191    1212    1199    1189    1113    1134    1121    1111
       8    1213    1192    1193    1195    1135    1114    1115    1117
       8    1214    1213    1195    1201    1136    1135    1117    1123
       8    1215    1214    1201    1216    1137    1136    1123    1138
       8    1217    1216    1201    1200    1139    1138    1123    1122
       8    1218    1217    1200    1202    1140    1139    1122    1124
       8    1219    1218    1202    1203    1141    1140    1124    1125
       8    1220    1219    1203    1221    1142    1141    1125    1143
       8    1175    1221    1203    1173    1097    1143    1125    1095
       8    1222    1223    1174    1204    1144    1145    1096    1126
       8    1224    1222    1204    1205    1146    1144    1126    1127
       8    1225    1224    1205    1206    1147    1146    1127    1128
       8    1226    1225    1206    1182    1148    1147    1128    1104
       8    1227    1226    1182    1181    1149    1148    1104    1103
       8    1228    1227    1181    1184    1150    1149    1103    1106
       8    1229    1228    1184    1207    1151    1150    1106    1129
       8    1230    1229    1207    1208    1152    1151    1129    1130
       8    1231    1230    1208    1209    1153    1152    1130    1131
       8    1232    1231    1209    1210    1154    1153    1131    1132
       8    1233    1232    1210    1211    1155    1154    1132    1133
       8    1234    1233    1211    1212    1156    1155    1133    1134
       8    1235    1234    1212    1191    1157    1156    1134    1113
       8    1236    1235    1191    1190    1158    1157    1113    1112
       8    1237    1236    1190    1192    1159    1158    1112    1114
       8    1238    1237    1192    1213    1160    1159    1114    1135
       8    1239    1238    1213    1214    1161    1160    1135    1136
       8    1240    1239    1214    1215    1162    1161    1136    1137
       8    1241    1240    1215    1216    1163    1162    1137    1138
       8    1242    1241    1216    1217    1164    1163    1138    1139
       8    1243    1242    1217    1218    1165    1164    1139    1140
       8    1244    1243    1218    1219    1166    1165    1140    1141
       8    1245    1244    1219    1220    1167    1166    1141    1142
       8    1246    1245    1220    1221    1168    1167    1142    1143
       8    1247    1246    1221    1175    1169    1168    1143    1097
       8    1223    1247    1175    1174    1145    1169    1097    1096
       8    1248    1249    1250    1251    1170    1171    1172    1173
       8    1250    1252    1253    1251    1172    1174    1175    1173
       8    1254    1249    1248    1255    1176    1171    1170    1177
       8    1248    1256    1257    1255    1170    1178    1179    1177
       8    1258    1259    1260    1254    1180    1181    1182    1176
       8    1261    1262    1259    1258    1183    1184    1181    1180
       8    1255    1261    1258    1254    1177    1183    1180    1176
       8    1263    1264    1256    1265    1185    1186    1178    1187
       8    1266    1267    1264    1263    1188    1189    1186    1185
       8    1268    1269    1267    1266    1190    1191    1189    1188
       8    1270    1268    1266    1271    1192    1190    1188    1193
       8    1272    1257    1256    1264    1194    1179    1178    1186
       8    1263    1273    1271    1266    1185    1195    1193    1188
       8    1248    1251    1265    1256    1170    1173    1187    1178
       8    1274    1261    1255    1257    1196    1183    1177    1179
       8    1275    1274    1257    1272    1197    1196    1179    1194
       8    1276    1275    1272    1277    1198    1197    1194    1199
       8    1267    1277    1272    1264    1189    1199    1194    1186
       8    1278    1279    1273    1263    1200    1201    1195    1185
       8    1280    1278    1263    1265    1202    1200    1185    1187
       8    1281    1280    1265    1251    1203    1202    1187    1173
       8    1282    1252    1250    1283    1204    1174    1172    1205
       8    1284    1283    1250    1249    1206    1205    1172    1171
       8    1260    1284    1249    1254    1182    1206    1171    1176
       8    1285    1262    1261    1274    1207    1184    1183    1196
       8    1286    1285    1274    1275    1208    1207    1196    1197
       8    1287    1286    1275    1276    1209    1208    1197    1198
       8    1288    1287    1276    1289    1210    1209    1198    1211
       8    1290    1289    1276    1277    1212    1211    1198    1199
       8    1269    1290    1277    1267    1191    1212    1199    1189
       8    1291    1270    1271    1273    1213    1192    1193    1195
       8    1292    1291    1273    1279    1214    1213    1195    1201
       8    1293    1292    1279    1294    1215    1214    1201    1216
       8    1295    1294    1279    1278    1217    1216    1201    1200
       8    1296    1295    1278    1280    1218    1217    1200    1202
       8    1297    1296    1280    1281    1219    1218    1202    1203
       8    1298    1297    1281    1299    1220    1219    1203    1221
       8    1253    1299    1281    1251    1175    1221    1203    1173
       8    1300    1301    1252    1282    1222    1223    1174    1204
       8    1302    1300    1282    1283    1224    1222    1204    1205
       8    1303    1302    1283    1284    1225    1224    1205    1206
       8    1304    1303    1284    1260    1226    1225    1206    1182
       8    1305    1304    1260    1259    1227    1226    1182    1181
       8    1306    1305    1259    1262    1228    1227    1181    1184
       8    1307    1306    1262    1285    1229    1228    1184    1207
       8    1308    1307    1285    1286    1230    1229    1207    1208
       8    1309    1308    1286    1287    1231    1230    1208    1209
       8    1310    1309    1287    1288    1232    1231    1209    1210
       8    1311    1310    1288    1289    1233    1232    1210    1211
       8    1312    1311    1289    1290    1234    1233    1211    1212
       8    1313    1312    1290    1269    1235    1234    1212    1191
       8    1314    1313    1269    1268    1236    1235    1191    1190
       8    1315    1314    1268    1270    1237    1236    1190    1192
       8    1316    1315    1270    1291    1238    1237    1192    1213
       8    1317    1316    1291    1292    1239    1238    1213    1214
       8    1318    1317    1292    1293    1240    1239    1214    1215
       8    1319    1318    1293    1294    1241    1240    1215    1216
       8    1320    1319    1294    1295    1242    1241    1216    1217
       8    1321    1320    1295    1296    1243    1242    1217    1218
       8    1322    1321    1296    1297    1244    1243    1218    1219
       8    1323    1322    1297    1298    1245    1244    1219    1220
       8    1324    1323    1298    1299    1246    1245    1220    1221
       8    1325    1324    1299    1253    1247    1246    1221    1175
       8    1301    1325    1253    1252    1223    1247    1175    1174
       8    1326    1327    1328    1329    1248    1249    1250    1251
       8    1328    1330    1331    1329    1250    1252    1253    1251
       8    1332    1327    1326    1333    1254    1249    1248    1255
       8    1326    1334    1335    1333    1248    1256    1257    1255
       8    1336    1337    1338    1332    1258    1259    1260    1254
       8    1339    1340    1337    1336    1261    1262    1259    1258
       8    1333    1339    1336    1332    1255    1261    1258    1254
       8    1341    1342    1334    1343    1263    1264    1256    1265
       8    1344    1345    1342    1341    1266    1267    1264    1263
       8    1346    1347    1345    1344    1268    1269    1267    1266
       8    1348    1346    1344    1349    1270    1268    1266    1271
       8    1350    1335    1334    1342    1272    1257    1256    1264
       8    1341    1351    1349    1344    1263    1273    1271    1266
       8    1326    1329    1343    1334    1248    1251    1265    1256
       8    1352    1339    1333    1335    1274    1261    1255    1257
       8    1353    1352    1335    1350    1275    1274    1257    1272
       8    1354    1353    1350    1355    1276    1275    1272    1277
       8    1345    1355    1350    1342    1267    1277    1272    1264
       8    1356    1357    1351    1341    1278    1279    1273    1263
       8    1358    1356    1341    1343    1280    1278    1263    1265
       8    1359    1358    1343    1329    1281    1280    1265    1251
       8    1360    1330    1328    1361    1282    1252    1250    1283
       8    1362    1361    1328    1327    1284    1283    1250    1249
       8    1338    1362    1327    1332    1260    1284    1249    1254
       8    1363    1340    1339    1352    1285    1262    1261    1274
       8    1364    1363    1352    1353    1286    1285    1274    1275
       8    1365    1364    1353    1354    1287    1286    1275    1276
       8    1366    1365    1354    1367    1288    1287    1276    1289
       8    1368    1367    1354    1355    1290    1289    1276    1277
       8    1347    1368    1355    1345    1269    1290    1277    1267
       8    1369    1348    1349    1351    1291    1270    1271    1273
       8    1370    1369    1351    1357    1292    1291    1273    1279
       8    1371    1370    1357    1372    1293    1292    1279    1294
       8    1373    1372    1357    1356    1295    1294    1279    1278
       8    1374    1373    1356    1358    1296    1295    1278    1280
       8    1375    1374    1358    1359    1297    1296    1280    1281
       8    1376    1375    1359    1377    1298    1297    1281    1299
       8    1331    1377    1359    1329    1253    1299    1281    1251
       8    1378    1379    1330    1360    1300    1301    1252    1282
       8    1380    1378    1360    1361    1302    1300    1282    1283
       8    1381    1380    1361    1362    1303    1302    1283    1284
       8    1382    1381    1362    1338    1304    1303    1284    1260
       8    1383    1382    1338    1337    1305    1304    1260    1259
       8    1384    1383    1337    1340    1306    1305    1259    1262
       8    1385    1384    1340    1363    1307    1306    1262    1285
       8    1386    1385    1363    1364    1308    1307    1285    1286
       8    1387    1386    1364    1365    1309    1308    1286    1287
       8    1388    1387    1365    1366    1310    1309    1287    1288
       8    1389    1388    1366    1367    1311    1310    1288    1289
       8    1390    1389    1367    1368    1312    1311    1289    1290
       8    1391    1390    1368    1347    1313    1312    1290    1269
       8    1392    1391    1347    1346    1314    1313    1269    1268
       8    1393    1392    1346    1348    1315    1314    1268    1270
       8    1394    1393    1348    1369    1316    1315    1270    1291
       8    1395    1394    1369    1370    1317    1316    1291    1292
       8    1396    1395    1370    1371    1318    1317    1292    1293
       8    1397    1396    1371    1372    1319    1318    1293    1294
       8    1398    1397    1372    1373    1320    1319    1294    1295
       8    1399    1398    1373    1374    1321    1320    1295    1296
       8    1400    1399    1374    1375    1322    1321    1296    1297
       8    1401    1400    1375    1376    1323    1322    1297    1298
       8    1402    1401    1376    1377    1324    1323    1298    1299
       8    1403    1402    1377    1331    1325    1324    1299    1253
       8    1379    1403    1331    1330    1301    1325    1253    1252
       8    1404    1405    1406    1407    1326    1327    1328    1329
       8    1406    1408    1409    1407    1328    1330    1331    1329
       8    1410    1405    1404    1411    1332    1327    1326    1333
       8    1404    1412    1413    1411    1326    1334    1335    1333
       8    1414    1415    1416    1410    1336    1337    1338    1332
       8    1417    1418    1415    1414    1339    1340    1337    1336
       8    1411    1417    1414    1410    1333    1339    1336    1332
       8    1419    1420    1412    1421    1341    1342    1334    1343
       8    1422    1423    1420    1419    1344    1345    1342    1341
       8    1424    1425    1423    1422    1346    1347    1345    1344
       8    1426    1424    1422    1427    1348    1346    1344    1349
       8    1428    1413    1412    1420    1350    1335    1334    1342
       8    1419    1429    1427    1422    1341    1351    1349    1344
       8    1404    1407    1421    1412    1326    1329    1343    1334
       8    1430    1417    1411    1413    1352    1339    1333    1335
       8    1431    1430    1413    1428    1353    1352    1335    1350
       8    1432    1431    1428    1433    1354    1353    1350    1355
       8    1423    1433    1428    1420    1345    1355    1350    1342
       8    1434    1435    1429    1419    1356    1357    1351    1341
       8    1436    1434    1419    1421    1358    1356    1341    1343
       8    1437    1436    1421    1407    1359    1358    1343    1329
       8    1438    1408    1406    1439    1360    1330    1328    1361
       8    1440    1439    1406    1405    1362    1361    1328    1327
       8    1416    1440    1405    1410    1338    1362    1327    1332
       8    1441    1418    1417    1430    1363    1340    1339    1352
       8    1442    1441    1430    1431    1364    1363    1352    1353
       8    1443    1442    1431    1432    1365    1364    1353    1354
       8    1444    1443    1432    1445    1366    1365    1354    1367
       8    1446    1445    1432    1433    1368    1367    1354    1355
       8    1425    1446    1433    1423    1347    1368    1355    1345
       8    1447    1426    1427    1429    1369    1348    1349    1351
       8    1448    1447    1429    1435    1370    1369    1351    1357
       8    1449    1448    1435    1450    1371    1370    1357    1372
       8    1451    1450    1435    1434    1373    1372    1357    1356
       8    1452    1451    1434    1436    1374    1373    1356    1358
       8    1453    1452    1436    1437    1375    1374    1358    1359
       8    1454    1453    1437    1455    1376    1375    1359    1377
       8    1409    1455    1437    1407    1331    1377    1359    1329
       8    1456    1457    1408    1438    1378    1379    1330    1360
       8    1458    1456    1438    1439    1380    1378    1360    1361
       8    1459    1458    1439    1440    1381    1380    1361    1362
       8    1460    1459    1440    1416    1382    1381    1362    1338
       8    1461    1460    1416    1415    1383    1382    1338    1337
       8    1462    1461    1415    1418    1384    1383    1337    1340
       8    1463    1462    1418    1441    1385    1384    1340    1363
       8    1464    1463    1441    1442    1386    1385    1363    1364
       8    1465    1464    1442    1443    1387    1386    1364    1365
       8    1466    1465    1443    1444    1388    1387    1365    1366
       8    1467    1466    1444    1445    1389    1388    1366    1367
       8    1468    1467    1445    1446    1390    1389    1367    1368
       8    1469    1468    1446    1425    1391    1390    1368    1347
       8    1470    1469    1425    1424    1392    1391    1347    1346
       8    1471    1470    1424    1426    1393    1392    1346    1348
       8    1472    1471    1426    1447    1394    1393    1348    1369
       8    1473    1472    1447    1448    1395    1394    1369    1370
       8    1474    1473    1448    1449    1396    1395    1370    1371
       8    1475    1474    1449    1450    1397    1396    1371    1372
       8    1476    1475    1450    1451    1398    1397    1372    1373
       8    1477    1476    1451    1452    1399    1398    1373    1374
       8    1478    1477    1452    1453    1400    1399    1374    1375
       8    1479    1478    1453    1454    1401    1400    1375    1376
       8    1480    1479    1454    1455    1402    1401    1376    1377
       8    1481    1480    1455    1409    1403    1402    1377    1331
       8    1457    1481    1409    1408    1379    1403    1331    1330
       8    1482    1483    1484    1485    1404    1405    1406    1407
       8    1484    1486    1487    1485    1406    1408    1409    1407
       8    1488    1483    1482    1489    1410    1405    1404    1411
       8    1482    1490    1491    1489    1404    1412    1413    1411
       8    1492    1493    1494    1488    1414    1415    1416    1410
       8    1495    1496    1493    1492    1417    1418    1415    1414
       8    1489    1495    1492    1488    1411    1417    1414    1410
       8    1497    1498    1490    1499    1419    1420    1412    1421
       8    1500    1501    1498    1497    1422    1423    1420    1419
       8    1502    1503    1501    1500    1424    1425    1423    1422
       8    1504    1502    1500    1505    1426    1424    1422    1427
       8    1506    1491    1490    1498    1428    1413    1412    1420
       8    1497    1507    1505    1500    1419    1429    1427    1422
       8    1482    1485    1499    1490    1404    1407    1421    1412
       8    1508    1495    1489    1491    1430    1417    1411    1413
       8    1509    1508    1491    1506    1431    1430    1413    1428
       8    1510    1509    1506    1511    1432    1431    1428    1433
       8    1501    1511    1506    1498    1423    1433    1428    1420
       8    1512    1513    1507    1497    1434    1435    1429    1419
       8    1514    1512    1497    1499    1436    1434    1419    1421
       8    1515    1514    1499    1485    1437    1436    1421    1407
       8    1516    1486    1484    1517    1438    1408    1406    1439
       8    1518    1517    1484    1483    1440    1439    1406    1405
       8    1494    1518    1483    1488    1416    1440    1405    1410
       8    1519    1496    1495    1508    1441    1418    1417    1430
       8    1520    1519    1508    1509    1442    1441    1430    1431
       8    1521    1520    1509    1510    1443    1442    1431    1432
       8    1522    1521    1510    1523    1444    1443    1432    1445
       8    1524    1523    1510    1511    1446    1445    1432    1433
       8    1503    1524    1511    1501    1425    1446    1433    1423
       8    1525    1504    1505    1507    1447    1426    1427    1429
       8    1526    1525    1507    1513    1448    1447    1429    1435
       8    1527    1526    1513    1528    1449    1448    1435    1450
       8    1529    1528    1513    1512    1451    1450    1435    1434
       8    1530    1529    1512    1514    1452    1451    1434    1436
       8    1531    1530    1514    1515    1453    1452    1436    1437
       8    1532    1531    1515    1533    1454    1453    1437    1455
       8    1487    1533    1515    1485    1409    1455    1437    1407
       8    1534    1535    1486    1516    1456    1457    1408    1438
       8    1536    1534    1516    1517    1458    1456    1438    1439
       8    1537    1536    1517    1518    1459    1458    1439    1440
       8    1538    1537    1518    1494    1460    1459    1440    1416
       8    1539    1538    1494    1493    1461    1460    1416    1415
       8    1540    1539    1493    1496    1462    1461    1415    1418
       8    1541    1540    1496    1519    1463    1462    1418    1441
       8    1542    1541    1519    1520    1464    1463    1441    1442
       8    1543    1542    1520    1521    1465    1464    1442    1443
       8    1544    1543    1521    1522    1466    1465    1443    1444
       8    1545    1544    1522    1523    1467    1466    1444    1445
       8    1546    1545    1523    1524    1468    1467    1445    1446
       8    1547    1546    1524    1503    1469    1468    1446    1425
       8    1548    1547    1503    1502    1470    1469    1425    1424
       8    1549    1548    1502    1504    1471    1470    1424    1426
       8    1550    1549    1504    1525    1472    1471    1426    1447
       8    1551    1550    1525    1526    1473    1472    1447    1448
       8    1552    1551    1526    1527    1474    1473    1448    1449
       8    1553    1552    1527    1528    1475    1474    1449    1450
       8    1554    1553    1528    1529    1476    1475    1450    1451
       8    1555    1554    1529    1530    1477    1476    1451    1452
       8    1556    1555    1530    1531    1478    1477    1452    1453
       8    1557    1556    1531    1532    1479    1478    1453    1454
       8    1558    1557    1532    1533    1480    1479    1454    1455
       8    1559    1558    1533    1487    1481    1480    1455    1409
       8    1535    1559    1487    1486    1457    1481    1409    1408
       8    1560    1561    1562    1563    1482    1483    1484    1485
       8    1562    1564    1565    1563    1484    1486    1487    1485
       8    1566    1561    1560    1567    1488    1483    1482    1489
       8    1560    1568    1569    1567    1482    1490    1491    1489
       8    1570    1571    1572    1566    1492    1493    1494    1488
       8    1573    1574    1571    1570    1495    1496    1493    1492
       8    1567    1573    1570    1566    1489    1495    1492    1488
       8    1575    1576    1568    1577    1497    1498    1490    1499
       8    1578    1579    1576    1575    1500    1501    1498    1497
       8    1580    1581    1579    1578    1502    1503    1501    1500
       8    1582    1580    1578    1583    1504    1502    1500    1505
       8    1584    1569    1568    1576    1506    1491    1490    1498
       8    1575    1585    1583    1578    1497    1507    1505    1500
       8    1560    1563    1577    1568    1482    1485    1499    1490
       8    1586    1573    1567    1569    1508    1495    1489    1491
       8    1587    1586    1569    1584    1509    1508    1491    1506
       8    1588    1587    1584    1589    1510    1509    1506    1511
       8    1579    1589    1584    1576    1501    1511    1506    1498
       8    1590    1591    1585    1575    1512    1513    1507    1497
       8    1592    1590    1575    1577    1514    1512    1497    1499
       8    1593    1592    1577    1563    1515    1514    1499    1485
       8    1594    1564    1562    1595    1516    1486    1484    1517
       8    1596    1595    1562    1561    1518    1517    1484    1483
       8    1572    1596    1561    1566    1494    1518    1483    1488
       8    1597    1574    1573    1586    1519    1496    1495    1508
       8    1598    1597    1586    1587    1520    1519    1508    1509
       8    1599    1598    1587    1588    1521    1520    1509    1510
       8    1600    1599    1588    1601    1522    1521    1510    1523
       8    1602    1601    1588    1589    1524    1523    1510    1511
       8    1581    1602    1589    1579    1503    1524    1511    1501
       8    1603    1582    1583    1585    1525    1504    1505    1507
       8    1604    1603    1585    1591    1526    1525    1507    1513
       8    1605    1604    1591    1606    1527    1526    1513    1528
       8    1607    1606    1591    1590    1529    1528    1513    1512
       8    1608    1607    1590    1592    1530    1529    1512    1514
       8    1609    1608    1592    1593    1531    1530    1514    1515
       8    1610    1609    1593    1611    1532    1531    1515    1533
       8    1565    1611    1593    1563    1487    1533    1515    1485
       8    1612    1613    1564    1594    1534    1535    1486    1516
       8    1614    1612    1594    1595    1536    1534    1516    1517
       8    1615    1614    1595    1596    1537    1536    1517    1518
       8    1616    1615    1596    1572    1538    1537    1518    1494
       8    1617    1616    1572    1571    1539    1538    1494    1493
       8    1618    1617    1571    1574    1540    1539    1493    1496
       8    1619    1618    1574    1597    1541    1540    1496    1519
       8    1620    1619    1597    1598    1542    1541    1519    1520
       8    1621    1620    1598    1599    1543    1542    1520    1521
       8    1622    1621    1599    1600    1544    1543    1521    1522
       8    1623    1622    1600    1601    1545    1544    1522    1523
       8    1624    1623    1601    1602    1546    1545    1523    1524
       8    1625    1624    1602    1581    1547    1546    1524    1503
       8    1626    1625    1581    1580    1548    1547    1503    1502
       8    1627    1626    1580    1582    1549    1548    1502    1504
       8    1628    1627    1582    1603    1550    1549    1504    1525
       8    1629    1628    1603    1604    1551    1550    1525    1526
       8    1630    1629    1604    1605    1552    1551    1526    1527
       8    1631    1630    1605    1606    1553    1552    1527    1528
       8    1632    1631    1606    1607    1554    1553    1528    1529
       8    1633    1632    1607    1608    1555    1554    1529    1530
       8    1634    1633    1608    1609    1556    1555    1530    1531
       8    1635    1634    1609    1610    1557    1556    1531    1532
       8    1636    1635    1610    1611    1558    1557    1532    1533
       8    1637    1636    1611    1565    1559    1558    1533    1487
       8    1613    1637    1565    1564    1535    1559    1487    1486
       8    1638    1639    1640    1641    1560    1561    1562    1563
       8    1640    1642    1643    1641    1562    1564    1565    1563
       8    1644    1639    1638    1645    1566    1561    1560    1567
       8    1638    1646    1647    1645    1560    1568    1569    1567
       8    1648    1649    1650    1644    1570    1571    1572    1566
       8    1651    1652    1649    1648    1573    1574    1571    1570
       8    1645    1651    1648    1644    1567    1573    1570    1566
       8    1653    1654    1646    1655    1575    1576    1568    1577
       8    1656    1657    1654    1653    1578    1579    1576    1575
       8    1658    1659    1657    1656    1580    1581    1579    1578
       8    1660    1658    1656    1661    1582    1580    1578    1583
       8    1662    1647    1646    1654    1584    1569    1568    1576
       8    1653    1663    1661    1656    1575    1585    1583    1578
       8    1638    1641    1655    1646    1560    1563    1577    1568
       8    1664    1651    1645    1647    1586    1573    1567    1569
       8    1665    1664    1647    1662    1587    1586    1569    1584
       8    1666    1665    1662    1667    1588    1587    1584    1589
       8    1657    1667    1662    1654    1579    1589    1584    1576
       8    1668    1669    1663    1653    1590    1591    1585    1575
       8    1670    1668    1653    1655    1592    1590    1575    1577
       8    1671    1670    1655    1641    1593    1592    1577    1563
       8    1672    1642    1640    1673    1594    1564    1562    1595
       8    1674    1673    1640    1639    1596    1595    1562    1561
       8    1650    1674    1639    1644    1572    1596    1561    1566
       8    1675    1652    1651    1664    1597    1574    1573    1586
       8    1676    1675    1664    1665    1598    1597    1586    1587
       8    1677    1676    1665    1666    1599    1598    1587    1588
       8    1678    1677    1666    1679    1600    1599    1588    1601
       8    1680    1679    1666    1667    1602    1601    1588    1589
       8    1659    1680    1667    1657    1581    1602    1589    1579
       8    1681    1660    1661    1663    1603    1582    1583    1585
       8    1682    1681    1663    1669    1604    1603    1585    1591
       8    1683    1682    1669    1684    1605    1604    1591    1606
       8    1685    1684    1669    1668    1607    1606    1591    1590
       8    1686    1685    1668    1670    1608    1607    1590    1592
       8    1687    1686    1670    1671    1609    1608    1592    1593
       8    1688    1687    1671    1689    1610    1609    1593    1611
       8    1643    1689    1671    1641    1565    1611    1593    1563
       8    1690    1691    1642    1672    1612    1613    1564    1594
       8    1692    1690    1672    1673    1614    1612    1594    1595
       8    1693    1692    1673    1674    1615    1614    1595    1596
       8    1694    1693    1674    1650    1616    1615    1596    1572
       8    1695    1694    1650    1649    1617    1616    1572    1571
       8    1696    1695    1649    1652    1618    1617    1571    1574
       8    1697    1696    1652    1675    1619    1618    1574    1597
       8    1698    1697    1675    1676    1620    1619    1597    1598
       8    1699    1698    1676    1677    1621    1620    1598    1599
       8    1700    1699    1677    1678    1622    1621    1599    1600
       8    1701    1700    1678    1679    1623    1622    1600    1601
       8    1702    1701    1679    1680    1624    1623    1601    1602
       8    1703    1702    1680    1659    1625    1624    1602    1581
       8    1704    1703    1659    1658    1626    1625    1581    1580
       8    1705    1704    1658    1660    1627    1626    1580    1582
       8    1706    1705    1660    1681    1628    1627    1582    1603
       8    1707    1706    1681    1682    1629    1628    1603    1604
       8    1708    1707    1682    1683    1630    1629    1604    1605
       8    1709    1708    1683    1684    1631    1630    1605    1606
       8    1710    1709    1684    1685    1632    1631    1606    1607
       8    1711    1710    1685    1686    1633    1632    1607    1608
       8    1712    1711    1686    1687    1634    1633    1608    1609
       8    1713    1712    1687    1688    1635    1634    1609    1610
       8    1714    1713    1688    1689    1636    1635    1610    1611
       8    1715    1714    1689    1643    1637    1636    1611    1565
       8    1691    1715    1643    1642    1613    1637    1565    1564
       8    1716    1717    1718    1719    1638    1639    1640    1641
       8    1718    1720    1721    1719    1640    1642    1643    1641
       8    1722    1717    1716    1723    1644    1639    1638    1645
       8    1716    1724    1725    1723    1638    1646    1647    1645
       8    1726    1727    1728    1722    1648    1649    1650    1644
       8    1729    1730    1727    1726    1651    1652    1649    1648
       8    1723    1729    1726    1722    1645    1651    1648    1644
       8    1731    1732    1724    1733    1653    1654    1646    1655
       8    1734    1735    1732    1731    1656    1657    1654    1653
       8    1736    1737    1735    1734    1658    1659    1657    1656
       8    1738    1736    1734    1739    1660    1658    1656    1661
       8    1740    1725    1724    1732    1662    1647    1646    1654
       8    1731    1741    1739    1734    1653    1663    1661    1656
       8    1716    1719    1733    1724    1638    1641    1655    1646
       8    1742    1729    1723    1725    1664    1651    1645    1647
       8    1743    1742    1725    1740    1665    1664    1647    1662
       8    1744    1743    1740    1745    1666    1665    1662    1667
       8    1735    1745    1740    1732    1657    1667    1662    1654
       8    1746    1747    1741    1731    1668    1669    1663    1653
       8    1748    1746    1731    1733    1670    1668    1653    1655
       8    1749    1748    1733    1719    1671    1670    1655    1641
       8    1750    1720    1718    1751    1672    1642    1640    1673
       8    1752    1751    1718    1717    1674    1673    1640    1639
       8    1728    1752    1717    1722    1650    1674    1639    1644
       8    1753    1730    1729    1742    1675    1652    1651    1664
       8    1754    1753    1742    1743    1676    1675    1664    1665
       8    1755    1754    1743    1744    1677    1676    1665    1666
       8    1756    1755    1744    1757    1678    1677    1666    1679
       8    1758    1757    1744    1745    1680    1679    1666    1667
       8    1737    1758    1745    1735    1659    1680    1667    1657
       8    1759    1738    1739    1741    1681    1660    1661    1663
       8    1760    1759    1741    1747    1682    1681    1663    1669
       8    1761    1760    1747    1762    1683    1682    1669    1684
       8    1763    1762    1747    1746    1685    1684    1669    1668
       8    1764    1763    1746    1748    1686    1685    1668    1670
       8    1765    1764    1748    1749    1687    1686    1670    1671
       8    1766    1765    1749    1767    1688    1687    1671    1689
       8    1721    1767    1749    1719    1643    1689    1671    1641
       8    1768    1769    1720    1750    1690    1691    1642    1672
       8    1770    1768    1750    1751    1692    1690    1672    1673
       8    1771    1770    1751    1752    1693    1692    1673    1674
       8    1772    1771    1752    1728    1694    1693    1674    1650
       8    1773    1772    1728    1727    1695    1694    1650    1649
       8    1774    1773    1727    1730    1696    1695    1649    1652
       8    1775    1774    1730    1753    1697    1696    1652    1675
       8    1776    1775    1753    1754    1698    1697    1675    1676
       8    1777    1776    1754    1755    1699    1698    1676    1677
       8    1778    1777    1755    1756    1700    1699    1677    1678
       8    1779    1778    1756    1757    1701    1700    1678    1679
       8    1780    1779    1757    1758    1702    1701    1679    1680
       8    1781    1780    1758    1737    1703    1702    1680    1659
       8    1782    1781    1737    1736    1704    1703    1659    1658
       8    1783    1782    1736    1738    1705    1704    1658    1660
       8    1784    1783    1738    1759    1706    1705    1660    1681
       8    1785    1784    1759    1760    1707    1706    1681    1682
       8    1786    1785    1760    1761    1708    1707    1682    1683
       8    1787    1786    1761    1762    1709    1708    1683    1684
       8    1788    1787    1762    1763    1710    1709    1684    1685
       8    1789    1788    1763    1764    1711    1710    1685    1686
       8    1790    1789    1764    1765    1712    1711    1686    1687
       8    1791    1790    1765    1766    1713    1712    1687    1688
       8    1792    1791    1766    1767    1714    1713    1688    1689
       8    1793    1792    1767    1721    1715    1714    1689    1643
       8    1769    1793    1721    1720    1691    1715    1643    1642
       8    1794    1795    1796    1797    1716    1717    1718    1719
       8    1796    1798    1799    1797    1718    1720    1721    1719
       8    1800    1795    1794    1801    1722    1717    1716    1723
       8    1794    1802    1803    1801    1716    1724    1725    1723
       8    1804    1805    1806    1800    1726    1727    1728    1722
       8    1807    1808    1805    1804    1729    1730    1727    1726
       8    1801    1807    1804    1800    1723    1729    1726    1722
       8    1809    1810    1802    1811    1731    1732    1724    1733
       8    1812    1813    1810    1809    1734    1735    1732    1731
       8    1814    1815    1813    1812    1736    1737    1735    1734
       8    1816    1814    1812    1817    1738    1736    1734    1739
       8    1818    1803    1802    1810    1740    1725    1724    1732
       8    1809    1819    1817    1812    1731    1741    1739    1734
       8    1794    1797    1811    1802    1716    1719    1733    1724
       8    1820    1807    1801    1803    1742    1729    1723    1725
       8    1821    1820    1803    1818    1743    1742    1725    1740
       8    1822    1821    1818    1823    1744    1743    1740    1745
       8    1813    1823    1818    1810    1735    1745    1740    1732
       8    1824    1825    1819    1809    1746    1747    1741    1731
       8    1826    1824    1809    1811    1748    1746    1731    1733
       8    1827    1826    1811    1797    1749    1748    1733    1719
       8    1828    1798    1796    1829    1750    1720    1718    1751
       8    1830    1829    1796    1795    1752    1751    1718    1717
       8    1806    1830    1795    1800    1728    1752    1717    1722
       8    1831    1808    1807    1820    1753    1730    1729    1742
       8    1832    1831    1820    1821    1754    1753    1742    1743
       8    1833    1832    1821    1822    1755    1754    1743    1744
       8    1834    1833    1822    1835    1756    1755    1744    1757
       8    1836    1835    1822    1823    1758    1757    1744    1745
       8    1815    1836    1823    1813    1737    1758    1745    1735
       8    1837    1816    1817    1819    1759    1738    1739    1741
       8    1838    1837    1819    1825    1760    1759    1741    1747
       8    1839    1838    1825    1840    1761    1760    1747    1762
       8    1841    1840    1825    1824    1763    1762    1747    1746
       8    1842    1841    1824    1826    1764    1763    1746    1748
       8    1843    1842    1826    1827    1765    1764    1748    1749
       8    1844    1843    1827    1845    1766    1765    1749    1767
       8    1799    1845    1827    1797    1721    1767    1749    1719
       8    1846    1847    1798    1828    1768    1769    1720    1750
       8    1848    1846    1828    1829    1770    1768    1750    1751
       8    1849    1848    1829    1830    1771    1770    1751    1752
       8    1850    1849    1830    1806    1772    1771    1752    1728
       8    1851    1850    1806    1805    1773    1772    1728    1727
       8    1852    1851    1805    1808    1774    1773    1727    1730
       8    1853    1852    1808    1831    1775    1774    1730    1753
       8    1854    1853    1831    1832    1776    1775    1753    1754
       8    1855    1854    1832    1833    1777    1776    1754    1755
       8    1856    1855    1833    1834    1778    1777    1755    1756
       8    1857    1856    1834    1835    1779    1778    1756    1757
       8    1858    1857    1835    1836    1780    1779    1757    1758
       8    1859    1858    1836    1815    1781    1780    1758    1737
       8    1860    1859    1815    1814    1782    1781    1737    1736
       8    1861    1860    1814    1816    1783    1782    1736    1738
       8    1862    1861    1816    1837    1784    1783    1738    1759
       8    1863    1862    1837    1838    1785    1784    1759    1760
       8    1864    1863    1838    1839    1786    1785    1760    1761
       8    1865    1864    1839    1840    1787    1786    1761    1762
       8    1866    1865    1840    1841    1788    1787    1762    1763
       8    1867    1866    1841    1842    1789    1788    1763    1764
       8    1868    1867    1842    1843    1790    1789    1764    1765
       8    1869    1868    1843    1844    1791    1790    1765    1766
       8    1870    1869    1844    1845    1792    1791    1766    1767
       8    1871    1870    1845    1799    1793    1792    1767    1721
       8    1847    1871    1799    1798    1769    1793    1721    1720
       8    1872    1873    1874    1875    1794    1795    1796    1797
       8    1874    1876    1877    1875    1796    1798    1799    1797
       8    1878    1873    1872    1879    1800    1795    1794    1801
       8    1872    1880    1881    1879    1794    1802    1803    1801
       8    1882    1883    1884    1878    1804    1805    1806    1800
       8    1885    1886    1883    1882    1807    1808    1805    1804
       8    1879    1885    1882    1878    1801    1807    1804    1800
       8    1887    1888    1880    1889    1809    1810    1802    1811
       8    1890    1891    1888    1887    1812    1813    1810    1809
       8    1892    1893    1891    1890    1814    1815    1813    1812
       8    1894    1892    1890    1895    1816    1814    1812    1817
       8    1896    1881    1880    1888    1818    1803    1802    1810
       8    1887    1897    1895    1890    1809    1819    1817    1812
       8    1872    1875    1889    1880    1794    1797    1811    1802
       8    1898    1885    1879    1881    1820    1807    1801    1803
       8    1899    1898    1881    1896    1821    1820    1803    1818
       8    1900    1899    1896    1901    1822    1821    1818    1823
       8    1891    1901    1896    1888    1813    1823    1818    1810
       8    1902    1903    1897    1887    1824    1825    1819    1809
       8    1904    1902    1887    1889    1826    1824    1809    1811
       8    1905    1904    1889    1875    1827    1826    1811    1797
       8    1906    1876    1874    1907    1828    1798    1796    1829
       8    1908    1907    1874    1873    1830    1829    1796    1795
       8    1884    1908    1873    1878    1806    1830    1795    1800
       8    1909    1886    1885    1898    1831    1808    1807    1820
       8    1910    1909    1898    1899    1832    1831    1820    1821
       8    1911    1910    1899    1900    1833    1832    1821    1822
       8    1912    1911    1900    1913    1834    1833    1822    1835
       8    1914    1913    1900    1901    1836    1835    1822    1823
       8    1893    1914    1901    1891    1815    1836    1823    1813
       8    1915    1894    1895    1897    1837    1816    1817    1819
       8    1916    1915    1897    1903    1838    1837    1819    1825
       8    1917    1916    1903    1918    1839    1838    1825    1840
       8    1919    1918    1903    1902    1841    1840    1825    1824
       8    1920    1919    1902    1904    1842    1841    1824    1826
       8    1921    1920    1904    1905    1843    1842    1826    1827
       8    1922    1921    1905    1923    1844    1843    1827    1845
       8    1877    1923    1905    1875    1799    1845    1827    1797
       8    1924    1925    1876    1906    1846    1847    1798    1828
       8    1926    1924    1906    1907    1848    1846    1828    1829
       8    1927    1926    1907    1908    1849    1848    1829    1830
       8    1928    1927    1908    1884    1850    1849    1830    1806
       8    1929    1928    1884    1883    1851    1850    1806    1805
       8    1930    1929    1883    1886    1852    1851    1805    1808
       8    1931    1930    1886    1909    1853    1852    1808    1831
       8    1932    1931    1909    1910    1854    1853    1831    1832
       8    1933    1932    1910    1911    1855    1854    1832    1833
       8    1934    1933    1911    1912    1856    1855    1833    1834
       8    1935    1934    1912    1913    1857    1856    1834    1835
       8    1936    1935    1913    1914    1858    1857    1835    1836
       8    1937    1936    1914    1893    1859    1858    1836    1815
       8    1938    1937    1893    1892    1860    1859    1815    1814
       8    1939    1938    1892    1894    1861    1860    1814    1816
       8    1940    1939    1894    1915    1862    1861    1816    1837
       8    1941    1940    1915    1916    1863    1862    1837    1838
       8    1942    1941    1916    1917    1864    1863    1838    1839
       8    1943    1942    1917    1918    1865    1864    1839    1840
       8    1944    1943    1918    1919    1866    1865    1840    1841
       8    1945    1944    1919    1920    1867    1866    1841    1842
       8    1946    1945    1920    1921    1868    1867    1842    1843
       8    1947    1946    1921    1922    1869    1868    1843    1844
       8    1948    1947    1922    1923    1870    1869    1844    1845
       8    1949    1948    1923    1877    1871    1870    1845    1799
       8    1925    1949    1877    1876    1847    1871    1799    1798
  
CELL_TYPES    3486
       1
       1
       1
       1
       1
       1
       1
       1
       1
       1
       1
       1
       1
       1
       1
       1
       1
       1
       1
       1
       1
       1
       1
       1
       1
       1
       1
       1
       1
       1
       1
       1
       1
       1
       1
       1
       1
       1
       1
       1
       1
       1
       1
       1
       1
       1
       1
       1
       1
       1
       1
       1
       1
       1
       1
       1
       1
       1
       1
       1
       1
       1
       1
       1
       1
       1
       1
       1
       1
       1
       1
       1
       1
       1
       1
       1
       1
       1
       1
       1
       1
       1
       1
       1
       1
       1
       1
       1
       1
       1
       1
       1
       1
       1
       1
       1
       1
       1
       1
       1
       1
       1
       1
       1
       1
       1
       1
       1
       1
       1
       1
       1
       1
       1
       1
       1
       1
       1
       1
       1
       1
       1
       1
       1
       1
       1
       1
       1
       1
       1
       1
       1
       1
       1
       1
       1
       1
       1
       1
       1
       1
       1
       1
       1
       1
       1
       1
       1
       1
       1
       1
       1
       1
       1
       1
       1
       1
       1
       1
       1
       1
       1
       1
       1
       1
       1
       1
       1
       1
       1
       1
       1
       1
       1
       1
       1
       1
       1
       1
       1
       1
       1
       1
       1
       1
       1
       1
       1
       1
       1
       1
       1
       1
       1
       1
       1
       1
       1
       1
       1
       1
       1
       1
       1
       1
       1
       1
       1
       1
       1
       1
       1
       1
       1
       1
       1
       1
       1
       1
       1
       1
       1
       1
       1
       1
       1
       1
       1
       1
       1
       1
       1
       1
       1
       1
       1
       1
       1
       1
       1
       1
       1
       1
       1
       1
       1
       1
       1
       1
       1
       1
       1
       1
       1
       1
       1
       1
       1
       1
       1
       1
       1
       1
       1
       1
       1
       1
       1
       1
       1
       1
       1
       1
       1
       1
       1
       1
       1
       1
       1
       1
       1
       1
       1
       1
       1
       1
       1
       1
       1
       1
       1
       1
       1
       1
       1
       1
       1
       1
       1
       1
       1
       1
       1
       1
       1
       1
       1
       1
       1
       1
       1
       1
       1
       1
       1
       1
       1
       1
       1
       1
       1
       1
       1
       1
       1
       1
       1
       1
       1
       1
       1
       1
       1
       1
       1
       1
       1
       1
       1
       1
       1
       1
       1
       1
       1
       1
       1
       1
       1
       1
       1
       1
       1
       1
       1
       1
       1
       1
       1
       1
       1
       1
       1
       1
       1
       1
       1
       1
       1
       1
       1
       1
       1
       1
       1
       1
       1
       1
       1
       1
       1
       1
       1
       1
       1
       1
       1
       1
       1
       1
       1
       1
       1
       1
       1
       1
       1
       1
       1
       1
       1
       1
       1
       1
       1
       1
       1
       1
       1
       1
       1
       1
       1
       1
       1
       1
       1
       1
       1
       1
       1
       1
       1
       1
       1
       1
       1
       1
       1
       1
       1
       1
       1
       1
       1
       1
       1
       1
       1
       1
       1
       1
       1
       1
       1
       1
       1
       1
       1
       1
       1
       1
       1
       1
       1
       1
       1
       1
       1
       1
       1
       1
       1
       1
       1
       1
       1
       1
       1
       1
       1
       1
       1
       1
       1
       1
       1
       1
       1
       1
       1
       1
       1
       1
       1
       1
       1
       1
       1
       1
       1
       1
       1
       1
       1
       1
       1
       1
       1
       1
       1
       1
       1
       1
       1
       1
       1
       1
       1
       1
       1
       1
       1
       1
       1
       1
       1
       1
       1
       1
       1
       1
       1
       1
       1
       1
       1
       1
       1
       1
       1
       1
       1
       1
       1
       1
       1
       1
       1
       1
       1
       1
       1
       1
       1
       1
       1
       1
       1
       1
       1
       1
       1
       1
       1
       1
       1
       1
       1
       1
       1
       1
       1
       1
       1
       1
       1
       1
       1
       1
       1
       1
       1
       1
       1
       1
       1
       1
       1
       1
       1
       1
       1
       1
       1
       1
       1
       1
       1
       1
       1
       1
       1
       1
       1
       1
       1
       1
       1
       1
       1
       1
       1
       1
       1
       1
       1
       1
       1
       1
       1
       1
       1
       1
       1
       1
       1
       1
       1
       1
       1
       1
       1
       1
       1
       1
       1
       1
       1
       1
       1
       1
       1
       1
       1
       1
       1
       1
       1
       1
       1
       1
       1
       1
       1
       1
       1
       1
       1
       1
       1
       1
       1
       1
       1
       1
       1
       1
       1
       1
       1
       1
       1
       1
       1
       1
       1
       1
       1
       1
       1
       1
       1
       1
       1
       1
       1
       1
       1
       1
       1
       1
       1
       1
       1
       1
       1
       1
       1
       1
       1
       1
       1
       1
       1
       1
       1
       1
       1
       1
       1
       1
       1
       1
       1
       1
       1
       1
       1
       1
       1
       1
       1
       1
       1
       1
       1
       1
       1
       1
       1
       1
       1
       1
       1
       1
       1
       1
       1
       1
       1
       1
       1
       1
       1
       1
       1
       1
       1
       1
       1
       1
       1
       1
       1
       1
       1
       1
       1
       1
       1
       1
       1
       1
       1
       1
       1
       1
       1
       1
       1
       1
       1
       1
       1
       1
       1
       1
       1
       1
       1
       1
       1
       1
       1
       1
       1
       1
       1
       1
       1
       1
       1
       1
       1
       1
       1
       1
       1
       1
       1
       1
       1
       1
       1
       1
       1
       1
       1
       1
       1
       1
       1
       1
       1
       1
       1
       1
       1
       1
       1
       1
       1
       1
       1
       1
       1
       1
       1
       1
       1
       1
       1
       1
       1
       1
       1
       1
       1
       1
       1
       1
       1
       1
       1
       1
       1
       1
       1
       1
       1
       1
       1
       1
       1
       1
       1
       1
       1
       1
       1
       1
       1
       1
       1
       1
       1
       1
       1
       1
       1
       1
       1
       1
       1
       1
       1
       1
       1
       1
       1
       1
       1
       1
       1
       1
       1
       1
       1
       1
       1
       1
       1
       1
       1
       1
       1
       1
       1
       1
       1
       1
       1
       1
       1
       1
       1
       1
       1
       1
       1
       1
       1
       1
       1
       1
       1
       1
       1
       1
       1
       1
       1
       1
       1
       1
       1
       1
       1
       1
       1
       1
       1
       1
       1
       1
       1
       1
       1
       1
       1
       1
       1
       1
       1
       1
       1
       1
       1
       1
       1
       1
       1
       1
       1
       1
       1
       1
       1
       1
       1
       1
       1
       1
       1
       1
       1
       1
       1
       1
       1
       1
       1
       1
       1
       1
       1
       1
       1
       1
       1
       1
       1
       1
       1
       1
       1
       1
       1
       1
       1
       1
       1
       1
       1
       1
       1
       1
       1
       1
       1
       1
       1
       1
       1
       1
       1
       1
       1
       1
       1
       1
       1
       1
       1
       1
       1
       1
       1
       1
       1
       1
       1
       1
       1
       1
       1
       1
       1
       1
       1
       1
       1
       1
       1
       1
       1
       1
       1
       1
       1
       1
       1
       1
       1
       1
       1
       1
       1
       1
       1
       1
       1
       1
       1
       1
       1
       1
       1
       1
       1
       1
       1
       1
       1
       1
       1
       1
       1
       1
       1
       1
       1
       1
       1
       1
       1
       1
       1
       1
       1
       1
       1
       1
       1
       1
       1
       1
       1
       1
       1
       1
       1
       1
       1
       1
       1
       1
       1
       1
       1
       1
       1
       1
       1
       1
       1
       1
       1
       1
       1
       1
       1
       1
       1
       1
       1
       1
       1
       1
       1
       1
       1
       1
       1
       1
       1
       1
       1
       1
       1
       1
       1
       1
       1
       1
       1
       1
       1
       1
       1
       1
       1
       1
       1
       1
       1
       1
       1
       1
       1
       1
       1
       1
       1
       1
       1
       1
       1
       1
       1
       1
       1
       1
       1
       1
       1
       1
       1
       1
       1
       1
       1
       1
       1
       1
       1
       1
       1
       1
       1
       1
       1
       1
       1
       1
       1
       1
       1
       1
       1
       1
       1
       1
       1
       1
       1
       1
       1
       1
       1
       1
       1
       1
       1
       1
       1
       1
       1
       1
       1
       1
       1
       1
       1
       1
       1
       1
       1
       1
       1
       1
       1
       1
       1
       1
       1
       1
       1
       1
       1
       1
       1
       1
       1
       1
       1
       1
       1
       1
       1
       1
       1
       1
       1
       1
       1
       1
       1
       1
       1
       1
       1
       1
       1
       1
       1
       1
       1
       1
       1
       1
       1
       1
       1
       1
       1
       1
       1
       1
       1
       1
       1
       1
       1
       1
       1
       1
       1
       1
       1
       1
       1
       1
       1
       1
       1
       1
       1
       1
       1
       1
       1
       1
       1
       1
       1
       1
       1
       1
       1
       1
       1
       1
       1
       1
       1
       1
       1
       1
       1
       1
       1
       1
       1
       1
       1
       1
       1
       1
       1
       1
       1
       1
       1
       1
       1
       1
       1
       1
       1
       1
       1
       1
       1
       1
       1
       1
       1
       1
       1
       1
       1
       1
       1
       1
       1
       1
       1
       1
       1
       1
       1
       1
       1
       1
       1
       1
       1
       1
       1
       1
       1
       1
       1
       1
       1
       1
       1
       1
       1
       1
       1
       1
       1
       1
       1
       1
       1
       1
       1
       1
       1
       1
       1
       1
       1
       1
       1
       1
       1
       1
       1
       1
       1
       1
       1
       1
       1
       1
       1
       1
       1
       1
       1
       1
       1
       1
       1
       1
       1
       1
       1
       1
       1
       1
       1
       1
       1
       1
       1
       1
       1
       1
       1
       1
       1
       1
       1
       1
       1
       1
       1
       1
       1
       1
       1
       1
       1
       1
       1
       1
       1
       1
       1
       1
       1
       1
       1
       1
       1
       1
       1
       1
       1
       1
       1
       1
       1
       1
       1
       1
       1
       1
       1
       1
       1
       1
       1
       1
       1
       1
       1
       1
       1
       1
       1
       1
       1
       1
       1
       1
       1
       1
       1
       1
       1
       1
       1
       1
       1
       1
       1
       1
       1
       1
       1
       1
       1
       1
       1
       1
       1
       1
       1
       1
       1
       1
       1
       1
       1
       1
       1
       1
       1
       1
       1
       1
       1
       1
       1
       1
       1
       1
       1
       1
       1
       1
       1
       1
       1
       1
       1
       1
       1
       1
       1
       1
       1
       1
       1
       1
       1
       1
       1
       1
       1
       1
       1
       1
       1
       1
       1
       1
       1
       1
       1
       1
       1
       1
       1
       1
       1
       1
       1
       1
       1
       1
       1
       1
       1
       1
       1
       1
       1
       1
       1
       1
       1
       1
       1
       1
       1
       1
       1
       1
       1
       1
       1
       1
       1
       1
       1
       1
       1
       1
       1
       1
       1
       1
       1
       1
       1
       1
       1
       1
       1
       1
       1
       1
       1
       1
       1
       1
       1
       1
       1
       1
       1
       1
       1
       1
       1
       1
       1
       1
       1
       1
       1
       1
       1
       1
       1
       1
       1
       1
       1
       1
       1
       1
       1
       1
       1
       1
       1
       1
       1
       1
       1
       1
       1
       1
       1
       1
       1
       1
       1
       1
       1
       1
       1
       1
       1
       1
       1
       1
       1
       1
       1
       1
       1
       1
       1
       1
       1
       1
       1
       1
       1
       1
       1
       1
       1
       1
       1
       1
       1
       1
       1
       1
       1
       1
       1
       1
       1
       1
       1
       1
       1
       1
       1
       1
       1
       1
       1
       1
       1
       1
       1
       1
       1
       1
       1
       1
       1
       1
       1
       1
       1
       1
       1
       1
       1
       1
       1
       1
       1
       1
       1
       1
       1
       1
       1
       1
       1
       1
       1
       1
       1
       1
       1
       1
       1
       1
       1
       1
       1
       1
       1
       1
       1
       1
       1
       1
       1
       1
       1
       1
       1
       1
       1
       1
       1
       1
       1
       1
       1
       1
       1
       1
       1
       1
       1
       1
       1
       1
       1
       1
       1
       1
       1
       1
       1
       1
       1
       1
       1
       1
       1
       1
       1
       1
       1
       1
       1
       1
       1
       1
       1
       1
       1
       1
       1
       1
       1
       1
       1
       1
       1
       1
       1
       1
       1
       1
       1
       1
       1
       1
       1
       1
       1
       1
       1
       1
       1
       1
       1
       1
       1
       1
       1
       1
       1
       1
       1
       1
       1
       1
       1
       1
       1
       1
       1
       1
       1
       1
       1
       1
       1
       1
       1
       1
       1
       1
       1
       1
       1
       1
       1
       1
       1
       1
       1
       1
       1
       1
       1
       1
       1
       1
       1
       1
       1
       1
       1
       1
       1
       1
       1
       1
       1
       1
       1
       1
       1
       1
       1
       1
       1
       1
       1
       1
       1
       1
       1
       1
       1
       1
       1
       1
       1
       1
       1
       1
       1
       1
       1
       1
       1
       1
       1
       1
       1
       1
       1
       1
       1
       1
       1
       1
       1
       1
       1
       1
       1
       1
       1
       1
       1
       1
       1
       1
       1
       1
       1
       1
       1
       1
       1
       1
       1
       1
       1
       1
       1
       1
       1
       1
       1
       1
       1
       1
       1
       1
       1
       1
       1
       1
       1
      12
      12
      12
      12
      12
      12
      12
      12
      12
      12
      12
      12
      12
      12
      12
      12
      12
      12
      12
      12
      12
      12
      12
      12
      12
      12
      12
      12
      12
      12
      12
      12
      12
      12
      12
      12
      12
      12
      12
      12
      12
      12
      12
      12
      12
      12
      12
      12
      12
      12
      12
      12
      12
      12
      12
      12
      12
      12
      12
      12
      12
      12
      12
      12
      12
      12
      12
      12
      12
      12
      12
      12
      12
      12
      12
      12
      12
      12
      12
      12
      12
      12
      12
      12
      12
      12
      12
      12
      12
      12
      12
      12
      12
      12
      12
      12
      12
      12
      12
      12
      12
      12
      12
      12
      12
      12
      12
      12
      12
      12
      12
      12
      12
      12
      12
      12
      12
      12
      12
      12
      12
      12
      12
      12
      12
      12
      12
      12
      12
      12
      12
      12
      12
      12
      12
      12
      12
      12
      12
      12
      12
      12
      12
      12
      12
      12
      12
      12
      12
      12
      12
      12
      12
      12
      12
      12
      12
      12
      12
      12
      12
      12
      12
      12
      12
      12
      12
      12
      12
      12
      12
      12
      12
      12
      12
      12
      12
      12
      12
      12
      12
      12
      12
      12
      12
      12
      12
      12
      12
      12
      12
      12
      12
      12
      12
      12
      12
      12
      12
      12
      12
      12
      12
      12
      12
      12
      12
      12
      12
      12
      12
      12
      12
      12
      12
      12
      12
      12
      12
      12
      12
      12
      12
      12
      12
      12
      12
      12
      12
      12
      12
      12
      12
      12
      12
      12
      12
      12
      12
      12
      12
      12
      12
      12
      12
      12
      12
      12
      12
      12
      12
      12
      12
      12
      12
      12
      12
      12
      12
      12
      12
      12
      12
      12
      12
      12
      12
      12
      12
      12
      12
      12
      12
      12
      12
      12
      12
      12
      12
      12
      12
      12
      12
      12
      12
      12
      12
      12
      12
      12
      12
      12
      12
      12
      12
      12
      12
      12
      12
      12
      12
      12
      12
      12
      12
      12
      12
      12
      12
      12
      12
      12
      12
      12
      12
      12
      12
      12
      12
      12
      12
      12
      12
      12
      12
      12
      12
      12
      12
      12
      12
      12
      12
      12
      12
      12
      12
      12
      12
      12
      12
      12
      12
      12
      12
      12
      12
      12
      12
      12
      12
      12
      12
      12
      12
      12
      12
      12
      12
      12
      12
      12
      12
      12
      12
      12
      12
      12
      12
      12
      12
      12
      12
      12
      12
      12
      12
      12
      12
      12
      12
      12
      12
      12
      12
      12
      12
      12
      12
      12
      12
      12
      12
      12
      12
      12
      12
      12
      12
      12
      12
      12
      12
      12
      12
      12
      12
      12
      12
      12
      12
      12
      12
      12
      12
      12
      12
      12
      12
      12
      12
      12
      12
      12
      12
      12
      12
      12
      12
      12
      12
      12
      12
      12
      12
      12
      12
      12
      12
      12
      12
      12
      12
      12
      12
      12
      12
      12
      12
      12
      12
      12
      12
      12
      12
      12
      12
      12
      12
      12
      12
      12
      12
      12
      12
      12
      12
      12
      12
      12
      12
      12
      12
      12
      12
      12
      12
      12
      12
      12
      12
      12
      12
      12
      12
      12
      12
      12
      12
      12
      12
      12
      12
      12
      12
      12
      12
      12
      12
      12
      12
      12
      12
      12
      12
      12
      12
      12
      12
      12
      12
      12
      12
      12
      12
      12
      12
      12
      12
      12
      12
      12
      12
      12
      12
      12
      12
      12
      12
      12
      12
      12
      12
      12
      12
      12
      12
      12
      12
      12
      12
      12
      12
      12
      12
      12
      12
      12
      12
      12
      12
      12
      12
      12
      12
      12
      12
      12
      12
      12
      12
      12
      12
      12
      12
      12
      12
      12
      12
      12
      12
      12
      12
      12
      12
      12
      12
      12
      12
      12
      12
      12
      12
      12
      12
      12
      12
      12
      12
      12
      12
      12
      12
      12
      12
      12
      12
      12
      12
      12
      12
      12
      12
      12
      12
      12
      12
      12
      12
      12
      12
      12
      12
      12
      12
      12
      12
      12
      12
      12
      12
      12
      12
      12
      12
      12
      12
      12
      12
      12
      12
      12
      12
      12
      12
      12
      12
      12
      12
      12
      12
      12
      12
      12
      12
      12
      12
      12
      12
      12
      12
      12
      12
      12
      12
      12
      12
      12
      12
      12
      12
      12
      12
      12
      12
      12
      12
      12
      12
      12
      12
      12
      12
      12
      12
      12
      12
      12
      12
      12
      12
      12
      12
      12
      12
      12
      12
      12
      12
      12
      12
      12
      12
      12
      12
      12
      12
      12
      12
      12
      12
      12
      12
      12
      12
      12
      12
      12
      12
      12
      12
      12
      12
      12
      12
      12
      12
      12
      12
      12
      12
      12
      12
      12
      12
      12
      12
      12
      12
      12
      12
      12
      12
      12
      12
      12
      12
      12
      12
      12
      12
      12
      12
      12
      12
      12
      12
      12
      12
      12
      12
      12
      12
      12
      12
      12
      12
      12
      12
      12
      12
      12
      12
      12
      12
      12
      12
      12
      12
      12
      12
      12
      12
      12
      12
      12
      12
      12
      12
      12
      12
      12
      12
      12
      12
      12
      12
      12
      12
      12
      12
      12
      12
      12
      12
      12
      12
      12
      12
      12
      12
      12
      12
      12
      12
      12
      12
      12
      12
      12
      12
      12
      12
      12
      12
      12
      12
      12
      12
      12
      12
      12
      12
      12
      12
      12
      12
      12
      12
      12
      12
      12
      12
      12
      12
      12
      12
      12
      12
      12
      12
      12
      12
      12
      12
      12
      12
      12
      12
      12
      12
      12
      12
      12
      12
      12
      12
      12
      12
      12
      12
      12
      12
      12
      12
      12
      12
      12
      12
      12
      12
      12
      12
      12
      12
      12
      12
      12
      12
      12
      12
      12
      12
      12
      12
      12
      12
      12
      12
      12
      12
      12
      12
      12
      12
      12
      12
      12
      12
      12
      12
      12
      12
      12
      12
      12
      12
      12
      12
      12
      12
      12
      12
      12
      12
      12
      12
      12
      12
      12
      12
      12
      12
      12
      12
      12
      12
      12
      12
      12
      12
      12
      12
      12
      12
      12
      12
      12
      12
      12
      12
      12
      12
      12
      12
      12
      12
      12
      12
      12
      12
      12
      12
      12
      12
      12
      12
      12
      12
      12
      12
      12
      12
      12
      12
      12
      12
      12
      12
      12
      12
      12
      12
      12
      12
      12
      12
      12
      12
      12
      12
      12
      12
      12
      12
      12
      12
      12
      12
      12
      12
      12
      12
      12
      12
      12
      12
      12
      12
      12
      12
      12
      12
      12
      12
      12
      12
      12
      12
      12
      12
      12
      12
      12
      12
      12
      12
      12
      12
      12
      12
      12
      12
      12
      12
      12
      12
      12
      12
      12
      12
      12
      12
      12
      12
      12
      12
      12
      12
      12
      12
      12
      12
      12
      12
      12
      12
      12
      12
      12
      12
      12
      12
      12
      12
      12
      12
      12
      12
      12
      12
      12
      12
      12
      12
      12
      12
      12
      12
      12
      12
      12
      12
      12
      12
      12
      12
      12
      12
      12
      12
      12
      12
      12
      12
      12
      12
      12
      12
      12
      12
      12
      12
      12
      12
      12
      12
      12
      12
      12
      12
      12
      12
      12
      12
      12
      12
      12
      12
      12
      12
      12
      12
      12
      12
      12
      12
      12
      12
      12
      12
      12
      12
      12
      12
      12
      12
      12
      12
      12
      12
      12
      12
      12
      12
      12
      12
      12
      12
      12
      12
      12
      12
      12
      12
      12
      12
      12
      12
      12
      12
      12
      12
      12
      12
      12
      12
      12
      12
      12
      12
      12
      12
      12
      12
      12
      12
      12
      12
      12
      12
      12
      12
      12
      12
      12
      12
      12
      12
      12
      12
      12
      12
      12
      12
      12
      12
      12
      12
      12
      12
      12
      12
      12
      12
      12
      12
      12
      12
      12
      12
      12
      12
      12
      12
      12
      12
      12
      12
      12
      12
      12
      12
      12
      12
      12
      12
      12
      12
      12
      12
      12
      12
      12
      12
      12
      12
      12
      12
      12
      12
      12
      12
      12
      12
      12
      12
      12
      12
      12
      12
      12
      12
      12
      12
      12
      12
      12
      12
      12
      12
      12
      12
      12
      12
      12
      12
      12
      12
      12
      12
      12
      12
      12
      12
      12
      12
      12
      12
      12
      12
      12
      12
      12
      12
      12
      12
      12
      12
      12
      12
      12
      12
      12
      12
      12
      12
      12
      12
      12
      12
      12
      12
      12
      12
      12
      12
      12
      12
      12
      12
      12
      12
      12
      12
      12
      12
      12
      12
      12
      12
      12
      12
      12
      12
      12
      12
      12
      12
      12
      12
      12
      12
      12
      12
      12
      12
      12
      12
      12
      12
      12
      12
      12
      12
      12
      12
      12
      12
      12
      12
      12
      12
      12
      12
      12
      12
      12
      12
      12
      12
      12
      12
      12
      12
      12
      12
      12
      12
      12
      12
      12
      12
      12
      12
      12
      12
      12
      12
      12
      12
      12
      12
      12
      12
      12
      12
      12
      12
      12
      12
      12
      12
      12
      12
      12
      12
      12
      12
      12
      12
      12
      12
      12
      12
      12
      12
      12
      12
      12
      12
      12
      12
      12
      12
      12
      12
      12
      12
      12
      12
      12
      12
      12
      12
      12
      12
      12
      12
      12
      12
      12
      12
      12
      12
      12
      12
      12
      12
      12
      12
      12
      12
      12
      12
      12
      12
      12
      12
      12
      12
      12
      12
      12
      12
      12
      12
      12
      12
      12
      12
      12
      12
      12
      12
      12
      12
      12
      12
      12
      12
      12
      12
      12
      12
      12
      12
      12
      12
      12
      12
      12
      12
      12
      12
      12
      12
      12
      12
      12
      12
      12
      12
      12
      12
      12
      12
      12
      12
      12
      12
      12
      12
      12
      12
      12
      12
      12
      12
      12
      12
      12
      12
      12
      12
      12
      12
      12
      12
      12
      12
      12
      12
      12
      12
      12
      12
      12
      12
      12
      12
      12
      12
      12
      12
      12
      12
      12
      12
      12
      12
      12
      12
      12
      12
      12
  
  
POINT_DATA       1950
  
SCALARS                  material_type  double 1
LOOKUP_TABLE default
                   2
                   2
                   2
                   2
                   2
                   2
                   2
                   2
                   2
                   2
                   2
                   2
                   2
                   2
                   2
                   2
                   2
                   2
                   2
                   2
                   2
                   2
                   2
                   2
                   2
                   2
                   2
                   2
                   2
                   2
                   2
                   2
                   2
                   2
                   2
                   2
                   2
                   2
                   2
                   2
                   2
                   2
                   2
                   2
                   2
                   2
                   2
                   2
                   2
                   2
                   2
                   2
                   2
                   2
                   2
                   2
                   2
                   2
                   2
                   2
                   2
                   2
                   2
                   2
                   2
                   2
                   2
                   2
                   2
                   2
                   2
                   2
                   2
                   2
                   2
                   2
                   2
                   2
                   2
                   2
                   2
                   2
                   2
                   2
                   2
                   2
                   2
                   2
                   2
                   2
                   2
                   2
                   2
                   2
                   2
                   2
                   2
                   2
                   2
                   2
                   2
                   2
                   2
                   2
                   2
                   2
                   2
                   2
                   2
                   2
                   2
                   2
                   2
                   2
                   2
                   2
                   2
                   2
                   2
                   2
                   2
                   2
                   2
                   2
                   2
                   2
                   2
                   2
                   2
                   2
                   2
                   2
                   2
                   2
                   2
                   2
                   2
                   2
                   2
                   2
                   2
                   2
                   2
                   2
                   2
                   2
                   2
                   2
                   2
                   2
                   2
                   2
                   2
                   2
                   2
                   2
                   2
                   2
                   2
                   2
                   2
                   2
                   2
                   2
                   2
                   2
                   2
                   2
                   2
                   2
                   2
                   2
                   2
                   2
                   2
                   2
                   2
                   2
                   2
                   2
                   2
                   2
                   2
                   2
                   2
                   2
                   2
                   2
                   2
                   2
                   2
                   2
                   2
                   2
                   2
                   2
                   2
                   2
                   2
                   2
                   2
                   2
                   2
                   2
                   2
                   2
                   2
                   2
                   2
                   2
                   2
                   2
                   2
                   2
                   2
                   2
                   2
                   2
                   2
                   2
                   2
                   2
                   2
                   2
                   2
                   2
                   2
                   2
                   2
                   2
                   2
                   2
                   2
                   2
                   2
                   2
                   2
                   2
                   2
                   2
                   2
                   2
                   2
                   2
                   2
                   2
                   2
                   2
                   2
                   2
                   2
                   2
                   2
                   2
                   2
                   2
                   2
                   2
                   2
                   2
                   2
                   2
                   2
                   2
                   2
                   2
                   2
                   2
                   2
                   2
                   2
                   2
                   2
                   2
                   2
                   2
                   2
                   2
                   2
                   2
                   2
                   2
                   2
                   2
                   2
                   2
                   2
                   2
                   2
                   2
                   2
                   2
                   2
                   2
                   2
                   2
                   2
                   2
                   2
                   2
                   2
                   2
                   2
                   2
                   2
                   2
                   2
                   2
                   2
                   2
                   2
                   2
                   2
                   2
                   2
                   2
                   2
                   2
                   2
                   2
                   2
                   2
                   2
                   2
                   2
                   2
                   2
                   2
                   2
                   2
                   2
                   2
                   2
                   2
                   2
                   2
                   2
                   2
                   2
                   2
                   2
                   2
                   2
                   2
                   2
                   2
                   2
                   2
                   2
                   2
                   2
                   2
                   2
                   2
                   2
                   2
                   2
                   2
                   2
                   2
                   2
                   2
                   2
                   2
                   2
                   2
                   2
                   2
                   2
                   2
                   2
                   2
                   2
                   2
                   2
                   2
                   2
                   2
                   2
                   2
                   2
                   2
                   2
                   2
                   2
                   2
                   2
                   2
                   2
                   2
                   2
                   2
                   2
                   2
                   2
                   2
                   2
                   2
                   2
                   2
                   2
                   2
                   2
                   2
                   2
                   2
                   2
                   2
                   2
                   2
                   2
                   2
                   2
                   2
                   2
                   2
                   2
                   2
                   2
                   2
                   2
                   2
                   2
                   2
                   2
                   2
                   2
                   2
                   2
                   2
                   2
                   2
                   2
                   2
                   2
                   2
                   2
                   2
                   2
                   2
                   2
                   2
                   2
                   2
                   2
                   2
                   2
                   2
                   2
                   2
                   2
                   2
                   2
                   2
                   2
                   2
                   2
                   2
                   2
                   2
                   2
                   2
                   2
                   2
                   2
                   2
                   2
                   2
                   2
                   2
                   2
                   2
                   2
                   2
                   2
                   2
                   2
                   2
                   2
                   2
                   2
                   2
                   2
                   2
                   2
                   2
                   2
                   2
                   2
                   2
                   2
                   2
                   2
                   2
                   2
                   2
                   2
                   2
                   2
                   2
                   2
                   2
                   2
                   2
                   2
                   2
                   2
                   2
                   2
                   2
                   2
                   2
                   2
                   2
                   2
                   2
                   2
                   2
                   2
                   2
                   2
                   2
                   2
                   2
                   2
                   2
                   2
                   2
                   2
                   2
                   2
                   2
                   2
                   2
                   2
                   2
                   2
                   2
                   2
                   2
                   2
                   2
                   2
                   2
                   2
                   2
                   2
                   2
                   2
                   2
                   2
                   2
                   2
                   2
                   2
                   2
                   2
                   2
                   2
                   2
                   2
                   2
                   2
                   2
                   2
                   2
                   2
                   2
                   2
                   2
                   2
                   2
                   2
                   2
                   2
                   2
                   2
                   2
                   2
                   2
                   2
                   2
                   2
                   2
                   2
                   2
                   2
                   2
                   2
                   2
                   2
                   2
                   2
                   2
                   2
                   2
                   2
                   2
                   2
                   2
                   2
                   2
                   2
                   2
                   2
                   2
                   2
                   2
                   2
                   2
                   2
                   2
                   2
                   2
                   2
                   2
                   2
                   2
                   2
                   2
                   2
                   2
                   2
                   2
                   2
                   2
                   2
                   2
                   2
                   2
                   2
                   2
                   2
                   2
                   2
                   2
                   2
                   2
                   2
                   2
                   2
                   2
                   2
                   2
                   2
                   2
                   2
                   2
                   2
                   2
                   2
                   2
                   2
                   2
                   2
                   2
                   2
                   2
                   2
                   2
                   2
                   2
                   2
                   2
                   2
                   2
                   2
                   2
                   2
                   2
                   2
                   2
                   2
                   2
                   2
                   2
                   2
                   2
                   2
                   2
                   2
                   2
                   2
                   2
                   2
                   2
                   2
                   2
                   2
                   2
                   2
                   2
                   2
                   2
                   2
                   2
                   2
                   2
                   2
                   2
                   2
                   2
                   2
                   2
                   2
                   2
                   2
                   2
                   2
                   2
                   2
                   2
                   2
                   2
                   2
                   2
                   2
                   2
                   2
                   2
                   2
                   2
                   2
                   2
                   2
                   2
                   2
                   2
                   2
                   2
                   2
                   2
                   2
                   2
                   2
                   2
                   2
                   2
                   2
                   2
                   2
                   2
                   2
                   2
                   2
                   2
                   2
                   2
                   2
                   2
                   2
                   2
                   2
                   2
                   2
                   2
                   2
                   2
                   2
                   2
                   2
                   2
                   2
                   2
                   2
                   2
                   2
                   2
                   2
                   2
                   2
                   2
                   2
                   2
                   2
                   2
                   2
                   2
                   2
                   2
                   2
                   2
                   2
                   2
                   2
                   2
                   2
                   2
                   2
                   2
                   2
                   2
                   2
                   2
                   2
                   2
                   2
                   2
                   2
                   2
                   2
                   2
                   2
                   2
                   2
                   2
                   2
                   2
                   2
                   2
                   2
                   2
                   2
                   2
                   2
                   2
                   2
                   2
                   2
                   2
                   2
                   2
                   2
                   2
                   2
                   2
                   2
                   2
                   2
                   2
                   2
                   2
                   2
                   2
                   2
                   2
                   2
                   2
                   2
                   2
                   2
                   2
                   2
                   2
                   2
                   2
                   2
                   2
                   2
                   2
                   2
                   2
                   2
                   2
                   2
                   2
                   2
                   2
                   2
                   2
                   2
                   2
                   2
                   2
                   2
                   2
                   2
                   2
                   2
                   2
                   2
                   2
                   2
                   2
                   2
                   2
                   2
                   2
                   2
                   2
                   2
                   2
                   2
                   2
                   2
                   2
                   2
                   2
                   2
                   2
                   2
                   2
                   2
                   2
                   2
                   2
                   2
                   2
                   2
                   2
                   2
                   2
                   2
                   2
                   2
                   2
                   2
                   2
                   2
                   2
                   2
                   2
                   2
                   2
                   2
                   2
                   2
                   2
                   2
                   2
                   2
                   2
                   2
                   2
                   2
                   2
                   2
                   2
                   2
                   2
                   2
                   2
                   2
                   2
                   2
                   2
                   2
                   2
                   2
                   2
                   2
                   2
                   2
                   2
                   2
                   2
                   2
                   2
                   2
                   2
                   2
                   2
                   2
                   2
                   2
                   2
                   2
                   2
                   2
                   2
                   2
                   2
                   2
                   2
                   2
                   2
                   2
                   2
                   2
                   2
                   2
                   2
                   2
                   2
                   2
                   2
                   2
                   2
                   2
                   2
                   2
                   2
                   2
                   2
                   2
                   2
                   2
                   2
                   2
                   2
                   2
                   2
                   2
                   2
                   2
                   2
                   2
                   2
                   2
                   2
                   2
                   2
                   2
                   2
                   2
                   2
                   2
                   2
                   2
                   2
                   2
                   2
                   2
                   2
                   2
                   2
                   2
                   2
                   2
                   2
                   2
                   2
                   2
                   2
                   2
                   2
                   2
                   2
                   2
                   2
                   2
                   2
                   2
                   2
                   2
                   2
                   2
                   2
                   2
                   2
                   2
                   2
                   2
                   2
                   2
                   2
                   2
                   2
                   2
                   2
                   2
                   2
                   2
                   2
                   2
                   2
                   2
                   2
                   2
                   2
                   2
                   2
                   2
                   2
                   2
                   2
                   2
                   2
                   2
                   2
                   2
                   2
                   2
                   2
                   2
                   2
                   2
                   2
                   2
                   2
                   2
                   2
                   2
                   2
                   2
                   2
                   2
                   2
                   2
                   2
                   2
                   2
                   2
                   2
                   2
                   2
                   2
                   2
                   2
                   2
                   2
                   2
                   2
                   2
                   2
                   2
                   2
                   2
                   2
                   2
                   2
                   2
                   2
                   2
                   2
                   2
                   2
                   2
                   2
                   2
                   2
                   2
                   2
                   2
                   2
                   2
                   2
                   2
                   2
                   2
                   2
                   2
                   2
                   2
                   2
                   2
                   2
                   2
                   2
                   2
                   2
                   2
                   2
                   2
                   2
                   2
                   2
                   2
                   2
                   2
                   2
                   2
                   2
                   2
                   2
                   2
                   2
                   2
                   2
                   2
                   2
                   2
                   2
                   2
                   2
                   2
                   2
                   2
                   2
                   2
                   2
                   2
                   2
                   2
                   2
                   2
                   2
                   2
                   2
                   2
                   2
                   2
                   2
                   2
                   2
                   2
                   2
                   2
                   2
                   2
                   2
                   2
                   2
                   2
                   2
                   2
                   2
                   2
                   2
                   2
                   2
                   2
                   2
                   2
                   2
                   2
                   2
                   2
                   2
                   2
                   2
                   2
                   2
                   2
                   2
                   2
                   2
                   2
                   2
                   2
                   2
                   2
                   2
                   2
                   2
                   2
                   2
                   2
                   2
                   2
                   2
                   2
                   2
                   2
                   2
                   2
                   2
                   2
                   2
                   2
                   2
                   2
                   2
                   2
                   2
                   2
                   2
                   2
                   2
                   2
                   2
                   2
                   2
                   2
                   2
                   2
                   2
                   2
                   2
                   2
                   2
                   2
                   2
                   2
                   2
                   2
                   2
                   2
                   2
                   2
                   2
                   2
                   2
                   2
                   2
                   2
                   2
                   2
                   2
                   2
                   2
                   2
                   2
                   2
                   2
                   2
                   2
                   2
                   2
                   2
                   2
                   2
                   2
                   2
                   2
                   2
                   2
                   2
                   2
                   2
                   2
                   2
                   2
                   2
                   2
                   2
                   2
                   2
                   2
                   2
                   2
                   2
                   2
                   2
                   2
                   2
                   2
                   2
                   2
                   2
                   2
                   2
                   2
                   2
                   2
                   2
                   2
                   2
                   2
                   2
                   2
                   2
                   2
                   2
                   2
                   2
                   2
                   2
                   2
                   2
                   2
                   2
                   2
                   2
                   2
                   2
                   2
                   2
                   2
                   2
                   2
                   2
                   2
                   2
                   2
                   2
                   2
                   2
                   2
                   2
                   2
                   2
                   2
                   2
                   2
                   2
                   2
                   2
                   2
                   2
                   2
                   2
                   2
                   2
                   2
                   2
                   2
                   2
                   2
                   2
                   2
                   2
                   2
                   2
                   2
                   2
                   2
                   2
                   2
                   2
                   2
                   2
                   2
                   2
                   2
                   2
                   2
                   2
                   2
                   2
                   2
                   2
                   2
                   2
                   2
                   2
                   2
                   2
                   2
                   2
                   2
                   2
                   2
                   2
                   2
                   2
                   2
                   2
                   2
                   2
                   2
                   2
                   2
                   2
                   2
                   2
                   2
                   2
                   2
                   2
                   2
                   2
                   2
                   2
                   2
                   2
                   2
                   2
                   2
                   2
                   2
                   2
                   2
                   2
                   2
                   2
                   2
                   2
                   2
                   2
                   2
                   2
                   2
                   2
                   2
                   2
                   2
                   2
                   2
                   2
                   2
                   2
                   2
                   2
                   2
                   2
                   2
                   2
                   2
                   2
                   2
                   2
                   2
                   2
                   2
                   2
                   2
                   2
                   2
                   2
                   2
                   2
                   2
                   2
                   2
                   2
                   2
                   2
                   2
                   2
                   2
                   2
                   2
                   2
                   2
                   2
                   2
                   2
                   2
                   2
                   2
                   2
                   2
                   2
                   2
                   2
                   2
                   2
                   2
                   2
                   2
                   2
                   2
                   2
                   2
                   2
                   2
                   2
                   2
                   2
                   2
                   2
                   2
                   2
                   2
                   2
                   2
                   2
                   2
                   2
                   2
                   2
                   2
                   2
                   2
                   2
                   2
                   2
                   2
                   2
                   2
                   2
                   2
                   2
                   2
                   2
                   2
                   2
                   2
                   2
                   2
                   2
                   2
                   2
                   2
                   2
                   2
                   2
                   2
                   2
                   2
                   2
                   2
                   2
                   2
                   2
                   2
                   2
                   2
                   2
                   2
                   2
                   2
                   2
                   2
                   2
                   2
                   2
                   2
                   2
                   2
                   2
                   2
                   2
                   2
                   2
                   2
                   2
                   2
                   2
                   2
                   2
                   2
                   2
                   2
                   2
                   2
                   2
                   2
                   2
                   2
                   2
                   2
                   2
                   2
                   2
                   2
                   2
                   2
                   2
                   2
                   2
                   2
                   2
                   2
                   2
                   2
                   2
                   2
                   2
                   2
                   2
                   2
                   2
                   2
                   2
                   2
                   2
                   2
                   2
                   2
                   2
                   2
                   2
                   2
                   2
                   2
                   2
                   2
                   2
                   2
                   2
                   2
                   2
                   2
                   2
                   2
                   2
                   2
                   2
                   2
                   2
                   2
                   2
                   2
                   2
                   2
                   2
                   2
                   2
                   2
                   2
                   2
                   2
                   2
                   2
                   2
                   2
                   2
                   2
                   2
                   2
                   2
                   2
                   2
                   2
                   2
                   2
                   2
                   2
                   2
                   2
                   2
                   2
                   2
                   2
                   2
                   2
                   2
                   2
                   2
                   2
                   2
                   2
                   2
                   2
                   2
                   2
                   2
                   2
                   2
                   2
                   2
                   2
                   2
                   2
                   2
                   2
                   2
                   2
                   2
                   2
                   2
                   2
                   2
                   2
                   2
                   2
                   2
                   2
                   2
                   2
                   2
                   2
                   2
                   2
                   2
                   2
                   2
                   2
                   2
                   2
                   2
                   2
                   2
                   2
                   2
                   2
                   2
                   2
                   2
                   2
                   2
                   2
                   2
                   2
                   2
                   2
                   2
                   2
                   2
                   2
                   2
                   2
                   2
                   2
                   2
                   2
                   2
                   2
                   2
                   2
                   2
                   2
                   2
                   2
                   2
                   2
                   2
                   2
                   2
                   2
                   2
                   2
                   2
                   2
                   2
                   2
                   2
                   2
                   2
                   2
                   2
                   2
                   2
                   2
                   2
                   2
                   2
                   2
                   2
                   2
                   2
                   2
                   2
                   2
                   2
                   2
                   2
                   2
                   2
                   2
                   2
                   2
                   2
                   2
                   2
                   2
                   2
                   2
                   2
                   2
                   2
                   2
                   2
                   2
                   2
                   2
                   2
                   2
                   2
                   2
                   2
                   2
                   2
                   2
                   2
                   2
                   2
                   2
                   2
                   2
                   2
                   2
                   2
                   2
                   2
                   2
                   2
                   2
                   2
                   2
                   2
                   2
                   2
                   2
                   2
                   2
                   2
                   2
                   2
                   2
                   2
                   2
                   2
                   2
                   2
                   2
                   2
                   2
                   2
                   2
                   2
                   2
                   2
                   2
                   2
                   2
                   2
                   2
                   2
                   2
                   2
                   2
                   2
                   2
                   2
                   2
                   2
                   2
                   2
                   2
                   2
                   2
                   2
                   2
                   2
                   2
                   2
                   2
                   2
                   2
                   2
                   2
                   2
                   2
                   2
                   2
                   2
                   2
                   2
                   2
                   2
                   2
                   2
                   2
                   2
                   2
                   2
                   2
                   2
                   2
                   2
                   2
                   2
                   2
                   2
                   2
                   2
                   2
                   2
                   2
                   2
                   2
                   2
                   2
                   2
                   2
                   2
                   2
                   2
                   2
                   2
                   2
                   2
                   2
                   2
                   2
                   2
                   2
                   2
                   2
                   2
                   2
                   2
                   2
                   2
                   2
                   2
                   2
  
SCALARS                        node_id  double 1
LOOKUP_TABLE default
                   1
                   2
                   3
                   4
                   5
                   6
                   7
                   8
                   9
                  10
                  11
                  12
                  13
                  14
                  15
                  16
                  17
                  18
                  19
                  20
                  21
                  22
                  23
                  24
                  25
                  26
                  27
                  28
                  29
                  30
                  31
                  32
                  33
                  34
                  35
                  36
                  37
                  38
                  39
                  40
                  41
                  42
                  43
                  44
                  45
                  46
                  47
                  48
                  49
                  50
                  51
                  52
                  53
                  54
                  55
                  56
                  57
                  58
                  59
                  60
                  61
                  62
                  63
                  64
                  65
                  66
                  67
                  68
                  69
                  70
                  71
                  72
                  73
                  74
                  75
                  76
                  77
                  78
                  79
                  80
                  81
                  82
                  83
                  84
                  85
                  86
                  87
                  88
                  89
                  90
                  91
                  92
                  93
                  94
                  95
                  96
                  97
                  98
                  99
                 100
                 101
                 102
                 103
                 104
                 105
                 106
                 107
                 108
                 109
                 110
                 111
                 112
                 113
                 114
                 115
                 116
                 117
                 118
                 119
                 120
                 121
                 122
                 123
                 124
                 125
                 126
                 127
                 128
                 129
                 130
                 131
                 132
                 133
                 134
                 135
                 136
                 137
                 138
                 139
                 140
                 141
                 142
                 143
                 144
                 145
                 146
                 147
                 148
                 149
                 150
                 151
                 152
                 153
                 154
                 155
                 156
                 157
                 158
                 159
                 160
                 161
                 162
                 163
                 164
                 165
                 166
                 167
                 168
                 169
                 170
                 171
                 172
                 173
                 174
                 175
                 176
                 177
                 178
                 179
                 180
                 181
                 182
                 183
                 184
                 185
                 186
                 187
                 188
                 189
                 190
                 191
                 192
                 193
                 194
                 195
                 196
                 197
                 198
                 199
                 200
                 201
                 202
                 203
                 204
                 205
                 206
                 207
                 208
                 209
                 210
                 211
                 212
                 213
                 214
                 215
                 216
                 217
                 218
                 219
                 220
                 221
                 222
                 223
                 224
                 225
                 226
                 227
                 228
                 229
                 230
                 231
                 232
                 233
                 234
                 235
                 236
                 237
                 238
                 239
                 240
                 241
                 242
                 243
                 244
                 245
                 246
                 247
                 248
                 249
                 250
                 251
                 252
                 253
                 254
                 255
                 256
                 257
                 258
                 259
                 260
                 261
                 262
                 263
                 264
                 265
                 266
                 267
                 268
                 269
                 270
                 271
                 272
                 273
                 274
                 275
                 276
                 277
                 278
                 279
                 280
                 281
                 282
                 283
                 284
                 285
                 286
                 287
                 288
                 289
                 290
                 291
                 292
                 293
                 294
                 295
                 296
                 297
                 298
                 299
                 300
                 301
                 302
                 303
                 304
                 305
                 306
                 307
                 308
                 309
                 310
                 311
                 312
                 313
                 314
                 315
                 316
                 317
                 318
                 319
                 320
                 321
                 322
                 323
                 324
                 325
                 326
                 327
                 328
                 329
                 330
                 331
                 332
                 333
                 334
                 335
                 336
                 337
                 338
                 339
                 340
                 341
                 342
                 343
                 344
                 345
                 346
                 347
                 348
                 349
                 350
                 351
                 352
                 353
                 354
                 355
                 356
                 357
                 358
                 359
                 360
                 361
                 362
                 363
                 364
                 365
                 366
                 367
                 368
                 369
                 370
                 371
                 372
                 373
                 374
                 375
                 376
                 377
                 378
                 379
                 380
                 381
                 382
                 383
                 384
                 385
                 386
                 387
                 388
                 389
                 390
                 391
                 392
                 393
                 394
                 395
                 396
                 397
                 398
                 399
                 400
                 401
                 402
                 403
                 404
                 405
                 406
                 407
                 408
                 409
                 410
                 411
                 412
                 413
                 414
                 415
                 416
                 417
                 418
                 419
                 420
                 421
                 422
                 423
                 424
                 425
                 426
                 427
                 428
                 429
                 430
                 431
                 432
                 433
                 434
                 435
                 436
                 437
                 438
                 439
                 440
                 441
                 442
                 443
                 444
                 445
                 446
                 447
                 448
                 449
                 450
                 451
                 452
                 453
                 454
                 455
                 456
                 457
                 458
                 459
                 460
                 461
                 462
                 463
                 464
                 465
                 466
                 467
                 468
                 469
                 470
                 471
                 472
                 473
                 474
                 475
                 476
                 477
                 478
                 479
                 480
                 481
                 482
                 483
                 484
                 485
                 486
                 487
                 488
                 489
                 490
                 491
                 492
                 493
                 494
                 495
                 496
                 497
                 498
                 499
                 500
                 501
                 502
                 503
                 504
                 505
                 506
                 507
                 508
                 509
                 510
                 511
                 512
                 513
                 514
                 515
                 516
                 517
                 518
                 519
                 520
                 521
                 522
                 523
                 524
                 525
                 526
                 527
                 528
                 529
                 530
                 531
                 532
                 533
                 534
                 535
                 536
                 537
                 538
                 539
                 540
                 541
                 542
                 543
                 544
                 545
                 546
                 547
                 548
                 549
                 550
                 551
                 552
                 553
                 554
                 555
                 556
                 557
                 558
                 559
                 560
                 561
                 562
                 563
                 564
                 565
                 566
                 567
                 568
                 569
                 570
                 571
                 572
                 573
                 574
                 575
                 576
                 577
                 578
                 579
                 580
                 581
                 582
                 583
                 584
                 585
                 586
                 587
                 588
                 589
                 590
                 591
                 592
                 593
                 594
                 595
                 596
                 597
                 598
                 599
                 600
                 601
                 602
                 603
                 604
                 605
                 606
                 607
                 608
                 609
                 610
                 611
                 612
                 613
                 614
                 615
                 616
                 617
                 618
                 619
                 620
                 621
                 622
                 623
                 624
                 625
                 626
                 627
                 628
                 629
                 630
                 631
                 632
                 633
                 634
                 635
                 636
                 637
                 638
                 639
                 640
                 641
                 642
                 643
                 644
                 645
                 646
                 647
                 648
                 649
                 650
                 651
                 652
                 653
                 654
                 655
                 656
                 657
                 658
                 659
                 660
                 661
                 662
                 663
                 664
                 665
                 666
                 667
                 668
                 669
                 670
                 671
                 672
                 673
                 674
                 675
                 676
                 677
                 678
                 679
                 680
                 681
                 682
                 683
                 684
                 685
                 686
                 687
                 688
                 689
                 690
                 691
                 692
                 693
                 694
                 695
                 696
                 697
                 698
                 699
                 700
                 701
                 702
                 703
                 704
                 705
                 706
                 707
                 708
                 709
                 710
                 711
                 712
                 713
                 714
                 715
                 716
                 717
                 718
                 719
                 720
                 721
                 722
                 723
                 724
                 725
                 726
                 727
                 728
                 729
                 730
                 731
                 732
                 733
                 734
                 735
                 736
                 737
                 738
                 739
                 740
                 741
                 742
                 743
                 744
                 745
                 746
                 747
                 748
                 749
                 750
                 751
                 752
                 753
                 754
                 755
                 756
                 757
                 758
                 759
                 760
                 761
                 762
                 763
                 764
                 765
                 766
                 767
                 768
                 769
                 770
                 771
                 772
                 773
                 774
                 775
                 776
                 777
                 778
                 779
                 780
                 781
                 782
                 783
                 784
                 785
                 786
                 787
                 788
                 789
                 790
                 791
                 792
                 793
                 794
                 795
                 796
                 797
                 798
                 799
                 800
                 801
                 802
                 803
                 804
                 805
                 806
                 807
                 808
                 809
                 810
                 811
                 812
                 813
                 814
                 815
                 816
                 817
                 818
                 819
                 820
                 821
                 822
                 823
                 824
                 825
                 826
                 827
                 828
                 829
                 830
                 831
                 832
                 833
                 834
                 835
                 836
                 837
                 838
                 839
                 840
                 841
                 842
                 843
                 844
                 845
                 846
                 847
                 848
                 849
                 850
                 851
                 852
                 853
                 854
                 855
                 856
                 857
                 858
                 859
                 860
                 861
                 862
                 863
                 864
                 865
                 866
                 867
                 868
                 869
                 870
                 871
                 872
                 873
                 874
                 875
                 876
                 877
                 878
                 879
                 880
                 881
                 882
                 883
                 884
                 885
                 886
                 887
                 888
                 889
                 890
                 891
                 892
                 893
                 894
                 895
                 896
                 897
                 898
                 899
                 900
                 901
                 902
                 903
                 904
                 905
                 906
                 907
                 908
                 909
                 910
                 911
                 912
                 913
                 914
                 915
                 916
                 917
                 918
                 919
                 920
                 921
                 922
                 923
                 924
                 925
                 926
                 927
                 928
                 929
                 930
                 931
                 932
                 933
                 934
                 935
                 936
                 937
                 938
                 939
                 940
                 941
                 942
                 943
                 944
                 945
                 946
                 947
                 948
                 949
                 950
                 951
                 952
                 953
                 954
                 955
                 956
                 957
                 958
                 959
                 960
                 961
                 962
                 963
                 964
                 965
                 966
                 967
                 968
                 969
                 970
                 971
                 972
                 973
                 974
                 975
                 976
                 977
                 978
                 979
                 980
                 981
                 982
                 983
                 984
                 985
                 986
                 987
                 988
                 989
                 990
                 991
                 992
                 993
                 994
                 995
                 996
                 997
                 998
                 999
                1000
                1001
                1002
                1003
                1004
                1005
                1006
                1007
                1008
                1009
                1010
                1011
                1012
                1013
                1014
                1015
                1016
                1017
                1018
                1019
                1020
                1021
                1022
                1023
                1024
                1025
                1026
                1027
                1028
                1029
                1030
                1031
                1032
                1033
                1034
                1035
                1036
                1037
                1038
                1039
                1040
                1041
                1042
                1043
                1044
                1045
                1046
                1047
                1048
                1049
                1050
                1051
                1052
                1053
                1054
                1055
                1056
                1057
                1058
                1059
                1060
                1061
                1062
                1063
                1064
                1065
                1066
                1067
                1068
                1069
                1070
                1071
                1072
                1073
                1074
                1075
                1076
                1077
                1078
                1079
                1080
                1081
                1082
                1083
                1084
                1085
                1086
                1087
                1088
                1089
                1090
                1091
                1092
                1093
                1094
                1095
                1096
                1097
                1098
                1099
                1100
                1101
                1102
                1103
                1104
                1105
                1106
                1107
                1108
                1109
                1110
                1111
                1112
                1113
                1114
                1115
                1116
                1117
                1118
                1119
                1120
                1121
                1122
                1123
                1124
                1125
                1126
                1127
                1128
                1129
                1130
                1131
                1132
                1133
                1134
                1135
                1136
                1137
                1138
                1139
                1140
                1141
                1142
                1143
                1144
                1145
                1146
                1147
                1148
                1149
                1150
                1151
                1152
                1153
                1154
                1155
                1156
                1157
                1158
                1159
                1160
                1161
                1162
                1163
                1164
                1165
                1166
                1167
                1168
                1169
                1170
                1171
                1172
                1173
                1174
                1175
                1176
                1177
                1178
                1179
                1180
                1181
                1182
                1183
                1184
                1185
                1186
                1187
                1188
                1189
                1190
                1191
                1192
                1193
                1194
                1195
                1196
                1197
                1198
                1199
                1200
                1201
                1202
                1203
                1204
                1205
                1206
                1207
                1208
                1209
                1210
                1211
                1212
                1213
                1214
                1215
                1216
                1217
                1218
                1219
                1220
                1221
                1222
                1223
                1224
                1225
                1226
                1227
                1228
                1229
                1230
                1231
                1232
                1233
                1234
                1235
                1236
                1237
                1238
                1239
                1240
                1241
                1242
                1243
                1244
                1245
                1246
                1247
                1248
                1249
                1250
                1251
                1252
                1253
                1254
                1255
                1256
                1257
                1258
                1259
                1260
                1261
                1262
                1263
                1264
                1265
                1266
                1267
                1268
                1269
                1270
                1271
                1272
                1273
                1274
                1275
                1276
                1277
                1278
                1279
                1280
                1281
                1282
                1283
                1284
                1285
                1286
                1287
                1288
                1289
                1290
                1291
                1292
                1293
                1294
                1295
                1296
                1297
                1298
                1299
                1300
                1301
                1302
                1303
                1304
                1305
                1306
                1307
                1308
                1309
                1310
                1311
                1312
                1313
                1314
                1315
                1316
                1317
                1318
                1319
                1320
                1321
                1322
                1323
                1324
                1325
                1326
                1327
                1328
                1329
                1330
                1331
                1332
                1333
                1334
                1335
                1336
                1337
                1338
                1339
                1340
                1341
                1342
                1343
                1344
                1345
                1346
                1347
                1348
                1349
                1350
                1351
                1352
                1353
                1354
                1355
                1356
                1357
                1358
                1359
                1360
                1361
                1362
                1363
                1364
                1365
                1366
                1367
                1368
                1369
                1370
                1371
                1372
                1373
                1374
                1375
                1376
                1377
                1378
                1379
                1380
                1381
                1382
                1383
                1384
                1385
                1386
                1387
                1388
                1389
                1390
                1391
                1392
                1393
                1394
                1395
                1396
                1397
                1398
                1399
                1400
                1401
                1402
                1403
                1404
                1405
                1406
                1407
                1408
                1409
                1410
                1411
                1412
                1413
                1414
                1415
                1416
                1417
                1418
                1419
                1420
                1421
                1422
                1423
                1424
                1425
                1426
                1427
                1428
                1429
                1430
                1431
                1432
                1433
                1434
                1435
                1436
                1437
                1438
                1439
                1440
                1441
                1442
                1443
                1444
                1445
                1446
                1447
                1448
                1449
                1450
                1451
                1452
                1453
                1454
                1455
                1456
                1457
                1458
                1459
                1460
                1461
                1462
                1463
                1464
                1465
                1466
                1467
                1468
                1469
                1470
                1471
                1472
                1473
                1474
                1475
                1476
                1477
                1478
                1479
                1480
                1481
                1482
                1483
                1484
                1485
                1486
                1487
                1488
                1489
                1490
                1491
                1492
                1493
                1494
                1495
                1496
                1497
                1498
                1499
                1500
                1501
                1502
                1503
                1504
                1505
                1506
                1507
                1508
                1509
                1510
                1511
                1512
                1513
                1514
                1515
                1516
                1517
                1518
                1519
                1520
                1521
                1522
                1523
                1524
                1525
                1526
                1527
                1528
                1529
                1530
                1531
                1532
                1533
                1534
                1535
                1536
                1537
                1538
                1539
                1540
                1541
                1542
                1543
                1544
                1545
                1546
                1547
                1548
                1549
                1550
                1551
                1552
                1553
                1554
                1555
                1556
                1557
                1558
                1559
                1560
                1561
                1562
                1563
                1564
                1565
                1566
                1567
                1568
                1569
                1570
                1571
                1572
                1573
                1574
                1575
                1576
                1577
                1578
                1579
                1580
                1581
                1582
                1583
                1584
                1585
                1586
                1587
                1588
                1589
                1590
                1591
                1592
                1593
                1594
                1595
                1596
                1597
                1598
                1599
                1600
                1601
                1602
                1603
                1604
                1605
                1606
                1607
                1608
                1609
                1610
                1611
                1612
                1613
                1614
                1615
                1616
                1617
                1618
                1619
                1620
                1621
                1622
                1623
                1624
                1625
                1626
                1627
                1628
                1629
                1630
                1631
                1632
                1633
                1634
                1635
                1636
                1637
                1638
                1639
                1640
                1641
                1642
                1643
                1644
                1645
                1646
                1647
                1648
                1649
                1650
                1651
                1652
                1653
                1654
                1655
                1656
                1657
                1658
                1659
                1660
                1661
                1662
                1663
                1664
                1665
                1666
                1667
                1668
                1669
                1670
                1671
                1672
                1673
                1674
                1675
                1676
                1677
                1678
                1679
                1680
                1681
                1682
                1683
                1684
                1685
                1686
                1687
                1688
                1689
                1690
                1691
                1692
                1693
                1694
                1695
                1696
                1697
                1698
                1699
                1700
                1701
                1702
                1703
                1704
                1705
                1706
                1707
                1708
                1709
                1710
                1711
                1712
                1713
                1714
                1715
                1716
                1717
                1718
                1719
                1720
                1721
                1722
                1723
                1724
                1725
                1726
                1727
                1728
                1729
                1730
                1731
                1732
                1733
                1734
                1735
                1736
                1737
                1738
                1739
                1740
                1741
                1742
                1743
                1744
                1745
                1746
                1747
                1748
                1749
                1750
                1751
                1752
                1753
                1754
                1755
                1756
                1757
                1758
                1759
                1760
                1761
                1762
                1763
                1764
                1765
                1766
                1767
                1768
                1769
                1770
                1771
                1772
                1773
                1774
                1775
                1776
                1777
                1778
                1779
                1780
                1781
                1782
                1783
                1784
                1785
                1786
                1787
                1788
                1789
                1790
                1791
                1792
                1793
                1794
                1795
                1796
                1797
                1798
                1799
                1800
                1801
                1802
                1803
                1804
                1805
                1806
                1807
                1808
                1809
                1810
                1811
                1812
                1813
                1814
                1815
                1816
                1817
                1818
                1819
                1820
                1821
                1822
                1823
                1824
                1825
                1826
                1827
                1828
                1829
                1830
                1831
                1832
                1833
                1834
                1835
                1836
                1837
                1838
                1839
                1840
                1841
                1842
                1843
                1844
                1845
                1846
                1847
                1848
                1849
                1850
                1851
                1852
                1853
                1854
                1855
                1856
                1857
                1858
                1859
                1860
                1861
                1862
                1863
                1864
                1865
                1866
                1867
                1868
                1869
                1870
                1871
                1872
                1873
                1874
                1875
                1876
                1877
                1878
                1879
                1880
                1881
                1882
                1883
                1884
                1885
                1886
                1887
                1888
                1889
                1890
                1891
                1892
                1893
                1894
                1895
                1896
                1897
                1898
                1899
                1900
                1901
                1902
                1903
                1904
                1905
                1906
                1907
                1908
                1909
                1910
                1911
                1912
                1913
                1914
                1915
                1916
                1917
                1918
                1919
                1920
                1921
                1922
                1923
                1924
                1925
                1926
                1927
                1928
                1929
                1930
                1931
                1932
                1933
                1934
                1935
                1936
                1937
                1938
                1939
                1940
                1941
                1942
                1943
                1944
                1945
                1946
                1947
                1948
                1949
                1950
  
SCALARS                         bodyid  double 1
LOOKUP_TABLE default
                   1
                   1
                   1
                   1
                   1
                   1
                   1
                   1
                   1
                   1
                   1
                   1
                   1
                   1
                   1
                   1
                   1
                   1
                   1
                   1
                   1
                   1
                   1
                   1
                   1
                   1
                   1
                   1
                   1
                   1
                   1
                   1
                   1
                   1
                   1
                   1
                   1
                   1
                   1
                   1
                   1
                   1
                   1
                   1
                   1
                   1
                   1
                   1
                   1
                   1
                   1
                   1
                   1
                   1
                   1
                   1
                   1
                   1
                   1
                   1
                   1
                   1
                   1
                   1
                   1
                   1
                   1
                   1
                   1
                   1
                   1
                   1
                   1
                   1
                   1
                   1
                   1
                   1
                   1
                   1
                   1
                   1
                   1
                   1
                   1
                   1
                   1
                   1
                   1
                   1
                   1
                   1
                   1
                   1
                   1
                   1
                   1
                   1
                   1
                   1
                   1
                   1
                   1
                   1
                   1
                   1
                   1
                   1
                   1
                   1
                   1
                   1
                   1
                   1
                   1
                   1
                   1
                   1
                   1
                   1
                   1
                   1
                   1
                   1
                   1
                   1
                   1
                   1
                   1
                   1
                   1
                   1
                   1
                   1
                   1
                   1
                   1
                   1
                   1
                   1
                   1
                   1
                   1
                   1
                   1
                   1
                   1
                   1
                   1
                   1
                   1
                   1
                   1
                   1
                   1
                   1
                   1
                   1
                   1
                   1
                   1
                   1
                   1
                   1
                   1
                   1
                   1
                   1
                   1
                   1
                   1
                   1
                   1
                   1
                   1
                   1
                   1
                   1
                   1
                   1
                   1
                   1
                   1
                   1
                   1
                   1
                   1
                   1
                   1
                   1
                   1
                   1
                   1
                   1
                   1
                   1
                   1
                   1
                   1
                   1
                   1
                   1
                   1
                   1
                   1
                   1
                   1
                   1
                   1
                   1
                   1
                   1
                   1
                   1
                   1
                   1
                   1
                   1
                   1
                   1
                   1
                   1
                   1
                   1
                   1
                   1
                   1
                   1
                   1
                   1
                   1
                   1
                   1
                   1
                   1
                   1
                   1
                   1
                   1
                   1
                   1
                   1
                   1
                   1
                   1
                   1
                   1
                   1
                   1
                   1
                   1
                   1
                   1
                   1
                   1
                   1
                   1
                   1
                   1
                   1
                   1
                   1
                   1
                   1
                   1
                   1
                   1
                   1
                   1
                   1
                   1
                   1
                   1
                   1
                   1
                   1
                   1
                   1
                   1
                   1
                   1
                   1
                   1
                   1
                   1
                   1
                   1
                   1
                   1
                   1
                   1
                   1
                   1
                   1
                   1
                   1
                   1
                   1
                   1
                   1
                   1
                   1
                   1
                   1
                   1
                   1
                   1
                   1
                   1
                   1
                   1
                   1
                   1
                   1
                   1
                   1
                   1
                   1
                   1
                   1
                   1
                   1
                   1
                   1
                   1
                   1
                   1
                   1
                   1
                   1
                   1
                   1
                   1
                   1
                   1
                   1
                   1
                   1
                   1
                   1
                   1
                   1
                   1
                   1
                   1
                   1
                   1
                   1
                   1
                   1
                   1
                   1
                   1
                   1
                   1
                   1
                   1
                   1
                   1
                   1
                   1
                   1
                   1
                   1
                   1
                   1
                   1
                   1
                   1
                   1
                   1
                   1
                   1
                   1
                   1
                   1
                   1
                   1
                   1
                   1
                   1
                   1
                   1
                   1
                   1
                   1
                   1
                   1
                   1
                   1
                   1
                   1
                   1
                   1
                   1
                   1
                   1
                   1
                   1
                   1
                   1
                   1
                   1
                   1
                   1
                   1
                   1
                   1
                   1
                   1
                   1
                   1
                   1
                   1
                   1
                   1
                   1
                   1
                   1
                   1
                   1
                   1
                   1
                   1
                   1
                   1
                   1
                   1
                   1
                   1
                   1
                   1
                   1
                   1
                   1
                   1
                   1
                   1
                   1
                   1
                   1
                   1
                   1
                   1
                   1
                   1
                   1
                   1
                   1
                   1
                   1
                   1
                   1
                   1
                   1
                   1
                   1
                   1
                   1
                   1
                   1
                   1
                   1
                   1
                   1
                   1
                   1
                   1
                   1
                   1
                   1
                   1
                   1
                   1
                   1
                   1
                   1
                   1
                   1
                   1
                   1
                   1
                   1
                   1
                   1
                   1
                   1
                   1
                   1
                   1
                   1
                   1
                   1
                   1
                   1
                   1
                   1
                   1
                   1
                   1
                   1
                   1
                   1
                   1
                   1
                   1
                   1
                   1
                   1
                   1
                   1
                   1
                   1
                   1
                   1
                   1
                   1
                   1
                   1
                   1
                   1
                   1
                   1
                   1
                   1
                   1
                   1
                   1
                   1
                   1
                   1
                   1
                   1
                   1
                   1
                   1
                   1
                   1
                   1
                   1
                   1
                   1
                   1
                   1
                   1
                   1
                   1
                   1
                   1
                   1
                   1
                   1
                   1
                   1
                   1
                   1
                   1
                   1
                   1
                   1
                   1
                   1
                   1
                   1
                   1
                   1
                   1
                   1
                   1
                   1
                   1
                   1
                   1
                   1
                   1
                   1
                   1
                   1
                   1
                   1
                   1
                   1
                   1
                   1
                   1
                   1
                   1
                   1
                   1
                   1
                   1
                   1
                   1
                   1
                   1
                   1
                   1
                   1
                   1
                   1
                   1
                   1
                   1
                   1
                   1
                   1
                   1
                   1
                   1
                   1
                   1
                   1
                   1
                   1
                   1
                   1
                   1
                   1
                   1
                   1
                   1
                   1
                   1
                   1
                   1
                   1
                   1
                   1
                   1
                   1
                   1
                   1
                   1
                   1
                   1
                   1
                   1
                   1
                   1
                   1
                   1
                   1
                   1
                   1
                   1
                   1
                   1
                   1
                   1
                   1
                   1
                   1
                   1
                   1
                   1
                   1
                   1
                   1
                   1
                   1
                   1
                   1
                   1
                   1
                   1
                   1
                   1
                   1
                   1
                   1
                   1
                   1
                   1
                   1
                   1
                   1
                   1
                   1
                   1
                   1
                   1
                   1
                   1
                   1
                   1
                   1
                   1
                   1
                   1
                   1
                   1
                   1
                   1
                   1
                   1
                   1
                   1
                   1
                   1
                   1
                   1
                   1
                   1
                   1
                   1
                   1
                   1
                   1
                   1
                   1
                   1
                   1
                   1
                   1
                   1
                   1
                   1
                   1
                   1
                   1
                   1
                   1
                   1
                   1
                   1
                   1
                   1
                   1
                   1
                   1
                   1
                   1
                   1
                   1
                   1
                   1
                   1
                   1
                   1
                   1
                   1
                   1
                   1
                   1
                   1
                   1
                   1
                   1
                   1
                   1
                   1
                   1
                   1
                   1
                   1
                   1
                   1
                   1
                   1
                   1
                   1
                   1
                   1
                   1
                   1
                   1
                   1
                   1
                   1
                   1
                   1
                   1
                   1
                   1
                   1
                   1
                   1
                   1
                   1
                   1
                   1
                   1
                   1
                   1
                   1
                   1
                   1
                   1
                   1
                   1
                   1
                   1
                   1
                   1
                   1
                   1
                   1
                   1
                   1
                   1
                   1
                   1
                   1
                   1
                   1
                   1
                   1
                   1
                   1
                   1
                   1
                   1
                   1
                   1
                   1
                   1
                   1
                   1
                   1
                   1
                   1
                   1
                   1
                   1
                   1
                   1
                   1
                   1
                   1
                   1
                   1
                   1
                   1
                   1
                   1
                   1
                   1
                   1
                   1
                   1
                   1
                   1
                   1
                   1
                   1
                   1
                   1
                   1
                   1
                   1
                   1
                   1
                   1
                   1
                   1
                   1
                   1
                   1
                   1
                   1
                   1
                   1
                   1
                   1
                   1
                   1
                   1
                   1
                   1
                   1
                   1
                   1
                   1
                   1
                   1
                   1
                   1
                   1
                   1
                   1
                   1
                   1
                   1
                   1
                   1
                   1
                   1
                   1
                   1
                   1
                   1
                   1
                   1
                   1
                   1
                   1
                   1
                   1
                   1
                   1
                   1
                   1
                   1
                   1
                   1
                   1
                   1
                   1
                   1
                   1
                   1
                   1
                   1
                   1
                   1
                   1
                   1
                   1
                   1
                   1
                   1
                   1
                   1
                   1
                   1
                   1
                   1
                   1
                   1
                   1
                   1
                   1
                   1
                   1
                   1
                   1
                   1
                   1
                   1
                   1
                   1
                   1
                   1
                   1
                   1
                   1
                   1
                   1
                   1
                   1
                   1
                   1
                   1
                   1
                   1
                   1
                   1
                   1
                   1
                   1
                   1
                   1
                   1
                   1
                   1
                   1
                   1
                   1
                   1
                   1
                   1
                   1
                   1
                   1
                   1
                   1
                   1
                   1
                   1
                   1
                   1
                   1
                   1
                   1
                   1
                   1
                   1
                   1
                   1
                   1
                   1
                   1
                   1
                   1
                   1
                   1
                   1
                   1
                   1
                   1
                   1
                   1
                   1
                   1
                   1
                   1
                   1
                   1
                   1
                   1
                   1
                   1
                   1
                   1
                   1
                   1
                   1
                   1
                   1
                   1
                   1
                   1
                   1
                   1
                   1
                   1
                   1
                   1
                   1
                   1
                   1
                   1
                   1
                   1
                   1
                   1
                   1
                   1
                   1
                   1
                   1
                   1
                   1
                   1
                   1
                   1
                   1
                   1
                   1
                   1
                   1
                   1
                   1
                   1
                   1
                   1
                   1
                   1
                   1
                   1
                   1
                   1
                   1
                   1
                   1
                   1
                   1
                   1
                   1
                   1
                   1
                   1
                   1
                   1
                   1
                   1
                   1
                   1
                   1
                   1
                   1
                   1
                   1
                   1
                   1
                   1
                   1
                   1
                   1
                   1
                   1
                   1
                   1
                   1
                   1
                   1
                   1
                   1
                   1
                   1
                   1
                   1
                   1
                   1
                   1
                   1
                   1
                   1
                   1
                   1
                   1
                   1
                   1
                   1
                   1
                   1
                   1
                   1
                   1
                   1
                   1
                   1
                   1
                   1
                   1
                   1
                   1
                   1
                   1
                   1
                   1
                   1
                   1
                   1
                   1
                   1
                   1
                   1
                   1
                   1
                   1
                   1
                   1
                   1
                   1
                   1
                   1
                   1
                   1
                   1
                   1
                   1
                   1
                   1
                   1
                   1
                   1
                   1
                   1
                   1
                   1
                   1
                   1
                   1
                   1
                   1
                   1
                   1
                   1
                   1
                   1
                   1
                   1
                   1
                   1
                   1
                   1
                   1
                   1
                   1
                   1
                   1
                   1
                   1
                   1
                   1
                   1
                   1
                   1
                   1
                   1
                   1
                   1
                   1
                   1
                   1
                   1
                   1
                   1
                   1
                   1
                   1
                   1
                   1
                   1
                   1
                   1
                   1
                   1
                   1
                   1
                   1
                   1
                   1
                   1
                   1
                   1
                   1
                   1
                   1
                   1
                   1
                   1
                   1
                   1
                   1
                   1
                   1
                   1
                   1
                   1
                   1
                   1
                   1
                   1
                   1
                   1
                   1
                   1
                   1
                   1
                   1
                   1
                   1
                   1
                   1
                   1
                   1
                   1
                   1
                   1
                   1
                   1
                   1
                   1
                   1
                   1
                   1
                   1
                   1
                   1
                   1
                   1
                   1
                   1
                   1
                   1
                   1
                   1
                   1
                   1
                   1
                   1
                   1
                   1
                   1
                   1
                   1
                   1
                   1
                   1
                   1
                   1
                   1
                   1
                   1
                   1
                   1
                   1
                   1
                   1
                   1
                   1
                   1
                   1
                   1
                   1
                   1
                   1
                   1
                   1
                   1
                   1
                   1
                   1
                   1
                   1
                   1
                   1
                   1
                   1
                   1
                   1
                   1
                   1
                   1
                   1
                   1
                   1
                   1
                   1
                   1
                   1
                   1
                   1
                   1
                   1
                   1
                   1
                   1
                   1
                   1
                   1
                   1
                   1
                   1
                   1
                   1
                   1
                   1
                   1
                   1
                   1
                   1
                   1
                   1
                   1
                   1
                   1
                   1
                   1
                   1
                   1
                   1
                   1
                   1
                   1
                   1
                   1
                   1
                   1
                   1
                   1
                   1
                   1
                   1
                   1
                   1
                   1
                   1
                   1
                   1
                   1
                   1
                   1
                   1
                   1
                   1
                   1
                   1
                   1
                   1
                   1
                   1
                   1
                   1
                   1
                   1
                   1
                   1
                   1
                   1
                   1
                   1
                   1
                   1
                   1
                   1
                   1
                   1
                   1
                   1
                   1
                   1
                   1
                   1
                   1
                   1
                   1
                   1
                   1
                   1
                   1
                   1
                   1
                   1
                   1
                   1
                   1
                   1
                   1
                   1
                   1
                   1
                   1
                   1
                   1
                   1
                   1
                   1
                   1
                   1
                   1
                   1
                   1
                   1
                   1
                   1
                   1
                   1
                   1
                   1
                   1
                   1
                   1
                   1
                   1
                   1
                   1
                   1
                   1
                   1
                   1
                   1
                   1
                   1
                   1
                   1
                   1
                   1
                   1
                   1
                   1
                   1
                   1
                   1
                   1
                   1
                   1
                   1
                   1
                   1
                   1
                   1
                   1
                   1
                   1
                   1
                   1
                   1
                   1
                   1
                   1
                   1
                   1
                   1
                   1
                   1
                   1
                   1
                   1
                   1
                   1
                   1
                   1
                   1
                   1
                   1
                   1
                   1
                   1
                   1
                   1
                   1
                   1
                   1
                   1
                   1
                   1
                   1
                   1
                   1
                   1
                   1
                   1
                   1
                   1
                   1
                   1
                   1
                   1
                   1
                   1
                   1
                   1
                   1
                   1
                   1
                   1
                   1
                   1
                   1
                   1
                   1
                   1
                   1
                   1
                   1
                   1
                   1
                   1
                   1
                   1
                   1
                   1
                   1
                   1
                   1
                   1
                   1
                   1
                   1
                   1
                   1
                   1
                   1
                   1
                   1
                   1
                   1
                   1
                   1
                   1
                   1
                   1
                   1
                   1
                   1
                   1
                   1
                   1
                   1
                   1
                   1
                   1
                   1
                   1
                   1
                   1
                   1
                   1
                   1
                   1
                   1
                   1
                   1
                   1
                   1
                   1
                   1
                   1
                   1
                   1
                   1
                   1
                   1
                   1
                   1
                   1
                   1
                   1
                   1
                   1
                   1
                   1
                   1
                   1
                   1
                   1
                   1
                   1
                   1
                   1
                   1
                   1
                   1
                   1
                   1
                   1
                   1
                   1
                   1
                   1
                   1
                   1
                   1
                   1
                   1
                   1
                   1
                   1
                   1
                   1
                   1
                   1
                   1
                   1
                   1
                   1
                   1
                   1
                   1
                   1
                   1
                   1
                   1
                   1
                   1
                   1
                   1
                   1
                   1
                   1
                   1
                   1
                   1
                   1
                   1
                   1
                   1
                   1
                   1
                   1
                   1
                   1
                   1
                   1
                   1
                   1
                   1
                   1
                   1
                   1
                   1
                   1
                   1
                   1
                   1
                   1
                   1
                   1
                   1
                   1
                   1
                   1
                   1
                   1
                   1
                   1
                   1
                   1
                   1
                   1
                   1
                   1
                   1
                   1
                   1
                   1
                   1
                   1
                   1
                   1
                   1
                   1
                   1
                   1
                   1
                   1
                   1
                   1
                   1
                   1
                   1
                   1
                   1
                   1
                   1
                   1
                   1
                   1
                   1
                   1
                   1
                   1
                   1
                   1
                   1
                   1
                   1
                   1
                   1
                   1
                   1
                   1
                   1
                   1
                   1
                   1
                   1
                   1
                   1
                   1
                   1
                   1
                   1
                   1
                   1
                   1
                   1
                   1
                   1
                   1
                   1
                   1
                   1
                   1
                   1
                   1
                   1
                   1
                   1
                   1
                   1
                   1
                   1
                   1
                   1
                   1
                   1
                   1
                   1
                   1
                   1
                   1
                   1
                   1
                   1
                   1
                   1
                   1
                   1
                   1
                   1
                   1
                   1
                   1
                   1
                   1
                   1
                   1
                   1
                   1
                   1
                   1
                   1
                   1
                   1
                   1
                   1
                   1
                   1
                   1
                   1
                   1
                   1
                   1
                   1
                   1
                   1
                   1
                   1
                   1
                   1
                   1
                   1
                   1
                   1
                   1
                   1
                   1
                   1
                   1
                   1
                   1
                   1
                   1
                   1
                   1
                   1
                   1
                   1
                   1
                   1
                   1
                   1
                   1
                   1
                   1
                   1
                   1
                   1
                   1
                   1
                   1
                   1
                   1
                   1
                   1
                   1
                   1
                   1
                   1
                   1
                   1
                   1
                   1
                   1
                   1
                   1
                   1
                   1
                   1
                   1
                   1
                   1
                   1
                   1
                   1
                   1
                   1
                   1
                   1
                   1
                   1
                   1
                   1
                   1
                   1
                   1
                   1
                   1
                   1
                   1
                   1
                   1
                   1
                   1
                   1
                   1
                   1
                   1
                   1
                   1
                   1
                   1
                   1
                   1
                   1
                   1
                   1
                   1
                   1
                   1
                   1
                   1
                   1
                   1
                   1
                   1
                   1
                   1
                   1
                   1
                   1
                   1
                   1
                   1
                   1
                   1
                   1
                   1
                   1
                   1
                   1
                   1
                   1
                   1
                   1
                   1
                   1
                   1
                   1
                   1
                   1
                   1
                   1
                   1
                   1
                   1
                   1
                   1
                   1
                   1
                   1
                   1
                   1
                   1
                   1
                   1
  
SCALARS                  material_type  double 1
LOOKUP_TABLE default
                   2
                   2
                   2
                   2
                   2
                   2
                   2
                   2
                   2
                   2
                   2
                   2
                   2
                   2
                   2
                   2
                   2
                   2
                   2
                   2
                   2
                   2
                   2
                   2
                   2
                   2
                   2
                   2
                   2
                   2
                   2
                   2
                   2
                   2
                   2
                   2
                   2
                   2
                   2
                   2
                   2
                   2
                   2
                   2
                   2
                   2
                   2
                   2
                   2
                   2
                   2
                   2
                   2
                   2
                   2
                   2
                   2
                   2
                   2
                   2
                   2
                   2
                   2
                   2
                   2
                   2
                   2
                   2
                   2
                   2
                   2
                   2
                   2
                   2
                   2
                   2
                   2
                   2
                   2
                   2
                   2
                   2
                   2
                   2
                   2
                   2
                   2
                   2
                   2
                   2
                   2
                   2
                   2
                   2
                   2
                   2
                   2
                   2
                   2
                   2
                   2
                   2
                   2
                   2
                   2
                   2
                   2
                   2
                   2
                   2
                   2
                   2
                   2
                   2
                   2
                   2
                   2
                   2
                   2
                   2
                   2
                   2
                   2
                   2
                   2
                   2
                   2
                   2
                   2
                   2
                   2
                   2
                   2
                   2
                   2
                   2
                   2
                   2
                   2
                   2
                   2
                   2
                   2
                   2
                   2
                   2
                   2
                   2
                   2
                   2
                   2
                   2
                   2
                   2
                   2
                   2
                   2
                   2
                   2
                   2
                   2
                   2
                   2
                   2
                   2
                   2
                   2
                   2
                   2
                   2
                   2
                   2
                   2
                   2
                   2
                   2
                   2
                   2
                   2
                   2
                   2
                   2
                   2
                   2
                   2
                   2
                   2
                   2
                   2
                   2
                   2
                   2
                   2
                   2
                   2
                   2
                   2
                   2
                   2
                   2
                   2
                   2
                   2
                   2
                   2
                   2
                   2
                   2
                   2
                   2
                   2
                   2
                   2
                   2
                   2
                   2
                   2
                   2
                   2
                   2
                   2
                   2
                   2
                   2
                   2
                   2
                   2
                   2
                   2
                   2
                   2
                   2
                   2
                   2
                   2
                   2
                   2
                   2
                   2
                   2
                   2
                   2
                   2
                   2
                   2
                   2
                   2
                   2
                   2
                   2
                   2
                   2
                   2
                   2
                   2
                   2
                   2
                   2
                   2
                   2
                   2
                   2
                   2
                   2
                   2
                   2
                   2
                   2
                   2
                   2
                   2
                   2
                   2
                   2
                   2
                   2
                   2
                   2
                   2
                   2
                   2
                   2
                   2
                   2
                   2
                   2
                   2
                   2
                   2
                   2
                   2
                   2
                   2
                   2
                   2
                   2
                   2
                   2
                   2
                   2
                   2
                   2
                   2
                   2
                   2
                   2
                   2
                   2
                   2
                   2
                   2
                   2
                   2
                   2
                   2
                   2
                   2
                   2
                   2
                   2
                   2
                   2
                   2
                   2
                   2
                   2
                   2
                   2
                   2
                   2
                   2
                   2
                   2
                   2
                   2
                   2
                   2
                   2
                   2
                   2
                   2
                   2
                   2
                   2
                   2
                   2
                   2
                   2
                   2
                   2
                   2
                   2
                   2
                   2
                   2
                   2
                   2
                   2
                   2
                   2
                   2
                   2
                   2
                   2
                   2
                   2
                   2
                   2
                   2
                   2
                   2
                   2
                   2
                   2
                   2
                   2
                   2
                   2
                   2
                   2
                   2
                   2
                   2
                   2
                   2
                   2
                   2
                   2
                   2
                   2
                   2
                   2
                   2
                   2
                   2
                   2
                   2
                   2
                   2
                   2
                   2
                   2
                   2
                   2
                   2
                   2
                   2
                   2
                   2
                   2
                   2
                   2
                   2
                   2
                   2
                   2
                   2
                   2
                   2
                   2
                   2
                   2
                   2
                   2
                   2
                   2
                   2
                   2
                   2
                   2
                   2
                   2
                   2
                   2
                   2
                   2
                   2
                   2
                   2
                   2
                   2
                   2
                   2
                   2
                   2
                   2
                   2
                   2
                   2
                   2
                   2
                   2
                   2
                   2
                   2
                   2
                   2
                   2
                   2
                   2
                   2
                   2
                   2
                   2
                   2
                   2
                   2
                   2
                   2
                   2
                   2
                   2
                   2
                   2
                   2
                   2
                   2
                   2
                   2
                   2
                   2
                   2
                   2
                   2
                   2
                   2
                   2
                   2
                   2
                   2
                   2
                   2
                   2
                   2
                   2
                   2
                   2
                   2
                   2
                   2
                   2
                   2
                   2
                   2
                   2
                   2
                   2
                   2
                   2
                   2
                   2
                   2
                   2
                   2
                   2
                   2
                   2
                   2
                   2
                   2
                   2
                   2
                   2
                   2
                   2
                   2
                   2
                   2
                   2
                   2
                   2
                   2
                   2
                   2
                   2
                   2
                   2
                   2
                   2
                   2
                   2
                   2
                   2
                   2
                   2
                   2
                   2
                   2
                   2
                   2
                   2
                   2
                   2
                   2
                   2
                   2
                   2
                   2
                   2
                   2
                   2
                   2
                   2
                   2
                   2
                   2
                   2
                   2
                   2
                   2
                   2
                   2
                   2
                   2
                   2
                   2
                   2
                   2
                   2
                   2
                   2
                   2
                   2
                   2
                   2
                   2
                   2
                   2
                   2
                   2
                   2
                   2
                   2
                   2
                   2
                   2
                   2
                   2
                   2
                   2
                   2
                   2
                   2
                   2
                   2
                   2
                   2
                   2
                   2
                   2
                   2
                   2
                   2
                   2
                   2
                   2
                   2
                   2
                   2
                   2
                   2
                   2
                   2
                   2
                   2
                   2
                   2
                   2
                   2
                   2
                   2
                   2
                   2
                   2
                   2
                   2
                   2
                   2
                   2
                   2
                   2
                   2
                   2
                   2
                   2
                   2
                   2
                   2
                   2
                   2
                   2
                   2
                   2
                   2
                   2
                   2
                   2
                   2
                   2
                   2
                   2
                   2
                   2
                   2
                   2
                   2
                   2
                   2
                   2
                   2
                   2
                   2
                   2
                   2
                   2
                   2
                   2
                   2
                   2
                   2
                   2
                   2
                   2
                   2
                   2
                   2
                   2
                   2
                   2
                   2
                   2
                   2
                   2
                   2
                   2
                   2
                   2
                   2
                   2
                   2
                   2
                   2
                   2
                   2
                   2
                   2
                   2
                   2
                   2
                   2
                   2
                   2
                   2
                   2
                   2
                   2
                   2
                   2
                   2
                   2
                   2
                   2
                   2
                   2
                   2
                   2
                   2
                   2
                   2
                   2
                   2
                   2
                   2
                   2
                   2
                   2
                   2
                   2
                   2
                   2
                   2
                   2
                   2
                   2
                   2
                   2
                   2
                   2
                   2
                   2
                   2
                   2
                   2
                   2
                   2
                   2
                   2
                   2
                   2
                   2
                   2
                   2
                   2
                   2
                   2
                   2
                   2
                   2
                   2
                   2
                   2
                   2
                   2
                   2
                   2
                   2
                   2
                   2
                   2
                   2
                   2
                   2
                   2
                   2
                   2
                   2
                   2
                   2
                   2
                   2
                   2
                   2
                   2
                   2
                   2
                   2
                   2
                   2
                   2
                   2
                   2
                   2
                   2
                   2
                   2
                   2
                   2
                   2
                   2
                   2
                   2
                   2
                   2
                   2
                   2
                   2
                   2
                   2
                   2
                   2
                   2
                   2
                   2
                   2
                   2
                   2
                   2
                   2
                   2
                   2
                   2
                   2
                   2
                   2
                   2
                   2
                   2
                   2
                   2
                   2
                   2
                   2
                   2
                   2
                   2
                   2
                   2
                   2
                   2
                   2
                   2
                   2
                   2
                   2
                   2
                   2
                   2
                   2
                   2
                   2
                   2
                   2
                   2
                   2
                   2
                   2
                   2
                   2
                   2
                   2
                   2
                   2
                   2
                   2
                   2
                   2
                   2
                   2
                   2
                   2
                   2
                   2
                   2
                   2
                   2
                   2
                   2
                   2
                   2
                   2
                   2
                   2
                   2
                   2
                   2
                   2
                   2
                   2
                   2
                   2
                   2
                   2
                   2
                   2
                   2
                   2
                   2
                   2
                   2
                   2
                   2
                   2
                   2
                   2
                   2
                   2
                   2
                   2
                   2
                   2
                   2
                   2
                   2
                   2
                   2
                   2
                   2
                   2
                   2
                   2
                   2
                   2
                   2
                   2
                   2
                   2
                   2
                   2
                   2
                   2
                   2
                   2
                   2
                   2
                   2
                   2
                   2
                   2
                   2
                   2
                   2
                   2
                   2
                   2
                   2
                   2
                   2
                   2
                   2
                   2
                   2
                   2
                   2
                   2
                   2
                   2
                   2
                   2
                   2
                   2
                   2
                   2
                   2
                   2
                   2
                   2
                   2
                   2
                   2
                   2
                   2
                   2
                   2
                   2
                   2
                   2
                   2
                   2
                   2
                   2
                   2
                   2
                   2
                   2
                   2
                   2
                   2
                   2
                   2
                   2
                   2
                   2
                   2
                   2
                   2
                   2
                   2
                   2
                   2
                   2
                   2
                   2
                   2
                   2
                   2
                   2
                   2
                   2
                   2
                   2
                   2
                   2
                   2
                   2
                   2
                   2
                   2
                   2
                   2
                   2
                   2
                   2
                   2
                   2
                   2
                   2
                   2
                   2
                   2
                   2
                   2
                   2
                   2
                   2
                   2
                   2
                   2
                   2
                   2
                   2
                   2
                   2
                   2
                   2
                   2
                   2
                   2
                   2
                   2
                   2
                   2
                   2
                   2
                   2
                   2
                   2
                   2
                   2
                   2
                   2
                   2
                   2
                   2
                   2
                   2
                   2
                   2
                   2
                   2
                   2
                   2
                   2
                   2
                   2
                   2
                   2
                   2
                   2
                   2
                   2
                   2
                   2
                   2
                   2
                   2
                   2
                   2
                   2
                   2
                   2
                   2
                   2
                   2
                   2
                   2
                   2
                   2
                   2
                   2
                   2
                   2
                   2
                   2
                   2
                   2
                   2
                   2
                   2
                   2
                   2
                   2
                   2
                   2
                   2
                   2
                   2
                   2
                   2
                   2
                   2
                   2
                   2
                   2
                   2
                   2
                   2
                   2
                   2
                   2
                   2
                   2
                   2
                   2
                   2
                   2
                   2
                   2
                   2
                   2
                   2
                   2
                   2
                   2
                   2
                   2
                   2
                   2
                   2
                   2
                   2
                   2
                   2
                   2
                   2
                   2
                   2
                   2
                   2
                   2
                   2
                   2
                   2
                   2
                   2
                   2
                   2
                   2
                   2
                   2
                   2
                   2
                   2
                   2
                   2
                   2
                   2
                   2
                   2
                   2
                   2
                   2
                   2
                   2
                   2
                   2
                   2
                   2
                   2
                   2
                   2
                   2
                   2
                   2
                   2
                   2
                   2
                   2
                   2
                   2
                   2
                   2
                   2
                   2
                   2
                   2
                   2
                   2
                   2
                   2
                   2
                   2
                   2
                   2
                   2
                   2
                   2
                   2
                   2
                   2
                   2
                   2
                   2
                   2
                   2
                   2
                   2
                   2
                   2
                   2
                   2
                   2
                   2
                   2
                   2
                   2
                   2
                   2
                   2
                   2
                   2
                   2
                   2
                   2
                   2
                   2
                   2
                   2
                   2
                   2
                   2
                   2
                   2
                   2
                   2
                   2
                   2
                   2
                   2
                   2
                   2
                   2
                   2
                   2
                   2
                   2
                   2
                   2
                   2
                   2
                   2
                   2
                   2
                   2
                   2
                   2
                   2
                   2
                   2
                   2
                   2
                   2
                   2
                   2
                   2
                   2
                   2
                   2
                   2
                   2
                   2
                   2
                   2
                   2
                   2
                   2
                   2
                   2
                   2
                   2
                   2
                   2
                   2
                   2
                   2
                   2
                   2
                   2
                   2
                   2
                   2
                   2
                   2
                   2
                   2
                   2
                   2
                   2
                   2
                   2
                   2
                   2
                   2
                   2
                   2
                   2
                   2
                   2
                   2
                   2
                   2
                   2
                   2
                   2
                   2
                   2
                   2
                   2
                   2
                   2
                   2
                   2
                   2
                   2
                   2
                   2
                   2
                   2
                   2
                   2
                   2
                   2
                   2
                   2
                   2
                   2
                   2
                   2
                   2
                   2
                   2
                   2
                   2
                   2
                   2
                   2
                   2
                   2
                   2
                   2
                   2
                   2
                   2
                   2
                   2
                   2
                   2
                   2
                   2
                   2
                   2
                   2
                   2
                   2
                   2
                   2
                   2
                   2
                   2
                   2
                   2
                   2
                   2
                   2
                   2
                   2
                   2
                   2
                   2
                   2
                   2
                   2
                   2
                   2
                   2
                   2
                   2
                   2
                   2
                   2
                   2
                   2
                   2
                   2
                   2
                   2
                   2
                   2
                   2
                   2
                   2
                   2
                   2
                   2
                   2
                   2
                   2
                   2
                   2
                   2
                   2
                   2
                   2
                   2
                   2
                   2
                   2
                   2
                   2
                   2
                   2
                   2
                   2
                   2
                   2
                   2
                   2
                   2
                   2
                   2
                   2
                   2
                   2
                   2
                   2
                   2
                   2
                   2
                   2
                   2
                   2
                   2
                   2
                   2
                   2
                   2
                   2
                   2
                   2
                   2
                   2
                   2
                   2
                   2
                   2
                   2
                   2
                   2
                   2
                   2
                   2
                   2
                   2
                   2
                   2
                   2
                   2
                   2
                   2
                   2
                   2
                   2
                   2
                   2
                   2
                   2
                   2
                   2
                   2
                   2
                   2
                   2
                   2
                   2
                   2
                   2
                   2
                   2
                   2
                   2
                   2
                   2
                   2
                   2
                   2
                   2
                   2
                   2
                   2
                   2
                   2
                   2
                   2
                   2
                   2
                   2
                   2
                   2
                   2
                   2
                   2
                   2
                   2
                   2
                   2
                   2
                   2
                   2
                   2
                   2
                   2
                   2
                   2
                   2
                   2
                   2
                   2
                   2
                   2
                   2
                   2
                   2
                   2
                   2
                   2
                   2
                   2
                   2
                   2
                   2
                   2
                   2
                   2
                   2
                   2
                   2
                   2
                   2
                   2
                   2
                   2
                   2
                   2
                   2
                   2
                   2
                   2
                   2
                   2
                   2
                   2
                   2
                   2
                   2
                   2
                   2
                   2
                   2
                   2
                   2
                   2
                   2
                   2
                   2
                   2
                   2
                   2
                   2
                   2
                   2
                   2
                   2
                   2
                   2
                   2
                   2
                   2
                   2
                   2
                   2
                   2
                   2
                   2
                   2
                   2
                   2
                   2
                   2
                   2
                   2
                   2
                   2
                   2
                   2
                   2
                   2
                   2
                   2
                   2
                   2
                   2
                   2
                   2
                   2
                   2
                   2
                   2
                   2
                   2
                   2
                   2
                   2
                   2
                   2
                   2
                   2
                   2
                   2
                   2
                   2
                   2
                   2
                   2
                   2
                   2
                   2
                   2
                   2
                   2
                   2
                   2
                   2
                   2
                   2
                   2
                   2
                   2
                   2
                   2
                   2
                   2
                   2
                   2
                   2
                   2
                   2
                   2
                   2
                   2
                   2
                   2
                   2
                   2
                   2
                   2
                   2
                   2
                   2
                   2
                   2
                   2
                   2
                   2
                   2
                   2
                   2
                   2
                   2
                   2
                   2
                   2
                   2
                   2
                   2
                   2
                   2
                   2
                   2
                   2
                   2
                   2
                   2
                   2
                   2
                   2
                   2
                   2
                   2
                   2
                   2
                   2
                   2
                   2
                   2
                   2
                   2
                   2
                   2
                   2
                   2
                   2
                   2
                   2
                   2
                   2
                   2
                   2
                   2
                   2
                   2
                   2
                   2
                   2
                   2
                   2
                   2
                   2
                   2
                   2
                   2
                   2
                   2
                   2
                   2
                   2
                   2
                   2
                   2
                   2
                   2
                   2
                   2
                   2
                   2
                   2
                   2
                   2
                   2
                   2
                   2
                   2
                   2
                   2
                   2
                   2
                   2
                   2
                   2
                   2
                   2
                   2
                   2
                   2
                   2
                   2
                   2
                   2
                   2
                   2
                   2
                   2
                   2
                   2
                   2
                   2
                   2
                   2
                   2
                   2
                   2
                   2
                   2
                   2
                   2
                   2
                   2
                   2
                   2
                   2
                   2
                   2
                   2
                   2
                   2
                   2
                   2
                   2
                   2
                   2
                   2
                   2
                   2
                   2
                   2
                   2
                   2
                   2
                   2
                   2
                   2
                   2
                   2
                   2
                   2
                   2
                   2
                   2
                   2
                   2
                   2
                   2
                   2
                   2
                   2
                   2
                   2
                   2
                   2
                   2
                   2
                   2
                   2
                   2
                   2
                   2
                   2
                   2
                   2
                   2
                   2
                   2
                   2
                   2
                   2
                   2
                   2
                   2
                   2
                   2
                   2
                   2
                   2
                   2
                   2
                   2
                   2
                   2
                   2
                   2
                   2
                   2
                   2
                   2
                   2
                   2
                   2
                   2
                   2
                   2
                   2
                   2
                   2
                   2
                   2
                   2
                   2
                   2
                   2
                   2
                   2
                   2
                   2
                   2
                   2
                   2
                   2
                   2
                   2
                   2
                   2
                   2
                   2
                   2
                   2
                   2
                   2
                   2
                   2
                   2
                   2
                   2
                   2
                   2
                   2
                   2
                   2
                   2
                   2
                   2
                   2
                   2
                   2
                   2
                   2
                   2
                   2
                   2
                   2
                   2
                   2
                   2
  
SCALARS                       fixity_x  double 1
LOOKUP_TABLE default
                   0
                   0
                   0
                   0
                   0
                   0
                   0
                   0
                   0
                   0
                   0
                   0
                   0
                   0
                   0
                   0
                   0
                   0
                   0
                   0
                   0
                   0
                   0
                   0
                   0
                   0
                   0
                   0
                   0
                   0
                   0
                   0
                   0
                   0
                   0
                   0
                   0
                   0
                   0
                   0
                   0
                   0
                   0
                   0
                   0
                   0
                   0
                   0
                   0
                   0
                   0
                   0
                   0
                   0
                   0
                   0
                   0
                   0
                   0
                   0
                   0
                   0
                   0
                   0
                   0
                   0
                   0
                   0
                   0
                   0
                   0
                   0
                   0
                   0
                   0
                   0
                   0
                   0
                   0
                   0
                   0
                   0
                   0
                   0
                   0
                   0
                   0
                   0
                   0
                   0
                   0
                   0
                   0
                   0
                   0
                   0
                   0
                   0
                   0
                   0
                   0
                   0
                   0
                   0
                   0
                   0
                   0
                   0
                   0
                   0
                   0
                   0
                   0
                   0
                   0
                   0
                   0
                   0
                   0
                   0
                   0
                   0
                   0
                   0
                   0
                   0
                   0
                   0
                   0
                   0
                   0
                   0
                   0
                   0
                   0
                   0
                   0
                   0
                   0
                   0
                   0
                   0
                   0
                   0
                   0
                   0
                   0
                   0
                   0
                   0
                   0
                   0
                   0
                   0
                   0
                   0
                   0
                   0
                   0
                   0
                   0
                   0
                   0
                   0
                   0
                   0
                   0
                   0
                   0
                   0
                   0
                   0
                   0
                   0
                   0
                   0
                   0
                   0
                   0
                   0
                   0
                   0
                   0
                   0
                   0
                   0
                   0
                   0
                   0
                   0
                   0
                   0
                   0
                   0
                   0
                   0
                   0
                   0
                   0
                   0
                   0
                   0
                   0
                   0
                   0
                   0
                   0
                   0
                   0
                   0
                   0
                   0
                   0
                   0
                   0
                   0
                   0
                   0
                   0
                   0
                   0
                   0
                   0
                   0
                   0
                   0
                   0
                   0
                   0
                   0
                   0
                   0
                   0
                   0
                   0
                   0
                   0
                   0
                   0
                   0
                   0
                   0
                   0
                   0
                   0
                   0
                   0
                   0
                   0
                   0
                   0
                   0
                   0
                   0
                   0
                   0
                   0
                   0
                   0
                   0
                   0
                   0
                   0
                   0
                   0
                   0
                   0
                   0
                   0
                   0
                   0
                   0
                   0
                   0
                   0
                   0
                   0
                   0
                   0
                   0
                   0
                   0
                   0
                   0
                   0
                   0
                   0
                   0
                   0
                   0
                   0
                   0
                   0
                   0
                   0
                   0
                   0
                   0
                   0
                   0
                   0
                   0
                   0
                   0
                   0
                   0
                   0
                   0
                   0
                   0
                   0
                   0
                   0
                   0
                   0
                   0
                   0
                   0
                   0
                   0
                   0
                   0
                   0
                   0
                   0
                   0
                   0
                   0
                   0
                   0
                   0
                   0
                   0
                   0
                   0
                   0
                   0
                   0
                   0
                   0
                   0
                   0
                   0
                   0
                   0
                   0
                   0
                   0
                   0
                   0
                   0
                   0
                   0
                   0
                   0
                   0
                   0
                   0
                   0
                   0
                   0
                   0
                   0
                   0
                   0
                   0
                   0
                   0
                   0
                   0
                   0
                   0
                   0
                   0
                   0
                   0
                   0
                   0
                   0
                   0
                   0
                   0
                   0
                   0
                   0
                   0
                   0
                   0
                   0
                   0
                   0
                   0
                   0
                   0
                   0
                   0
                   0
                   0
                   0
                   0
                   0
                   0
                   0
                   0
                   0
                   0
                   0
                   0
                   0
                   0
                   0
                   0
                   0
                   0
                   0
                   0
                   0
                   0
                   0
                   0
                   0
                   0
                   0
                   0
                   0
                   0
                   0
                   0
                   0
                   0
                   0
                   0
                   0
                   0
                   0
                   0
                   0
                   0
                   0
                   0
                   0
                   0
                   0
                   0
                   0
                   0
                   0
                   0
                   0
                   0
                   0
                   0
                   0
                   0
                   0
                   0
                   0
                   0
                   0
                   0
                   0
                   0
                   0
                   0
                   0
                   0
                   0
                   0
                   0
                   0
                   0
                   0
                   0
                   0
                   0
                   0
                   0
                   0
                   0
                   0
                   0
                   0
                   0
                   0
                   0
                   0
                   0
                   0
                   0
                   0
                   0
                   0
                   0
                   0
                   0
                   0
                   0
                   0
                   0
                   0
                   0
                   0
                   0
                   0
                   0
                   0
                   0
                   0
                   0
                   0
                   0
                   0
                   0
                   0
                   0
                   0
                   0
                   0
                   0
                   0
                   0
                   0
                   0
                   0
                   0
                   0
                   0
                   0
                   0
                   0
                   0
                   0
                   0
                   0
                   0
                   0
                   0
                   0
                   0
                   0
                   0
                   0
                   0
                   0
                   0
                   0
                   0
                   0
                   0
                   0
                   0
                   0
                   0
                   0
                   0
                   0
                   0
                   0
                   0
                   0
                   0
                   0
                   0
                   0
                   0
                   0
                   0
                   0
                   0
                   0
                   0
                   0
                   0
                   0
                   0
                   0
                   0
                   0
                   0
                   0
                   0
                   0
                   0
                   0
                   0
                   0
                   0
                   0
                   0
                   0
                   0
                   0
                   0
                   0
                   0
                   0
                   0
                   0
                   0
                   0
                   0
                   0
                   0
                   0
                   0
                   0
                   0
                   0
                   0
                   0
                   0
                   0
                   0
                   0
                   0
                   0
                   0
                   0
                   0
                   0
                   0
                   0
                   0
                   0
                   0
                   0
                   0
                   0
                   0
                   0
                   0
                   0
                   0
                   0
                   0
                   0
                   0
                   0
                   0
                   0
                   0
                   0
                   0
                   0
                   0
                   0
                   0
                   0
                   0
                   0
                   0
                   0
                   0
                   0
                   0
                   0
                   0
                   0
                   0
                   0
                   0
                   0
                   0
                   0
                   0
                   0
                   0
                   0
                   0
                   0
                   0
                   0
                   0
                   0
                   0
                   0
                   0
                   0
                   0
                   0
                   0
                   0
                   0
                   0
                   0
                   0
                   0
                   0
                   0
                   0
                   0
                   0
                   0
                   0
                   0
                   0
                   0
                   0
                   0
                   0
                   0
                   0
                   0
                   0
                   0
                   0
                   0
                   0
                   0
                   0
                   0
                   0
                   0
                   0
                   0
                   0
                   0
                   0
                   0
                   0
                   0
                   0
                   0
                   0
                   0
                   0
                   0
                   0
                   0
                   0
                   0
                   0
                   0
                   0
                   0
                   0
                   0
                   0
                   0
                   0
                   0
                   0
                   0
                   0
                   0
                   0
                   0
                   0
                   0
                   0
                   0
                   0
                   0
                   0
                   0
                   0
                   0
                   0
                   0
                   0
                   0
                   0
                   0
                   0
                   0
                   0
                   0
                   0
                   0
                   0
                   0
                   0
                   0
                   0
                   0
                   0
                   0
                   0
                   0
                   0
                   0
                   0
                   0
                   0
                   0
                   0
                   0
                   0
                   0
                   0
                   0
                   0
                   0
                   0
                   0
                   0
                   0
                   0
                   0
                   0
                   0
                   0
                   0
                   0
                   0
                   0
                   0
                   0
                   0
                   0
                   0
                   0
                   0
                   0
                   0
                   0
                   0
                   0
                   0
                   0
                   0
                   0
                   0
                   0
                   0
                   0
                   0
                   0
                   0
                   0
                   0
                   0
                   0
                   0
                   0
                   0
                   0
                   0
                   0
                   0
                   0
                   0
                   0
                   0
                   0
                   0
                   0
                   0
                   0
                   0
                   0
                   0
                   0
                   0
                   0
                   0
                   0
                   0
                   0
                   0
                   0
                   0
                   0
                   0
                   0
                   0
                   0
                   0
                   0
                   0
                   0
                   0
                   0
                   0
                   0
                   0
                   0
                   0
                   0
                   0
                   0
                   0
                   0
                   0
                   0
                   0
                   0
                   0
                   0
                   0
                   0
                   0
                   0
                   0
                   0
                   0
                   0
                   0
                   0
                   0
                   0
                   0
                   0
                   0
                   0
                   0
                   0
                   0
                   0
                   0
                   0
                   0
                   0
                   0
                   0
                   0
                   0
                   0
                   0
                   0
                   0
                   0
                   0
                   0
                   0
                   0
                   0
                   0
                   0
                   0
                   0
                   0
                   0
                   0
                   0
                   0
                   0
                   0
                   0
                   0
                   0
                   0
                   0
                   0
                   0
                   0
                   0
                   0
                   0
                   0
                   0
                   0
                   0
                   0
                   0
                   0
                   0
                   0
                   0
                   0
                   0
                   0
                   0
                   0
                   0
                   0
                   0
                   0
                   0
                   0
                   0
                   0
                   0
                   0
                   0
                   0
                   0
                   0
                   0
                   0
                   0
                   0
                   0
                   0
                   0
                   0
                   0
                   0
                   0
                   0
                   0
                   0
                   0
                   0
                   0
                   0
                   0
                   0
                   0
                   0
                   0
                   0
                   0
                   0
                   0
                   0
                   0
                   0
                   0
                   0
                   0
                   0
                   0
                   0
                   0
                   0
                   0
                   0
                   0
                   0
                   0
                   0
                   0
                   0
                   0
                   0
                   0
                   0
                   0
                   0
                   0
                   0
                   0
                   0
                   0
                   0
                   0
                   0
                   0
                   0
                   0
                   0
                   0
                   0
                   0
                   0
                   0
                   0
                   0
                   0
                   0
                   0
                   0
                   0
                   0
                   0
                   0
                   0
                   0
                   0
                   0
                   0
                   0
                   0
                   0
                   0
                   0
                   0
                   0
                   0
                   0
                   0
                   0
                   0
                   0
                   0
                   0
                   0
                   0
                   0
                   0
                   0
                   0
                   0
                   0
                   0
                   0
                   0
                   0
                   0
                   0
                   0
                   0
                   0
                   0
                   0
                   0
                   0
                   0
                   0
                   0
                   0
                   0
                   0
                   0
                   0
                   0
                   0
                   0
                   0
                   0
                   0
                   0
                   0
                   0
                   0
                   0
                   0
                   0
                   0
                   0
                   0
                   0
                   0
                   0
                   0
                   0
                   0
                   0
                   0
                   0
                   0
                   0
                   0
                   0
                   0
                   0
                   0
                   0
                   0
                   0
                   0
                   0
                   0
                   0
                   0
                   0
                   0
                   0
                   0
                   0
                   0
                   0
                   0
                   0
                   0
                   0
                   0
                   0
                   0
                   0
                   0
                   0
                   0
                   0
                   0
                   0
                   0
                   0
                   0
                   0
                   0
                   0
                   0
                   0
                   0
                   0
                   0
                   0
                   0
                   0
                   0
                   0
                   0
                   0
                   0
                   0
                   0
                   0
                   0
                   0
                   0
                   0
                   0
                   0
                   0
                   0
                   0
                   0
                   0
                   0
                   0
                   0
                   0
                   0
                   0
                   0
                   0
                   0
                   0
                   0
                   0
                   0
                   0
                   0
                   0
                   0
                   0
                   0
                   0
                   0
                   0
                   0
                   0
                   0
                   0
                   0
                   0
                   0
                   0
                   0
                   0
                   0
                   0
                   0
                   0
                   0
                   0
                   0
                   0
                   0
                   0
                   0
                   0
                   0
                   0
                   0
                   0
                   0
                   0
                   0
                   0
                   0
                   0
                   0
                   0
                   0
                   0
                   0
                   0
                   0
                   0
                   0
                   0
                   0
                   0
                   0
                   0
                   0
                   0
                   0
                   0
                   0
                   0
                   0
                   0
                   0
                   0
                   0
                   0
                   0
                   0
                   0
                   0
                   0
                   0
                   0
                   0
                   0
                   0
                   0
                   0
                   0
                   0
                   0
                   0
                   0
                   0
                   0
                   0
                   0
                   0
                   0
                   0
                   0
                   0
                   0
                   0
                   0
                   0
                   0
                   0
                   0
                   0
                   0
                   0
                   0
                   0
                   0
                   0
                   0
                   0
                   0
                   0
                   0
                   0
                   0
                   0
                   0
                   0
                   0
                   0
                   0
                   0
                   0
                   0
                   0
                   0
                   0
                   0
                   0
                   0
                   0
                   0
                   0
                   0
                   0
                   0
                   0
                   0
                   0
                   0
                   0
                   0
                   0
                   0
                   0
                   0
                   0
                   0
                   0
                   0
                   0
                   0
                   0
                   0
                   0
                   0
                   0
                   0
                   0
                   0
                   0
                   0
                   0
                   0
                   0
                   0
                   0
                   0
                   0
                   0
                   0
                   0
                   0
                   0
                   0
                   0
                   0
                   0
                   0
                   0
                   0
                   0
                   0
                   0
                   0
                   0
                   0
                   0
                   0
                   0
                   0
                   0
                   0
                   0
                   0
                   0
                   0
                   0
                   0
                   0
                   0
                   0
                   0
                   0
                   0
                   0
                   0
                   0
                   0
                   0
                   0
                   0
                   0
                   0
                   0
                   0
                   0
                   0
                   0
                   0
                   0
                   0
                   0
                   0
                   0
                   0
                   0
                   0
                   0
                   0
                   0
                   0
                   0
                   0
                   0
                   0
                   0
                   0
                   0
                   0
                   0
                   0
                   0
                   0
                   0
                   0
                   0
                   0
                   0
                   0
                   0
                   0
                   0
                   0
                   0
                   0
                   0
                   0
                   0
                   0
                   0
                   0
                   0
                   0
                   0
                   0
                   0
                   0
                   0
                   0
                   0
                   0
                   0
                   0
                   0
                   0
                   0
                   0
                   0
                   0
                   0
                   0
                   0
                   0
                   0
                   0
                   0
                   0
                   0
                   0
                   0
                   0
                   0
                   0
                   0
                   0
                   0
                   0
                   0
                   0
                   0
                   0
                   0
                   0
                   0
                   0
                   0
                   0
                   0
                   0
                   0
                   0
                   0
                   0
                   0
                   0
                   0
                   0
                   0
                   0
                   0
                   0
                   0
                   0
                   0
                   0
                   0
                   0
                   0
                   0
                   0
                   0
                   0
                   0
                   0
                   0
                   0
                   0
                   0
                   0
                   0
                   0
                   0
                   0
                   0
                   0
                   0
                   0
                   0
                   0
                   0
                   0
                   0
                   0
                   0
                   0
                   0
                   0
                   0
                   0
                   0
                   0
                   0
                   0
                   0
                   0
                   0
                   0
                   0
                   0
                   0
                   0
                   0
                   0
                   0
                   0
                   0
                   0
                   0
                   0
                   0
                   0
                   0
                   0
                   0
                   0
                   0
                   0
                   0
                   0
                   0
                   0
                   0
                   0
                   0
                   0
                   0
                   0
                   0
                   0
                   0
                   0
                   0
                   0
                   0
                   0
                   0
                   0
                   0
                   0
                   0
                   0
                   0
                   0
                   0
                   0
                   0
                   0
                   0
                   0
                   0
                   0
                   0
                   0
                   0
                   0
                   0
                   0
                   0
                   0
                   0
                   0
                   0
                   0
                   0
                   0
                   0
                   0
                   0
                   0
                   0
                   0
                   0
                   0
                   0
                   0
                   0
                   0
                   0
                   0
                   0
                   0
                   0
                   0
                   0
                   0
                   0
                   0
                   0
                   0
                   0
                   0
                   0
                   0
                   0
                   0
                   0
                   0
                   0
                   0
                   0
                   0
                   0
                   0
                   0
                   0
                   0
                   0
                   0
                   0
                   0
                   0
                   0
                   0
                   0
                   0
                   0
                   0
                   0
                   0
                   0
                   0
                   0
                   0
                   0
                   0
                   0
                   0
                   0
                   0
                   0
                   0
                   0
                   0
                   0
                   0
                   0
                   0
                   0
                   0
                   0
                   0
                   0
                   0
                   0
                   0
                   0
                   0
                   0
                   0
                   0
                   0
                   0
                   0
                   0
                   0
                   0
                   0
                   0
                   0
                   0
                   0
                   0
                   0
                   0
                   0
                   0
                   0
                   0
                   0
                   0
                   0
                   0
                   0
                   0
                   0
                   0
                   0
                   0
                   0
                   0
                   0
                   0
                   0
                   0
                   0
                   0
                   0
                   0
                   0
                   0
                   0
                   0
                   0
                   0
                   0
                   0
                   0
                   0
                   0
                   0
                   0
                   0
                   0
                   0
                   0
                   0
                   0
                   0
                   0
                   0
                   0
                   0
                   0
                   0
                   0
                   0
                   0
                   0
                   0
                   0
                   0
                   0
                   0
                   0
                   0
                   0
                   0
                   0
                   0
                   0
                   0
                   0
                   0
                   0
                   0
                   0
                   0
                   0
                   0
                   0
                   0
                   0
                   0
                   0
                   0
                   0
                   0
                   0
                   0
                   0
                   0
                   0
                   0
                   0
                   0
                   0
                   0
                   0
                   0
                   0
                   0
                   0
                   0
                   0
                   0
                   0
                   0
                   0
                   0
                   0
                   0
                   0
                   0
                   0
                   0
                   0
                   0
                   0
                   0
                   0
                   0
                   0
                   0
                   0
                   0
                   0
                   0
                   0
                   0
                   0
                   0
                   0
                   0
                   0
                   0
                   0
                   0
                   0
                   0
                   0
                   0
                   0
                   0
                   0
                   0
                   0
                   0
                   0
                   0
                   0
                   0
                   0
                   0
                   0
                   0
                   0
                   0
                   0
                   0
                   0
                   0
                   0
                   0
                   0
                   0
                   0
                   0
                   0
                   0
                   0
                   0
                   0
                   0
                   0
                   0
                   0
                   0
                   0
                   0
                   0
                   0
                   0
                   0
                   0
                   0
                   0
                   0
                   0
                   0
                   0
                   0
                   0
                   0
                   0
                   0
                   0
                   0
                   0
                   0
                   0
                   0
                   0
                   0
                   0
                   0
                   0
                   0
  
SCALARS                       fixity_y  double 1
LOOKUP_TABLE default
                   0
                   0
                   0
                   0
                   0
                   0
                   0
                   0
                   0
                   0
                   0
                   0
                   0
                   0
                   0
                   0
                   0
                   0
                   0
                   0
                   0
                   0
                   0
                   0
                   0
                   0
                   0
                   0
                   0
                   0
                   0
                   0
                   0
                   0
                   0
                   0
                   0
                   0
                   0
                   0
                   0
                   0
                   0
                   0
                   0
                   0
                   0
                   0
                   0
                   0
                   0
                   0
                   0
                   0
                   0
                   0
                   0
                   0
                   0
                   0
                   0
                   0
                   0
                   0
                   0
                   0
                   0
                   0
                   0
                   0
                   0
                   0
                   0
                   0
                   0
                   0
                   0
                   0
                   0
                   0
                   0
                   0
                   0
                   0
                   0
                   0
                   0
                   0
                   0
                   0
                   0
                   0
                   0
                   0
                   0
                   0
                   0
                   0
                   0
                   0
                   0
                   0
                   0
                   0
                   0
                   0
                   0
                   0
                   0
                   0
                   0
                   0
                   0
                   0
                   0
                   0
                   0
                   0
                   0
                   0
                   0
                   0
                   0
                   0
                   0
                   0
                   0
                   0
                   0
                   0
                   0
                   0
                   0
                   0
                   0
                   0
                   0
                   0
                   0
                   0
                   0
                   0
                   0
                   0
                   0
                   0
                   0
                   0
                   0
                   0
                   0
                   0
                   0
                   0
                   0
                   0
                   0
                   0
                   0
                   0
                   0
                   0
                   0
                   0
                   0
                   0
                   0
                   0
                   0
                   0
                   0
                   0
                   0
                   0
                   0
                   0
                   0
                   0
                   0
                   0
                   0
                   0
                   0
                   0
                   0
                   0
                   0
                   0
                   0
                   0
                   0
                   0
                   0
                   0
                   0
                   0
                   0
                   0
                   0
                   0
                   0
                   0
                   0
                   0
                   0
                   0
                   0
                   0
                   0
                   0
                   0
                   0
                   0
                   0
                   0
                   0
                   0
                   0
                   0
                   0
                   0
                   0
                   0
                   0
                   0
                   0
                   0
                   0
                   0
                   0
                   0
                   0
                   0
                   0
                   0
                   0
                   0
                   0
                   0
                   0
                   0
                   0
                   0
                   0
                   0
                   0
                   0
                   0
                   0
                   0
                   0
                   0
                   0
                   0
                   0
                   0
                   0
                   0
                   0
                   0
                   0
                   0
                   0
                   0
                   0
                   0
                   0
                   0
                   0
                   0
                   0
                   0
                   0
                   0
                   0
                   0
                   0
                   0
                   0
                   0
                   0
                   0
                   0
                   0
                   0
                   0
                   0
                   0
                   0
                   0
                   0
                   0
                   0
                   0
                   0
                   0
                   0
                   0
                   0
                   0
                   0
                   0
                   0
                   0
                   0
                   0
                   0
                   0
                   0
                   0
                   0
                   0
                   0
                   0
                   0
                   0
                   0
                   0
                   0
                   0
                   0
                   0
                   0
                   0
                   0
                   0
                   0
                   0
                   0
                   0
                   0
                   0
                   0
                   0
                   0
                   0
                   0
                   0
                   0
                   0
                   0
                   0
                   0
                   0
                   0
                   0
                   0
                   0
                   0
                   0
                   0
                   0
                   0
                   0
                   0
                   0
                   0
                   0
                   0
                   0
                   0
                   0
                   0
                   0
                   0
                   0
                   0
                   0
                   0
                   0
                   0
                   0
                   0
                   0
                   0
                   0
                   0
                   0
                   0
                   0
                   0
                   0
                   0
                   0
                   0
                   0
                   0
                   0
                   0
                   0
                   0
                   0
                   0
                   0
                   0
                   0
                   0
                   0
                   0
                   0
                   0
                   0
                   0
                   0
                   0
                   0
                   0
                   0
                   0
                   0
                   0
                   0
                   0
                   0
                   0
                   0
                   0
                   0
                   0
                   0
                   0
                   0
                   0
                   0
                   0
                   0
                   0
                   0
                   0
                   0
                   0
                   0
                   0
                   0
                   0
                   0
                   0
                   0
                   0
                   0
                   0
                   0
                   0
                   0
                   0
                   0
                   0
                   0
                   0
                   0
                   0
                   0
                   0
                   0
                   0
                   0
                   0
                   0
                   0
                   0
                   0
                   0
                   0
                   0
                   0
                   0
                   0
                   0
                   0
                   0
                   0
                   0
                   0
                   0
                   0
                   0
                   0
                   0
                   0
                   0
                   0
                   0
                   0
                   0
                   0
                   0
                   0
                   0
                   0
                   0
                   0
                   0
                   0
                   0
                   0
                   0
                   0
                   0
                   0
                   0
                   0
                   0
                   0
                   0
                   0
                   0
                   0
                   0
                   0
                   0
                   0
                   0
                   0
                   0
                   0
                   0
                   0
                   0
                   0
                   0
                   0
                   0
                   0
                   0
                   0
                   0
                   0
                   0
                   0
                   0
                   0
                   0
                   0
                   0
                   0
                   0
                   0
                   0
                   0
                   0
                   0
                   0
                   0
                   0
                   0
                   0
                   0
                   0
                   0
                   0
                   0
                   0
                   0
                   0
                   0
                   0
                   0
                   0
                   0
                   0
                   0
                   0
                   0
                   0
                   0
                   0
                   0
                   0
                   0
                   0
                   0
                   0
                   0
                   0
                   0
                   0
                   0
                   0
                   0
                   0
                   0
                   0
                   0
                   0
                   0
                   0
                   0
                   0
                   0
                   0
                   0
                   0
                   0
                   0
                   0
                   0
                   0
                   0
                   0
                   0
                   0
                   0
                   0
                   0
                   0
                   0
                   0
                   0
                   0
                   0
                   0
                   0
                   0
                   0
                   0
                   0
                   0
                   0
                   0
                   0
                   0
                   0
                   0
                   0
                   0
                   0
                   0
                   0
                   0
                   0
                   0
                   0
                   0
                   0
                   0
                   0
                   0
                   0
                   0
                   0
                   0
                   0
                   0
                   0
                   0
                   0
                   0
                   0
                   0
                   0
                   0
                   0
                   0
                   0
                   0
                   0
                   0
                   0
                   0
                   0
                   0
                   0
                   0
                   0
                   0
                   0
                   0
                   0
                   0
                   0
                   0
                   0
                   0
                   0
                   0
                   0
                   0
                   0
                   0
                   0
                   0
                   0
                   0
                   0
                   0
                   0
                   0
                   0
                   0
                   0
                   0
                   0
                   0
                   0
                   0
                   0
                   0
                   0
                   0
                   0
                   0
                   0
                   0
                   0
                   0
                   0
                   0
                   0
                   0
                   0
                   0
                   0
                   0
                   0
                   0
                   0
                   0
                   0
                   0
                   0
                   0
                   0
                   0
                   0
                   0
                   0
                   0
                   0
                   0
                   0
                   0
                   0
                   0
                   0
                   0
                   0
                   0
                   0
                   0
                   0
                   0
                   0
                   0
                   0
                   0
                   0
                   0
                   0
                   0
                   0
                   0
                   0
                   0
                   0
                   0
                   0
                   0
                   0
                   0
                   0
                   0
                   0
                   0
                   0
                   0
                   0
                   0
                   0
                   0
                   0
                   0
                   0
                   0
                   0
                   0
                   0
                   0
                   0
                   0
                   0
                   0
                   0
                   0
                   0
                   0
                   0
                   0
                   0
                   0
                   0
                   0
                   0
                   0
                   0
                   0
                   0
                   0
                   0
                   0
                   0
                   0
                   0
                   0
                   0
                   0
                   0
                   0
                   0
                   0
                   0
                   0
                   0
                   0
                   0
                   0
                   0
                   0
                   0
                   0
                   0
                   0
                   0
                   0
                   0
                   0
                   0
                   0
                   0
                   0
                   0
                   0
                   0
                   0
                   0
                   0
                   0
                   0
                   0
                   0
                   0
                   0
                   0
                   0
                   0
                   0
                   0
                   0
                   0
                   0
                   0
                   0
                   0
                   0
                   0
                   0
                   0
                   0
                   0
                   0
                   0
                   0
                   0
                   0
                   0
                   0
                   0
                   0
                   0
                   0
                   0
                   0
                   0
                   0
                   0
                   0
                   0
                   0
                   0
                   0
                   0
                   0
                   0
                   0
                   0
                   0
                   0
                   0
                   0
                   0
                   0
                   0
                   0
                   0
                   0
                   0
                   0
                   0
                   0
                   0
                   0
                   0
                   0
                   0
                   0
                   0
                   0
                   0
                   0
                   0
                   0
                   0
                   0
                   0
                   0
                   0
                   0
                   0
                   0
                   0
                   0
                   0
                   0
                   0
                   0
                   0
                   0
                   0
                   0
                   0
                   0
                   0
                   0
                   0
                   0
                   0
                   0
                   0
                   0
                   0
                   0
                   0
                   0
                   0
                   0
                   0
                   0
                   0
                   0
                   0
                   0
                   0
                   0
                   0
                   0
                   0
                   0
                   0
                   0
                   0
                   0
                   0
                   0
                   0
                   0
                   0
                   0
                   0
                   0
                   0
                   0
                   0
                   0
                   0
                   0
                   0
                   0
                   0
                   0
                   0
                   0
                   0
                   0
                   0
                   0
                   0
                   0
                   0
                   0
                   0
                   0
                   0
                   0
                   0
                   0
                   0
                   0
                   0
                   0
                   0
                   0
                   0
                   0
                   0
                   0
                   0
                   0
                   0
                   0
                   0
                   0
                   0
                   0
                   0
                   0
                   0
                   0
                   0
                   0
                   0
                   0
                   0
                   0
                   0
                   0
                   0
                   0
                   0
                   0
                   0
                   0
                   0
                   0
                   0
                   0
                   0
                   0
                   0
                   0
                   0
                   0
                   0
                   0
                   0
                   0
                   0
                   0
                   0
                   0
                   0
                   0
                   0
                   0
                   0
                   0
                   0
                   0
                   0
                   0
                   0
                   0
                   0
                   0
                   0
                   0
                   0
                   0
                   0
                   0
                   0
                   0
                   0
                   0
                   0
                   0
                   0
                   0
                   0
                   0
                   0
                   0
                   0
                   0
                   0
                   0
                   0
                   0
                   0
                   0
                   0
                   0
                   0
                   0
                   0
                   0
                   0
                   0
                   0
                   0
                   0
                   0
                   0
                   0
                   0
                   0
                   0
                   0
                   0
                   0
                   0
                   0
                   0
                   0
                   0
                   0
                   0
                   0
                   0
                   0
                   0
                   0
                   0
                   0
                   0
                   0
                   0
                   0
                   0
                   0
                   0
                   0
                   0
                   0
                   0
                   0
                   0
                   0
                   0
                   0
                   0
                   0
                   0
                   0
                   0
                   0
                   0
                   0
                   0
                   0
                   0
                   0
                   0
                   0
                   0
                   0
                   0
                   0
                   0
                   0
                   0
                   0
                   0
                   0
                   0
                   0
                   0
                   0
                   0
                   0
                   0
                   0
                   0
                   0
                   0
                   0
                   0
                   0
                   0
                   0
                   0
                   0
                   0
                   0
                   0
                   0
                   0
                   0
                   0
                   0
                   0
                   0
                   0
                   0
                   0
                   0
                   0
                   0
                   0
                   0
                   0
                   0
                   0
                   0
                   0
                   0
                   0
                   0
                   0
                   0
                   0
                   0
                   0
                   0
                   0
                   0
                   0
                   0
                   0
                   0
                   0
                   0
                   0
                   0
                   0
                   0
                   0
                   0
                   0
                   0
                   0
                   0
                   0
                   0
                   0
                   0
                   0
                   0
                   0
                   0
                   0
                   0
                   0
                   0
                   0
                   0
                   0
                   0
                   0
                   0
                   0
                   0
                   0
                   0
                   0
                   0
                   0
                   0
                   0
                   0
                   0
                   0
                   0
                   0
                   0
                   0
                   0
                   0
                   0
                   0
                   0
                   0
                   0
                   0
                   0
                   0
                   0
                   0
                   0
                   0
                   0
                   0
                   0
                   0
                   0
                   0
                   0
                   0
                   0
                   0
                   0
                   0
                   0
                   0
                   0
                   0
                   0
                   0
                   0
                   0
                   0
                   0
                   0
                   0
                   0
                   0
                   0
                   0
                   0
                   0
                   0
                   0
                   0
                   0
                   0
                   0
                   0
                   0
                   0
                   0
                   0
                   0
                   0
                   0
                   0
                   0
                   0
                   0
                   0
                   0
                   0
                   0
                   0
                   0
                   0
                   0
                   0
                   0
                   0
                   0
                   0
                   0
                   0
                   0
                   0
                   0
                   0
                   0
                   0
                   0
                   0
                   0
                   0
                   0
                   0
                   0
                   0
                   0
                   0
                   0
                   0
                   0
                   0
                   0
                   0
                   0
                   0
                   0
                   0
                   0
                   0
                   0
                   0
                   0
                   0
                   0
                   0
                   0
                   0
                   0
                   0
                   0
                   0
                   0
                   0
                   0
                   0
                   0
                   0
                   0
                   0
                   0
                   0
                   0
                   0
                   0
                   0
                   0
                   0
                   0
                   0
                   0
                   0
                   0
                   0
                   0
                   0
                   0
                   0
                   0
                   0
                   0
                   0
                   0
                   0
                   0
                   0
                   0
                   0
                   0
                   0
                   0
                   0
                   0
                   0
                   0
                   0
                   0
                   0
                   0
                   0
                   0
                   0
                   0
                   0
                   0
                   0
                   0
                   0
                   0
                   0
                   0
                   0
                   0
                   0
                   0
                   0
                   0
                   0
                   0
                   0
                   0
                   0
                   0
                   0
                   0
                   0
                   0
                   0
                   0
                   0
                   0
                   0
                   0
                   0
                   0
                   0
                   0
                   0
                   0
                   0
                   0
                   0
                   0
                   0
                   0
                   0
                   0
                   0
                   0
                   0
                   0
                   0
                   0
                   0
                   0
                   0
                   0
                   0
                   0
                   0
                   0
                   0
                   0
                   0
                   0
                   0
                   0
                   0
                   0
                   0
                   0
                   0
                   0
                   0
                   0
                   0
                   0
                   0
                   0
                   0
                   0
                   0
                   0
                   0
                   0
                   0
                   0
                   0
                   0
                   0
                   0
                   0
                   0
                   0
                   0
                   0
                   0
                   0
                   0
                   0
                   0
                   0
                   0
                   0
                   0
                   0
                   0
                   0
                   0
                   0
                   0
                   0
                   0
                   0
                   0
                   0
                   0
                   0
                   0
                   0
                   0
                   0
                   0
                   0
                   0
                   0
                   0
                   0
                   0
                   0
                   0
                   0
                   0
                   0
                   0
                   0
                   0
                   0
                   0
                   0
                   0
                   0
                   0
                   0
                   0
                   0
                   0
                   0
                   0
                   0
                   0
                   0
                   0
                   0
                   0
                   0
                   0
                   0
                   0
                   0
                   0
                   0
                   0
                   0
                   0
                   0
                   0
                   0
                   0
                   0
                   0
                   0
                   0
                   0
                   0
                   0
                   0
                   0
                   0
                   0
                   0
                   0
                   0
                   0
                   0
                   0
                   0
                   0
                   0
                   0
                   0
                   0
                   0
                   0
                   0
                   0
                   0
                   0
                   0
                   0
                   0
                   0
                   0
                   0
                   0
                   0
                   0
                   0
                   0
                   0
                   0
                   0
                   0
                   0
                   0
                   0
                   0
                   0
                   0
                   0
                   0
                   0
                   0
                   0
                   0
                   0
                   0
                   0
                   0
                   0
                   0
                   0
                   0
                   0
                   0
                   0
                   0
                   0
                   0
                   0
                   0
                   0
                   0
                   0
                   0
                   0
                   0
                   0
                   0
                   0
                   0
                   0
                   0
                   0
                   0
                   0
                   0
                   0
                   0
                   0
                   0
                   0
                   0
                   0
                   0
                   0
                   0
                   0
                   0
                   0
                   0
                   0
                   0
                   0
                   0
                   0
                   0
                   0
                   0
                   0
                   0
                   0
                   0
                   0
                   0
                   0
                   0
                   0
                   0
                   0
                   0
                   0
                   0
                   0
                   0
                   0
                   0
                   0
                   0
                   0
                   0
                   0
                   0
                   0
                   0
                   0
                   0
                   0
                   0
                   0
                   0
                   0
                   0
                   0
                   0
                   0
                   0
                   0
                   0
                   0
                   0
                   0
                   0
                   0
                   0
                   0
                   0
                   0
                   0
                   0
                   0
                   0
                   0
                   0
                   0
                   0
                   0
                   0
                   0
                   0
                   0
                   0
                   0
                   0
                   0
                   0
                   0
                   0
                   0
                   0
                   0
                   0
                   0
                   0
                   0
                   0
                   0
                   0
                   0
                   0
                   0
                   0
                   0
                   0
                   0
                   0
                   0
                   0
                   0
                   0
                   0
                   0
                   0
                   0
                   0
                   0
                   0
                   0
                   0
                   0
                   0
                   0
                   0
                   0
                   0
                   0
                   0
                   0
                   0
                   0
                   0
                   0
                   0
                   0
                   0
                   0
                   0
                   0
                   0
                   0
                   0
                   0
                   0
                   0
                   0
                   0
                   0
                   0
                   0
                   0
                   0
                   0
                   0
                   0
                   0
                   0
                   0
                   0
                   0
                   0
                   0
                   0
                   0
                   0
                   0
                   0
                   0
                   0
                   0
                   0
                   0
                   0
                   0
                   0
                   0
                   0
                   0
                   0
                   0
                   0
                   0
                   0
                   0
                   0
                   0
                   0
                   0
                   0
                   0
                   0
                   0
                   0
                   0
                   0
                   0
                   0
                   0
                   0
                   0
                   0
                   0
                   0
                   0
                   0
                   0
                   0
                   0
                   0
                   0
                   0
                   0
                   0
                   0
                   0
                   0
                   0
                   0
                   0
                   0
                   0
                   0
                   0
                   0
                   0
                   0
                   0
                   0
                   0
                   0
                   0
                   0
                   0
                   0
                   0
                   0
                   0
                   0
                   0
                   0
                   0
                   0
                   0
                   0
                   0
                   0
                   0
                   0
                   0
                   0
                   0
                   0
                   0
                   0
                   0
                   0
                   0
                   0
                   0
                   0
                   0
                   0
  
SCALARS                       fixity_z  double 1
LOOKUP_TABLE default
                   0
                   0
                   0
                   0
                   1
                   1
                   1
                   1
                   0
                   0
                   1
                   1
                   0
                   0
                   1
                   1
                   0
                   0
                   1
                   1
                   0
                   0
                   0
                   1
                   1
                   1
                   0
                   0
                   1
                   1
                   0
                   0
                   0
                   1
                   1
                   1
                   0
                   0
                   1
                   1
                   0
                   0
                   1
                   1
                   0
                   0
                   1
                   1
                   0
                   1
                   0
                   1
                   0
                   1
                   0
                   1
                   0
                   0
                   1
                   1
                   0
                   0
                   1
                   1
                   0
                   1
                   0
                   1
                   0
                   0
                   1
                   1
                   0
                   1
                   0
                   1
                   0
                   1
                   0
                   1
                   0
                   0
                   1
                   1
                   0
                   1
                   0
                   1
                   0
                   1
                   0
                   0
                   1
                   1
                   0
                   1
                   0
                   1
                   0
                   1
                   0
                   0
                   1
                   1
                   0
                   0
                   1
                   1
                   0
                   1
                   0
                   1
                   0
                   1
                   0
                   1
                   0
                   1
                   0
                   1
                   0
                   1
                   0
                   1
                   0
                   1
                   0
                   1
                   0
                   1
                   0
                   1
                   0
                   1
                   0
                   1
                   0
                   1
                   0
                   1
                   0
                   1
                   0
                   1
                   0
                   1
                   0
                   1
                   0
                   1
                   0
                   1
                   0
                   1
                   0
                   1
                   0
                   0
                   0
                   0
                   0
                   0
                   0
                   0
                   0
                   0
                   0
                   0
                   0
                   0
                   0
                   0
                   0
                   0
                   0
                   0
                   0
                   0
                   0
                   0
                   0
                   0
                   0
                   0
                   0
                   0
                   0
                   0
                   0
                   0
                   0
                   0
                   0
                   0
                   0
                   0
                   0
                   0
                   0
                   0
                   0
                   0
                   0
                   0
                   0
                   0
                   0
                   0
                   0
                   0
                   0
                   0
                   0
                   0
                   0
                   0
                   0
                   0
                   0
                   0
                   0
                   0
                   0
                   0
                   0
                   0
                   0
                   0
                   0
                   0
                   0
                   0
                   0
                   0
                   0
                   0
                   0
                   0
                   0
                   0
                   0
                   0
                   0
                   0
                   0
                   0
                   0
                   0
                   0
                   0
                   0
                   0
                   0
                   0
                   0
                   0
                   0
                   0
                   0
                   0
                   0
                   0
                   0
                   0
                   0
                   0
                   0
                   0
                   0
                   0
                   0
                   0
                   0
                   0
                   0
                   0
                   0
                   0
                   0
                   0
                   0
                   0
                   0
                   0
                   0
                   0
                   0
                   0
                   0
                   0
                   0
                   0
                   0
                   0
                   0
                   0
                   0
                   0
                   0
                   0
                   0
                   0
                   0
                   0
                   0
                   0
                   0
                   0
                   0
                   0
                   0
                   0
                   0
                   0
                   0
                   0
                   0
                   0
                   0
                   0
                   0
                   0
                   0
                   0
                   0
                   0
                   0
                   0
                   0
                   0
                   0
                   0
                   0
                   0
                   0
                   0
                   0
                   0
                   0
                   0
                   0
                   0
                   0
                   0
                   0
                   0
                   0
                   0
                   0
                   0
                   0
                   0
                   0
                   0
                   0
                   0
                   0
                   0
                   0
                   0
                   0
                   0
                   0
                   0
                   0
                   0
                   0
                   0
                   0
                   0
                   0
                   0
                   0
                   0
                   0
                   0
                   0
                   0
                   0
                   0
                   0
                   0
                   0
                   0
                   0
                   0
                   0
                   0
                   0
                   0
                   0
                   0
                   0
                   0
                   0
                   0
                   0
                   0
                   0
                   0
                   0
                   0
                   0
                   0
                   0
                   0
                   0
                   0
                   0
                   0
                   0
                   0
                   0
                   0
                   0
                   0
                   0
                   0
                   0
                   0
                   0
                   0
                   0
                   0
                   0
                   0
                   0
                   0
                   0
                   0
                   0
                   0
                   0
                   0
                   0
                   0
                   0
                   0
                   0
                   0
                   0
                   0
                   0
                   0
                   0
                   0
                   0
                   0
                   0
                   0
                   0
                   0
                   0
                   0
                   0
                   0
                   0
                   0
                   0
                   0
                   0
                   0
                   0
                   0
                   0
                   0
                   0
                   0
                   0
                   0
                   0
                   0
                   0
                   0
                   0
                   0
                   0
                   0
                   0
                   0
                   0
                   0
                   0
                   0
                   0
                   0
                   0
                   0
                   0
                   0
                   0
                   0
                   0
                   0
                   0
                   0
                   0
                   0
                   0
                   0
                   0
                   0
                   0
                   0
                   0
                   0
                   0
                   0
                   0
                   0
                   0
                   0
                   0
                   0
                   0
                   0
                   0
                   0
                   0
                   0
                   0
                   0
                   0
                   0
                   0
                   0
                   0
                   0
                   0
                   0
                   0
                   0
                   0
                   0
                   0
                   0
                   0
                   0
                   0
                   0
                   0
                   0
                   0
                   0
                   0
                   0
                   0
                   0
                   0
                   0
                   0
                   0
                   0
                   0
                   0
                   0
                   0
                   0
                   0
                   0
                   0
                   0
                   0
                   0
                   0
                   0
                   0
                   0
                   0
                   0
                   0
                   0
                   0
                   0
                   0
                   0
                   0
                   0
                   0
                   0
                   0
                   0
                   0
                   0
                   0
                   0
                   0
                   0
                   0
                   0
                   0
                   0
                   0
                   0
                   0
                   0
                   0
                   0
                   0
                   0
                   0
                   0
                   0
                   0
                   0
                   0
                   0
                   0
                   0
                   0
                   0
                   0
                   0
                   0
                   0
                   0
                   0
                   0
                   0
                   0
                   0
                   0
                   0
                   0
                   0
                   0
                   0
                   0
                   0
                   0
                   0
                   0
                   0
                   0
                   0
                   0
                   0
                   0
                   0
                   0
                   0
                   0
                   0
                   0
                   0
                   0
                   0
                   0
                   0
                   0
                   0
                   0
                   0
                   0
                   0
                   0
                   0
                   0
                   0
                   0
                   0
                   0
                   0
                   0
                   0
                   0
                   0
                   0
                   0
                   0
                   0
                   0
                   0
                   0
                   0
                   0
                   0
                   0
                   0
                   0
                   0
                   0
                   0
                   0
                   0
                   0
                   0
                   0
                   0
                   0
                   0
                   0
                   0
                   0
                   0
                   0
                   0
                   0
                   0
                   0
                   0
                   0
                   0
                   0
                   0
                   0
                   0
                   0
                   0
                   0
                   0
                   0
                   0
                   0
                   0
                   0
                   0
                   0
                   0
                   0
                   0
                   0
                   0
                   0
                   0
                   0
                   0
                   0
                   0
                   0
                   0
                   0
                   0
                   0
                   0
                   0
                   0
                   0
                   0
                   0
                   0
                   0
                   0
                   0
                   0
                   0
                   0
                   0
                   0
                   0
                   0
                   0
                   0
                   0
                   0
                   0
                   0
                   0
                   0
                   0
                   0
                   0
                   0
                   0
                   0
                   0
                   0
                   0
                   0
                   0
                   0
                   0
                   0
                   0
                   0
                   0
                   0
                   0
                   0
                   0
                   0
                   0
                   0
                   0
                   0
                   0
                   0
                   0
                   0
                   0
                   0
                   0
                   0
                   0
                   0
                   0
                   0
                   0
                   0
                   0
                   0
                   0
                   0
                   0
                   0
                   0
                   0
                   0
                   0
                   0
                   0
                   0
                   0
                   0
                   0
                   0
                   0
                   0
                   0
                   0
                   0
                   0
                   0
                   0
                   0
                   0
                   0
                   0
                   0
                   0
                   0
                   0
                   0
                   0
                   0
                   0
                   0
                   0
                   0
                   0
                   0
                   0
                   0
                   0
                   0
                   0
                   0
                   0
                   0
                   0
                   0
                   0
                   0
                   0
                   0
                   0
                   0
                   0
                   0
                   0
                   0
                   0
                   0
                   0
                   0
                   0
                   0
                   0
                   0
                   0
                   0
                   0
                   0
                   0
                   0
                   0
                   0
                   0
                   0
                   0
                   0
                   0
                   0
                   0
                   0
                   0
                   0
                   0
                   0
                   0
                   0
                   0
                   0
                   0
                   0
                   0
                   0
                   0
                   0
                   0
                   0
                   0
                   0
                   0
                   0
                   0
                   0
                   0
                   0
                   0
                   0
                   0
                   0
                   0
                   0
                   0
                   0
                   0
                   0
                   0
                   0
                   0
                   0
                   0
                   0
                   0
                   0
                   0
                   0
                   0
                   0
                   0
                   0
                   0
                   0
                   0
                   0
                   0
                   0
                   0
                   0
                   0
                   0
                   0
                   0
                   0
                   0
                   0
                   0
                   0
                   0
                   0
                   0
                   0
                   0
                   0
                   0
                   0
                   0
                   0
                   0
                   0
                   0
                   0
                   0
                   0
                   0
                   0
                   0
                   0
                   0
                   0
                   0
                   0
                   0
                   0
                   0
                   0
                   0
                   0
                   0
                   0
                   0
                   0
                   0
                   0
                   0
                   0
                   0
                   0
                   0
                   0
                   0
                   0
                   0
                   0
                   0
                   0
                   0
                   0
                   0
                   0
                   0
                   0
                   0
                   0
                   0
                   0
                   0
                   0
                   0
                   0
                   0
                   0
                   0
                   0
                   0
                   0
                   0
                   0
                   0
                   0
                   0
                   0
                   0
                   0
                   0
                   0
                   0
                   0
                   0
                   0
                   0
                   0
                   0
                   0
                   0
                   0
                   0
                   0
                   0
                   0
                   0
                   0
                   0
                   0
                   0
                   0
                   0
                   0
                   0
                   0
                   0
                   0
                   0
                   0
                   0
                   0
                   0
                   0
                   0
                   0
                   0
                   0
                   0
                   0
                   0
                   0
                   0
                   0
                   0
                   0
                   0
                   0
                   0
                   0
                   0
                   0
                   0
                   0
                   0
                   0
                   0
                   0
                   0
                   0
                   0
                   0
                   0
                   0
                   0
                   0
                   0
                   0
                   0
                   0
                   0
                   0
                   0
                   0
                   0
                   0
                   0
                   0
                   0
                   0
                   0
                   0
                   0
                   0
                   0
                   0
                   0
                   0
                   0
                   0
                   0
                   0
                   0
                   0
                   0
                   0
                   0
                   0
                   0
                   0
                   0
                   0
                   0
                   0
                   0
                   0
                   0
                   0
                   0
                   0
                   0
                   0
                   0
                   0
                   0
                   0
                   0
                   0
                   0
                   0
                   0
                   0
                   0
                   0
                   0
                   0
                   0
                   0
                   0
                   0
                   0
                   0
                   0
                   0
                   0
                   0
                   0
                   0
                   0
                   0
                   0
                   0
                   0
                   0
                   0
                   0
                   0
                   0
                   0
                   0
                   0
                   0
                   0
                   0
                   0
                   0
                   0
                   0
                   0
                   0
                   0
                   0
                   0
                   0
                   0
                   0
                   0
                   0
                   0
                   0
                   0
                   0
                   0
                   0
                   0
                   0
                   0
                   0
                   0
                   0
                   0
                   0
                   0
                   0
                   0
                   0
                   0
                   0
                   0
                   0
                   0
                   0
                   0
                   0
                   0
                   0
                   0
                   0
                   0
                   0
                   0
                   0
                   0
                   0
                   0
                   0
                   0
                   0
                   0
                   0
                   0
                   0
                   0
                   0
                   0
                   0
                   0
                   0
                   0
                   0
                   0
                   0
                   0
                   0
                   0
                   0
                   0
                   0
                   0
                   0
                   0
                   0
                   0
                   0
                   0
                   0
                   0
                   0
                   0
                   0
                   0
                   0
                   0
                   0
                   0
                   0
                   0
                   0
                   0
                   0
                   0
                   0
                   0
                   0
                   0
                   0
                   0
                   0
                   0
                   0
                   0
                   0
                   0
                   0
                   0
                   0
                   0
                   0
                   0
                   0
                   0
                   0
                   0
                   0
                   0
                   0
                   0
                   0
                   0
                   0
                   0
                   0
                   0
                   0
                   0
                   0
                   0
                   0
                   0
                   0
                   0
                   0
                   0
                   0
                   0
                   0
                   0
                   0
                   0
                   0
                   0
                   0
                   0
                   0
                   0
                   0
                   0
                   0
                   0
                   0
                   0
                   0
                   0
                   0
                   0
                   0
                   0
                   0
                   0
                   0
                   0
                   0
                   0
                   0
                   0
                   0
                   0
                   0
                   0
                   0
                   0
                   0
                   0
                   0
                   0
                   0
                   0
                   0
                   0
                   0
                   0
                   0
                   0
                   0
                   0
                   0
                   0
                   0
                   0
                   0
                   0
                   0
                   0
                   0
                   0
                   0
                   0
                   0
                   0
                   0
                   0
                   0
                   0
                   0
                   0
                   0
                   0
                   0
                   0
                   0
                   0
                   0
                   0
                   0
                   0
                   0
                   0
                   0
                   0
                   0
                   0
                   0
                   0
                   0
                   0
                   0
                   0
                   0
                   0
                   0
                   0
                   0
                   0
                   0
                   0
                   0
                   0
                   0
                   0
                   0
                   0
                   0
                   0
                   0
                   0
                   0
                   0
                   0
                   0
                   0
                   0
                   0
                   0
                   0
                   0
                   0
                   0
                   0
                   0
                   0
                   0
                   0
                   0
                   0
                   0
                   0
                   0
                   0
                   0
                   0
                   0
                   0
                   0
                   0
                   0
                   0
                   0
                   0
                   0
                   0
                   0
                   0
                   0
                   0
                   0
                   0
                   0
                   0
                   0
                   0
                   0
                   0
                   0
                   0
                   0
                   0
                   0
                   0
                   0
                   0
                   0
                   0
                   0
                   0
                   0
                   0
                   0
                   0
                   0
                   0
                   0
                   0
                   0
                   0
                   0
                   0
                   0
                   0
                   0
                   0
                   0
                   0
                   0
                   0
                   0
                   0
                   0
                   0
                   0
                   0
                   0
                   0
                   0
                   0
                   0
                   0
                   0
                   0
                   0
                   0
                   0
                   0
                   0
                   0
                   0
                   0
                   0
                   0
                   0
                   0
                   0
                   0
                   0
                   0
                   0
                   0
                   0
                   0
                   0
                   0
                   0
                   0
                   0
                   0
                   0
                   0
                   0
                   0
                   0
                   0
                   0
                   0
                   0
                   0
                   0
                   0
                   0
                   0
                   0
                   0
                   0
                   0
                   0
                   0
                   0
                   0
                   0
                   0
                   0
                   0
                   0
                   0
                   0
                   0
                   0
                   0
                   0
                   0
                   0
                   0
                   0
                   0
                   0
                   0
                   0
                   0
                   0
                   0
                   0
                   0
                   0
                   0
                   0
                   0
                   0
                   0
                   0
                   0
                   0
                   0
                   0
                   0
                   0
                   0
                   0
                   0
                   0
                   0
                   0
                   0
                   0
                   0
                   0
                   0
                   0
                   0
                   0
                   0
                   0
                   0
                   0
                   0
                   0
                   0
                   0
                   0
                   0
                   0
                   0
                   0
                   0
                   0
                   0
                   0
                   0
                   0
                   0
                   0
                   0
                   0
                   0
                   0
                   0
                   0
                   0
                   0
                   0
                   0
                   0
                   0
                   0
                   0
                   0
                   0
                   0
                   0
                   0
                   0
                   0
                   0
                   0
                   0
                   0
                   0
                   0
                   0
                   0
                   0
                   0
                   0
                   0
                   0
                   0
                   0
                   0
                   0
                   0
                   0
                   0
                   0
                   0
                   0
                   0
                   0
                   0
                   0
                   0
                   0
                   0
                   0
                   0
                   0
                   0
                   0
                   0
                   0
                   0
                   0
                   0
                   0
                   0
                   0
                   0
                   0
                   0
                   0
                   0
                   0
                   0
                   0
                   0
                   0
                   0
                   0
                   0
                   0
                   0
                   0
                   0
                   0
                   0
                   0
                   0
                   0
                   0
                   0
                   0
                   0
                   0
                   0
                   0
                   0
                   0
                   0
                   0
                   0
                   0
                   0
                   0
                   0
                   0
                   0
                   0
                   0
                   0
                   0
                   0
                   0
                   0
                   0
                   0
                   0
                   0
                   0
                   0
                   0
                   0
                   0
                   0
                   0
                   0
                   0
                   0
                   0
                   0
                   0
                   0
                   0
                   0
                   0
                   0
                   0
                   0
                   0
                   0
                   0
                   0
                   0
                   0
                   0
                   0
                   0
                   0
                   0
                   0
                   0
                   0
                   0
                   0
                   0
                   0
                   0
                   0
                   0
                   0
                   0
                   0
                   0
                   0
                   0
                   0
                   0
                   0
                   0
                   0
                   0
                   0
                   0
                   0
                   0
                   0
                   0
                   0
                   0
                   0
                   0
                   0
                   0
                   0
                   0
                   0
                   0
                   0
                   0
                   0
                   0
                   0
                   0
                   0
                   0
                   0
                   0
                   0
                   0
                   0
                   0
                   0
                   0
                   0
                   0
                   0
                   0
                   0
                   0
                   0
                   0
                   0
                   0
                   0
                   0
                   0
                   0
                   0
                   0
                   0
                   0
                   0
                   0
                   0
                   0
                   0
                   0
                   0
                   0
                   0
                   0
                   0
                   0
                   0
                   0
                   0
                   0
                   0
                   0
                   0
                   0
                   0
                   0
                   0
                   0
                   0
                   0
                   0
                   0
                   0
                   0
                   0
                   0
                   0
                   0
                   0
                   0
                   0
                   0
                   0
                   0
                   0
                   0
                   0
                   0
                   0
                   0
                   0
                   0
                   0
                   0
                   0
                   0
                   0
                   0
                   0
                   0
                   0
                   0
                   0
                   0
                   0
                   0
                   0
                   0
                   0
                   0
                   0
                   0
                   0
                   0
                   0
                   0
                   0
                   0
                   0
                   0
                   0
                   0
                   0
                   0
                   0
                   0
                   0
                   0
                   0
                   0
                   0
                   0
  
SCALARS                         Ispace  double 1
LOOKUP_TABLE default
                  12
                  12
                  12
                  12
                  12
                  12
                  12
                  12
                  12
                  12
                  12
                  12
                  12
                  11
                  12
                  11
                  11
                  11
                  11
                  11
                  11
                  12
                  12
                  11
                  12
                  12
                  11
                  11
                  11
                  11
                  11
                  11
                  11
                  11
                  11
                  11
                  11
                  11
                  11
                  11
                  11
                  11
                  11
                  11
                  11
                  11
                  11
                  11
                  11
                  11
                  11
                  11
                  11
                  11
                  11
                  11
                  11
                  11
                  11
                  11
                  11
                  11
                  11
                  11
                  11
                  11
                  12
                  12
                  12
                  12
                  12
                  12
                  12
                  12
                  11
                  11
                  11
                  11
                  11
                  11
                  11
                  11
                  11
                  11
                  11
                  11
                  11
                  11
                  11
                  11
                  11
                  11
                  11
                  11
                  11
                  11
                  12
                  12
                  12
                  12
                  12
                  12
                  12
                  12
                  12
                  12
                  12
                  12
                  12
                  12
                  12
                  12
                  12
                  12
                  12
                  12
                  11
                  11
                  11
                  11
                  11
                  11
                  11
                  11
                  11
                  11
                  11
                  11
                  11
                  11
                  11
                  11
                  11
                  11
                  11
                  11
                  11
                  11
                  11
                  11
                  11
                  11
                  11
                  11
                  11
                  11
                  12
                  12
                  12
                  12
                  12
                  12
                  12
                  12
                  12
                  12
                  12
                  12
                  12
                  12
                  12
                  12
                  12
                  11
                  11
                  11
                  11
                  12
                  12
                  11
                  11
                  11
                  11
                  11
                  11
                  11
                  11
                  11
                  11
                  11
                  11
                  11
                  11
                  11
                  11
                  11
                  11
                  11
                  11
                  12
                  12
                  12
                  12
                  11
                  11
                  11
                  11
                  11
                  11
                  11
                  11
                  11
                  11
                  11
                  12
                  12
                  12
                  12
                  12
                  12
                  12
                  12
                  12
                  12
                  11
                  11
                  11
                  11
                  11
                  11
                  11
                  11
                  11
                  11
                  11
                  11
                  11
                  11
                  11
                  12
                  12
                  12
                  12
                  12
                  12
                  12
                  12
                  12
                  12
                  12
                  12
                  11
                  11
                  11
                  11
                  12
                  12
                  11
                  11
                  11
                  11
                  11
                  11
                  11
                  11
                  11
                  11
                  11
                  11
                  11
                  11
                  11
                  11
                  11
                  11
                  11
                  11
                  12
                  12
                  12
                  12
                  11
                  11
                  11
                  11
                  11
                  11
                  11
                  11
                  11
                  11
                  11
                  12
                  12
                  12
                  12
                  12
                  12
                  12
                  12
                  12
                  12
                  11
                  11
                  11
                  11
                  11
                  11
                  11
                  11
                  11
                  11
                  11
                  11
                  11
                  11
                  11
                  12
                  12
                  12
                  12
                  12
                  12
                  12
                  12
                  12
                  12
                  12
                  12
                  11
                  11
                  11
                  11
                  12
                  12
                  11
                  11
                  11
                  11
                  11
                  11
                  11
                  11
                  11
                  11
                  11
                  11
                  11
                  11
                  11
                  11
                  11
                  11
                  11
                  11
                  12
                  12
                  12
                  12
                  11
                  11
                  11
                  11
                  11
                  11
                  11
                  11
                  11
                  11
                  11
                  12
                  12
                  12
                  12
                  12
                  12
                  12
                  12
                  12
                  12
                  11
                  11
                  11
                  11
                  11
                  11
                  11
                  11
                  11
                  11
                  11
                  11
                  11
                  11
                  11
                  12
                  12
                  12
                  12
                  12
                  12
                  12
                  12
                  12
                  12
                  12
                  12
                  11
                  11
                  11
                  11
                  12
                  12
                  11
                  11
                  11
                  11
                  11
                  11
                  11
                  11
                  11
                  11
                  11
                  11
                  11
                  11
                  11
                  11
                  11
                  11
                  11
                  11
                  12
                  12
                  12
                  12
                  11
                  11
                  11
                  11
                  11
                  11
                  11
                  11
                  11
                  11
                  11
                  12
                  12
                  12
                  12
                  12
                  12
                  12
                  12
                  12
                  12
                  11
                  11
                  11
                  11
                  11
                  11
                  11
                  11
                  11
                  11
                  11
                  11
                  11
                  11
                  11
                  12
                  12
                  12
                  12
                  12
                  12
                  12
                  12
                  12
                  12
                  12
                  12
                  11
                  11
                  11
                  11
                  12
                  12
                  11
                  11
                  11
                  11
                  11
                  11
                  11
                  11
                  11
                  11
                  11
                  11
                  11
                  11
                  11
                  11
                  11
                  11
                  11
                  11
                  12
                  12
                  12
                  12
                  11
                  11
                  11
                  11
                  11
                  11
                  11
                  11
                  11
                  11
                  11
                  12
                  12
                  12
                  12
                  12
                  12
                  12
                  12
                  12
                  12
                  11
                  11
                  11
                  11
                  11
                  11
                  11
                  11
                  11
                  11
                  11
                  11
                  11
                  11
                  11
                  12
                  12
                  12
                  12
                  12
                  12
                  12
                  12
                  12
                  12
                  12
                  12
                  11
                  11
                  11
                  11
                  12
                  12
                  11
                  11
                  11
                  11
                  11
                  11
                  11
                  11
                  11
                  11
                  11
                  11
                  11
                  11
                  11
                  11
                  11
                  11
                  11
                  11
                  12
                  12
                  12
                  12
                  11
                  11
                  11
                  11
                  11
                  11
                  11
                  11
                  11
                  11
                  11
                  12
                  12
                  12
                  12
                  12
                  12
                  12
                  12
                  12
                  12
                  11
                  11
                  11
                  11
                  11
                  11
                  11
                  11
                  11
                  11
                  11
                  11
                  11
                  11
                  11
                  12
                  12
                  12
                  12
                  12
                  12
                  12
                  12
                  12
                  12
                  12
                  12
                  11
                  11
                  11
                  11
                  12
                  12
                  11
                  11
                  11
                  11
                  11
                  11
                  11
                  11
                  11
                  11
                  11
                  11
                  11
                  11
                  11
                  11
                  11
                  11
                  11
                  11
                  12
                  12
                  12
                  12
                  11
                  11
                  11
                  11
                  11
                  11
                  11
                  11
                  11
                  11
                  11
                  12
                  12
                  12
                  12
                  12
                  12
                  12
                  12
                  12
                  12
                  11
                  11
                  11
                  11
                  11
                  11
                  11
                  11
                  11
                  11
                  11
                  11
                  11
                  11
                  11
                  12
                  12
                  12
                  12
                  12
                  12
                  12
                  12
                  12
                  12
                  12
                  12
                  11
                  11
                  11
                  11
                  12
                  12
                  11
                  11
                  11
                  11
                  11
                  11
                  11
                  11
                  11
                  11
                  11
                  11
                  11
                  11
                  11
                  11
                  11
                  11
                  11
                  11
                  12
                  12
                  12
                  12
                  11
                  11
                  11
                  11
                  11
                  11
                  11
                  11
                  11
                  11
                  11
                  12
                  12
                  12
                  12
                  12
                  12
                  12
                  12
                  12
                  12
                  11
                  11
                  11
                  11
                  11
                  11
                  11
                  11
                  11
                  11
                  11
                  11
                  11
                  11
                  11
                  12
                  12
                  12
                  12
                  12
                  12
                  12
                  12
                  12
                  12
                  12
                  12
                  11
                  11
                  11
                  11
                  12
                  12
                  11
                  11
                  11
                  11
                  11
                  11
                  11
                  11
                  11
                  11
                  11
                  11
                  11
                  11
                  11
                  11
                  11
                  11
                  11
                  11
                  12
                  12
                  12
                  12
                  11
                  11
                  11
                  11
                  11
                  11
                  11
                  11
                  11
                  11
                  11
                  12
                  12
                  12
                  12
                  12
                  12
                  12
                  12
                  12
                  12
                  11
                  11
                  11
                  11
                  11
                  11
                  11
                  11
                  11
                  11
                  11
                  11
                  11
                  11
                  11
                  12
                  12
                  12
                  12
                  12
                  12
                  12
                  12
                  12
                  12
                  12
                  12
                  11
                  11
                  11
                  11
                  12
                  12
                  11
                  11
                  11
                  11
                  11
                  11
                  11
                  11
                  11
                  11
                  11
                  11
                  11
                  11
                  11
                  11
                  11
                  11
                  11
                  11
                  12
                  12
                  12
                  12
                  11
                  11
                  11
                  11
                  11
                  11
                  11
                  11
                  11
                  11
                  11
                  12
                  12
                  12
                  12
                  12
                  12
                  12
                  12
                  12
                  12
                  11
                  11
                  11
                  11
                  11
                  11
                  11
                  11
                  11
                  11
                  11
                  11
                  11
                  11
                  11
                  12
                  12
                  12
                  12
                  12
                  12
                  12
                  12
                  12
                  12
                  12
                  12
                  11
                  11
                  11
                  11
                  12
                  12
                  11
                  11
                  11
                  11
                  11
                  11
                  11
                  11
                  11
                  11
                  11
                  11
                  11
                  11
                  11
                  11
                  11
                  11
                  11
                  11
                  12
                  12
                  12
                  12
                  11
                  11
                  11
                  11
                  11
                  11
                  11
                  11
                  11
                  11
                  11
                  12
                  12
                  12
                  12
                  12
                  12
                  12
                  12
                  12
                  12
                  11
                  11
                  11
                  11
                  11
                  11
                  11
                  11
                  11
                  11
                  11
                  11
                  11
                  11
                  11
                  12
                  12
                  12
                  12
                  12
                  12
                  12
                  12
                  12
                  12
                  12
                  12
                  11
                  11
                  11
                  11
                  12
                  12
                  11
                  11
                  11
                  11
                  11
                  11
                  11
                  11
                  11
                  11
                  11
                  11
                  11
                  11
                  11
                  11
                  11
                  11
                  11
                  11
                  12
                  12
                  12
                  12
                  11
                  11
                  11
                  11
                  11
                  11
                  11
                  11
                  11
                  11
                  11
                  12
                  12
                  12
                  12
                  12
                  12
                  12
                  12
                  12
                  12
                  11
                  11
                  11
                  11
                  11
                  11
                  11
                  11
                  11
                  11
                  11
                  11
                  11
                  11
                  11
                  12
                  12
                  12
                  12
                  12
                  12
                  12
                  12
                  12
                  12
                  12
                  12
                  11
                  11
                  11
                  11
                  12
                  12
                  11
                  11
                  11
                  11
                  11
                  11
                  11
                  11
                  11
                  11
                  11
                  11
                  11
                  11
                  11
                  11
                  11
                  11
                  11
                  11
                  12
                  12
                  12
                  12
                  11
                  11
                  11
                  11
                  11
                  11
                  11
                  11
                  11
                  11
                  11
                  12
                  12
                  12
                  12
                  12
                  12
                  12
                  12
                  12
                  12
                  11
                  11
                  11
                  11
                  11
                  11
                  11
                  11
                  11
                  11
                  11
                  11
                  11
                  11
                  11
                  12
                  12
                  12
                  12
                  12
                  12
                  12
                  12
                  12
                  12
                  12
                  12
                  11
                  11
                  11
                  11
                  12
                  12
                  11
                  11
                  11
                  11
                  11
                  11
                  11
                  11
                  11
                  11
                  11
                  11
                  11
                  11
                  11
                  11
                  11
                  11
                  11
                  11
                  12
                  12
                  12
                  12
                  11
                  11
                  11
                  11
                  11
                  11
                  11
                  11
                  11
                  11
                  11
                  12
                  12
                  12
                  12
                  12
                  12
                  12
                  12
                  12
                  12
                  11
                  11
                  11
                  11
                  11
                  11
                  11
                  11
                  11
                  11
                  11
                  11
                  11
                  11
                  11
                  12
                  12
                  12
                  12
                  12
                  12
                  12
                  12
                  12
                  12
                  12
                  12
                  11
                  11
                  11
                  11
                  12
                  12
                  11
                  11
                  11
                  11
                  11
                  11
                  11
                  11
                  11
                  11
                  11
                  11
                  11
                  11
                  11
                  11
                  11
                  11
                  11
                  11
                  12
                  12
                  12
                  12
                  11
                  11
                  11
                  11
                  11
                  11
                  11
                  11
                  11
                  11
                  11
                  12
                  12
                  12
                  12
                  12
                  12
                  12
                  12
                  12
                  12
                  11
                  11
                  11
                  11
                  11
                  11
                  11
                  11
                  11
                  11
                  11
                  11
                  11
                  11
                  11
                  12
                  12
                  12
                  12
                  12
                  12
                  12
                  12
                  12
                  12
                  12
                  12
                  11
                  11
                  11
                  11
                  12
                  12
                  11
                  11
                  11
                  11
                  11
                  11
                  11
                  11
                  11
                  11
                  11
                  11
                  11
                  11
                  11
                  11
                  11
                  11
                  11
                  11
                  12
                  12
                  12
                  12
                  11
                  11
                  11
                  11
                  11
                  11
                  11
                  11
                  11
                  11
                  11
                  12
                  12
                  12
                  12
                  12
                  12
                  12
                  12
                  12
                  12
                  11
                  11
                  11
                  11
                  11
                  11
                  11
                  11
                  11
                  11
                  11
                  11
                  11
                  11
                  11
                  12
                  12
                  12
                  12
                  12
                  12
                  12
                  12
                  12
                  12
                  12
                  12
                  11
                  11
                  11
                  11
                  12
                  12
                  11
                  11
                  11
                  11
                  11
                  11
                  11
                  11
                  11
                  11
                  11
                  11
                  11
                  11
                  11
                  11
                  11
                  11
                  11
                  11
                  12
                  12
                  12
                  12
                  11
                  11
                  11
                  11
                  11
                  11
                  11
                  11
                  11
                  11
                  11
                  12
                  12
                  12
                  12
                  12
                  12
                  12
                  12
                  12
                  12
                  11
                  11
                  11
                  11
                  11
                  11
                  11
                  11
                  11
                  11
                  11
                  11
                  11
                  11
                  11
                  12
                  12
                  12
                  12
                  12
                  12
                  12
                  12
                  12
                  12
                  12
                  12
                  11
                  11
                  11
                  11
                  12
                  12
                  11
                  11
                  11
                  11
                  11
                  11
                  11
                  11
                  11
                  11
                  11
                  11
                  11
                  11
                  11
                  11
                  11
                  11
                  11
                  11
                  12
                  12
                  12
                  12
                  11
                  11
                  11
                  11
                  11
                  11
                  11
                  11
                  11
                  11
                  11
                  12
                  12
                  12
                  12
                  12
                  12
                  12
                  12
                  12
                  12
                  11
                  11
                  11
                  11
                  11
                  11
                  11
                  11
                  11
                  11
                  11
                  11
                  11
                  11
                  11
                  12
                  12
                  12
                  12
                  12
                  12
                  12
                  12
                  12
                  12
                  12
                  12
                  11
                  11
                  11
                  11
                  12
                  12
                  11
                  11
                  11
                  11
                  11
                  11
                  11
                  11
                  11
                  11
                  11
                  11
                  11
                  11
                  11
                  11
                  11
                  11
                  11
                  11
                  12
                  12
                  12
                  12
                  11
                  11
                  11
                  11
                  11
                  11
                  11
                  11
                  11
                  11
                  11
                  12
                  12
                  12
                  12
                  12
                  12
                  12
                  12
                  12
                  12
                  11
                  11
                  11
                  11
                  11
                  11
                  11
                  11
                  11
                  11
                  11
                  11
                  11
                  11
                  11
                  12
                  12
                  12
                  12
                  12
                  12
                  12
                  12
                  12
                  12
                  12
                  12
                  11
                  11
                  11
                  11
                  12
                  12
                  11
                  11
                  11
                  11
                  11
                  11
                  11
                  11
                  11
                  11
                  11
                  11
                  11
                  11
                  11
                  11
                  11
                  11
                  11
                  11
                  12
                  12
                  12
                  12
                  11
                  11
                  11
                  11
                  11
                  11
                  11
                  11
                  11
                  11
                  11
                  12
                  12
                  12
                  12
                  12
                  12
                  12
                  12
                  12
                  12
                  11
                  11
                  11
                  11
                  11
                  11
                  11
                  11
                  11
                  11
                  11
                  11
                  11
                  11
                  11
                  12
                  12
                  12
                  12
                  12
                  12
                  12
                  12
                  12
                  12
                  12
                  12
                  11
                  11
                  11
                  11
                  12
                  12
                  11
                  11
                  11
                  11
                  11
                  11
                  11
                  11
                  11
                  11
                  11
                  11
                  11
                  11
                  11
                  11
                  11
                  11
                  11
                  11
                  12
                  12
                  12
                  12
                  11
                  11
                  11
                  11
                  11
                  11
                  11
                  11
                  11
                  11
                  11
                  12
                  12
                  12
                  12
                  12
                  12
                  12
                  12
                  12
                  12
                  11
                  11
                  11
                  11
                  11
                  11
                  11
                  11
                  11
                  11
                  11
                  11
                  11
                  11
                  11
                  12
                  12
                  12
                  12
                  12
                  12
                  12
                  12
                  12
                  12
                  12
                  12
                  11
                  11
                  11
                  11
                  12
                  12
                  11
                  11
                  11
                  11
                  11
                  11
                  11
                  11
                  11
                  11
                  11
                  11
                  11
                  11
                  11
                  11
                  11
                  11
                  11
                  11
                  12
                  12
                  12
                  12
                  11
                  11
                  11
                  11
                  11
                  11
                  11
                  11
                  11
                  11
                  11
                  12
                  12
                  12
                  12
                  12
                  12
                  12
                  12
                  12
                  12
                  11
                  11
                  11
                  11
                  11
                  11
                  11
                  11
                  11
                  11
                  11
                  11
                  11
                  11
                  11
                  12
                  12
                  12
                  12
                  12
                  12
                  12
                  12
                  12
                  12
                  12
                  12
                  11
                  11
                  11
                  11
                  12
                  12
                  11
                  11
                  11
                  11
                  11
                  11
                  11
                  11
                  11
                  11
                  11
                  11
                  11
                  11
                  11
                  11
                  11
                  11
                  11
                  11
                  12
                  12
                  12
                  12
                  11
                  11
                  11
                  11
                  11
                  11
                  11
                  11
                  11
                  11
                  11
                  12
                  12
                  12
                  12
                  12
                  12
                  12
                  12
                  12
                  12
                  11
                  11
                  11
                  11
                  11
                  11
                  11
                  11
                  11
                  11
                  11
                  11
                  11
                  11
                  11
                  12
                  12
                  12
                  12
                  12
  
SCALARS                         Jspace  double 1
LOOKUP_TABLE default
                  11
                  12
                  11
                  11
                  11
                  12
                  11
                  11
                  11
                  11
                  11
                  11
                  12
                  12
                  12
                  12
                  11
                  12
                  11
                  12
                  12
                  12
                  12
                  12
                  12
                  12
                  12
                  12
                  12
                  12
                  11
                  11
                  11
                  11
                  11
                  11
                  11
                  11
                  11
                  11
                  11
                  11
                  11
                  11
                  11
                  11
                  11
                  11
                  11
                  11
                  11
                  11
                  12
                  12
                  12
                  12
                  12
                  11
                  12
                  11
                  11
                  11
                  11
                  11
                  11
                  11
                  11
                  11
                  11
                  12
                  11
                  12
                  12
                  12
                  12
                  12
                  12
                  12
                  12
                  12
                  12
                  12
                  12
                  12
                  11
                  11
                  11
                  11
                  11
                  11
                  11
                  11
                  11
                  11
                  11
                  11
                  11
                  11
                  11
                  11
                  11
                  11
                  11
                  11
                  11
                  11
                  11
                  11
                  12
                  12
                  12
                  12
                  12
                  12
                  12
                  12
                  12
                  12
                  12
                  12
                  12
                  12
                  12
                  12
                  12
                  12
                  12
                  12
                  11
                  11
                  11
                  11
                  11
                  11
                  11
                  11
                  11
                  11
                  11
                  11
                  11
                  11
                  11
                  11
                  11
                  11
                  11
                  11
                  11
                  11
                  11
                  11
                  11
                  11
                  11
                  11
                  11
                  12
                  11
                  11
                  11
                  11
                  12
                  12
                  11
                  12
                  12
                  12
                  12
                  12
                  12
                  11
                  11
                  11
                  11
                  11
                  11
                  11
                  11
                  11
                  11
                  11
                  12
                  12
                  12
                  11
                  11
                  11
                  11
                  11
                  11
                  12
                  12
                  12
                  12
                  12
                  12
                  12
                  11
                  11
                  11
                  11
                  11
                  11
                  11
                  11
                  11
                  11
                  11
                  11
                  12
                  12
                  12
                  12
                  12
                  12
                  12
                  12
                  12
                  12
                  11
                  11
                  11
                  11
                  11
                  11
                  11
                  11
                  11
                  11
                  11
                  11
                  11
                  11
                  11
                  12
                  11
                  11
                  11
                  11
                  12
                  12
                  11
                  12
                  12
                  12
                  12
                  12
                  12
                  11
                  11
                  11
                  11
                  11
                  11
                  11
                  11
                  11
                  11
                  11
                  12
                  12
                  12
                  11
                  11
                  11
                  11
                  11
                  11
                  12
                  12
                  12
                  12
                  12
                  12
                  12
                  11
                  11
                  11
                  11
                  11
                  11
                  11
                  11
                  11
                  11
                  11
                  11
                  12
                  12
                  12
                  12
                  12
                  12
                  12
                  12
                  12
                  12
                  11
                  11
                  11
                  11
                  11
                  11
                  11
                  11
                  11
                  11
                  11
                  11
                  11
                  11
                  11
                  12
                  11
                  11
                  11
                  11
                  12
                  12
                  11
                  12
                  12
                  12
                  12
                  12
                  12
                  11
                  11
                  11
                  11
                  11
                  11
                  11
                  11
                  11
                  11
                  11
                  12
                  12
                  12
                  11
                  11
                  11
                  11
                  11
                  11
                  12
                  12
                  12
                  12
                  12
                  12
                  12
                  11
                  11
                  11
                  11
                  11
                  11
                  11
                  11
                  11
                  11
                  11
                  11
                  12
                  12
                  12
                  12
                  12
                  12
                  12
                  12
                  12
                  12
                  11
                  11
                  11
                  11
                  11
                  11
                  11
                  11
                  11
                  11
                  11
                  11
                  11
                  11
                  11
                  12
                  11
                  11
                  11
                  11
                  12
                  12
                  11
                  12
                  12
                  12
                  12
                  12
                  12
                  11
                  11
                  11
                  11
                  11
                  11
                  11
                  11
                  11
                  11
                  11
                  12
                  12
                  12
                  11
                  11
                  11
                  11
                  11
                  11
                  12
                  12
                  12
                  12
                  12
                  12
                  12
                  11
                  11
                  11
                  11
                  11
                  11
                  11
                  11
                  11
                  11
                  11
                  11
                  12
                  12
                  12
                  12
                  12
                  12
                  12
                  12
                  12
                  12
                  11
                  11
                  11
                  11
                  11
                  11
                  11
                  11
                  11
                  11
                  11
                  11
                  11
                  11
                  11
                  12
                  11
                  11
                  11
                  11
                  12
                  12
                  11
                  12
                  12
                  12
                  12
                  12
                  12
                  11
                  11
                  11
                  11
                  11
                  11
                  11
                  11
                  11
                  11
                  11
                  12
                  12
                  12
                  11
                  11
                  11
                  11
                  11
                  11
                  12
                  12
                  12
                  12
                  12
                  12
                  12
                  11
                  11
                  11
                  11
                  11
                  11
                  11
                  11
                  11
                  11
                  11
                  11
                  12
                  12
                  12
                  12
                  12
                  12
                  12
                  12
                  12
                  12
                  11
                  11
                  11
                  11
                  11
                  11
                  11
                  11
                  11
                  11
                  11
                  11
                  11
                  11
                  11
                  12
                  11
                  11
                  11
                  11
                  12
                  12
                  11
                  12
                  12
                  12
                  12
                  12
                  12
                  11
                  11
                  11
                  11
                  11
                  11
                  11
                  11
                  11
                  11
                  11
                  12
                  12
                  12
                  11
                  11
                  11
                  11
                  11
                  11
                  12
                  12
                  12
                  12
                  12
                  12
                  12
                  11
                  11
                  11
                  11
                  11
                  11
                  11
                  11
                  11
                  11
                  11
                  11
                  12
                  12
                  12
                  12
                  12
                  12
                  12
                  12
                  12
                  12
                  11
                  11
                  11
                  11
                  11
                  11
                  11
                  11
                  11
                  11
                  11
                  11
                  11
                  11
                  11
                  12
                  11
                  11
                  11
                  11
                  12
                  12
                  11
                  12
                  12
                  12
                  12
                  12
                  12
                  11
                  11
                  11
                  11
                  11
                  11
                  11
                  11
                  11
                  11
                  11
                  12
                  12
                  12
                  11
                  11
                  11
                  11
                  11
                  11
                  12
                  12
                  12
                  12
                  12
                  12
                  12
                  11
                  11
                  11
                  11
                  11
                  11
                  11
                  11
                  11
                  11
                  11
                  11
                  12
                  12
                  12
                  12
                  12
                  12
                  12
                  12
                  12
                  12
                  11
                  11
                  11
                  11
                  11
                  11
                  11
                  11
                  11
                  11
                  11
                  11
                  11
                  11
                  11
                  12
                  11
                  11
                  11
                  11
                  12
                  12
                  11
                  12
                  12
                  12
                  12
                  12
                  12
                  11
                  11
                  11
                  11
                  11
                  11
                  11
                  11
                  11
                  11
                  11
                  12
                  12
                  12
                  11
                  11
                  11
                  11
                  11
                  11
                  12
                  12
                  12
                  12
                  12
                  12
                  12
                  11
                  11
                  11
                  11
                  11
                  11
                  11
                  11
                  11
                  11
                  11
                  11
                  12
                  12
                  12
                  12
                  12
                  12
                  12
                  12
                  12
                  12
                  11
                  11
                  11
                  11
                  11
                  11
                  11
                  11
                  11
                  11
                  11
                  11
                  11
                  11
                  11
                  12
                  11
                  11
                  11
                  11
                  12
                  12
                  11
                  12
                  12
                  12
                  12
                  12
                  12
                  11
                  11
                  11
                  11
                  11
                  11
                  11
                  11
                  11
                  11
                  11
                  12
                  12
                  12
                  11
                  11
                  11
                  11
                  11
                  11
                  12
                  12
                  12
                  12
                  12
                  12
                  12
                  11
                  11
                  11
                  11
                  11
                  11
                  11
                  11
                  11
                  11
                  11
                  11
                  12
                  12
                  12
                  12
                  12
                  12
                  12
                  12
                  12
                  12
                  11
                  11
                  11
                  11
                  11
                  11
                  11
                  11
                  11
                  11
                  11
                  11
                  11
                  11
                  11
                  12
                  11
                  11
                  11
                  11
                  12
                  12
                  11
                  12
                  12
                  12
                  12
                  12
                  12
                  11
                  11
                  11
                  11
                  11
                  11
                  11
                  11
                  11
                  11
                  11
                  12
                  12
                  12
                  11
                  11
                  11
                  11
                  11
                  11
                  12
                  12
                  12
                  12
                  12
                  12
                  12
                  11
                  11
                  11
                  11
                  11
                  11
                  11
                  11
                  11
                  11
                  11
                  11
                  12
                  12
                  12
                  12
                  12
                  12
                  12
                  12
                  12
                  12
                  11
                  11
                  11
                  11
                  11
                  11
                  11
                  11
                  11
                  11
                  11
                  11
                  11
                  11
                  11
                  12
                  11
                  11
                  11
                  11
                  12
                  12
                  11
                  12
                  12
                  12
                  12
                  12
                  12
                  11
                  11
                  11
                  11
                  11
                  11
                  11
                  11
                  11
                  11
                  11
                  12
                  12
                  12
                  11
                  11
                  11
                  11
                  11
                  11
                  12
                  12
                  12
                  12
                  12
                  12
                  12
                  11
                  11
                  11
                  11
                  11
                  11
                  11
                  11
                  11
                  11
                  11
                  11
                  12
                  12
                  12
                  12
                  12
                  12
                  12
                  12
                  12
                  12
                  11
                  11
                  11
                  11
                  11
                  11
                  11
                  11
                  11
                  11
                  11
                  11
                  11
                  11
                  11
                  12
                  11
                  11
                  11
                  11
                  12
                  12
                  11
                  12
                  12
                  12
                  12
                  12
                  12
                  11
                  11
                  11
                  11
                  11
                  11
                  11
                  11
                  11
                  11
                  11
                  12
                  12
                  12
                  11
                  11
                  11
                  11
                  11
                  11
                  12
                  12
                  12
                  12
                  12
                  12
                  12
                  11
                  11
                  11
                  11
                  11
                  11
                  11
                  11
                  11
                  11
                  11
                  11
                  12
                  12
                  12
                  12
                  12
                  12
                  12
                  12
                  12
                  12
                  11
                  11
                  11
                  11
                  11
                  11
                  11
                  11
                  11
                  11
                  11
                  11
                  11
                  11
                  11
                  12
                  11
                  11
                  11
                  11
                  12
                  12
                  11
                  12
                  12
                  12
                  12
                  12
                  12
                  11
                  11
                  11
                  11
                  11
                  11
                  11
                  11
                  11
                  11
                  11
                  12
                  12
                  12
                  11
                  11
                  11
                  11
                  11
                  11
                  12
                  12
                  12
                  12
                  12
                  12
                  12
                  11
                  11
                  11
                  11
                  11
                  11
                  11
                  11
                  11
                  11
                  11
                  11
                  12
                  12
                  12
                  12
                  12
                  12
                  12
                  12
                  12
                  12
                  11
                  11
                  11
                  11
                  11
                  11
                  11
                  11
                  11
                  11
                  11
                  11
                  11
                  11
                  11
                  12
                  11
                  11
                  11
                  11
                  12
                  12
                  11
                  12
                  12
                  12
                  12
                  12
                  12
                  11
                  11
                  11
                  11
                  11
                  11
                  11
                  11
                  11
                  11
                  11
                  12
                  12
                  12
                  11
                  11
                  11
                  11
                  11
                  11
                  12
                  12
                  12
                  12
                  12
                  12
                  12
                  11
                  11
                  11
                  11
                  11
                  11
                  11
                  11
                  11
                  11
                  11
                  11
                  12
                  12
                  12
                  12
                  12
                  12
                  12
                  12
                  12
                  12
                  11
                  11
                  11
                  11
                  11
                  11
                  11
                  11
                  11
                  11
                  11
                  11
                  11
                  11
                  11
                  12
                  11
                  11
                  11
                  11
                  12
                  12
                  11
                  12
                  12
                  12
                  12
                  12
                  12
                  11
                  11
                  11
                  11
                  11
                  11
                  11
                  11
                  11
                  11
                  11
                  12
                  12
                  12
                  11
                  11
                  11
                  11
                  11
                  11
                  12
                  12
                  12
                  12
                  12
                  12
                  12
                  11
                  11
                  11
                  11
                  11
                  11
                  11
                  11
                  11
                  11
                  11
                  11
                  12
                  12
                  12
                  12
                  12
                  12
                  12
                  12
                  12
                  12
                  11
                  11
                  11
                  11
                  11
                  11
                  11
                  11
                  11
                  11
                  11
                  11
                  11
                  11
                  11
                  12
                  11
                  11
                  11
                  11
                  12
                  12
                  11
                  12
                  12
                  12
                  12
                  12
                  12
                  11
                  11
                  11
                  11
                  11
                  11
                  11
                  11
                  11
                  11
                  11
                  12
                  12
                  12
                  11
                  11
                  11
                  11
                  11
                  11
                  12
                  12
                  12
                  12
                  12
                  12
                  12
                  11
                  11
                  11
                  11
                  11
                  11
                  11
                  11
                  11
                  11
                  11
                  11
                  12
                  12
                  12
                  12
                  12
                  12
                  12
                  12
                  12
                  12
                  11
                  11
                  11
                  11
                  11
                  11
                  11
                  11
                  11
                  11
                  11
                  11
                  11
                  11
                  11
                  12
                  11
                  11
                  11
                  11
                  12
                  12
                  11
                  12
                  12
                  12
                  12
                  12
                  12
                  11
                  11
                  11
                  11
                  11
                  11
                  11
                  11
                  11
                  11
                  11
                  12
                  12
                  12
                  11
                  11
                  11
                  11
                  11
                  11
                  12
                  12
                  12
                  12
                  12
                  12
                  12
                  11
                  11
                  11
                  11
                  11
                  11
                  11
                  11
                  11
                  11
                  11
                  11
                  12
                  12
                  12
                  12
                  12
                  12
                  12
                  12
                  12
                  12
                  11
                  11
                  11
                  11
                  11
                  11
                  11
                  11
                  11
                  11
                  11
                  11
                  11
                  11
                  11
                  12
                  11
                  11
                  11
                  11
                  12
                  12
                  11
                  12
                  12
                  12
                  12
                  12
                  12
                  11
                  11
                  11
                  11
                  11
                  11
                  11
                  11
                  11
                  11
                  11
                  12
                  12
                  12
                  11
                  11
                  11
                  11
                  11
                  11
                  12
                  12
                  12
                  12
                  12
                  12
                  12
                  11
                  11
                  11
                  11
                  11
                  11
                  11
                  11
                  11
                  11
                  11
                  11
                  12
                  12
                  12
                  12
                  12
                  12
                  12
                  12
                  12
                  12
                  11
                  11
                  11
                  11
                  11
                  11
                  11
                  11
                  11
                  11
                  11
                  11
                  11
                  11
                  11
                  12
                  11
                  11
                  11
                  11
                  12
                  12
                  11
                  12
                  12
                  12
                  12
                  12
                  12
                  11
                  11
                  11
                  11
                  11
                  11
                  11
                  11
                  11
                  11
                  11
                  12
                  12
                  12
                  11
                  11
                  11
                  11
                  11
                  11
                  12
                  12
                  12
                  12
                  12
                  12
                  12
                  11
                  11
                  11
                  11
                  11
                  11
                  11
                  11
                  11
                  11
                  11
                  11
                  12
                  12
                  12
                  12
                  12
                  12
                  12
                  12
                  12
                  12
                  11
                  11
                  11
                  11
                  11
                  11
                  11
                  11
                  11
                  11
                  11
                  11
                  11
                  11
                  11
                  12
                  11
                  11
                  11
                  11
                  12
                  12
                  11
                  12
                  12
                  12
                  12
                  12
                  12
                  11
                  11
                  11
                  11
                  11
                  11
                  11
                  11
                  11
                  11
                  11
                  12
                  12
                  12
                  11
                  11
                  11
                  11
                  11
                  11
                  12
                  12
                  12
                  12
                  12
                  12
                  12
                  11
                  11
                  11
                  11
                  11
                  11
                  11
                  11
                  11
                  11
                  11
                  11
                  12
                  12
                  12
                  12
                  12
                  12
                  12
                  12
                  12
                  12
                  11
                  11
                  11
                  11
                  11
                  11
                  11
                  11
                  11
                  11
                  11
                  11
                  11
                  11
                  11
                  12
                  11
                  11
                  11
                  11
                  12
                  12
                  11
                  12
                  12
                  12
                  12
                  12
                  12
                  11
                  11
                  11
                  11
                  11
                  11
                  11
                  11
                  11
                  11
                  11
                  12
                  12
                  12
                  11
                  11
                  11
                  11
                  11
                  11
                  12
                  12
                  12
                  12
                  12
                  12
                  12
                  11
                  11
                  11
                  11
                  11
                  11
                  11
                  11
                  11
                  11
                  11
                  11
                  12
                  12
                  12
                  12
                  12
                  12
                  12
                  12
                  12
                  12
                  11
                  11
                  11
                  11
                  11
                  11
                  11
                  11
                  11
                  11
                  11
                  11
                  11
                  11
                  11
                  12
                  11
                  11
                  11
                  11
                  12
                  12
                  11
                  12
                  12
                  12
                  12
                  12
                  12
                  11
                  11
                  11
                  11
                  11
                  11
                  11
                  11
                  11
                  11
                  11
                  12
                  12
                  12
                  11
                  11
                  11
                  11
                  11
                  11
                  12
                  12
                  12
                  12
                  12
                  12
                  12
                  11
                  11
                  11
                  11
                  11
                  11
                  11
                  11
                  11
                  11
                  11
                  11
                  12
                  12
                  12
                  12
                  12
                  12
                  12
                  12
                  12
                  12
                  11
                  11
                  11
                  11
                  11
                  11
                  11
                  11
                  11
                  11
                  11
                  11
                  11
                  11
                  11
                  12
                  11
                  11
                  11
                  11
                  12
                  12
                  11
                  12
                  12
                  12
                  12
                  12
                  12
                  11
                  11
                  11
                  11
                  11
                  11
                  11
                  11
                  11
                  11
                  11
                  12
                  12
                  12
                  11
                  11
                  11
                  11
                  11
                  11
                  12
                  12
                  12
                  12
                  12
                  12
                  12
                  11
                  11
                  11
                  11
                  11
                  11
                  11
                  11
                  11
                  11
                  11
                  11
                  12
                  12
                  12
                  12
                  12
                  12
                  12
                  12
                  12
                  12
                  11
                  11
                  11
                  11
                  11
                  11
                  11
                  11
                  11
                  11
                  11
                  11
                  11
                  11
  
SCALARS                         Kspace  double 1
LOOKUP_TABLE default
                  11
                  11
                  11
                  11
                  11
                  11
                  11
                  11
                  11
                  11
                  11
                  11
                  11
                  11
                  11
                  11
                  11
                  11
                  11
                  11
                  11
                  11
                  11
                  11
                  11
                  11
                  11
                  11
                  11
                  11
                  11
                  11
                  11
                  11
                  11
                  11
                  11
                  11
                  11
                  11
                  11
                  11
                  11
                  11
                  11
                  11
                  11
                  11
                  11
                  11
                  11
                  11
                  11
                  11
                  11
                  11
                  11
                  11
                  11
                  11
                  11
                  11
                  11
                  11
                  11
                  11
                  11
                  11
                  11
                  11
                  11
                  11
                  11
                  11
                  11
                  11
                  11
                  11
                  11
                  11
                  11
                  11
                  11
                  11
                  11
                  11
                  11
                  11
                  11
                  11
                  11
                  11
                  11
                  11
                  11
                  11
                  11
                  11
                  11
                  11
                  11
                  11
                  11
                  11
                  11
                  11
                  11
                  11
                  11
                  11
                  11
                  11
                  11
                  11
                  11
                  11
                  11
                  11
                  11
                  11
                  11
                  11
                  11
                  11
                  11
                  11
                  11
                  11
                  11
                  11
                  11
                  11
                  11
                  11
                  11
                  11
                  11
                  11
                  11
                  11
                  11
                  11
                  11
                  11
                  11
                  11
                  11
                  11
                  11
                  11
                  11
                  11
                  11
                  11
                  11
                  11
                  11
                  11
                  11
                  11
                  11
                  11
                  11
                  11
                  11
                  11
                  11
                  11
                  11
                  11
                  11
                  11
                  11
                  11
                  11
                  11
                  11
                  11
                  11
                  11
                  11
                  11
                  11
                  11
                  11
                  11
                  11
                  11
                  11
                  11
                  11
                  11
                  11
                  11
                  11
                  11
                  11
                  11
                  11
                  11
                  11
                  11
                  11
                  11
                  11
                  11
                  11
                  11
                  11
                  11
                  11
                  11
                  11
                  11
                  11
                  11
                  11
                  11
                  11
                  11
                  11
                  11
                  11
                  11
                  11
                  11
                  11
                  11
                  11
                  11
                  11
                  11
                  11
                  11
                  11
                  11
                  11
                  11
                  11
                  11
                  11
                  11
                  11
                  11
                  11
                  11
                  11
                  11
                  11
                  11
                  11
                  11
                  11
                  11
                  11
                  11
                  11
                  11
                  11
                  11
                  11
                  11
                  11
                  11
                  11
                  11
                  11
                  11
                  11
                  11
                  11
                  11
                  11
                  11
                  11
                  11
                  11
                  11
                  11
                  11
                  11
                  11
                  11
                  11
                  11
                  11
                  11
                  11
                  11
                  11
                  11
                  11
                  11
                  11
                  11
                  11
                  11
                  11
                  11
                  11
                  11
                  11
                  11
                  11
                  11
                  11
                  11
                  11
                  11
                  11
                  11
                  11
                  12
                  12
                  12
                  12
                  12
                  12
                  12
                  12
                  12
                  12
                  12
                  12
                  12
                  12
                  12
                  12
                  12
                  12
                  12
                  12
                  12
                  12
                  12
                  12
                  12
                  12
                  12
                  12
                  12
                  12
                  12
                  12
                  12
                  12
                  12
                  12
                  12
                  12
                  12
                  12
                  12
                  12
                  12
                  12
                  12
                  12
                  12
                  12
                  12
                  12
                  12
                  12
                  12
                  12
                  12
                  12
                  12
                  12
                  12
                  12
                  12
                  12
                  12
                  12
                  12
                  12
                  12
                  12
                  12
                  12
                  12
                  12
                  12
                  12
                  12
                  12
                  12
                  12
                  12
                  12
                  12
                  12
                  12
                  12
                  12
                  12
                  12
                  12
                  12
                  12
                  12
                  12
                  12
                  12
                  12
                  12
                  12
                  12
                  12
                  12
                  12
                  12
                  12
                  12
                  12
                  12
                  12
                  12
                  12
                  12
                  12
                  12
                  12
                  12
                  12
                  12
                  12
                  12
                  12
                  12
                  12
                  12
                  12
                  12
                  12
                  12
                  12
                  12
                  12
                  12
                  12
                  12
                  12
                  12
                  12
                  12
                  12
                  12
                  12
                  12
                  12
                  12
                  12
                  12
                  12
                  12
                  12
                  12
                  12
                  12
                  12
                  12
                  12
                  12
                  12
                  12
                  12
                  12
                  12
                  12
                  12
                  12
                  12
                  12
                  12
                  12
                  12
                  12
                  12
                  12
                  12
                  12
                  12
                  12
                  12
                  12
                  12
                  12
                  12
                  12
                  12
                  12
                  12
                  12
                  12
                  12
                  12
                  12
                  12
                  12
                  12
                  12
                  12
                  12
                  12
                  12
                  12
                  12
                  12
                  12
                  12
                  12
                  12
                  12
                  12
                  12
                  12
                  12
                  12
                  12
                  12
                  12
                  12
                  12
                  12
                  12
                  12
                  12
                  12
                  12
                  12
                  12
                  12
                  12
                  12
                  12
                  12
                  12
                  12
                  12
                  12
                  12
                  12
                  12
                  13
                  13
                  13
                  13
                  13
                  13
                  13
                  13
                  13
                  13
                  13
                  13
                  13
                  13
                  13
                  13
                  13
                  13
                  13
                  13
                  13
                  13
                  13
                  13
                  13
                  13
                  13
                  13
                  13
                  13
                  13
                  13
                  13
                  13
                  13
                  13
                  13
                  13
                  13
                  13
                  13
                  13
                  13
                  13
                  13
                  13
                  13
                  13
                  13
                  13
                  13
                  13
                  13
                  13
                  13
                  13
                  13
                  13
                  13
                  13
                  13
                  13
                  13
                  13
                  13
                  13
                  13
                  13
                  13
                  13
                  13
                  13
                  13
                  13
                  13
                  13
                  13
                  13
                  13
                  13
                  13
                  13
                  13
                  13
                  13
                  13
                  13
                  13
                  13
                  13
                  13
                  13
                  13
                  13
                  13
                  13
                  13
                  13
                  13
                  13
                  13
                  13
                  13
                  13
                  13
                  13
                  13
                  13
                  13
                  13
                  13
                  13
                  13
                  13
                  13
                  13
                  13
                  13
                  13
                  13
                  13
                  13
                  13
                  13
                  13
                  13
                  13
                  13
                  13
                  13
                  13
                  13
                  13
                  13
                  13
                  13
                  13
                  13
                  13
                  13
                  13
                  13
                  13
                  13
                  13
                  13
                  13
                  13
                  13
                  13
                  13
                  13
                  13
                  13
                  13
                  13
                  13
                  13
                  13
                  13
                  13
                  13
                  13
                  13
                  13
                  13
                  13
                  13
                  13
                  13
                  13
                  13
                  13
                  13
                  13
                  13
                  13
                  13
                  13
                  13
                  13
                  13
                  13
                  13
                  13
                  13
                  13
                  13
                  13
                  13
                  13
                  13
                  13
                  13
                  13
                  13
                  13
                  13
                  13
                  13
                  13
                  13
                  13
                  13
                  13
                  13
                  13
                  13
                  13
                  13
                  13
                  13
                  13
                  13
                  13
                  13
                  13
                  13
                  13
                  13
                  13
                  13
                  13
                  13
                  13
                  13
                  13
                  13
                  13
                  13
                  13
                  13
                  13
                  13
                  14
                  14
                  14
                  14
                  14
                  14
                  14
                  14
                  14
                  14
                  14
                  14
                  14
                  14
                  14
                  14
                  14
                  14
                  14
                  14
                  14
                  14
                  14
                  14
                  14
                  14
                  14
                  14
                  14
                  14
                  14
                  14
                  14
                  14
                  14
                  14
                  14
                  14
                  14
                  14
                  14
                  14
                  14
                  14
                  14
                  14
                  14
                  14
                  14
                  14
                  14
                  14
                  14
                  14
                  14
                  14
                  14
                  14
                  14
                  14
                  14
                  14
                  14
                  14
                  14
                  14
                  14
                  14
                  14
                  14
                  14
                  14
                  14
                  14
                  14
                  14
                  14
                  14
                  14
                  14
                  14
                  14
                  14
                  14
                  14
                  14
                  14
                  14
                  14
                  14
                  14
                  14
                  14
                  14
                  14
                  14
                  14
                  14
                  14
                  14
                  14
                  14
                  14
                  14
                  14
                  14
                  14
                  14
                  14
                  14
                  14
                  14
                  14
                  14
                  14
                  14
                  14
                  14
                  14
                  14
                  14
                  14
                  14
                  14
                  14
                  14
                  14
                  14
                  14
                  14
                  14
                  14
                  14
                  14
                  14
                  14
                  14
                  14
                  14
                  14
                  14
                  14
                  14
                  14
                  14
                  14
                  14
                  14
                  14
                  14
                  14
                  14
                  14
                  14
                  14
                  14
                  14
                  14
                  14
                  14
                  14
                  14
                  14
                  14
                  14
                  14
                  14
                  14
                  14
                  14
                  14
                  14
                  14
                  14
                  14
                  14
                  14
                  14
                  14
                  14
                  14
                  14
                  14
                  14
                  14
                  14
                  14
                  14
                  14
                  14
                  14
                  14
                  14
                  14
                  14
                  14
                  14
                  14
                  14
                  14
                  14
                  14
                  14
                  14
                  14
                  14
                  14
                  14
                  14
                  14
                  14
                  14
                  14
                  14
                  14
                  14
                  14
                  14
                  14
                  14
                  14
                  14
                  14
                  14
                  14
                  14
                  14
                  14
                  14
                  14
                  14
                  14
                  14
                  14
                  15
                  15
                  15
                  15
                  15
                  15
                  15
                  15
                  15
                  15
                  15
                  15
                  15
                  15
                  15
                  15
                  15
                  15
                  15
                  15
                  15
                  15
                  15
                  15
                  15
                  15
                  15
                  15
                  15
                  15
                  15
                  15
                  15
                  15
                  15
                  15
                  15
                  15
                  15
                  15
                  15
                  15
                  15
                  15
                  15
                  15
                  15
                  15
                  15
                  15
                  15
                  15
                  15
                  15
                  15
                  15
                  15
                  15
                  15
                  15
                  15
                  15
                  15
                  15
                  15
                  15
                  15
                  15
                  15
                  15
                  15
                  15
                  15
                  15
                  15
                  15
                  15
                  15
                  15
                  15
                  15
                  15
                  15
                  15
                  15
                  15
                  15
                  15
                  15
                  15
                  15
                  15
                  15
                  15
                  15
                  15
                  15
                  15
                  15
                  15
                  15
                  15
                  15
                  15
                  15
                  15
                  15
                  15
                  15
                  15
                  15
                  15
                  15
                  15
                  15
                  15
                  15
                  15
                  15
                  15
                  15
                  15
                  15
                  15
                  15
                  15
                  15
                  15
                  15
                  15
                  15
                  15
                  15
                  15
                  15
                  15
                  15
                  15
                  15
                  15
                  15
                  15
                  15
                  15
                  15
                  15
                  15
                  15
                  15
                  15
                  15
                  15
                  15
                  15
                  15
                  15
                  15
                  15
                  15
                  15
                  15
                  15
                  15
                  15
                  15
                  15
                  15
                  15
                  15
                  15
                  15
                  15
                  15
                  15
                  15
                  15
                  15
                  15
                  15
                  15
                  15
                  15
                  15
                  15
                  15
                  15
                  15
                  15
                  15
                  15
                  15
                  15
                  15
                  15
                  15
                  15
                  15
                  15
                  15
                  15
                  15
                  15
                  15
                  15
                  15
                  15
                  15
                  15
                  15
                  15
                  15
                  15
                  15
                  15
                  15
                  15
                  15
                  15
                  15
                  15
                  15
                  15
                  15
                  15
                  15
                  15
                  15
                  15
                  15
                  15
                  15
                  15
                  15
                  15
                  15
                  15
                  15
                  15
                  15
                  15
                  15
                  15
                  15
                  15
                  15
                  15
                  15
                  15
                  15
                  15
                  15
                  15
                  15
                  15
                  15
                  15
                  15
                  15
                  15
                  15
                  15
                  15
                  15
                  15
                  15
                  15
                  15
                  15
                  15
                  15
                  15
                  15
                  15
                  15
                  15
                  15
                  15
                  15
                  15
                  15
                  15
                  15
                  15
                  15
                  15
                  15
                  15
                  15
                  15
                  15
                  15
                  15
                  15
                  15
                  15
                  15
                  15
                  15
                  15
                  15
                  15
                  15
                  15
                  15
                  15
                  15
                  15
                  15
                  15
                  15
                  15
                  15
                  16
                  16
                  16
                  16
                  16
                  16
                  16
                  16
                  16
                  16
                  16
                  16
                  16
                  16
                  16
                  16
                  16
                  16
                  16
                  16
                  16
                  16
                  16
                  16
                  16
                  16
                  16
                  16
                  16
                  16
                  16
                  16
                  16
                  16
                  16
                  16
                  16
                  16
                  16
                  16
                  16
                  16
                  16
                  16
                  16
                  16
                  16
                  16
                  16
                  16
                  16
                  16
                  16
                  16
                  16
                  16
                  16
                  16
                  16
                  16
                  16
                  16
                  16
                  16
                  16
                  16
                  16
                  16
                  16
                  16
                  16
                  16
                  16
                  16
                  16
                  16
                  16
                  16
                  16
                  16
                  16
                  16
                  16
                  16
                  16
                  16
                  16
                  16
                  16
                  16
                  16
                  16
                  16
                  16
                  16
                  16
                  16
                  16
                  16
                  16
                  16
                  16
                  16
                  16
                  16
                  16
                  16
                  16
                  16
                  16
                  16
                  16
                  16
                  16
                  16
                  16
                  16
                  16
                  16
                  16
                  16
                  16
                  16
                  16
                  16
                  16
                  16
                  16
                  16
                  16
                  16
                  16
                  16
                  16
                  16
                  16
                  16
                  16
                  16
                  16
                  16
                  16
                  16
                  16
                  16
                  16
                  16
                  16
                  16
                  16
                  16
                  16
                  16
                  16
                  16
                  16
                  16
                  16
                  16
                  16
                  16
                  16
                  16
                  16
                  16
                  16
                  16
                  16
                  16
                  16
                  16
                  16
                  16
                  16
                  16
                  16
                  16
                  16
                  16
                  16
                  16
                  16
                  16
                  16
                  16
                  16
                  16
                  16
                  16
                  16
                  16
                  16
                  16
                  16
                  16
                  16
                  16
                  16
                  16
                  16
                  16
                  16
                  16
                  16
                  16
                  16
                  16
                  16
                  16
                  16
                  16
                  16
                  16
                  16
                  16
                  16
                  16
                  16
                  16
                  16
                  16
                  16
                  16
                  16
                  16
                  16
                  16
                  16
                  16
                  16
                  16
                  16
                  16
                  16
                  17
                  17
                  17
                  17
                  17
                  17
                  17
                  17
                  17
                  17
                  17
                  17
                  17
                  17
                  17
                  17
                  17
                  17
                  17
                  17
                  17
                  17
                  17
                  17
                  17
                  17
                  17
                  17
                  17
                  17
                  17
                  17
                  17
                  17
                  17
                  17
                  17
                  17
                  17
                  17
                  17
                  17
                  17
                  17
                  17
                  17
                  17
                  17
                  17
                  17
                  17
                  17
                  17
                  17
                  17
                  17
                  17
                  17
                  17
                  17
                  17
                  17
                  17
                  17
                  17
                  17
                  17
                  17
                  17
                  17
                  17
                  17
                  17
                  17
                  17
                  17
                  17
                  17
                  17
                  17
                  17
                  17
                  17
                  17
                  17
                  17
                  17
                  17
                  17
                  17
                  17
                  17
                  17
                  17
                  17
                  17
                  17
                  17
                  17
                  17
                  17
                  17
                  17
                  17
                  17
                  17
                  17
                  17
                  17
                  17
                  17
                  17
                  17
                  17
                  17
                  17
                  17
                  17
                  17
                  17
                  17
                  17
                  17
                  17
                  17
                  17
                  17
                  17
                  17
                  17
                  17
                  17
                  17
                  17
                  17
                  17
                  17
                  17
                  17
                  17
                  17
                  17
                  17
                  17
                  17
                  17
                  17
                  17
                  17
                  17
                  17
                  17
                  17
                  17
                  17
                  17
                  17
                  17
                  17
                  17
                  17
                  17
                  17
                  17
                  17
                  17
                  17
                  17
                  17
                  17
                  17
                  17
                  17
                  17
                  17
                  17
                  17
                  17
                  17
                  17
                  17
                  17
                  17
                  17
                  17
                  17
                  17
                  17
                  17
                  17
                  17
                  17
                  17
                  17
                  17
                  17
                  17
                  17
                  17
                  17
                  17
                  17
                  17
                  17
                  17
                  17
                  17
                  17
                  17
                  17
                  17
                  17
                  17
                  17
                  17
                  17
                  17
                  17
                  17
                  17
                  17
                  17
                  17
                  17
                  17
                  17
                  17
                  17
                  17
                  17
                  17
                  17
                  17
                  17
                  18
                  18
                  18
                  18
                  18
                  18
                  18
                  18
                  18
                  18
                  18
                  18
                  18
                  18
                  18
                  18
                  18
                  18
                  18
                  18
                  18
                  18
                  18
                  18
                  18
                  18
                  18
                  18
                  18
                  18
                  18
                  18
                  18
                  18
                  18
                  18
                  18
                  18
                  18
                  18
                  18
                  18
                  18
                  18
                  18
                  18
                  18
                  18
                  18
                  18
                  18
                  18
                  18
                  18
                  18
                  18
                  18
                  18
                  18
                  18
                  18
                  18
                  18
                  18
                  18
                  18
                  18
                  18
                  18
                  18
                  18
                  18
                  18
                  18
                  18
                  18
                  18
                  18
                  18
                  18
                  18
                  18
                  18
                  18
                  18
                  18
                  18
                  18
                  18
                  18
                  18
                  18
                  18
                  18
                  18
                  18
                  18
                  18
                  18
                  18
                  18
                  18
                  18
                  18
                  18
                  18
                  18
                  18
                  18
                  18
                  18
                  18
                  18
                  18
                  18
                  18
                  18
                  18
                  18
                  18
                  18
                  18
                  18
                  18
                  18
                  18
                  18
                  18
                  18
                  18
                  18
                  18
                  18
                  18
                  18
                  18
                  18
                  18
                  18
                  18
                  18
                  18
                  18
                  18
                  18
                  18
                  18
                  18
                  18
                  18
                  18
                  18
                  18
                  18
                  18
                  18
  
SCALARS                 displacement_x  double 1
LOOKUP_TABLE default
         0.00000E+00
         0.00000E+00
         0.00000E+00
         0.00000E+00
         0.00000E+00
         0.00000E+00
         0.00000E+00
         0.00000E+00
         0.00000E+00
         0.00000E+00
         0.00000E+00
         0.00000E+00
         0.00000E+00
         0.00000E+00
         0.00000E+00
         0.00000E+00
         0.00000E+00
         0.00000E+00
         0.00000E+00
         0.00000E+00
         0.00000E+00
         0.00000E+00
         0.00000E+00
         0.00000E+00
         0.00000E+00
         0.00000E+00
         0.00000E+00
         0.00000E+00
         0.00000E+00
         0.00000E+00
         0.00000E+00
         0.00000E+00
         0.00000E+00
         0.00000E+00
         0.00000E+00
         0.00000E+00
         0.00000E+00
         0.00000E+00
         0.00000E+00
         0.00000E+00
         0.00000E+00
         0.00000E+00
         0.00000E+00
         0.00000E+00
         0.00000E+00
         0.00000E+00
         0.00000E+00
         0.00000E+00
         0.00000E+00
         0.00000E+00
         0.00000E+00
         0.00000E+00
         0.00000E+00
         0.00000E+00
         0.00000E+00
         0.00000E+00
         0.00000E+00
         0.00000E+00
         0.00000E+00
         0.00000E+00
         0.00000E+00
         0.00000E+00
         0.00000E+00
         0.00000E+00
         0.00000E+00
         0.00000E+00
         0.00000E+00
         0.00000E+00
         0.00000E+00
         0.00000E+00
         0.00000E+00
         0.00000E+00
         0.00000E+00
         0.00000E+00
         0.00000E+00
         0.00000E+00
         0.00000E+00
         0.00000E+00
         0.00000E+00
         0.00000E+00
         0.00000E+00
         0.00000E+00
         0.00000E+00
         0.00000E+00
         0.00000E+00
         0.00000E+00
         0.00000E+00
         0.00000E+00
         0.00000E+00
         0.00000E+00
         0.00000E+00
         0.00000E+00
         0.00000E+00
         0.00000E+00
         0.00000E+00
         0.00000E+00
         0.00000E+00
         0.00000E+00
         0.00000E+00
         0.00000E+00
         0.00000E+00
         0.00000E+00
         0.00000E+00
         0.00000E+00
         0.00000E+00
         0.00000E+00
         0.00000E+00
         0.00000E+00
         0.00000E+00
         0.00000E+00
         0.00000E+00
         0.00000E+00
         0.00000E+00
         0.00000E+00
         0.00000E+00
         0.00000E+00
         0.00000E+00
         0.00000E+00
         0.00000E+00
         0.00000E+00
         0.00000E+00
         0.00000E+00
         0.00000E+00
         0.00000E+00
         0.00000E+00
         0.00000E+00
         0.00000E+00
         0.00000E+00
         0.00000E+00
         0.00000E+00
         0.00000E+00
         0.00000E+00
         0.00000E+00
         0.00000E+00
         0.00000E+00
         0.00000E+00
         0.00000E+00
         0.00000E+00
         0.00000E+00
         0.00000E+00
         0.00000E+00
         0.00000E+00
         0.00000E+00
         0.00000E+00
         0.00000E+00
         0.00000E+00
         0.00000E+00
         0.00000E+00
         0.00000E+00
         0.00000E+00
         0.00000E+00
         0.00000E+00
         0.00000E+00
         0.00000E+00
         0.00000E+00
         0.00000E+00
         0.00000E+00
         0.00000E+00
         0.00000E+00
         0.00000E+00
         0.00000E+00
         0.00000E+00
         0.00000E+00
         0.00000E+00
         0.00000E+00
         0.00000E+00
         0.00000E+00
         0.00000E+00
         0.00000E+00
         0.00000E+00
         0.00000E+00
         0.00000E+00
         0.00000E+00
         0.00000E+00
         0.00000E+00
         0.00000E+00
         0.00000E+00
         0.00000E+00
         0.00000E+00
         0.00000E+00
         0.00000E+00
         0.00000E+00
         0.00000E+00
         0.00000E+00
         0.00000E+00
         0.00000E+00
         0.00000E+00
         0.00000E+00
         0.00000E+00
         0.00000E+00
         0.00000E+00
         0.00000E+00
         0.00000E+00
         0.00000E+00
         0.00000E+00
         0.00000E+00
         0.00000E+00
         0.00000E+00
         0.00000E+00
         0.00000E+00
         0.00000E+00
         0.00000E+00
         0.00000E+00
         0.00000E+00
         0.00000E+00
         0.00000E+00
         0.00000E+00
         0.00000E+00
         0.00000E+00
         0.00000E+00
         0.00000E+00
         0.00000E+00
         0.00000E+00
         0.00000E+00
         0.00000E+00
         0.00000E+00
         0.00000E+00
         0.00000E+00
         0.00000E+00
         0.00000E+00
         0.00000E+00
         0.00000E+00
         0.00000E+00
         0.00000E+00
         0.00000E+00
         0.00000E+00
         0.00000E+00
         0.00000E+00
         0.00000E+00
         0.00000E+00
         0.00000E+00
         0.00000E+00
         0.00000E+00
         0.00000E+00
         0.00000E+00
         0.00000E+00
         0.00000E+00
         0.00000E+00
         0.00000E+00
         0.00000E+00
         0.00000E+00
         0.00000E+00
         0.00000E+00
         0.00000E+00
         0.00000E+00
         0.00000E+00
         0.00000E+00
         0.00000E+00
         0.00000E+00
         0.00000E+00
         0.00000E+00
         0.00000E+00
         0.00000E+00
         0.00000E+00
         0.00000E+00
         0.00000E+00
         0.00000E+00
         0.00000E+00
         0.00000E+00
         0.00000E+00
         0.00000E+00
         0.00000E+00
         0.00000E+00
         0.00000E+00
         0.00000E+00
         0.00000E+00
         0.00000E+00
         0.00000E+00
         0.00000E+00
         0.00000E+00
         0.00000E+00
         0.00000E+00
         0.00000E+00
         0.00000E+00
         0.00000E+00
         0.00000E+00
         0.00000E+00
         0.00000E+00
         0.00000E+00
         0.00000E+00
         0.00000E+00
         0.00000E+00
         0.00000E+00
         0.00000E+00
         0.00000E+00
         0.00000E+00
         0.00000E+00
         0.00000E+00
         0.00000E+00
         0.00000E+00
         0.00000E+00
         0.00000E+00
         0.00000E+00
         0.00000E+00
         0.00000E+00
         0.00000E+00
         0.00000E+00
         0.00000E+00
         0.00000E+00
         0.00000E+00
         0.00000E+00
         0.00000E+00
         0.00000E+00
         0.00000E+00
         0.00000E+00
         0.00000E+00
         0.00000E+00
         0.00000E+00
         0.00000E+00
         0.00000E+00
         0.00000E+00
         0.00000E+00
         0.00000E+00
         0.00000E+00
         0.00000E+00
         0.00000E+00
         0.00000E+00
         0.00000E+00
         0.00000E+00
         0.00000E+00
         0.00000E+00
         0.00000E+00
         0.00000E+00
         0.00000E+00
         0.00000E+00
         0.00000E+00
         0.00000E+00
         0.00000E+00
         0.00000E+00
         0.00000E+00
         0.00000E+00
         0.00000E+00
         0.00000E+00
         0.00000E+00
         0.00000E+00
         0.00000E+00
         0.00000E+00
         0.00000E+00
         0.00000E+00
         0.00000E+00
         0.00000E+00
         0.00000E+00
         0.00000E+00
         0.00000E+00
         0.00000E+00
         0.00000E+00
         0.00000E+00
         0.00000E+00
         0.00000E+00
         0.00000E+00
         0.00000E+00
         0.00000E+00
         0.00000E+00
         0.00000E+00
         0.00000E+00
         0.00000E+00
         0.00000E+00
         0.00000E+00
         0.00000E+00
         0.00000E+00
         0.00000E+00
         0.00000E+00
         0.00000E+00
         0.00000E+00
         0.00000E+00
         0.00000E+00
         0.00000E+00
         0.00000E+00
         0.00000E+00
         0.00000E+00
         0.00000E+00
         0.00000E+00
         0.00000E+00
         0.00000E+00
         0.00000E+00
         0.00000E+00
         0.00000E+00
         0.00000E+00
         0.00000E+00
         0.00000E+00
         0.00000E+00
         0.00000E+00
         0.00000E+00
         0.00000E+00
         0.00000E+00
         0.00000E+00
         0.00000E+00
         0.00000E+00
         0.00000E+00
         0.00000E+00
         0.00000E+00
         0.00000E+00
         0.00000E+00
         0.00000E+00
         0.00000E+00
         0.00000E+00
         0.00000E+00
         0.00000E+00
         0.00000E+00
         0.00000E+00
         0.00000E+00
         0.00000E+00
         0.00000E+00
         0.00000E+00
         0.00000E+00
         0.00000E+00
         0.00000E+00
         0.00000E+00
         0.00000E+00
         0.00000E+00
         0.00000E+00
         0.00000E+00
         0.00000E+00
         0.00000E+00
         0.00000E+00
         0.00000E+00
         0.00000E+00
         0.00000E+00
         0.00000E+00
         0.00000E+00
         0.00000E+00
         0.00000E+00
         0.00000E+00
         0.00000E+00
         0.00000E+00
         0.00000E+00
         0.00000E+00
         0.00000E+00
         0.00000E+00
         0.00000E+00
         0.00000E+00
         0.00000E+00
         0.00000E+00
         0.00000E+00
         0.00000E+00
         0.00000E+00
         0.00000E+00
         0.00000E+00
         0.00000E+00
         0.00000E+00
         0.00000E+00
         0.00000E+00
         0.00000E+00
         0.00000E+00
         0.00000E+00
         0.00000E+00
         0.00000E+00
         0.00000E+00
         0.00000E+00
         0.00000E+00
         0.00000E+00
         0.00000E+00
         0.00000E+00
         0.00000E+00
         0.00000E+00
         0.00000E+00
         0.00000E+00
         0.00000E+00
         0.00000E+00
         0.00000E+00
         0.00000E+00
         0.00000E+00
         0.00000E+00
         0.00000E+00
         0.00000E+00
         0.00000E+00
         0.00000E+00
         0.00000E+00
         0.00000E+00
         0.00000E+00
         0.00000E+00
         0.00000E+00
         0.00000E+00
         0.00000E+00
         0.00000E+00
         0.00000E+00
         0.00000E+00
         0.00000E+00
         0.00000E+00
         0.00000E+00
         0.00000E+00
         0.00000E+00
         0.00000E+00
         0.00000E+00
         0.00000E+00
         0.00000E+00
         0.00000E+00
         0.00000E+00
         0.00000E+00
         0.00000E+00
         0.00000E+00
         0.00000E+00
         0.00000E+00
         0.00000E+00
         0.00000E+00
         0.00000E+00
         0.00000E+00
         0.00000E+00
         0.00000E+00
         0.00000E+00
         0.00000E+00
         0.00000E+00
         0.00000E+00
         0.00000E+00
         0.00000E+00
         0.00000E+00
         0.00000E+00
         0.00000E+00
         0.00000E+00
         0.00000E+00
         0.00000E+00
         0.00000E+00
         0.00000E+00
         0.00000E+00
         0.00000E+00
         0.00000E+00
         0.00000E+00
         0.00000E+00
         0.00000E+00
         0.00000E+00
         0.00000E+00
         0.00000E+00
         0.00000E+00
         0.00000E+00
         0.00000E+00
         0.00000E+00
         0.00000E+00
         0.00000E+00
         0.00000E+00
         0.00000E+00
         0.00000E+00
         0.00000E+00
         0.00000E+00
         0.00000E+00
         0.00000E+00
         0.00000E+00
         0.00000E+00
         0.00000E+00
         0.00000E+00
         0.00000E+00
         0.00000E+00
         0.00000E+00
         0.00000E+00
         0.00000E+00
         0.00000E+00
         0.00000E+00
         0.00000E+00
         0.00000E+00
         0.00000E+00
         0.00000E+00
         0.00000E+00
         0.00000E+00
         0.00000E+00
         0.00000E+00
         0.00000E+00
         0.00000E+00
         0.00000E+00
         0.00000E+00
         0.00000E+00
         0.00000E+00
         0.00000E+00
         0.00000E+00
         0.00000E+00
         0.00000E+00
         0.00000E+00
         0.00000E+00
         0.00000E+00
         0.00000E+00
         0.00000E+00
         0.00000E+00
         0.00000E+00
         0.00000E+00
         0.00000E+00
         0.00000E+00
         0.00000E+00
         0.00000E+00
         0.00000E+00
         0.00000E+00
         0.00000E+00
         0.00000E+00
         0.00000E+00
         0.00000E+00
         0.00000E+00
         0.00000E+00
         0.00000E+00
         0.00000E+00
         0.00000E+00
         0.00000E+00
         0.00000E+00
         0.00000E+00
         0.00000E+00
         0.00000E+00
         0.00000E+00
         0.00000E+00
         0.00000E+00
         0.00000E+00
         0.00000E+00
         0.00000E+00
         0.00000E+00
         0.00000E+00
         0.00000E+00
         0.00000E+00
         0.00000E+00
         0.00000E+00
         0.00000E+00
         0.00000E+00
         0.00000E+00
         0.00000E+00
         0.00000E+00
         0.00000E+00
         0.00000E+00
         0.00000E+00
         0.00000E+00
         0.00000E+00
         0.00000E+00
         0.00000E+00
         0.00000E+00
         0.00000E+00
         0.00000E+00
         0.00000E+00
         0.00000E+00
         0.00000E+00
         0.00000E+00
         0.00000E+00
         0.00000E+00
         0.00000E+00
         0.00000E+00
         0.00000E+00
         0.00000E+00
         0.00000E+00
         0.00000E+00
         0.00000E+00
         0.00000E+00
         0.00000E+00
         0.00000E+00
         0.00000E+00
         0.00000E+00
         0.00000E+00
         0.00000E+00
         0.00000E+00
         0.00000E+00
         0.00000E+00
         0.00000E+00
         0.00000E+00
         0.00000E+00
         0.00000E+00
         0.00000E+00
         0.00000E+00
         0.00000E+00
         0.00000E+00
         0.00000E+00
         0.00000E+00
         0.00000E+00
         0.00000E+00
         0.00000E+00
         0.00000E+00
         0.00000E+00
         0.00000E+00
         0.00000E+00
         0.00000E+00
         0.00000E+00
         0.00000E+00
         0.00000E+00
         0.00000E+00
         0.00000E+00
         0.00000E+00
         0.00000E+00
         0.00000E+00
         0.00000E+00
         0.00000E+00
         0.00000E+00
         0.00000E+00
         0.00000E+00
         0.00000E+00
         0.00000E+00
         0.00000E+00
         0.00000E+00
         0.00000E+00
         0.00000E+00
         0.00000E+00
         0.00000E+00
         0.00000E+00
         0.00000E+00
         0.00000E+00
         0.00000E+00
         0.00000E+00
         0.00000E+00
         0.00000E+00
         0.00000E+00
         0.00000E+00
         0.00000E+00
         0.00000E+00
         0.00000E+00
         0.00000E+00
         0.00000E+00
         0.00000E+00
         0.00000E+00
         0.00000E+00
         0.00000E+00
         0.00000E+00
         0.00000E+00
         0.00000E+00
         0.00000E+00
         0.00000E+00
         0.00000E+00
         0.00000E+00
         0.00000E+00
         0.00000E+00
         0.00000E+00
         0.00000E+00
         0.00000E+00
         0.00000E+00
         0.00000E+00
         0.00000E+00
         0.00000E+00
         0.00000E+00
         0.00000E+00
         0.00000E+00
         0.00000E+00
         0.00000E+00
         0.00000E+00
         0.00000E+00
         0.00000E+00
         0.00000E+00
         0.00000E+00
         0.00000E+00
         0.00000E+00
         0.00000E+00
         0.00000E+00
         0.00000E+00
         0.00000E+00
         0.00000E+00
         0.00000E+00
         0.00000E+00
         0.00000E+00
         0.00000E+00
         0.00000E+00
         0.00000E+00
         0.00000E+00
         0.00000E+00
         0.00000E+00
         0.00000E+00
         0.00000E+00
         0.00000E+00
         0.00000E+00
         0.00000E+00
         0.00000E+00
         0.00000E+00
         0.00000E+00
         0.00000E+00
         0.00000E+00
         0.00000E+00
         0.00000E+00
         0.00000E+00
         0.00000E+00
         0.00000E+00
         0.00000E+00
         0.00000E+00
         0.00000E+00
         0.00000E+00
         0.00000E+00
         0.00000E+00
         0.00000E+00
         0.00000E+00
         0.00000E+00
         0.00000E+00
         0.00000E+00
         0.00000E+00
         0.00000E+00
         0.00000E+00
         0.00000E+00
         0.00000E+00
         0.00000E+00
         0.00000E+00
         0.00000E+00
         0.00000E+00
         0.00000E+00
         0.00000E+00
         0.00000E+00
         0.00000E+00
         0.00000E+00
         0.00000E+00
         0.00000E+00
         0.00000E+00
         0.00000E+00
         0.00000E+00
         0.00000E+00
         0.00000E+00
         0.00000E+00
         0.00000E+00
         0.00000E+00
         0.00000E+00
         0.00000E+00
         0.00000E+00
         0.00000E+00
         0.00000E+00
         0.00000E+00
         0.00000E+00
         0.00000E+00
         0.00000E+00
         0.00000E+00
         0.00000E+00
         0.00000E+00
         0.00000E+00
         0.00000E+00
         0.00000E+00
         0.00000E+00
         0.00000E+00
         0.00000E+00
         0.00000E+00
         0.00000E+00
         0.00000E+00
         0.00000E+00
         0.00000E+00
         0.00000E+00
         0.00000E+00
         0.00000E+00
         0.00000E+00
         0.00000E+00
         0.00000E+00
         0.00000E+00
         0.00000E+00
         0.00000E+00
         0.00000E+00
         0.00000E+00
         0.00000E+00
         0.00000E+00
         0.00000E+00
         0.00000E+00
         0.00000E+00
         0.00000E+00
         0.00000E+00
         0.00000E+00
         0.00000E+00
         0.00000E+00
         0.00000E+00
         0.00000E+00
         0.00000E+00
         0.00000E+00
         0.00000E+00
         0.00000E+00
         0.00000E+00
         0.00000E+00
         0.00000E+00
         0.00000E+00
         0.00000E+00
         0.00000E+00
         0.00000E+00
         0.00000E+00
         0.00000E+00
         0.00000E+00
         0.00000E+00
         0.00000E+00
         0.00000E+00
         0.00000E+00
         0.00000E+00
         0.00000E+00
         0.00000E+00
         0.00000E+00
         0.00000E+00
         0.00000E+00
         0.00000E+00
         0.00000E+00
         0.00000E+00
         0.00000E+00
         0.00000E+00
         0.00000E+00
         0.00000E+00
         0.00000E+00
         0.00000E+00
         0.00000E+00
         0.00000E+00
         0.00000E+00
         0.00000E+00
         0.00000E+00
         0.00000E+00
         0.00000E+00
         0.00000E+00
         0.00000E+00
         0.00000E+00
         0.00000E+00
         0.00000E+00
         0.00000E+00
         0.00000E+00
         0.00000E+00
         0.00000E+00
         0.00000E+00
         0.00000E+00
         0.00000E+00
         0.00000E+00
         0.00000E+00
         0.00000E+00
         0.00000E+00
         0.00000E+00
         0.00000E+00
         0.00000E+00
         0.00000E+00
         0.00000E+00
         0.00000E+00
         0.00000E+00
         0.00000E+00
         0.00000E+00
         0.00000E+00
         0.00000E+00
         0.00000E+00
         0.00000E+00
         0.00000E+00
         0.00000E+00
         0.00000E+00
         0.00000E+00
         0.00000E+00
         0.00000E+00
         0.00000E+00
         0.00000E+00
         0.00000E+00
         0.00000E+00
         0.00000E+00
         0.00000E+00
         0.00000E+00
         0.00000E+00
         0.00000E+00
         0.00000E+00
         0.00000E+00
         0.00000E+00
         0.00000E+00
         0.00000E+00
         0.00000E+00
         0.00000E+00
         0.00000E+00
         0.00000E+00
         0.00000E+00
         0.00000E+00
         0.00000E+00
         0.00000E+00
         0.00000E+00
         0.00000E+00
         0.00000E+00
         0.00000E+00
         0.00000E+00
         0.00000E+00
         0.00000E+00
         0.00000E+00
         0.00000E+00
         0.00000E+00
         0.00000E+00
         0.00000E+00
         0.00000E+00
         0.00000E+00
         0.00000E+00
         0.00000E+00
         0.00000E+00
         0.00000E+00
         0.00000E+00
         0.00000E+00
         0.00000E+00
         0.00000E+00
         0.00000E+00
         0.00000E+00
         0.00000E+00
         0.00000E+00
         0.00000E+00
         0.00000E+00
         0.00000E+00
         0.00000E+00
         0.00000E+00
         0.00000E+00
         0.00000E+00
         0.00000E+00
         0.00000E+00
         0.00000E+00
         0.00000E+00
         0.00000E+00
         0.00000E+00
         0.00000E+00
         0.00000E+00
         0.00000E+00
         0.00000E+00
         0.00000E+00
         0.00000E+00
         0.00000E+00
         0.00000E+00
         0.00000E+00
         0.00000E+00
         0.00000E+00
         0.00000E+00
         0.00000E+00
         0.00000E+00
         0.00000E+00
         0.00000E+00
         0.00000E+00
         0.00000E+00
         0.00000E+00
         0.00000E+00
         0.00000E+00
         0.00000E+00
         0.00000E+00
         0.00000E+00
         0.00000E+00
         0.00000E+00
         0.00000E+00
         0.00000E+00
         0.00000E+00
         0.00000E+00
         0.00000E+00
         0.00000E+00
         0.00000E+00
         0.00000E+00
         0.00000E+00
         0.00000E+00
         0.00000E+00
         0.00000E+00
         0.00000E+00
         0.00000E+00
         0.00000E+00
         0.00000E+00
         0.00000E+00
         0.00000E+00
         0.00000E+00
         0.00000E+00
         0.00000E+00
         0.00000E+00
         0.00000E+00
         0.00000E+00
         0.00000E+00
         0.00000E+00
         0.00000E+00
         0.00000E+00
         0.00000E+00
         0.00000E+00
         0.00000E+00
         0.00000E+00
         0.00000E+00
         0.00000E+00
         0.00000E+00
         0.00000E+00
         0.00000E+00
         0.00000E+00
         0.00000E+00
         0.00000E+00
         0.00000E+00
         0.00000E+00
         0.00000E+00
         0.00000E+00
         0.00000E+00
         0.00000E+00
         0.00000E+00
         0.00000E+00
         0.00000E+00
         0.00000E+00
         0.00000E+00
         0.00000E+00
         0.00000E+00
         0.00000E+00
         0.00000E+00
         0.00000E+00
         0.00000E+00
         0.00000E+00
         0.00000E+00
         0.00000E+00
         0.00000E+00
         0.00000E+00
         0.00000E+00
         0.00000E+00
         0.00000E+00
         0.00000E+00
         0.00000E+00
         0.00000E+00
         0.00000E+00
         0.00000E+00
         0.00000E+00
         0.00000E+00
         0.00000E+00
         0.00000E+00
         0.00000E+00
         0.00000E+00
         0.00000E+00
         0.00000E+00
         0.00000E+00
         0.00000E+00
         0.00000E+00
         0.00000E+00
         0.00000E+00
         0.00000E+00
         0.00000E+00
         0.00000E+00
         0.00000E+00
         0.00000E+00
         0.00000E+00
         0.00000E+00
         0.00000E+00
         0.00000E+00
         0.00000E+00
         0.00000E+00
         0.00000E+00
         0.00000E+00
         0.00000E+00
         0.00000E+00
         0.00000E+00
         0.00000E+00
         0.00000E+00
         0.00000E+00
         0.00000E+00
         0.00000E+00
         0.00000E+00
         0.00000E+00
         0.00000E+00
         0.00000E+00
         0.00000E+00
         0.00000E+00
         0.00000E+00
         0.00000E+00
         0.00000E+00
         0.00000E+00
         0.00000E+00
         0.00000E+00
         0.00000E+00
         0.00000E+00
         0.00000E+00
         0.00000E+00
         0.00000E+00
         0.00000E+00
         0.00000E+00
         0.00000E+00
         0.00000E+00
         0.00000E+00
         0.00000E+00
         0.00000E+00
         0.00000E+00
         0.00000E+00
         0.00000E+00
         0.00000E+00
         0.00000E+00
         0.00000E+00
         0.00000E+00
         0.00000E+00
         0.00000E+00
         0.00000E+00
         0.00000E+00
         0.00000E+00
         0.00000E+00
         0.00000E+00
         0.00000E+00
         0.00000E+00
         0.00000E+00
         0.00000E+00
         0.00000E+00
         0.00000E+00
         0.00000E+00
         0.00000E+00
         0.00000E+00
         0.00000E+00
         0.00000E+00
         0.00000E+00
         0.00000E+00
         0.00000E+00
         0.00000E+00
         0.00000E+00
         0.00000E+00
         0.00000E+00
         0.00000E+00
         0.00000E+00
         0.00000E+00
         0.00000E+00
         0.00000E+00
         0.00000E+00
         0.00000E+00
         0.00000E+00
         0.00000E+00
         0.00000E+00
         0.00000E+00
         0.00000E+00
         0.00000E+00
         0.00000E+00
         0.00000E+00
         0.00000E+00
         0.00000E+00
         0.00000E+00
         0.00000E+00
         0.00000E+00
         0.00000E+00
         0.00000E+00
         0.00000E+00
         0.00000E+00
         0.00000E+00
         0.00000E+00
         0.00000E+00
         0.00000E+00
         0.00000E+00
         0.00000E+00
         0.00000E+00
         0.00000E+00
         0.00000E+00
         0.00000E+00
         0.00000E+00
         0.00000E+00
         0.00000E+00
         0.00000E+00
         0.00000E+00
         0.00000E+00
         0.00000E+00
         0.00000E+00
         0.00000E+00
         0.00000E+00
         0.00000E+00
         0.00000E+00
         0.00000E+00
         0.00000E+00
         0.00000E+00
         0.00000E+00
         0.00000E+00
         0.00000E+00
         0.00000E+00
         0.00000E+00
         0.00000E+00
         0.00000E+00
         0.00000E+00
         0.00000E+00
         0.00000E+00
         0.00000E+00
         0.00000E+00
         0.00000E+00
         0.00000E+00
         0.00000E+00
         0.00000E+00
         0.00000E+00
         0.00000E+00
         0.00000E+00
         0.00000E+00
         0.00000E+00
         0.00000E+00
         0.00000E+00
         0.00000E+00
         0.00000E+00
         0.00000E+00
         0.00000E+00
         0.00000E+00
         0.00000E+00
         0.00000E+00
         0.00000E+00
         0.00000E+00
         0.00000E+00
         0.00000E+00
         0.00000E+00
         0.00000E+00
         0.00000E+00
         0.00000E+00
         0.00000E+00
         0.00000E+00
         0.00000E+00
         0.00000E+00
         0.00000E+00
         0.00000E+00
         0.00000E+00
         0.00000E+00
         0.00000E+00
         0.00000E+00
         0.00000E+00
         0.00000E+00
         0.00000E+00
         0.00000E+00
         0.00000E+00
         0.00000E+00
         0.00000E+00
         0.00000E+00
         0.00000E+00
         0.00000E+00
         0.00000E+00
         0.00000E+00
         0.00000E+00
         0.00000E+00
         0.00000E+00
         0.00000E+00
         0.00000E+00
         0.00000E+00
         0.00000E+00
         0.00000E+00
         0.00000E+00
         0.00000E+00
         0.00000E+00
         0.00000E+00
         0.00000E+00
         0.00000E+00
         0.00000E+00
         0.00000E+00
         0.00000E+00
         0.00000E+00
         0.00000E+00
         0.00000E+00
         0.00000E+00
         0.00000E+00
         0.00000E+00
         0.00000E+00
         0.00000E+00
         0.00000E+00
         0.00000E+00
         0.00000E+00
         0.00000E+00
         0.00000E+00
         0.00000E+00
         0.00000E+00
         0.00000E+00
         0.00000E+00
         0.00000E+00
         0.00000E+00
         0.00000E+00
         0.00000E+00
         0.00000E+00
         0.00000E+00
         0.00000E+00
         0.00000E+00
         0.00000E+00
         0.00000E+00
         0.00000E+00
         0.00000E+00
         0.00000E+00
         0.00000E+00
         0.00000E+00
         0.00000E+00
         0.00000E+00
         0.00000E+00
         0.00000E+00
         0.00000E+00
         0.00000E+00
         0.00000E+00
         0.00000E+00
         0.00000E+00
         0.00000E+00
         0.00000E+00
         0.00000E+00
         0.00000E+00
         0.00000E+00
         0.00000E+00
         0.00000E+00
         0.00000E+00
         0.00000E+00
         0.00000E+00
         0.00000E+00
         0.00000E+00
         0.00000E+00
         0.00000E+00
         0.00000E+00
         0.00000E+00
         0.00000E+00
         0.00000E+00
         0.00000E+00
         0.00000E+00
         0.00000E+00
         0.00000E+00
         0.00000E+00
         0.00000E+00
         0.00000E+00
         0.00000E+00
         0.00000E+00
         0.00000E+00
         0.00000E+00
         0.00000E+00
         0.00000E+00
         0.00000E+00
         0.00000E+00
         0.00000E+00
         0.00000E+00
         0.00000E+00
         0.00000E+00
         0.00000E+00
         0.00000E+00
         0.00000E+00
         0.00000E+00
         0.00000E+00
         0.00000E+00
         0.00000E+00
         0.00000E+00
         0.00000E+00
         0.00000E+00
         0.00000E+00
         0.00000E+00
         0.00000E+00
         0.00000E+00
         0.00000E+00
         0.00000E+00
         0.00000E+00
         0.00000E+00
         0.00000E+00
         0.00000E+00
         0.00000E+00
         0.00000E+00
         0.00000E+00
         0.00000E+00
         0.00000E+00
         0.00000E+00
         0.00000E+00
         0.00000E+00
         0.00000E+00
         0.00000E+00
         0.00000E+00
         0.00000E+00
         0.00000E+00
         0.00000E+00
         0.00000E+00
         0.00000E+00
         0.00000E+00
         0.00000E+00
         0.00000E+00
         0.00000E+00
         0.00000E+00
         0.00000E+00
         0.00000E+00
         0.00000E+00
         0.00000E+00
         0.00000E+00
         0.00000E+00
         0.00000E+00
         0.00000E+00
         0.00000E+00
         0.00000E+00
         0.00000E+00
         0.00000E+00
         0.00000E+00
         0.00000E+00
         0.00000E+00
         0.00000E+00
         0.00000E+00
         0.00000E+00
         0.00000E+00
         0.00000E+00
         0.00000E+00
         0.00000E+00
         0.00000E+00
         0.00000E+00
         0.00000E+00
         0.00000E+00
         0.00000E+00
         0.00000E+00
         0.00000E+00
         0.00000E+00
         0.00000E+00
         0.00000E+00
         0.00000E+00
         0.00000E+00
         0.00000E+00
         0.00000E+00
         0.00000E+00
         0.00000E+00
         0.00000E+00
         0.00000E+00
         0.00000E+00
         0.00000E+00
         0.00000E+00
         0.00000E+00
         0.00000E+00
         0.00000E+00
         0.00000E+00
         0.00000E+00
         0.00000E+00
         0.00000E+00
         0.00000E+00
         0.00000E+00
         0.00000E+00
         0.00000E+00
         0.00000E+00
         0.00000E+00
         0.00000E+00
         0.00000E+00
         0.00000E+00
         0.00000E+00
         0.00000E+00
         0.00000E+00
         0.00000E+00
         0.00000E+00
         0.00000E+00
         0.00000E+00
         0.00000E+00
         0.00000E+00
         0.00000E+00
         0.00000E+00
         0.00000E+00
         0.00000E+00
         0.00000E+00
         0.00000E+00
         0.00000E+00
         0.00000E+00
         0.00000E+00
         0.00000E+00
         0.00000E+00
         0.00000E+00
         0.00000E+00
         0.00000E+00
         0.00000E+00
         0.00000E+00
         0.00000E+00
         0.00000E+00
         0.00000E+00
         0.00000E+00
         0.00000E+00
         0.00000E+00
         0.00000E+00
         0.00000E+00
         0.00000E+00
         0.00000E+00
         0.00000E+00
         0.00000E+00
         0.00000E+00
         0.00000E+00
         0.00000E+00
         0.00000E+00
         0.00000E+00
         0.00000E+00
         0.00000E+00
         0.00000E+00
         0.00000E+00
         0.00000E+00
         0.00000E+00
         0.00000E+00
         0.00000E+00
         0.00000E+00
         0.00000E+00
         0.00000E+00
         0.00000E+00
         0.00000E+00
         0.00000E+00
         0.00000E+00
         0.00000E+00
         0.00000E+00
         0.00000E+00
         0.00000E+00
         0.00000E+00
         0.00000E+00
         0.00000E+00
         0.00000E+00
         0.00000E+00
         0.00000E+00
         0.00000E+00
         0.00000E+00
         0.00000E+00
         0.00000E+00
         0.00000E+00
         0.00000E+00
         0.00000E+00
         0.00000E+00
         0.00000E+00
         0.00000E+00
         0.00000E+00
         0.00000E+00
         0.00000E+00
         0.00000E+00
         0.00000E+00
         0.00000E+00
         0.00000E+00
         0.00000E+00
         0.00000E+00
         0.00000E+00
         0.00000E+00
         0.00000E+00
         0.00000E+00
         0.00000E+00
         0.00000E+00
         0.00000E+00
         0.00000E+00
         0.00000E+00
         0.00000E+00
         0.00000E+00
         0.00000E+00
         0.00000E+00
         0.00000E+00
         0.00000E+00
         0.00000E+00
         0.00000E+00
         0.00000E+00
         0.00000E+00
         0.00000E+00
         0.00000E+00
         0.00000E+00
         0.00000E+00
         0.00000E+00
         0.00000E+00
         0.00000E+00
         0.00000E+00
         0.00000E+00
         0.00000E+00
         0.00000E+00
         0.00000E+00
         0.00000E+00
         0.00000E+00
         0.00000E+00
         0.00000E+00
         0.00000E+00
         0.00000E+00
         0.00000E+00
         0.00000E+00
         0.00000E+00
         0.00000E+00
         0.00000E+00
         0.00000E+00
         0.00000E+00
         0.00000E+00
         0.00000E+00
         0.00000E+00
         0.00000E+00
         0.00000E+00
         0.00000E+00
         0.00000E+00
         0.00000E+00
         0.00000E+00
         0.00000E+00
         0.00000E+00
         0.00000E+00
         0.00000E+00
         0.00000E+00
         0.00000E+00
         0.00000E+00
         0.00000E+00
         0.00000E+00
         0.00000E+00
         0.00000E+00
         0.00000E+00
         0.00000E+00
         0.00000E+00
         0.00000E+00
         0.00000E+00
         0.00000E+00
         0.00000E+00
         0.00000E+00
         0.00000E+00
         0.00000E+00
         0.00000E+00
         0.00000E+00
         0.00000E+00
         0.00000E+00
         0.00000E+00
         0.00000E+00
         0.00000E+00
         0.00000E+00
         0.00000E+00
         0.00000E+00
         0.00000E+00
         0.00000E+00
         0.00000E+00
         0.00000E+00
         0.00000E+00
         0.00000E+00
         0.00000E+00
         0.00000E+00
         0.00000E+00
         0.00000E+00
         0.00000E+00
         0.00000E+00
         0.00000E+00
         0.00000E+00
         0.00000E+00
         0.00000E+00
         0.00000E+00
         0.00000E+00
         0.00000E+00
         0.00000E+00
         0.00000E+00
         0.00000E+00
         0.00000E+00
         0.00000E+00
         0.00000E+00
         0.00000E+00
         0.00000E+00
         0.00000E+00
         0.00000E+00
         0.00000E+00
         0.00000E+00
         0.00000E+00
         0.00000E+00
         0.00000E+00
         0.00000E+00
         0.00000E+00
         0.00000E+00
         0.00000E+00
         0.00000E+00
         0.00000E+00
         0.00000E+00
         0.00000E+00
         0.00000E+00
         0.00000E+00
         0.00000E+00
         0.00000E+00
         0.00000E+00
         0.00000E+00
         0.00000E+00
         0.00000E+00
         0.00000E+00
         0.00000E+00
         0.00000E+00
         0.00000E+00
         0.00000E+00
         0.00000E+00
         0.00000E+00
         0.00000E+00
         0.00000E+00
         0.00000E+00
         0.00000E+00
         0.00000E+00
         0.00000E+00
         0.00000E+00
         0.00000E+00
         0.00000E+00
         0.00000E+00
         0.00000E+00
         0.00000E+00
         0.00000E+00
         0.00000E+00
         0.00000E+00
         0.00000E+00
         0.00000E+00
         0.00000E+00
         0.00000E+00
         0.00000E+00
         0.00000E+00
         0.00000E+00
         0.00000E+00
         0.00000E+00
         0.00000E+00
         0.00000E+00
         0.00000E+00
         0.00000E+00
         0.00000E+00
         0.00000E+00
         0.00000E+00
         0.00000E+00
         0.00000E+00
         0.00000E+00
         0.00000E+00
         0.00000E+00
         0.00000E+00
         0.00000E+00
         0.00000E+00
         0.00000E+00
         0.00000E+00
         0.00000E+00
         0.00000E+00
         0.00000E+00
         0.00000E+00
         0.00000E+00
         0.00000E+00
         0.00000E+00
         0.00000E+00
         0.00000E+00
         0.00000E+00
         0.00000E+00
         0.00000E+00
         0.00000E+00
         0.00000E+00
         0.00000E+00
         0.00000E+00
         0.00000E+00
         0.00000E+00
         0.00000E+00
         0.00000E+00
         0.00000E+00
         0.00000E+00
         0.00000E+00
         0.00000E+00
         0.00000E+00
         0.00000E+00
         0.00000E+00
         0.00000E+00
         0.00000E+00
         0.00000E+00
         0.00000E+00
         0.00000E+00
         0.00000E+00
         0.00000E+00
         0.00000E+00
         0.00000E+00
         0.00000E+00
         0.00000E+00
         0.00000E+00
         0.00000E+00
         0.00000E+00
         0.00000E+00
         0.00000E+00
         0.00000E+00
         0.00000E+00
         0.00000E+00
         0.00000E+00
         0.00000E+00
         0.00000E+00
         0.00000E+00
         0.00000E+00
         0.00000E+00
         0.00000E+00
         0.00000E+00
         0.00000E+00
         0.00000E+00
         0.00000E+00
         0.00000E+00
         0.00000E+00
         0.00000E+00
         0.00000E+00
         0.00000E+00
         0.00000E+00
         0.00000E+00
         0.00000E+00
         0.00000E+00
         0.00000E+00
         0.00000E+00
         0.00000E+00
         0.00000E+00
         0.00000E+00
         0.00000E+00
         0.00000E+00
         0.00000E+00
         0.00000E+00
         0.00000E+00
         0.00000E+00
         0.00000E+00
         0.00000E+00
         0.00000E+00
         0.00000E+00
         0.00000E+00
         0.00000E+00
         0.00000E+00
         0.00000E+00
         0.00000E+00
         0.00000E+00
         0.00000E+00
         0.00000E+00
         0.00000E+00
         0.00000E+00
         0.00000E+00
         0.00000E+00
         0.00000E+00
         0.00000E+00
         0.00000E+00
         0.00000E+00
         0.00000E+00
         0.00000E+00
         0.00000E+00
         0.00000E+00
         0.00000E+00
         0.00000E+00
         0.00000E+00
         0.00000E+00
         0.00000E+00
         0.00000E+00
         0.00000E+00
         0.00000E+00
         0.00000E+00
         0.00000E+00
         0.00000E+00
         0.00000E+00
         0.00000E+00
         0.00000E+00
         0.00000E+00
         0.00000E+00
         0.00000E+00
         0.00000E+00
         0.00000E+00
         0.00000E+00
         0.00000E+00
         0.00000E+00
         0.00000E+00
         0.00000E+00
         0.00000E+00
         0.00000E+00
         0.00000E+00
         0.00000E+00
         0.00000E+00
         0.00000E+00
         0.00000E+00
         0.00000E+00
         0.00000E+00
         0.00000E+00
         0.00000E+00
         0.00000E+00
         0.00000E+00
         0.00000E+00
         0.00000E+00
         0.00000E+00
         0.00000E+00
         0.00000E+00
         0.00000E+00
         0.00000E+00
         0.00000E+00
         0.00000E+00
         0.00000E+00
         0.00000E+00
         0.00000E+00
         0.00000E+00
         0.00000E+00
         0.00000E+00
         0.00000E+00
         0.00000E+00
         0.00000E+00
         0.00000E+00
         0.00000E+00
         0.00000E+00
         0.00000E+00
         0.00000E+00
         0.00000E+00
         0.00000E+00
         0.00000E+00
         0.00000E+00
         0.00000E+00
         0.00000E+00
         0.00000E+00
         0.00000E+00
         0.00000E+00
         0.00000E+00
         0.00000E+00
         0.00000E+00
         0.00000E+00
         0.00000E+00
         0.00000E+00
         0.00000E+00
         0.00000E+00
         0.00000E+00
         0.00000E+00
         0.00000E+00
         0.00000E+00
         0.00000E+00
         0.00000E+00
         0.00000E+00
         0.00000E+00
         0.00000E+00
         0.00000E+00
         0.00000E+00
         0.00000E+00
         0.00000E+00
         0.00000E+00
         0.00000E+00
         0.00000E+00
         0.00000E+00
         0.00000E+00
         0.00000E+00
         0.00000E+00
         0.00000E+00
         0.00000E+00
         0.00000E+00
         0.00000E+00
         0.00000E+00
         0.00000E+00
         0.00000E+00
         0.00000E+00
         0.00000E+00
         0.00000E+00
         0.00000E+00
         0.00000E+00
         0.00000E+00
         0.00000E+00
         0.00000E+00
         0.00000E+00
         0.00000E+00
         0.00000E+00
         0.00000E+00
         0.00000E+00
         0.00000E+00
  
SCALARS                 displacement_y  double 1
LOOKUP_TABLE default
         0.00000E+00
         0.00000E+00
         0.00000E+00
         0.00000E+00
         0.00000E+00
         0.00000E+00
         0.00000E+00
         0.00000E+00
         0.00000E+00
         0.00000E+00
         0.00000E+00
         0.00000E+00
         0.00000E+00
         0.00000E+00
         0.00000E+00
         0.00000E+00
         0.00000E+00
         0.00000E+00
         0.00000E+00
         0.00000E+00
         0.00000E+00
         0.00000E+00
         0.00000E+00
         0.00000E+00
         0.00000E+00
         0.00000E+00
         0.00000E+00
         0.00000E+00
         0.00000E+00
         0.00000E+00
         0.00000E+00
         0.00000E+00
         0.00000E+00
         0.00000E+00
         0.00000E+00
         0.00000E+00
         0.00000E+00
         0.00000E+00
         0.00000E+00
         0.00000E+00
         0.00000E+00
         0.00000E+00
         0.00000E+00
         0.00000E+00
         0.00000E+00
         0.00000E+00
         0.00000E+00
         0.00000E+00
         0.00000E+00
         0.00000E+00
         0.00000E+00
         0.00000E+00
         0.00000E+00
         0.00000E+00
         0.00000E+00
         0.00000E+00
         0.00000E+00
         0.00000E+00
         0.00000E+00
         0.00000E+00
         0.00000E+00
         0.00000E+00
         0.00000E+00
         0.00000E+00
         0.00000E+00
         0.00000E+00
         0.00000E+00
         0.00000E+00
         0.00000E+00
         0.00000E+00
         0.00000E+00
         0.00000E+00
         0.00000E+00
         0.00000E+00
         0.00000E+00
         0.00000E+00
         0.00000E+00
         0.00000E+00
         0.00000E+00
         0.00000E+00
         0.00000E+00
         0.00000E+00
         0.00000E+00
         0.00000E+00
         0.00000E+00
         0.00000E+00
         0.00000E+00
         0.00000E+00
         0.00000E+00
         0.00000E+00
         0.00000E+00
         0.00000E+00
         0.00000E+00
         0.00000E+00
         0.00000E+00
         0.00000E+00
         0.00000E+00
         0.00000E+00
         0.00000E+00
         0.00000E+00
         0.00000E+00
         0.00000E+00
         0.00000E+00
         0.00000E+00
         0.00000E+00
         0.00000E+00
         0.00000E+00
         0.00000E+00
         0.00000E+00
         0.00000E+00
         0.00000E+00
         0.00000E+00
         0.00000E+00
         0.00000E+00
         0.00000E+00
         0.00000E+00
         0.00000E+00
         0.00000E+00
         0.00000E+00
         0.00000E+00
         0.00000E+00
         0.00000E+00
         0.00000E+00
         0.00000E+00
         0.00000E+00
         0.00000E+00
         0.00000E+00
         0.00000E+00
         0.00000E+00
         0.00000E+00
         0.00000E+00
         0.00000E+00
         0.00000E+00
         0.00000E+00
         0.00000E+00
         0.00000E+00
         0.00000E+00
         0.00000E+00
         0.00000E+00
         0.00000E+00
         0.00000E+00
         0.00000E+00
         0.00000E+00
         0.00000E+00
         0.00000E+00
         0.00000E+00
         0.00000E+00
         0.00000E+00
         0.00000E+00
         0.00000E+00
         0.00000E+00
         0.00000E+00
         0.00000E+00
         0.00000E+00
         0.00000E+00
         0.00000E+00
         0.00000E+00
         0.00000E+00
         0.00000E+00
         0.00000E+00
         0.00000E+00
         0.00000E+00
         0.00000E+00
         0.00000E+00
         0.00000E+00
         0.00000E+00
         0.00000E+00
         0.00000E+00
         0.00000E+00
         0.00000E+00
         0.00000E+00
         0.00000E+00
         0.00000E+00
         0.00000E+00
         0.00000E+00
         0.00000E+00
         0.00000E+00
         0.00000E+00
         0.00000E+00
         0.00000E+00
         0.00000E+00
         0.00000E+00
         0.00000E+00
         0.00000E+00
         0.00000E+00
         0.00000E+00
         0.00000E+00
         0.00000E+00
         0.00000E+00
         0.00000E+00
         0.00000E+00
         0.00000E+00
         0.00000E+00
         0.00000E+00
         0.00000E+00
         0.00000E+00
         0.00000E+00
         0.00000E+00
         0.00000E+00
         0.00000E+00
         0.00000E+00
         0.00000E+00
         0.00000E+00
         0.00000E+00
         0.00000E+00
         0.00000E+00
         0.00000E+00
         0.00000E+00
         0.00000E+00
         0.00000E+00
         0.00000E+00
         0.00000E+00
         0.00000E+00
         0.00000E+00
         0.00000E+00
         0.00000E+00
         0.00000E+00
         0.00000E+00
         0.00000E+00
         0.00000E+00
         0.00000E+00
         0.00000E+00
         0.00000E+00
         0.00000E+00
         0.00000E+00
         0.00000E+00
         0.00000E+00
         0.00000E+00
         0.00000E+00
         0.00000E+00
         0.00000E+00
         0.00000E+00
         0.00000E+00
         0.00000E+00
         0.00000E+00
         0.00000E+00
         0.00000E+00
         0.00000E+00
         0.00000E+00
         0.00000E+00
         0.00000E+00
         0.00000E+00
         0.00000E+00
         0.00000E+00
         0.00000E+00
         0.00000E+00
         0.00000E+00
         0.00000E+00
         0.00000E+00
         0.00000E+00
         0.00000E+00
         0.00000E+00
         0.00000E+00
         0.00000E+00
         0.00000E+00
         0.00000E+00
         0.00000E+00
         0.00000E+00
         0.00000E+00
         0.00000E+00
         0.00000E+00
         0.00000E+00
         0.00000E+00
         0.00000E+00
         0.00000E+00
         0.00000E+00
         0.00000E+00
         0.00000E+00
         0.00000E+00
         0.00000E+00
         0.00000E+00
         0.00000E+00
         0.00000E+00
         0.00000E+00
         0.00000E+00
         0.00000E+00
         0.00000E+00
         0.00000E+00
         0.00000E+00
         0.00000E+00
         0.00000E+00
         0.00000E+00
         0.00000E+00
         0.00000E+00
         0.00000E+00
         0.00000E+00
         0.00000E+00
         0.00000E+00
         0.00000E+00
         0.00000E+00
         0.00000E+00
         0.00000E+00
         0.00000E+00
         0.00000E+00
         0.00000E+00
         0.00000E+00
         0.00000E+00
         0.00000E+00
         0.00000E+00
         0.00000E+00
         0.00000E+00
         0.00000E+00
         0.00000E+00
         0.00000E+00
         0.00000E+00
         0.00000E+00
         0.00000E+00
         0.00000E+00
         0.00000E+00
         0.00000E+00
         0.00000E+00
         0.00000E+00
         0.00000E+00
         0.00000E+00
         0.00000E+00
         0.00000E+00
         0.00000E+00
         0.00000E+00
         0.00000E+00
         0.00000E+00
         0.00000E+00
         0.00000E+00
         0.00000E+00
         0.00000E+00
         0.00000E+00
         0.00000E+00
         0.00000E+00
         0.00000E+00
         0.00000E+00
         0.00000E+00
         0.00000E+00
         0.00000E+00
         0.00000E+00
         0.00000E+00
         0.00000E+00
         0.00000E+00
         0.00000E+00
         0.00000E+00
         0.00000E+00
         0.00000E+00
         0.00000E+00
         0.00000E+00
         0.00000E+00
         0.00000E+00
         0.00000E+00
         0.00000E+00
         0.00000E+00
         0.00000E+00
         0.00000E+00
         0.00000E+00
         0.00000E+00
         0.00000E+00
         0.00000E+00
         0.00000E+00
         0.00000E+00
         0.00000E+00
         0.00000E+00
         0.00000E+00
         0.00000E+00
         0.00000E+00
         0.00000E+00
         0.00000E+00
         0.00000E+00
         0.00000E+00
         0.00000E+00
         0.00000E+00
         0.00000E+00
         0.00000E+00
         0.00000E+00
         0.00000E+00
         0.00000E+00
         0.00000E+00
         0.00000E+00
         0.00000E+00
         0.00000E+00
         0.00000E+00
         0.00000E+00
         0.00000E+00
         0.00000E+00
         0.00000E+00
         0.00000E+00
         0.00000E+00
         0.00000E+00
         0.00000E+00
         0.00000E+00
         0.00000E+00
         0.00000E+00
         0.00000E+00
         0.00000E+00
         0.00000E+00
         0.00000E+00
         0.00000E+00
         0.00000E+00
         0.00000E+00
         0.00000E+00
         0.00000E+00
         0.00000E+00
         0.00000E+00
         0.00000E+00
         0.00000E+00
         0.00000E+00
         0.00000E+00
         0.00000E+00
         0.00000E+00
         0.00000E+00
         0.00000E+00
         0.00000E+00
         0.00000E+00
         0.00000E+00
         0.00000E+00
         0.00000E+00
         0.00000E+00
         0.00000E+00
         0.00000E+00
         0.00000E+00
         0.00000E+00
         0.00000E+00
         0.00000E+00
         0.00000E+00
         0.00000E+00
         0.00000E+00
         0.00000E+00
         0.00000E+00
         0.00000E+00
         0.00000E+00
         0.00000E+00
         0.00000E+00
         0.00000E+00
         0.00000E+00
         0.00000E+00
         0.00000E+00
         0.00000E+00
         0.00000E+00
         0.00000E+00
         0.00000E+00
         0.00000E+00
         0.00000E+00
         0.00000E+00
         0.00000E+00
         0.00000E+00
         0.00000E+00
         0.00000E+00
         0.00000E+00
         0.00000E+00
         0.00000E+00
         0.00000E+00
         0.00000E+00
         0.00000E+00
         0.00000E+00
         0.00000E+00
         0.00000E+00
         0.00000E+00
         0.00000E+00
         0.00000E+00
         0.00000E+00
         0.00000E+00
         0.00000E+00
         0.00000E+00
         0.00000E+00
         0.00000E+00
         0.00000E+00
         0.00000E+00
         0.00000E+00
         0.00000E+00
         0.00000E+00
         0.00000E+00
         0.00000E+00
         0.00000E+00
         0.00000E+00
         0.00000E+00
         0.00000E+00
         0.00000E+00
         0.00000E+00
         0.00000E+00
         0.00000E+00
         0.00000E+00
         0.00000E+00
         0.00000E+00
         0.00000E+00
         0.00000E+00
         0.00000E+00
         0.00000E+00
         0.00000E+00
         0.00000E+00
         0.00000E+00
         0.00000E+00
         0.00000E+00
         0.00000E+00
         0.00000E+00
         0.00000E+00
         0.00000E+00
         0.00000E+00
         0.00000E+00
         0.00000E+00
         0.00000E+00
         0.00000E+00
         0.00000E+00
         0.00000E+00
         0.00000E+00
         0.00000E+00
         0.00000E+00
         0.00000E+00
         0.00000E+00
         0.00000E+00
         0.00000E+00
         0.00000E+00
         0.00000E+00
         0.00000E+00
         0.00000E+00
         0.00000E+00
         0.00000E+00
         0.00000E+00
         0.00000E+00
         0.00000E+00
         0.00000E+00
         0.00000E+00
         0.00000E+00
         0.00000E+00
         0.00000E+00
         0.00000E+00
         0.00000E+00
         0.00000E+00
         0.00000E+00
         0.00000E+00
         0.00000E+00
         0.00000E+00
         0.00000E+00
         0.00000E+00
         0.00000E+00
         0.00000E+00
         0.00000E+00
         0.00000E+00
         0.00000E+00
         0.00000E+00
         0.00000E+00
         0.00000E+00
         0.00000E+00
         0.00000E+00
         0.00000E+00
         0.00000E+00
         0.00000E+00
         0.00000E+00
         0.00000E+00
         0.00000E+00
         0.00000E+00
         0.00000E+00
         0.00000E+00
         0.00000E+00
         0.00000E+00
         0.00000E+00
         0.00000E+00
         0.00000E+00
         0.00000E+00
         0.00000E+00
         0.00000E+00
         0.00000E+00
         0.00000E+00
         0.00000E+00
         0.00000E+00
         0.00000E+00
         0.00000E+00
         0.00000E+00
         0.00000E+00
         0.00000E+00
         0.00000E+00
         0.00000E+00
         0.00000E+00
         0.00000E+00
         0.00000E+00
         0.00000E+00
         0.00000E+00
         0.00000E+00
         0.00000E+00
         0.00000E+00
         0.00000E+00
         0.00000E+00
         0.00000E+00
         0.00000E+00
         0.00000E+00
         0.00000E+00
         0.00000E+00
         0.00000E+00
         0.00000E+00
         0.00000E+00
         0.00000E+00
         0.00000E+00
         0.00000E+00
         0.00000E+00
         0.00000E+00
         0.00000E+00
         0.00000E+00
         0.00000E+00
         0.00000E+00
         0.00000E+00
         0.00000E+00
         0.00000E+00
         0.00000E+00
         0.00000E+00
         0.00000E+00
         0.00000E+00
         0.00000E+00
         0.00000E+00
         0.00000E+00
         0.00000E+00
         0.00000E+00
         0.00000E+00
         0.00000E+00
         0.00000E+00
         0.00000E+00
         0.00000E+00
         0.00000E+00
         0.00000E+00
         0.00000E+00
         0.00000E+00
         0.00000E+00
         0.00000E+00
         0.00000E+00
         0.00000E+00
         0.00000E+00
         0.00000E+00
         0.00000E+00
         0.00000E+00
         0.00000E+00
         0.00000E+00
         0.00000E+00
         0.00000E+00
         0.00000E+00
         0.00000E+00
         0.00000E+00
         0.00000E+00
         0.00000E+00
         0.00000E+00
         0.00000E+00
         0.00000E+00
         0.00000E+00
         0.00000E+00
         0.00000E+00
         0.00000E+00
         0.00000E+00
         0.00000E+00
         0.00000E+00
         0.00000E+00
         0.00000E+00
         0.00000E+00
         0.00000E+00
         0.00000E+00
         0.00000E+00
         0.00000E+00
         0.00000E+00
         0.00000E+00
         0.00000E+00
         0.00000E+00
         0.00000E+00
         0.00000E+00
         0.00000E+00
         0.00000E+00
         0.00000E+00
         0.00000E+00
         0.00000E+00
         0.00000E+00
         0.00000E+00
         0.00000E+00
         0.00000E+00
         0.00000E+00
         0.00000E+00
         0.00000E+00
         0.00000E+00
         0.00000E+00
         0.00000E+00
         0.00000E+00
         0.00000E+00
         0.00000E+00
         0.00000E+00
         0.00000E+00
         0.00000E+00
         0.00000E+00
         0.00000E+00
         0.00000E+00
         0.00000E+00
         0.00000E+00
         0.00000E+00
         0.00000E+00
         0.00000E+00
         0.00000E+00
         0.00000E+00
         0.00000E+00
         0.00000E+00
         0.00000E+00
         0.00000E+00
         0.00000E+00
         0.00000E+00
         0.00000E+00
         0.00000E+00
         0.00000E+00
         0.00000E+00
         0.00000E+00
         0.00000E+00
         0.00000E+00
         0.00000E+00
         0.00000E+00
         0.00000E+00
         0.00000E+00
         0.00000E+00
         0.00000E+00
         0.00000E+00
         0.00000E+00
         0.00000E+00
         0.00000E+00
         0.00000E+00
         0.00000E+00
         0.00000E+00
         0.00000E+00
         0.00000E+00
         0.00000E+00
         0.00000E+00
         0.00000E+00
         0.00000E+00
         0.00000E+00
         0.00000E+00
         0.00000E+00
         0.00000E+00
         0.00000E+00
         0.00000E+00
         0.00000E+00
         0.00000E+00
         0.00000E+00
         0.00000E+00
         0.00000E+00
         0.00000E+00
         0.00000E+00
         0.00000E+00
         0.00000E+00
         0.00000E+00
         0.00000E+00
         0.00000E+00
         0.00000E+00
         0.00000E+00
         0.00000E+00
         0.00000E+00
         0.00000E+00
         0.00000E+00
         0.00000E+00
         0.00000E+00
         0.00000E+00
         0.00000E+00
         0.00000E+00
         0.00000E+00
         0.00000E+00
         0.00000E+00
         0.00000E+00
         0.00000E+00
         0.00000E+00
         0.00000E+00
         0.00000E+00
         0.00000E+00
         0.00000E+00
         0.00000E+00
         0.00000E+00
         0.00000E+00
         0.00000E+00
         0.00000E+00
         0.00000E+00
         0.00000E+00
         0.00000E+00
         0.00000E+00
         0.00000E+00
         0.00000E+00
         0.00000E+00
         0.00000E+00
         0.00000E+00
         0.00000E+00
         0.00000E+00
         0.00000E+00
         0.00000E+00
         0.00000E+00
         0.00000E+00
         0.00000E+00
         0.00000E+00
         0.00000E+00
         0.00000E+00
         0.00000E+00
         0.00000E+00
         0.00000E+00
         0.00000E+00
         0.00000E+00
         0.00000E+00
         0.00000E+00
         0.00000E+00
         0.00000E+00
         0.00000E+00
         0.00000E+00
         0.00000E+00
         0.00000E+00
         0.00000E+00
         0.00000E+00
         0.00000E+00
         0.00000E+00
         0.00000E+00
         0.00000E+00
         0.00000E+00
         0.00000E+00
         0.00000E+00
         0.00000E+00
         0.00000E+00
         0.00000E+00
         0.00000E+00
         0.00000E+00
         0.00000E+00
         0.00000E+00
         0.00000E+00
         0.00000E+00
         0.00000E+00
         0.00000E+00
         0.00000E+00
         0.00000E+00
         0.00000E+00
         0.00000E+00
         0.00000E+00
         0.00000E+00
         0.00000E+00
         0.00000E+00
         0.00000E+00
         0.00000E+00
         0.00000E+00
         0.00000E+00
         0.00000E+00
         0.00000E+00
         0.00000E+00
         0.00000E+00
         0.00000E+00
         0.00000E+00
         0.00000E+00
         0.00000E+00
         0.00000E+00
         0.00000E+00
         0.00000E+00
         0.00000E+00
         0.00000E+00
         0.00000E+00
         0.00000E+00
         0.00000E+00
         0.00000E+00
         0.00000E+00
         0.00000E+00
         0.00000E+00
         0.00000E+00
         0.00000E+00
         0.00000E+00
         0.00000E+00
         0.00000E+00
         0.00000E+00
         0.00000E+00
         0.00000E+00
         0.00000E+00
         0.00000E+00
         0.00000E+00
         0.00000E+00
         0.00000E+00
         0.00000E+00
         0.00000E+00
         0.00000E+00
         0.00000E+00
         0.00000E+00
         0.00000E+00
         0.00000E+00
         0.00000E+00
         0.00000E+00
         0.00000E+00
         0.00000E+00
         0.00000E+00
         0.00000E+00
         0.00000E+00
         0.00000E+00
         0.00000E+00
         0.00000E+00
         0.00000E+00
         0.00000E+00
         0.00000E+00
         0.00000E+00
         0.00000E+00
         0.00000E+00
         0.00000E+00
         0.00000E+00
         0.00000E+00
         0.00000E+00
         0.00000E+00
         0.00000E+00
         0.00000E+00
         0.00000E+00
         0.00000E+00
         0.00000E+00
         0.00000E+00
         0.00000E+00
         0.00000E+00
         0.00000E+00
         0.00000E+00
         0.00000E+00
         0.00000E+00
         0.00000E+00
         0.00000E+00
         0.00000E+00
         0.00000E+00
         0.00000E+00
         0.00000E+00
         0.00000E+00
         0.00000E+00
         0.00000E+00
         0.00000E+00
         0.00000E+00
         0.00000E+00
         0.00000E+00
         0.00000E+00
         0.00000E+00
         0.00000E+00
         0.00000E+00
         0.00000E+00
         0.00000E+00
         0.00000E+00
         0.00000E+00
         0.00000E+00
         0.00000E+00
         0.00000E+00
         0.00000E+00
         0.00000E+00
         0.00000E+00
         0.00000E+00
         0.00000E+00
         0.00000E+00
         0.00000E+00
         0.00000E+00
         0.00000E+00
         0.00000E+00
         0.00000E+00
         0.00000E+00
         0.00000E+00
         0.00000E+00
         0.00000E+00
         0.00000E+00
         0.00000E+00
         0.00000E+00
         0.00000E+00
         0.00000E+00
         0.00000E+00
         0.00000E+00
         0.00000E+00
         0.00000E+00
         0.00000E+00
         0.00000E+00
         0.00000E+00
         0.00000E+00
         0.00000E+00
         0.00000E+00
         0.00000E+00
         0.00000E+00
         0.00000E+00
         0.00000E+00
         0.00000E+00
         0.00000E+00
         0.00000E+00
         0.00000E+00
         0.00000E+00
         0.00000E+00
         0.00000E+00
         0.00000E+00
         0.00000E+00
         0.00000E+00
         0.00000E+00
         0.00000E+00
         0.00000E+00
         0.00000E+00
         0.00000E+00
         0.00000E+00
         0.00000E+00
         0.00000E+00
         0.00000E+00
         0.00000E+00
         0.00000E+00
         0.00000E+00
         0.00000E+00
         0.00000E+00
         0.00000E+00
         0.00000E+00
         0.00000E+00
         0.00000E+00
         0.00000E+00
         0.00000E+00
         0.00000E+00
         0.00000E+00
         0.00000E+00
         0.00000E+00
         0.00000E+00
         0.00000E+00
         0.00000E+00
         0.00000E+00
         0.00000E+00
         0.00000E+00
         0.00000E+00
         0.00000E+00
         0.00000E+00
         0.00000E+00
         0.00000E+00
         0.00000E+00
         0.00000E+00
         0.00000E+00
         0.00000E+00
         0.00000E+00
         0.00000E+00
         0.00000E+00
         0.00000E+00
         0.00000E+00
         0.00000E+00
         0.00000E+00
         0.00000E+00
         0.00000E+00
         0.00000E+00
         0.00000E+00
         0.00000E+00
         0.00000E+00
         0.00000E+00
         0.00000E+00
         0.00000E+00
         0.00000E+00
         0.00000E+00
         0.00000E+00
         0.00000E+00
         0.00000E+00
         0.00000E+00
         0.00000E+00
         0.00000E+00
         0.00000E+00
         0.00000E+00
         0.00000E+00
         0.00000E+00
         0.00000E+00
         0.00000E+00
         0.00000E+00
         0.00000E+00
         0.00000E+00
         0.00000E+00
         0.00000E+00
         0.00000E+00
         0.00000E+00
         0.00000E+00
         0.00000E+00
         0.00000E+00
         0.00000E+00
         0.00000E+00
         0.00000E+00
         0.00000E+00
         0.00000E+00
         0.00000E+00
         0.00000E+00
         0.00000E+00
         0.00000E+00
         0.00000E+00
         0.00000E+00
         0.00000E+00
         0.00000E+00
         0.00000E+00
         0.00000E+00
         0.00000E+00
         0.00000E+00
         0.00000E+00
         0.00000E+00
         0.00000E+00
         0.00000E+00
         0.00000E+00
         0.00000E+00
         0.00000E+00
         0.00000E+00
         0.00000E+00
         0.00000E+00
         0.00000E+00
         0.00000E+00
         0.00000E+00
         0.00000E+00
         0.00000E+00
         0.00000E+00
         0.00000E+00
         0.00000E+00
         0.00000E+00
         0.00000E+00
         0.00000E+00
         0.00000E+00
         0.00000E+00
         0.00000E+00
         0.00000E+00
         0.00000E+00
         0.00000E+00
         0.00000E+00
         0.00000E+00
         0.00000E+00
         0.00000E+00
         0.00000E+00
         0.00000E+00
         0.00000E+00
         0.00000E+00
         0.00000E+00
         0.00000E+00
         0.00000E+00
         0.00000E+00
         0.00000E+00
         0.00000E+00
         0.00000E+00
         0.00000E+00
         0.00000E+00
         0.00000E+00
         0.00000E+00
         0.00000E+00
         0.00000E+00
         0.00000E+00
         0.00000E+00
         0.00000E+00
         0.00000E+00
         0.00000E+00
         0.00000E+00
         0.00000E+00
         0.00000E+00
         0.00000E+00
         0.00000E+00
         0.00000E+00
         0.00000E+00
         0.00000E+00
         0.00000E+00
         0.00000E+00
         0.00000E+00
         0.00000E+00
         0.00000E+00
         0.00000E+00
         0.00000E+00
         0.00000E+00
         0.00000E+00
         0.00000E+00
         0.00000E+00
         0.00000E+00
         0.00000E+00
         0.00000E+00
         0.00000E+00
         0.00000E+00
         0.00000E+00
         0.00000E+00
         0.00000E+00
         0.00000E+00
         0.00000E+00
         0.00000E+00
         0.00000E+00
         0.00000E+00
         0.00000E+00
         0.00000E+00
         0.00000E+00
         0.00000E+00
         0.00000E+00
         0.00000E+00
         0.00000E+00
         0.00000E+00
         0.00000E+00
         0.00000E+00
         0.00000E+00
         0.00000E+00
         0.00000E+00
         0.00000E+00
         0.00000E+00
         0.00000E+00
         0.00000E+00
         0.00000E+00
         0.00000E+00
         0.00000E+00
         0.00000E+00
         0.00000E+00
         0.00000E+00
         0.00000E+00
         0.00000E+00
         0.00000E+00
         0.00000E+00
         0.00000E+00
         0.00000E+00
         0.00000E+00
         0.00000E+00
         0.00000E+00
         0.00000E+00
         0.00000E+00
         0.00000E+00
         0.00000E+00
         0.00000E+00
         0.00000E+00
         0.00000E+00
         0.00000E+00
         0.00000E+00
         0.00000E+00
         0.00000E+00
         0.00000E+00
         0.00000E+00
         0.00000E+00
         0.00000E+00
         0.00000E+00
         0.00000E+00
         0.00000E+00
         0.00000E+00
         0.00000E+00
         0.00000E+00
         0.00000E+00
         0.00000E+00
         0.00000E+00
         0.00000E+00
         0.00000E+00
         0.00000E+00
         0.00000E+00
         0.00000E+00
         0.00000E+00
         0.00000E+00
         0.00000E+00
         0.00000E+00
         0.00000E+00
         0.00000E+00
         0.00000E+00
         0.00000E+00
         0.00000E+00
         0.00000E+00
         0.00000E+00
         0.00000E+00
         0.00000E+00
         0.00000E+00
         0.00000E+00
         0.00000E+00
         0.00000E+00
         0.00000E+00
         0.00000E+00
         0.00000E+00
         0.00000E+00
         0.00000E+00
         0.00000E+00
         0.00000E+00
         0.00000E+00
         0.00000E+00
         0.00000E+00
         0.00000E+00
         0.00000E+00
         0.00000E+00
         0.00000E+00
         0.00000E+00
         0.00000E+00
         0.00000E+00
         0.00000E+00
         0.00000E+00
         0.00000E+00
         0.00000E+00
         0.00000E+00
         0.00000E+00
         0.00000E+00
         0.00000E+00
         0.00000E+00
         0.00000E+00
         0.00000E+00
         0.00000E+00
         0.00000E+00
         0.00000E+00
         0.00000E+00
         0.00000E+00
         0.00000E+00
         0.00000E+00
         0.00000E+00
         0.00000E+00
         0.00000E+00
         0.00000E+00
         0.00000E+00
         0.00000E+00
         0.00000E+00
         0.00000E+00
         0.00000E+00
         0.00000E+00
         0.00000E+00
         0.00000E+00
         0.00000E+00
         0.00000E+00
         0.00000E+00
         0.00000E+00
         0.00000E+00
         0.00000E+00
         0.00000E+00
         0.00000E+00
         0.00000E+00
         0.00000E+00
         0.00000E+00
         0.00000E+00
         0.00000E+00
         0.00000E+00
         0.00000E+00
         0.00000E+00
         0.00000E+00
         0.00000E+00
         0.00000E+00
         0.00000E+00
         0.00000E+00
         0.00000E+00
         0.00000E+00
         0.00000E+00
         0.00000E+00
         0.00000E+00
         0.00000E+00
         0.00000E+00
         0.00000E+00
         0.00000E+00
         0.00000E+00
         0.00000E+00
         0.00000E+00
         0.00000E+00
         0.00000E+00
         0.00000E+00
         0.00000E+00
         0.00000E+00
         0.00000E+00
         0.00000E+00
         0.00000E+00
         0.00000E+00
         0.00000E+00
         0.00000E+00
         0.00000E+00
         0.00000E+00
         0.00000E+00
         0.00000E+00
         0.00000E+00
         0.00000E+00
         0.00000E+00
         0.00000E+00
         0.00000E+00
         0.00000E+00
         0.00000E+00
         0.00000E+00
         0.00000E+00
         0.00000E+00
         0.00000E+00
         0.00000E+00
         0.00000E+00
         0.00000E+00
         0.00000E+00
         0.00000E+00
         0.00000E+00
         0.00000E+00
         0.00000E+00
         0.00000E+00
         0.00000E+00
         0.00000E+00
         0.00000E+00
         0.00000E+00
         0.00000E+00
         0.00000E+00
         0.00000E+00
         0.00000E+00
         0.00000E+00
         0.00000E+00
         0.00000E+00
         0.00000E+00
         0.00000E+00
         0.00000E+00
         0.00000E+00
         0.00000E+00
         0.00000E+00
         0.00000E+00
         0.00000E+00
         0.00000E+00
         0.00000E+00
         0.00000E+00
         0.00000E+00
         0.00000E+00
         0.00000E+00
         0.00000E+00
         0.00000E+00
         0.00000E+00
         0.00000E+00
         0.00000E+00
         0.00000E+00
         0.00000E+00
         0.00000E+00
         0.00000E+00
         0.00000E+00
         0.00000E+00
         0.00000E+00
         0.00000E+00
         0.00000E+00
         0.00000E+00
         0.00000E+00
         0.00000E+00
         0.00000E+00
         0.00000E+00
         0.00000E+00
         0.00000E+00
         0.00000E+00
         0.00000E+00
         0.00000E+00
         0.00000E+00
         0.00000E+00
         0.00000E+00
         0.00000E+00
         0.00000E+00
         0.00000E+00
         0.00000E+00
         0.00000E+00
         0.00000E+00
         0.00000E+00
         0.00000E+00
         0.00000E+00
         0.00000E+00
         0.00000E+00
         0.00000E+00
         0.00000E+00
         0.00000E+00
         0.00000E+00
         0.00000E+00
         0.00000E+00
         0.00000E+00
         0.00000E+00
         0.00000E+00
         0.00000E+00
         0.00000E+00
         0.00000E+00
         0.00000E+00
         0.00000E+00
         0.00000E+00
         0.00000E+00
         0.00000E+00
         0.00000E+00
         0.00000E+00
         0.00000E+00
         0.00000E+00
         0.00000E+00
         0.00000E+00
         0.00000E+00
         0.00000E+00
         0.00000E+00
         0.00000E+00
         0.00000E+00
         0.00000E+00
         0.00000E+00
         0.00000E+00
         0.00000E+00
         0.00000E+00
         0.00000E+00
         0.00000E+00
         0.00000E+00
         0.00000E+00
         0.00000E+00
         0.00000E+00
         0.00000E+00
         0.00000E+00
         0.00000E+00
         0.00000E+00
         0.00000E+00
         0.00000E+00
         0.00000E+00
         0.00000E+00
         0.00000E+00
         0.00000E+00
         0.00000E+00
         0.00000E+00
         0.00000E+00
         0.00000E+00
         0.00000E+00
         0.00000E+00
         0.00000E+00
         0.00000E+00
         0.00000E+00
         0.00000E+00
         0.00000E+00
         0.00000E+00
         0.00000E+00
         0.00000E+00
         0.00000E+00
         0.00000E+00
         0.00000E+00
         0.00000E+00
         0.00000E+00
         0.00000E+00
         0.00000E+00
         0.00000E+00
         0.00000E+00
         0.00000E+00
         0.00000E+00
         0.00000E+00
         0.00000E+00
         0.00000E+00
         0.00000E+00
         0.00000E+00
         0.00000E+00
         0.00000E+00
         0.00000E+00
         0.00000E+00
         0.00000E+00
         0.00000E+00
         0.00000E+00
         0.00000E+00
         0.00000E+00
         0.00000E+00
         0.00000E+00
         0.00000E+00
         0.00000E+00
         0.00000E+00
         0.00000E+00
         0.00000E+00
         0.00000E+00
         0.00000E+00
         0.00000E+00
         0.00000E+00
         0.00000E+00
         0.00000E+00
         0.00000E+00
         0.00000E+00
         0.00000E+00
         0.00000E+00
         0.00000E+00
         0.00000E+00
         0.00000E+00
         0.00000E+00
         0.00000E+00
         0.00000E+00
         0.00000E+00
         0.00000E+00
         0.00000E+00
         0.00000E+00
         0.00000E+00
         0.00000E+00
         0.00000E+00
         0.00000E+00
         0.00000E+00
         0.00000E+00
         0.00000E+00
         0.00000E+00
         0.00000E+00
         0.00000E+00
         0.00000E+00
         0.00000E+00
         0.00000E+00
         0.00000E+00
         0.00000E+00
         0.00000E+00
         0.00000E+00
         0.00000E+00
         0.00000E+00
         0.00000E+00
         0.00000E+00
         0.00000E+00
         0.00000E+00
         0.00000E+00
         0.00000E+00
         0.00000E+00
         0.00000E+00
         0.00000E+00
         0.00000E+00
         0.00000E+00
         0.00000E+00
         0.00000E+00
         0.00000E+00
         0.00000E+00
         0.00000E+00
         0.00000E+00
         0.00000E+00
         0.00000E+00
         0.00000E+00
         0.00000E+00
         0.00000E+00
         0.00000E+00
         0.00000E+00
         0.00000E+00
         0.00000E+00
         0.00000E+00
         0.00000E+00
         0.00000E+00
         0.00000E+00
         0.00000E+00
         0.00000E+00
         0.00000E+00
         0.00000E+00
         0.00000E+00
         0.00000E+00
         0.00000E+00
         0.00000E+00
         0.00000E+00
         0.00000E+00
         0.00000E+00
         0.00000E+00
         0.00000E+00
         0.00000E+00
         0.00000E+00
         0.00000E+00
         0.00000E+00
         0.00000E+00
         0.00000E+00
         0.00000E+00
         0.00000E+00
         0.00000E+00
         0.00000E+00
         0.00000E+00
         0.00000E+00
         0.00000E+00
         0.00000E+00
         0.00000E+00
         0.00000E+00
         0.00000E+00
         0.00000E+00
         0.00000E+00
         0.00000E+00
         0.00000E+00
         0.00000E+00
         0.00000E+00
         0.00000E+00
         0.00000E+00
         0.00000E+00
         0.00000E+00
         0.00000E+00
         0.00000E+00
         0.00000E+00
         0.00000E+00
         0.00000E+00
         0.00000E+00
         0.00000E+00
         0.00000E+00
         0.00000E+00
         0.00000E+00
         0.00000E+00
         0.00000E+00
         0.00000E+00
         0.00000E+00
         0.00000E+00
         0.00000E+00
         0.00000E+00
         0.00000E+00
         0.00000E+00
         0.00000E+00
         0.00000E+00
         0.00000E+00
         0.00000E+00
         0.00000E+00
         0.00000E+00
         0.00000E+00
         0.00000E+00
         0.00000E+00
         0.00000E+00
         0.00000E+00
         0.00000E+00
         0.00000E+00
         0.00000E+00
         0.00000E+00
         0.00000E+00
         0.00000E+00
         0.00000E+00
         0.00000E+00
         0.00000E+00
         0.00000E+00
         0.00000E+00
         0.00000E+00
         0.00000E+00
         0.00000E+00
         0.00000E+00
         0.00000E+00
         0.00000E+00
         0.00000E+00
         0.00000E+00
         0.00000E+00
         0.00000E+00
         0.00000E+00
         0.00000E+00
         0.00000E+00
         0.00000E+00
         0.00000E+00
         0.00000E+00
         0.00000E+00
         0.00000E+00
         0.00000E+00
         0.00000E+00
         0.00000E+00
         0.00000E+00
         0.00000E+00
         0.00000E+00
         0.00000E+00
         0.00000E+00
         0.00000E+00
         0.00000E+00
         0.00000E+00
         0.00000E+00
         0.00000E+00
         0.00000E+00
         0.00000E+00
         0.00000E+00
         0.00000E+00
         0.00000E+00
         0.00000E+00
         0.00000E+00
         0.00000E+00
         0.00000E+00
         0.00000E+00
         0.00000E+00
         0.00000E+00
         0.00000E+00
         0.00000E+00
         0.00000E+00
         0.00000E+00
         0.00000E+00
         0.00000E+00
         0.00000E+00
         0.00000E+00
         0.00000E+00
         0.00000E+00
         0.00000E+00
         0.00000E+00
         0.00000E+00
         0.00000E+00
         0.00000E+00
         0.00000E+00
         0.00000E+00
         0.00000E+00
         0.00000E+00
         0.00000E+00
         0.00000E+00
         0.00000E+00
         0.00000E+00
         0.00000E+00
         0.00000E+00
         0.00000E+00
         0.00000E+00
         0.00000E+00
         0.00000E+00
         0.00000E+00
         0.00000E+00
         0.00000E+00
         0.00000E+00
         0.00000E+00
         0.00000E+00
         0.00000E+00
         0.00000E+00
         0.00000E+00
         0.00000E+00
         0.00000E+00
         0.00000E+00
         0.00000E+00
         0.00000E+00
         0.00000E+00
         0.00000E+00
         0.00000E+00
         0.00000E+00
         0.00000E+00
         0.00000E+00
         0.00000E+00
         0.00000E+00
         0.00000E+00
         0.00000E+00
         0.00000E+00
         0.00000E+00
         0.00000E+00
         0.00000E+00
         0.00000E+00
         0.00000E+00
         0.00000E+00
         0.00000E+00
         0.00000E+00
         0.00000E+00
         0.00000E+00
         0.00000E+00
         0.00000E+00
         0.00000E+00
         0.00000E+00
         0.00000E+00
         0.00000E+00
         0.00000E+00
         0.00000E+00
         0.00000E+00
         0.00000E+00
         0.00000E+00
         0.00000E+00
         0.00000E+00
         0.00000E+00
         0.00000E+00
         0.00000E+00
         0.00000E+00
         0.00000E+00
         0.00000E+00
         0.00000E+00
         0.00000E+00
         0.00000E+00
         0.00000E+00
         0.00000E+00
         0.00000E+00
         0.00000E+00
         0.00000E+00
         0.00000E+00
         0.00000E+00
         0.00000E+00
         0.00000E+00
         0.00000E+00
         0.00000E+00
         0.00000E+00
         0.00000E+00
         0.00000E+00
         0.00000E+00
         0.00000E+00
         0.00000E+00
         0.00000E+00
         0.00000E+00
         0.00000E+00
         0.00000E+00
         0.00000E+00
         0.00000E+00
         0.00000E+00
         0.00000E+00
         0.00000E+00
         0.00000E+00
         0.00000E+00
         0.00000E+00
         0.00000E+00
         0.00000E+00
         0.00000E+00
         0.00000E+00
         0.00000E+00
         0.00000E+00
         0.00000E+00
         0.00000E+00
         0.00000E+00
         0.00000E+00
         0.00000E+00
         0.00000E+00
         0.00000E+00
         0.00000E+00
         0.00000E+00
         0.00000E+00
         0.00000E+00
         0.00000E+00
         0.00000E+00
         0.00000E+00
         0.00000E+00
         0.00000E+00
         0.00000E+00
         0.00000E+00
         0.00000E+00
         0.00000E+00
         0.00000E+00
         0.00000E+00
         0.00000E+00
         0.00000E+00
         0.00000E+00
         0.00000E+00
         0.00000E+00
         0.00000E+00
         0.00000E+00
         0.00000E+00
         0.00000E+00
         0.00000E+00
         0.00000E+00
         0.00000E+00
         0.00000E+00
         0.00000E+00
         0.00000E+00
         0.00000E+00
         0.00000E+00
         0.00000E+00
         0.00000E+00
         0.00000E+00
         0.00000E+00
         0.00000E+00
         0.00000E+00
         0.00000E+00
         0.00000E+00
         0.00000E+00
         0.00000E+00
         0.00000E+00
         0.00000E+00
         0.00000E+00
         0.00000E+00
         0.00000E+00
         0.00000E+00
         0.00000E+00
         0.00000E+00
         0.00000E+00
         0.00000E+00
         0.00000E+00
         0.00000E+00
         0.00000E+00
         0.00000E+00
         0.00000E+00
         0.00000E+00
         0.00000E+00
         0.00000E+00
         0.00000E+00
         0.00000E+00
         0.00000E+00
         0.00000E+00
         0.00000E+00
         0.00000E+00
         0.00000E+00
         0.00000E+00
         0.00000E+00
         0.00000E+00
         0.00000E+00
         0.00000E+00
         0.00000E+00
         0.00000E+00
         0.00000E+00
         0.00000E+00
         0.00000E+00
         0.00000E+00
         0.00000E+00
         0.00000E+00
         0.00000E+00
         0.00000E+00
         0.00000E+00
         0.00000E+00
         0.00000E+00
         0.00000E+00
         0.00000E+00
         0.00000E+00
         0.00000E+00
         0.00000E+00
         0.00000E+00
         0.00000E+00
         0.00000E+00
         0.00000E+00
         0.00000E+00
         0.00000E+00
         0.00000E+00
         0.00000E+00
         0.00000E+00
         0.00000E+00
         0.00000E+00
         0.00000E+00
         0.00000E+00
         0.00000E+00
         0.00000E+00
         0.00000E+00
         0.00000E+00
         0.00000E+00
         0.00000E+00
         0.00000E+00
         0.00000E+00
         0.00000E+00
         0.00000E+00
         0.00000E+00
         0.00000E+00
         0.00000E+00
         0.00000E+00
         0.00000E+00
         0.00000E+00
         0.00000E+00
         0.00000E+00
         0.00000E+00
         0.00000E+00
         0.00000E+00
         0.00000E+00
         0.00000E+00
         0.00000E+00
         0.00000E+00
         0.00000E+00
         0.00000E+00
         0.00000E+00
  
SCALARS                 displacement_z  double 1
LOOKUP_TABLE default
        -0.10067E-01
        -0.10051E-01
        -0.10049E-01
        -0.10078E-01
        -0.61865E-16
        -0.69370E-16
        -0.66425E-16
        -0.60345E-16
        -0.10019E-01
        -0.10054E-01
        -0.62382E-16
        -0.60371E-16
        -0.10034E-01
        -0.10056E-01
        -0.74121E-16
        -0.69692E-16
        -0.10068E-01
        -0.10073E-01
        -0.54770E-16
        -0.60746E-16
        -0.10022E-01
        -0.10008E-01
        -0.10014E-01
        -0.73461E-16
        -0.64156E-16
        -0.66249E-16
        -0.10050E-01
        -0.10041E-01
        -0.70475E-16
        -0.59434E-16
        -0.10081E-01
        -0.10089E-01
        -0.10076E-01
        -0.60143E-16
        -0.55913E-16
        -0.54362E-16
        -0.10049E-01
        -0.10082E-01
        -0.63629E-16
        -0.58061E-16
        -0.10040E-01
        -0.10067E-01
        -0.54993E-16
        -0.48685E-16
        -0.10014E-01
        -0.10027E-01
        -0.60264E-16
        -0.67337E-16
        -0.10091E-01
        -0.58872E-16
        -0.10045E-01
        -0.69179E-16
        -0.10079E-01
        -0.62169E-16
        -0.10089E-01
        -0.59633E-16
        -0.10062E-01
        -0.10084E-01
        -0.60760E-16
        -0.59175E-16
        -0.10074E-01
        -0.10045E-01
        -0.60929E-16
        -0.68879E-16
        -0.10072E-01
        -0.58794E-16
        -0.10060E-01
        -0.64166E-16
        -0.99737E-02
        -0.10009E-01
        -0.61764E-16
        -0.64717E-16
        -0.10022E-01
        -0.65260E-16
        -0.10059E-01
        -0.51560E-16
        -0.10056E-01
        -0.50047E-16
        -0.10023E-01
        -0.52770E-16
        -0.99853E-02
        -0.10032E-01
        -0.50278E-16
        -0.52418E-16
        -0.10070E-01
        -0.48820E-16
        -0.10018E-01
        -0.64020E-16
        -0.10004E-01
        -0.65524E-16
        -0.99700E-02
        -0.10016E-01
        -0.62924E-16
        -0.63659E-16
        -0.10048E-01
        -0.57821E-16
        -0.10043E-01
        -0.56996E-16
        -0.10018E-01
        -0.61016E-16
        -0.99821E-02
        -0.10024E-01
        -0.59835E-16
        -0.61591E-16
        -0.98778E-02
        -0.98944E-02
        -0.46454E-16
        -0.43694E-16
        -0.98925E-02
        -0.44358E-16
        -0.98804E-02
        -0.42532E-16
        -0.98815E-02
        -0.41940E-16
        -0.98799E-02
        -0.39634E-16
        -0.98895E-02
        -0.35210E-16
        -0.98937E-02
        -0.31705E-16
        -0.98912E-02
        -0.31485E-16
        -0.98892E-02
        -0.34143E-16
        -0.98746E-02
        -0.35884E-16
        -0.98933E-02
        -0.32765E-16
        -0.98999E-02
        -0.29534E-16
        -0.98982E-02
        -0.29501E-16
        -0.98907E-02
        -0.32975E-16
        -0.98833E-02
        -0.37598E-16
        -0.98794E-02
        -0.40392E-16
        -0.98910E-02
        -0.43623E-16
        -0.98799E-02
        -0.46736E-16
        -0.98967E-02
        -0.42813E-16
        -0.98910E-02
        -0.37559E-16
        -0.98855E-02
        -0.37443E-16
        -0.98951E-02
        -0.40966E-16
        -0.98817E-02
        -0.43674E-16
        -0.98951E-02
        -0.41446E-16
        -0.98954E-02
        -0.40069E-16
        -0.14189E-01
        -0.14186E-01
        -0.14186E-01
        -0.14190E-01
        -0.14182E-01
        -0.14187E-01
        -0.14184E-01
        -0.14187E-01
        -0.14190E-01
        -0.14190E-01
        -0.14182E-01
        -0.14180E-01
        -0.14181E-01
        -0.14186E-01
        -0.14185E-01
        -0.14191E-01
        -0.14193E-01
        -0.14191E-01
        -0.14186E-01
        -0.14192E-01
        -0.14185E-01
        -0.14190E-01
        -0.14181E-01
        -0.14183E-01
        -0.14193E-01
        -0.14185E-01
        -0.14191E-01
        -0.14192E-01
        -0.14188E-01
        -0.14192E-01
        -0.14190E-01
        -0.14185E-01
        -0.14190E-01
        -0.14188E-01
        -0.14176E-01
        -0.14180E-01
        -0.14182E-01
        -0.14188E-01
        -0.14188E-01
        -0.14182E-01
        -0.14177E-01
        -0.14184E-01
        -0.14190E-01
        -0.14181E-01
        -0.14179E-01
        -0.14175E-01
        -0.14181E-01
        -0.14186E-01
        -0.14185E-01
        -0.14181E-01
        -0.14177E-01
        -0.14182E-01
        -0.14165E-01
        -0.14168E-01
        -0.14168E-01
        -0.14166E-01
        -0.14166E-01
        -0.14166E-01
        -0.14168E-01
        -0.14168E-01
        -0.14167E-01
        -0.14167E-01
        -0.14164E-01
        -0.14168E-01
        -0.14169E-01
        -0.14169E-01
        -0.14168E-01
        -0.14167E-01
        -0.14166E-01
        -0.14168E-01
        -0.14166E-01
        -0.14169E-01
        -0.14168E-01
        -0.14167E-01
        -0.14168E-01
        -0.14166E-01
        -0.14168E-01
        -0.14169E-01
        -0.14527E-01
        -0.14527E-01
        -0.14527E-01
        -0.14527E-01
        -0.14527E-01
        -0.14527E-01
        -0.14527E-01
        -0.14527E-01
        -0.14527E-01
        -0.14527E-01
        -0.14527E-01
        -0.14527E-01
        -0.14527E-01
        -0.14527E-01
        -0.14527E-01
        -0.14527E-01
        -0.14527E-01
        -0.14527E-01
        -0.14527E-01
        -0.14527E-01
        -0.14527E-01
        -0.14527E-01
        -0.14527E-01
        -0.14527E-01
        -0.14527E-01
        -0.14527E-01
        -0.14527E-01
        -0.14527E-01
        -0.14527E-01
        -0.14527E-01
        -0.14527E-01
        -0.14527E-01
        -0.14527E-01
        -0.14527E-01
        -0.14527E-01
        -0.14527E-01
        -0.14527E-01
        -0.14527E-01
        -0.14527E-01
        -0.14527E-01
        -0.14527E-01
        -0.14527E-01
        -0.14527E-01
        -0.14527E-01
        -0.14527E-01
        -0.14527E-01
        -0.14527E-01
        -0.14527E-01
        -0.14527E-01
        -0.14527E-01
        -0.14527E-01
        -0.14527E-01
        -0.14527E-01
        -0.14527E-01
        -0.14527E-01
        -0.14527E-01
        -0.14527E-01
        -0.14527E-01
        -0.14527E-01
        -0.14527E-01
        -0.14527E-01
        -0.14527E-01
        -0.14527E-01
        -0.14527E-01
        -0.14527E-01
        -0.14527E-01
        -0.14527E-01
        -0.14527E-01
        -0.14527E-01
        -0.14527E-01
        -0.14527E-01
        -0.14527E-01
        -0.14527E-01
        -0.14527E-01
        -0.14527E-01
        -0.14527E-01
        -0.14527E-01
        -0.14527E-01
        -0.14527E-01
        -0.14527E-01
        -0.14527E-01
        -0.14527E-01
        -0.14527E-01
        -0.14527E-01
        -0.14527E-01
        -0.14527E-01
        -0.14527E-01
        -0.14527E-01
        -0.14527E-01
        -0.14527E-01
        -0.14527E-01
        -0.14527E-01
        -0.14527E-01
        -0.14527E-01
        -0.14527E-01
        -0.14527E-01
        -0.14527E-01
        -0.14527E-01
        -0.14527E-01
        -0.14527E-01
        -0.14527E-01
        -0.14527E-01
        -0.14527E-01
        -0.14527E-01
        -0.14527E-01
        -0.14527E-01
        -0.14527E-01
        -0.14527E-01
        -0.14527E-01
        -0.14527E-01
        -0.14527E-01
        -0.14527E-01
        -0.14527E-01
        -0.14527E-01
        -0.14527E-01
        -0.14527E-01
        -0.14527E-01
        -0.14527E-01
        -0.14527E-01
        -0.14527E-01
        -0.14527E-01
        -0.14527E-01
        -0.14527E-01
        -0.14527E-01
        -0.14527E-01
        -0.14527E-01
        -0.14527E-01
        -0.14527E-01
        -0.14527E-01
        -0.14527E-01
        -0.14527E-01
        -0.14527E-01
        -0.14527E-01
        -0.14527E-01
        -0.14527E-01
        -0.14527E-01
        -0.14527E-01
        -0.14527E-01
        -0.14527E-01
        -0.14527E-01
        -0.14527E-01
        -0.14527E-01
        -0.14527E-01
        -0.14527E-01
        -0.14527E-01
        -0.14527E-01
        -0.14527E-01
        -0.14527E-01
        -0.14527E-01
        -0.14527E-01
        -0.14527E-01
        -0.14527E-01
        -0.14527E-01
        -0.14527E-01
        -0.14527E-01
        -0.14527E-01
        -0.14527E-01
        -0.14527E-01
        -0.14527E-01
        -0.14527E-01
        -0.14527E-01
        -0.14527E-01
        -0.14527E-01
        -0.14527E-01
        -0.14527E-01
        -0.14527E-01
        -0.14527E-01
        -0.14527E-01
        -0.14527E-01
        -0.14527E-01
        -0.14527E-01
        -0.14527E-01
        -0.14527E-01
        -0.14527E-01
        -0.14527E-01
        -0.14527E-01
        -0.14527E-01
        -0.14527E-01
        -0.14527E-01
        -0.14527E-01
        -0.14527E-01
        -0.14527E-01
        -0.14527E-01
        -0.14527E-01
        -0.14527E-01
        -0.14527E-01
        -0.14527E-01
        -0.14527E-01
        -0.14527E-01
        -0.14527E-01
        -0.14527E-01
        -0.14527E-01
        -0.14527E-01
        -0.14527E-01
        -0.14527E-01
        -0.14527E-01
        -0.14527E-01
        -0.14527E-01
        -0.14527E-01
        -0.14527E-01
        -0.14527E-01
        -0.14527E-01
        -0.14527E-01
        -0.14527E-01
        -0.14527E-01
        -0.14527E-01
        -0.14527E-01
        -0.14527E-01
        -0.14527E-01
        -0.14527E-01
        -0.14527E-01
        -0.14527E-01
        -0.14527E-01
        -0.14527E-01
        -0.14527E-01
        -0.14527E-01
        -0.14527E-01
        -0.14527E-01
        -0.14527E-01
        -0.14527E-01
        -0.14527E-01
        -0.14527E-01
        -0.14527E-01
        -0.14527E-01
        -0.14527E-01
        -0.14527E-01
        -0.14527E-01
        -0.14527E-01
        -0.14527E-01
        -0.14527E-01
        -0.14527E-01
        -0.14527E-01
        -0.14527E-01
        -0.14527E-01
        -0.14527E-01
        -0.14527E-01
        -0.14527E-01
        -0.14527E-01
        -0.14527E-01
        -0.14527E-01
        -0.14527E-01
        -0.14527E-01
        -0.14527E-01
        -0.14527E-01
        -0.14527E-01
        -0.14527E-01
        -0.14527E-01
        -0.14527E-01
        -0.14527E-01
        -0.14527E-01
        -0.14527E-01
        -0.14527E-01
        -0.14527E-01
        -0.14527E-01
        -0.14527E-01
        -0.14527E-01
        -0.14527E-01
        -0.14527E-01
        -0.14527E-01
        -0.14527E-01
        -0.14527E-01
        -0.14527E-01
        -0.14527E-01
        -0.14527E-01
        -0.14527E-01
        -0.14527E-01
        -0.14527E-01
        -0.14527E-01
        -0.14527E-01
        -0.14527E-01
        -0.14527E-01
        -0.14527E-01
        -0.14527E-01
        -0.14527E-01
        -0.14527E-01
        -0.14527E-01
        -0.14527E-01
        -0.14527E-01
        -0.14527E-01
        -0.14527E-01
        -0.14527E-01
        -0.14527E-01
        -0.14527E-01
        -0.14527E-01
        -0.14527E-01
        -0.14527E-01
        -0.14527E-01
        -0.14527E-01
        -0.14527E-01
        -0.14527E-01
        -0.14527E-01
        -0.14527E-01
        -0.14527E-01
        -0.14527E-01
        -0.14527E-01
        -0.14527E-01
        -0.14527E-01
        -0.14527E-01
        -0.14527E-01
        -0.14527E-01
        -0.14527E-01
        -0.14527E-01
        -0.14527E-01
        -0.14527E-01
        -0.14527E-01
        -0.14527E-01
        -0.14527E-01
        -0.14527E-01
        -0.14527E-01
        -0.14527E-01
        -0.14527E-01
        -0.14527E-01
        -0.14527E-01
        -0.14527E-01
        -0.14527E-01
        -0.14527E-01
        -0.14527E-01
        -0.14527E-01
        -0.14527E-01
        -0.14527E-01
        -0.14527E-01
        -0.14527E-01
        -0.14527E-01
        -0.14527E-01
        -0.14527E-01
        -0.14527E-01
        -0.14527E-01
        -0.14527E-01
        -0.14527E-01
        -0.14527E-01
        -0.14527E-01
        -0.14527E-01
        -0.14527E-01
        -0.14527E-01
        -0.14527E-01
        -0.14527E-01
        -0.14527E-01
        -0.14527E-01
        -0.14527E-01
        -0.14527E-01
        -0.14527E-01
        -0.14527E-01
        -0.14527E-01
        -0.14527E-01
        -0.14527E-01
        -0.14527E-01
        -0.14527E-01
        -0.14527E-01
        -0.14527E-01
        -0.14527E-01
        -0.14527E-01
        -0.14527E-01
        -0.14527E-01
        -0.14527E-01
        -0.14527E-01
        -0.14527E-01
        -0.14527E-01
        -0.14527E-01
        -0.14527E-01
        -0.14527E-01
        -0.14527E-01
        -0.14527E-01
        -0.14527E-01
        -0.14527E-01
        -0.14527E-01
        -0.14527E-01
        -0.14527E-01
        -0.14527E-01
        -0.14527E-01
        -0.14527E-01
        -0.14527E-01
        -0.14527E-01
        -0.14527E-01
        -0.14527E-01
        -0.14527E-01
        -0.14527E-01
        -0.14527E-01
        -0.14527E-01
        -0.14527E-01
        -0.14527E-01
        -0.14527E-01
        -0.14527E-01
        -0.14527E-01
        -0.14527E-01
        -0.14527E-01
        -0.14527E-01
        -0.14527E-01
        -0.14527E-01
        -0.14527E-01
        -0.14527E-01
        -0.14527E-01
        -0.14527E-01
        -0.14527E-01
        -0.14527E-01
        -0.14527E-01
        -0.14527E-01
        -0.14527E-01
        -0.14527E-01
        -0.14527E-01
        -0.14527E-01
        -0.14527E-01
        -0.14527E-01
        -0.14527E-01
        -0.14527E-01
        -0.14527E-01
        -0.14527E-01
        -0.14527E-01
        -0.14527E-01
        -0.14527E-01
        -0.14527E-01
        -0.14527E-01
        -0.14527E-01
        -0.14527E-01
        -0.14527E-01
        -0.14527E-01
        -0.14527E-01
        -0.14527E-01
        -0.14527E-01
        -0.14527E-01
        -0.14527E-01
        -0.14527E-01
        -0.14527E-01
        -0.14527E-01
        -0.14527E-01
        -0.14527E-01
        -0.14527E-01
        -0.14527E-01
        -0.14527E-01
        -0.14527E-01
        -0.14527E-01
        -0.14527E-01
        -0.14527E-01
        -0.14527E-01
        -0.14527E-01
        -0.14527E-01
        -0.14527E-01
        -0.14527E-01
        -0.14527E-01
        -0.14527E-01
        -0.14527E-01
        -0.14527E-01
        -0.14527E-01
        -0.14527E-01
        -0.14527E-01
        -0.14527E-01
        -0.14527E-01
        -0.14527E-01
        -0.14527E-01
        -0.14527E-01
        -0.14527E-01
        -0.14527E-01
        -0.14527E-01
        -0.14527E-01
        -0.14527E-01
        -0.14527E-01
        -0.14527E-01
        -0.14527E-01
        -0.14527E-01
        -0.14527E-01
        -0.14527E-01
        -0.14527E-01
        -0.14527E-01
        -0.14527E-01
        -0.14527E-01
        -0.14527E-01
        -0.14527E-01
        -0.14527E-01
        -0.14527E-01
        -0.14527E-01
        -0.14527E-01
        -0.14527E-01
        -0.14527E-01
        -0.14527E-01
        -0.14527E-01
        -0.14527E-01
        -0.14527E-01
        -0.14527E-01
        -0.14527E-01
        -0.14527E-01
        -0.14527E-01
        -0.14527E-01
        -0.14527E-01
        -0.14527E-01
        -0.14527E-01
        -0.14527E-01
        -0.14527E-01
        -0.14527E-01
        -0.14527E-01
        -0.14527E-01
        -0.14527E-01
        -0.14527E-01
        -0.14527E-01
        -0.14527E-01
        -0.14527E-01
        -0.14527E-01
        -0.14527E-01
        -0.14527E-01
        -0.14527E-01
        -0.14527E-01
        -0.14527E-01
        -0.14527E-01
        -0.14527E-01
        -0.14527E-01
        -0.14527E-01
        -0.14527E-01
        -0.14527E-01
        -0.14527E-01
        -0.14527E-01
        -0.14527E-01
        -0.14527E-01
        -0.14527E-01
        -0.14527E-01
        -0.14527E-01
        -0.14527E-01
        -0.14527E-01
        -0.14527E-01
        -0.14527E-01
        -0.14527E-01
        -0.14527E-01
        -0.14527E-01
        -0.14527E-01
        -0.14527E-01
        -0.14527E-01
        -0.14527E-01
        -0.14527E-01
        -0.14527E-01
        -0.14527E-01
        -0.14527E-01
        -0.14527E-01
        -0.14527E-01
        -0.14527E-01
        -0.14527E-01
        -0.14527E-01
        -0.14527E-01
        -0.14527E-01
        -0.14527E-01
        -0.14527E-01
        -0.14527E-01
        -0.14527E-01
        -0.14527E-01
        -0.14527E-01
        -0.14527E-01
        -0.14527E-01
        -0.14527E-01
        -0.14527E-01
        -0.14527E-01
        -0.14527E-01
        -0.14527E-01
        -0.14527E-01
        -0.14527E-01
        -0.14527E-01
        -0.14527E-01
        -0.14527E-01
        -0.14527E-01
        -0.14527E-01
        -0.14527E-01
        -0.14527E-01
        -0.14527E-01
        -0.14527E-01
        -0.14527E-01
        -0.14527E-01
        -0.14527E-01
        -0.14527E-01
        -0.14527E-01
        -0.14527E-01
        -0.14527E-01
        -0.14527E-01
        -0.14527E-01
        -0.14527E-01
        -0.14527E-01
        -0.14527E-01
        -0.14527E-01
        -0.14527E-01
        -0.14527E-01
        -0.14527E-01
        -0.14527E-01
        -0.14527E-01
        -0.14527E-01
        -0.14527E-01
        -0.14527E-01
        -0.14527E-01
        -0.14527E-01
        -0.14527E-01
        -0.14527E-01
        -0.14527E-01
        -0.14527E-01
        -0.14527E-01
        -0.14527E-01
        -0.14527E-01
        -0.14527E-01
        -0.14527E-01
        -0.14527E-01
        -0.14527E-01
        -0.14527E-01
        -0.14527E-01
        -0.14527E-01
        -0.14527E-01
        -0.14527E-01
        -0.14527E-01
        -0.14527E-01
        -0.14527E-01
        -0.14527E-01
        -0.14527E-01
        -0.14527E-01
        -0.14527E-01
        -0.14527E-01
        -0.14527E-01
        -0.14527E-01
        -0.14527E-01
        -0.14527E-01
        -0.14527E-01
        -0.14527E-01
        -0.14527E-01
        -0.14527E-01
        -0.14527E-01
        -0.14527E-01
        -0.14527E-01
        -0.14527E-01
        -0.14527E-01
        -0.14527E-01
        -0.14527E-01
        -0.14527E-01
        -0.14527E-01
        -0.14527E-01
        -0.14527E-01
        -0.14527E-01
        -0.14527E-01
        -0.14527E-01
        -0.14527E-01
        -0.14527E-01
        -0.14527E-01
        -0.14527E-01
        -0.14527E-01
        -0.14527E-01
        -0.14527E-01
        -0.14527E-01
        -0.14527E-01
        -0.14527E-01
        -0.14527E-01
        -0.14527E-01
        -0.14527E-01
        -0.14527E-01
        -0.14527E-01
        -0.14527E-01
        -0.14527E-01
        -0.14527E-01
        -0.14527E-01
        -0.14527E-01
        -0.14527E-01
        -0.14527E-01
        -0.14527E-01
        -0.14527E-01
        -0.14527E-01
        -0.14527E-01
        -0.14527E-01
        -0.14527E-01
        -0.14527E-01
        -0.14527E-01
        -0.14527E-01
        -0.14527E-01
        -0.14527E-01
        -0.14527E-01
        -0.14527E-01
        -0.14527E-01
        -0.14527E-01
        -0.14527E-01
        -0.14527E-01
        -0.14527E-01
        -0.14527E-01
        -0.14527E-01
        -0.14527E-01
        -0.14527E-01
        -0.14527E-01
        -0.14527E-01
        -0.14527E-01
        -0.14527E-01
        -0.14527E-01
        -0.14527E-01
        -0.14527E-01
        -0.14527E-01
        -0.14527E-01
        -0.14527E-01
        -0.14527E-01
        -0.14527E-01
        -0.14527E-01
        -0.14527E-01
        -0.14527E-01
        -0.14527E-01
        -0.14527E-01
        -0.14527E-01
        -0.14527E-01
        -0.14527E-01
        -0.14527E-01
        -0.14527E-01
        -0.14527E-01
        -0.14527E-01
        -0.14527E-01
        -0.14527E-01
        -0.14527E-01
        -0.14527E-01
        -0.14527E-01
        -0.14527E-01
        -0.14527E-01
        -0.14527E-01
        -0.14527E-01
        -0.14527E-01
        -0.14527E-01
        -0.14527E-01
        -0.14527E-01
        -0.14527E-01
        -0.14527E-01
        -0.14527E-01
        -0.14527E-01
        -0.14527E-01
        -0.14527E-01
        -0.14527E-01
        -0.14527E-01
        -0.14527E-01
        -0.14527E-01
        -0.14527E-01
        -0.14527E-01
        -0.14527E-01
        -0.14527E-01
        -0.14527E-01
        -0.14527E-01
        -0.14527E-01
        -0.14527E-01
        -0.14527E-01
        -0.14527E-01
        -0.14527E-01
        -0.14527E-01
        -0.14527E-01
        -0.14527E-01
        -0.14527E-01
        -0.14527E-01
        -0.14527E-01
        -0.14527E-01
        -0.14527E-01
        -0.14527E-01
        -0.14527E-01
        -0.14527E-01
        -0.14527E-01
        -0.14527E-01
        -0.14527E-01
        -0.14527E-01
        -0.14527E-01
        -0.14527E-01
        -0.14527E-01
        -0.14527E-01
        -0.14527E-01
        -0.14527E-01
        -0.14527E-01
        -0.14527E-01
        -0.14527E-01
        -0.14527E-01
        -0.14527E-01
        -0.14527E-01
        -0.14527E-01
        -0.14527E-01
        -0.14527E-01
        -0.14527E-01
        -0.14527E-01
        -0.14527E-01
        -0.14527E-01
        -0.14527E-01
        -0.14527E-01
        -0.14527E-01
        -0.14527E-01
        -0.14527E-01
        -0.14527E-01
        -0.14527E-01
        -0.14527E-01
        -0.14527E-01
        -0.14527E-01
        -0.14527E-01
        -0.14527E-01
        -0.14527E-01
        -0.14527E-01
        -0.14527E-01
        -0.14527E-01
        -0.14527E-01
        -0.14527E-01
        -0.14527E-01
        -0.14527E-01
        -0.14527E-01
        -0.14527E-01
        -0.14527E-01
        -0.14527E-01
        -0.14527E-01
        -0.14527E-01
        -0.14527E-01
        -0.14527E-01
        -0.14527E-01
        -0.14527E-01
        -0.14527E-01
        -0.14527E-01
        -0.14527E-01
        -0.14527E-01
        -0.14527E-01
        -0.14527E-01
        -0.14527E-01
        -0.14527E-01
        -0.14527E-01
        -0.14527E-01
        -0.14527E-01
        -0.14527E-01
        -0.14527E-01
        -0.14527E-01
        -0.14527E-01
        -0.14527E-01
        -0.14527E-01
        -0.14527E-01
        -0.14527E-01
        -0.14527E-01
        -0.14527E-01
        -0.14527E-01
        -0.14527E-01
        -0.14527E-01
        -0.14527E-01
        -0.14527E-01
        -0.14527E-01
        -0.14527E-01
        -0.14527E-01
        -0.14527E-01
        -0.14527E-01
        -0.14527E-01
        -0.14527E-01
        -0.14527E-01
        -0.14527E-01
        -0.14527E-01
        -0.14527E-01
        -0.14527E-01
        -0.14527E-01
        -0.14527E-01
        -0.14527E-01
        -0.14527E-01
        -0.14527E-01
        -0.14527E-01
        -0.14527E-01
        -0.14527E-01
        -0.14527E-01
        -0.14527E-01
        -0.14527E-01
        -0.14527E-01
        -0.14527E-01
        -0.14527E-01
        -0.14527E-01
        -0.14527E-01
        -0.14527E-01
        -0.14527E-01
        -0.14527E-01
        -0.14527E-01
        -0.14527E-01
        -0.14527E-01
        -0.14527E-01
        -0.14527E-01
        -0.14527E-01
        -0.14527E-01
        -0.14527E-01
        -0.14527E-01
        -0.14527E-01
        -0.14527E-01
        -0.14527E-01
        -0.14527E-01
        -0.14527E-01
        -0.14527E-01
        -0.14527E-01
        -0.14527E-01
        -0.14527E-01
        -0.14527E-01
        -0.14527E-01
        -0.14527E-01
        -0.14527E-01
        -0.14527E-01
        -0.14527E-01
        -0.14527E-01
        -0.14527E-01
        -0.14527E-01
        -0.14527E-01
        -0.14527E-01
        -0.14527E-01
        -0.14527E-01
        -0.14527E-01
        -0.14527E-01
        -0.14527E-01
        -0.14527E-01
        -0.14527E-01
        -0.14527E-01
        -0.14527E-01
        -0.14527E-01
        -0.14527E-01
        -0.14527E-01
        -0.14527E-01
        -0.14527E-01
        -0.14527E-01
        -0.14527E-01
        -0.14527E-01
        -0.14527E-01
        -0.14527E-01
        -0.14527E-01
        -0.14527E-01
        -0.14527E-01
        -0.14527E-01
        -0.14527E-01
        -0.14527E-01
        -0.14527E-01
        -0.14527E-01
        -0.14527E-01
        -0.14527E-01
        -0.14527E-01
        -0.14527E-01
        -0.14527E-01
        -0.14527E-01
        -0.14527E-01
        -0.14527E-01
        -0.14527E-01
        -0.14527E-01
        -0.14527E-01
        -0.14527E-01
        -0.14527E-01
        -0.14527E-01
        -0.14527E-01
        -0.14527E-01
        -0.14527E-01
        -0.14527E-01
        -0.14527E-01
        -0.14527E-01
        -0.14527E-01
        -0.14527E-01
        -0.14527E-01
        -0.14527E-01
        -0.14527E-01
        -0.14527E-01
        -0.14527E-01
        -0.14527E-01
        -0.14527E-01
        -0.14527E-01
        -0.14527E-01
        -0.14527E-01
        -0.14527E-01
        -0.14527E-01
        -0.14527E-01
        -0.14527E-01
        -0.14527E-01
        -0.14527E-01
        -0.14527E-01
        -0.14527E-01
        -0.14527E-01
        -0.14527E-01
        -0.14527E-01
        -0.14527E-01
        -0.14527E-01
        -0.14527E-01
        -0.14527E-01
        -0.14527E-01
        -0.14527E-01
        -0.14527E-01
        -0.14527E-01
        -0.14527E-01
        -0.14527E-01
        -0.14527E-01
        -0.14527E-01
        -0.14527E-01
        -0.14527E-01
        -0.14527E-01
        -0.14527E-01
        -0.14527E-01
        -0.14527E-01
        -0.14527E-01
        -0.14527E-01
        -0.14527E-01
        -0.14527E-01
        -0.14527E-01
        -0.14527E-01
        -0.14527E-01
        -0.14527E-01
        -0.14527E-01
        -0.14527E-01
        -0.14527E-01
        -0.14527E-01
        -0.14527E-01
        -0.14527E-01
        -0.14527E-01
        -0.14527E-01
        -0.14527E-01
        -0.14527E-01
        -0.14527E-01
        -0.14527E-01
        -0.14527E-01
        -0.14527E-01
        -0.14527E-01
        -0.14527E-01
        -0.14527E-01
        -0.14527E-01
        -0.14527E-01
        -0.14527E-01
        -0.14527E-01
        -0.14527E-01
        -0.14527E-01
        -0.14527E-01
        -0.14527E-01
        -0.14527E-01
        -0.14527E-01
        -0.14527E-01
        -0.14527E-01
        -0.14527E-01
        -0.14527E-01
        -0.14527E-01
        -0.14527E-01
        -0.14527E-01
        -0.14527E-01
        -0.14527E-01
        -0.14527E-01
        -0.14527E-01
        -0.14527E-01
        -0.14527E-01
        -0.14527E-01
        -0.14527E-01
        -0.14527E-01
        -0.14527E-01
        -0.14527E-01
        -0.14527E-01
        -0.14527E-01
        -0.14527E-01
        -0.14527E-01
        -0.14527E-01
        -0.14527E-01
        -0.14527E-01
        -0.14527E-01
        -0.14527E-01
        -0.14527E-01
        -0.14527E-01
        -0.14527E-01
        -0.14527E-01
        -0.14527E-01
        -0.14527E-01
        -0.14527E-01
        -0.14527E-01
        -0.14527E-01
        -0.14527E-01
        -0.14527E-01
        -0.14527E-01
        -0.14527E-01
        -0.14527E-01
        -0.14527E-01
        -0.14527E-01
        -0.14527E-01
        -0.14527E-01
        -0.14527E-01
        -0.14527E-01
        -0.14527E-01
        -0.14527E-01
        -0.14527E-01
        -0.14527E-01
        -0.14527E-01
        -0.14527E-01
        -0.14527E-01
        -0.14527E-01
        -0.14527E-01
        -0.14527E-01
        -0.14527E-01
        -0.14527E-01
        -0.14527E-01
        -0.14527E-01
        -0.14527E-01
        -0.14527E-01
        -0.14527E-01
        -0.14527E-01
        -0.14527E-01
        -0.14527E-01
        -0.14527E-01
        -0.14527E-01
        -0.14527E-01
        -0.14527E-01
        -0.14527E-01
        -0.14527E-01
        -0.14527E-01
        -0.14527E-01
        -0.14527E-01
        -0.14527E-01
        -0.14527E-01
        -0.14527E-01
        -0.14527E-01
        -0.14527E-01
        -0.14527E-01
        -0.14527E-01
        -0.14527E-01
        -0.14527E-01
        -0.14527E-01
        -0.14527E-01
        -0.14527E-01
        -0.14527E-01
        -0.14527E-01
        -0.14527E-01
        -0.14527E-01
        -0.14527E-01
        -0.14527E-01
        -0.14527E-01
        -0.14527E-01
        -0.14527E-01
        -0.14527E-01
        -0.14527E-01
        -0.14527E-01
        -0.14527E-01
        -0.14527E-01
        -0.14527E-01
        -0.14527E-01
        -0.14527E-01
        -0.14527E-01
        -0.14527E-01
        -0.14527E-01
        -0.14527E-01
        -0.14527E-01
        -0.14527E-01
        -0.14527E-01
        -0.14527E-01
        -0.14527E-01
        -0.14527E-01
        -0.14527E-01
        -0.14527E-01
        -0.14527E-01
        -0.14527E-01
        -0.14527E-01
        -0.14527E-01
        -0.14527E-01
        -0.14527E-01
        -0.14527E-01
        -0.14527E-01
        -0.14527E-01
        -0.14527E-01
        -0.14527E-01
        -0.14527E-01
        -0.14527E-01
        -0.14527E-01
        -0.14527E-01
        -0.14527E-01
        -0.14527E-01
        -0.14527E-01
        -0.14527E-01
        -0.14527E-01
        -0.14527E-01
        -0.14527E-01
        -0.14527E-01
        -0.14527E-01
        -0.14527E-01
        -0.14527E-01
        -0.14527E-01
        -0.14527E-01
        -0.14527E-01
        -0.14527E-01
        -0.14527E-01
        -0.14527E-01
        -0.14527E-01
        -0.14527E-01
        -0.14527E-01
        -0.14527E-01
        -0.14527E-01
        -0.14527E-01
        -0.14527E-01
        -0.14527E-01
        -0.14527E-01
        -0.14527E-01
        -0.14527E-01
        -0.14527E-01
        -0.14527E-01
        -0.14527E-01
        -0.14527E-01
        -0.14527E-01
        -0.14527E-01
        -0.14527E-01
        -0.14527E-01
        -0.14527E-01
        -0.14527E-01
        -0.14527E-01
        -0.14527E-01
        -0.14527E-01
        -0.14527E-01
        -0.14527E-01
        -0.14527E-01
        -0.14527E-01
        -0.14527E-01
        -0.14527E-01
        -0.14527E-01
        -0.14527E-01
        -0.14527E-01
        -0.14527E-01
        -0.14527E-01
        -0.14527E-01
        -0.14527E-01
        -0.14527E-01
        -0.14527E-01
        -0.14527E-01
        -0.14527E-01
        -0.14527E-01
        -0.14527E-01
        -0.14527E-01
        -0.14527E-01
        -0.14527E-01
        -0.14527E-01
        -0.14527E-01
        -0.14527E-01
        -0.14527E-01
        -0.14527E-01
        -0.14527E-01
        -0.14527E-01
        -0.14527E-01
        -0.14527E-01
        -0.14527E-01
        -0.14527E-01
        -0.14527E-01
        -0.14527E-01
        -0.14527E-01
        -0.14527E-01
        -0.14527E-01
        -0.14527E-01
        -0.14527E-01
        -0.14527E-01
        -0.14527E-01
        -0.14527E-01
        -0.14527E-01
        -0.14527E-01
        -0.14527E-01
        -0.14527E-01
        -0.14527E-01
        -0.14527E-01
        -0.14527E-01
        -0.14527E-01
        -0.14527E-01
        -0.14527E-01
        -0.14527E-01
        -0.14527E-01
        -0.14527E-01
        -0.14527E-01
        -0.14527E-01
        -0.14527E-01
        -0.14527E-01
        -0.14527E-01
        -0.14527E-01
        -0.14527E-01
        -0.14527E-01
        -0.14527E-01
        -0.14527E-01
        -0.14527E-01
        -0.14527E-01
        -0.14527E-01
        -0.14527E-01
        -0.14527E-01
        -0.14527E-01
        -0.14527E-01
        -0.14527E-01
        -0.14527E-01
        -0.14527E-01
        -0.14527E-01
        -0.14527E-01
        -0.14527E-01
        -0.14527E-01
        -0.14527E-01
        -0.14527E-01
        -0.14527E-01
        -0.14527E-01
        -0.14527E-01
        -0.14527E-01
        -0.14527E-01
        -0.14527E-01
        -0.14527E-01
        -0.14527E-01
        -0.14527E-01
        -0.14527E-01
        -0.14527E-01
        -0.14527E-01
        -0.14527E-01
        -0.14527E-01
        -0.14527E-01
        -0.14527E-01
        -0.14527E-01
        -0.14527E-01
        -0.14527E-01
        -0.14527E-01
        -0.14527E-01
        -0.14527E-01
        -0.14527E-01
        -0.14527E-01
        -0.14527E-01
        -0.14527E-01
        -0.14527E-01
        -0.14527E-01
        -0.14527E-01
        -0.14527E-01
        -0.14527E-01
        -0.14527E-01
        -0.14527E-01
        -0.14527E-01
        -0.14527E-01
        -0.14527E-01
        -0.14527E-01
        -0.14527E-01
        -0.14527E-01
        -0.14527E-01
        -0.14527E-01
        -0.14527E-01
        -0.14527E-01
        -0.14527E-01
        -0.14527E-01
        -0.14527E-01
        -0.14527E-01
        -0.14527E-01
        -0.14527E-01
        -0.14527E-01
        -0.14527E-01
        -0.14527E-01
        -0.14527E-01
        -0.14527E-01
        -0.14527E-01
        -0.14527E-01
        -0.14527E-01
        -0.14527E-01
        -0.14527E-01
        -0.14527E-01
        -0.14527E-01
        -0.14527E-01
        -0.14527E-01
        -0.14527E-01
        -0.14527E-01
        -0.14527E-01
        -0.14527E-01
        -0.14527E-01
        -0.14527E-01
        -0.14527E-01
        -0.14527E-01
        -0.14527E-01
        -0.14527E-01
        -0.14527E-01
        -0.14527E-01
        -0.14527E-01
        -0.14527E-01
        -0.14527E-01
        -0.14527E-01
        -0.14527E-01
        -0.14527E-01
        -0.14527E-01
        -0.14527E-01
        -0.14527E-01
        -0.14527E-01
        -0.14527E-01
        -0.14527E-01
        -0.14527E-01
        -0.14527E-01
        -0.14527E-01
        -0.14527E-01
        -0.14527E-01
        -0.14527E-01
        -0.14527E-01
        -0.14527E-01
        -0.14527E-01
        -0.14527E-01
        -0.14527E-01
        -0.14527E-01
        -0.14527E-01
        -0.14527E-01
        -0.14527E-01
        -0.14527E-01
        -0.14527E-01
        -0.14527E-01
        -0.14527E-01
        -0.14527E-01
        -0.14527E-01
        -0.14527E-01
        -0.14527E-01
        -0.14527E-01
        -0.14527E-01
        -0.14527E-01
        -0.14527E-01
        -0.14527E-01
        -0.14527E-01
        -0.14527E-01
        -0.14527E-01
        -0.14527E-01
        -0.14527E-01
        -0.14527E-01
        -0.14527E-01
        -0.14527E-01
        -0.14527E-01
        -0.14527E-01
        -0.14527E-01
        -0.14527E-01
        -0.14527E-01
        -0.14527E-01
        -0.14527E-01
        -0.14527E-01
        -0.14527E-01
        -0.14527E-01
        -0.14527E-01
        -0.14527E-01
        -0.14527E-01
        -0.14527E-01
        -0.14527E-01
        -0.14527E-01
        -0.14527E-01
        -0.14527E-01
        -0.14527E-01
        -0.14527E-01
        -0.14527E-01
        -0.14527E-01
        -0.14527E-01
        -0.14527E-01
        -0.14527E-01
        -0.14527E-01
        -0.14527E-01
        -0.14527E-01
        -0.14527E-01
        -0.14527E-01
        -0.14527E-01
        -0.14527E-01
        -0.14527E-01
        -0.14527E-01
        -0.14527E-01
        -0.14527E-01
        -0.14527E-01
        -0.14527E-01
        -0.14527E-01
        -0.14527E-01
        -0.14527E-01
        -0.14527E-01
        -0.14527E-01
        -0.14527E-01
        -0.14527E-01
        -0.14527E-01
        -0.14527E-01
        -0.14527E-01
        -0.14527E-01
        -0.14527E-01
        -0.14527E-01
        -0.14527E-01
        -0.14527E-01
        -0.14527E-01
        -0.14527E-01
        -0.14527E-01
        -0.14527E-01
        -0.14527E-01
        -0.14527E-01
        -0.14527E-01
        -0.14527E-01
        -0.14527E-01
        -0.14527E-01
        -0.14527E-01
        -0.14527E-01
        -0.14527E-01
        -0.14527E-01
        -0.14527E-01
        -0.14527E-01
        -0.14527E-01
        -0.14527E-01
        -0.14527E-01
        -0.14527E-01
        -0.14527E-01
        -0.14527E-01
        -0.14527E-01
        -0.14527E-01
        -0.14527E-01
        -0.14527E-01
        -0.14527E-01
        -0.14527E-01
        -0.14527E-01
        -0.14527E-01
        -0.14527E-01
        -0.14527E-01
        -0.14527E-01
        -0.14527E-01
        -0.14527E-01
        -0.14527E-01
        -0.14527E-01
        -0.14527E-01
        -0.14527E-01
        -0.14527E-01
        -0.14527E-01
        -0.14527E-01
        -0.14527E-01
        -0.14527E-01
        -0.14527E-01
        -0.14527E-01
        -0.14527E-01
        -0.14527E-01
        -0.14527E-01
        -0.14527E-01
        -0.14527E-01
        -0.14527E-01
        -0.14527E-01
        -0.14527E-01
        -0.14527E-01
        -0.14527E-01
        -0.14527E-01
        -0.14527E-01
        -0.14527E-01
        -0.14527E-01
        -0.14527E-01
        -0.14527E-01
        -0.14527E-01
        -0.14527E-01
        -0.14527E-01
        -0.14527E-01
        -0.14527E-01
        -0.14527E-01
        -0.14527E-01
        -0.14527E-01
        -0.14527E-01
        -0.14527E-01
        -0.14527E-01
        -0.14527E-01
        -0.14527E-01
        -0.14527E-01
        -0.14527E-01
        -0.14527E-01
        -0.14527E-01
        -0.14527E-01
        -0.14527E-01
        -0.14527E-01
        -0.14527E-01
        -0.14527E-01
        -0.14527E-01
        -0.14527E-01
        -0.14527E-01
        -0.14527E-01
        -0.14527E-01
        -0.14527E-01
        -0.14527E-01
        -0.14527E-01
        -0.14527E-01
        -0.14527E-01
        -0.14527E-01
        -0.14527E-01
        -0.14527E-01
        -0.14527E-01
        -0.14527E-01
        -0.14527E-01
        -0.14527E-01
        -0.14527E-01
        -0.14527E-01
        -0.14527E-01
        -0.14527E-01
        -0.14527E-01
        -0.14527E-01
        -0.14527E-01
        -0.14527E-01
        -0.14527E-01
        -0.14527E-01
        -0.14527E-01
        -0.14527E-01
        -0.14527E-01
        -0.14527E-01
        -0.14527E-01
        -0.14527E-01
        -0.14527E-01
        -0.14527E-01
        -0.14527E-01
        -0.14527E-01
        -0.14527E-01
        -0.14527E-01
        -0.14527E-01
        -0.14527E-01
        -0.14527E-01
        -0.14527E-01
        -0.14527E-01
        -0.14527E-01
        -0.14527E-01
        -0.14527E-01
        -0.14527E-01
        -0.14527E-01
        -0.14527E-01
        -0.14527E-01
        -0.14527E-01
        -0.14527E-01
        -0.14527E-01
        -0.14527E-01
        -0.14527E-01
        -0.14527E-01
        -0.14527E-01
        -0.14527E-01
        -0.14527E-01
        -0.14527E-01
        -0.14527E-01
        -0.14527E-01
        -0.14527E-01
        -0.14527E-01
        -0.14527E-01
        -0.14527E-01
        -0.14527E-01
        -0.14527E-01
        -0.14527E-01
        -0.14527E-01
        -0.14527E-01
        -0.14527E-01
        -0.14527E-01
        -0.14527E-01
        -0.14527E-01
        -0.14527E-01
        -0.14527E-01
        -0.14527E-01
        -0.14527E-01
        -0.14527E-01
        -0.14527E-01
        -0.14527E-01
        -0.14527E-01
        -0.14527E-01
        -0.14527E-01
        -0.14527E-01
        -0.14527E-01
        -0.14527E-01
        -0.14527E-01
        -0.14527E-01
        -0.14527E-01
        -0.14527E-01
        -0.14527E-01
        -0.14527E-01
        -0.14527E-01
        -0.14527E-01
        -0.14527E-01
        -0.14527E-01
        -0.14527E-01
        -0.14527E-01
        -0.14527E-01
        -0.14527E-01
        -0.14527E-01
        -0.14527E-01
        -0.14527E-01
        -0.14527E-01
        -0.14527E-01
        -0.14527E-01
        -0.14527E-01
        -0.14527E-01
        -0.14527E-01
        -0.14527E-01
        -0.14527E-01
        -0.14527E-01
        -0.14527E-01
        -0.14527E-01
        -0.14527E-01
        -0.14527E-01
        -0.14527E-01
        -0.14527E-01
        -0.14527E-01
        -0.14527E-01
        -0.14527E-01
        -0.14527E-01
        -0.14527E-01
        -0.14527E-01
        -0.14527E-01
        -0.14527E-01
        -0.14527E-01
        -0.14527E-01
        -0.14527E-01
        -0.14527E-01
        -0.14527E-01
        -0.14527E-01
        -0.14527E-01
        -0.14527E-01
        -0.14527E-01
        -0.14527E-01
        -0.14527E-01
        -0.14527E-01
        -0.14527E-01
        -0.14527E-01
        -0.14527E-01
        -0.14527E-01
        -0.14527E-01
        -0.14527E-01
        -0.14527E-01
        -0.14527E-01
        -0.14527E-01
        -0.14527E-01
        -0.14527E-01
        -0.14527E-01
        -0.14527E-01
        -0.14527E-01
        -0.14527E-01
        -0.14527E-01
        -0.14527E-01
        -0.14527E-01
        -0.14527E-01
        -0.14527E-01
        -0.14527E-01
        -0.14527E-01
        -0.14527E-01
        -0.14527E-01
        -0.14527E-01
        -0.14527E-01
        -0.14527E-01
        -0.14527E-01
        -0.14527E-01
        -0.14527E-01
        -0.14527E-01
        -0.14527E-01
        -0.14527E-01
        -0.14527E-01
        -0.14527E-01
        -0.14527E-01
        -0.14527E-01
        -0.14527E-01
        -0.14527E-01
        -0.14527E-01
        -0.14527E-01
        -0.14527E-01
        -0.14527E-01
        -0.14527E-01
        -0.14527E-01
        -0.14527E-01
        -0.14527E-01
        -0.14527E-01
        -0.14527E-01
        -0.14527E-01
        -0.14527E-01
        -0.14527E-01
        -0.14527E-01
        -0.14527E-01
        -0.14527E-01
        -0.14527E-01
        -0.14527E-01
  
SCALARS                     velocity_x  double 1
LOOKUP_TABLE default
         0.00000E+00
         0.00000E+00
         0.00000E+00
         0.00000E+00
         0.00000E+00
         0.00000E+00
         0.00000E+00
         0.00000E+00
         0.00000E+00
         0.00000E+00
         0.00000E+00
         0.00000E+00
         0.00000E+00
         0.00000E+00
         0.00000E+00
         0.00000E+00
         0.00000E+00
         0.00000E+00
         0.00000E+00
         0.00000E+00
         0.00000E+00
         0.00000E+00
         0.00000E+00
         0.00000E+00
         0.00000E+00
         0.00000E+00
         0.00000E+00
         0.00000E+00
         0.00000E+00
         0.00000E+00
         0.00000E+00
         0.00000E+00
         0.00000E+00
         0.00000E+00
         0.00000E+00
         0.00000E+00
         0.00000E+00
         0.00000E+00
         0.00000E+00
         0.00000E+00
         0.00000E+00
         0.00000E+00
         0.00000E+00
         0.00000E+00
         0.00000E+00
         0.00000E+00
         0.00000E+00
         0.00000E+00
         0.00000E+00
         0.00000E+00
         0.00000E+00
         0.00000E+00
         0.00000E+00
         0.00000E+00
         0.00000E+00
         0.00000E+00
         0.00000E+00
         0.00000E+00
         0.00000E+00
         0.00000E+00
         0.00000E+00
         0.00000E+00
         0.00000E+00
         0.00000E+00
         0.00000E+00
         0.00000E+00
         0.00000E+00
         0.00000E+00
         0.00000E+00
         0.00000E+00
         0.00000E+00
         0.00000E+00
         0.00000E+00
         0.00000E+00
         0.00000E+00
         0.00000E+00
         0.00000E+00
         0.00000E+00
         0.00000E+00
         0.00000E+00
         0.00000E+00
         0.00000E+00
         0.00000E+00
         0.00000E+00
         0.00000E+00
         0.00000E+00
         0.00000E+00
         0.00000E+00
         0.00000E+00
         0.00000E+00
         0.00000E+00
         0.00000E+00
         0.00000E+00
         0.00000E+00
         0.00000E+00
         0.00000E+00
         0.00000E+00
         0.00000E+00
         0.00000E+00
         0.00000E+00
         0.00000E+00
         0.00000E+00
         0.00000E+00
         0.00000E+00
         0.00000E+00
         0.00000E+00
         0.00000E+00
         0.00000E+00
         0.00000E+00
         0.00000E+00
         0.00000E+00
         0.00000E+00
         0.00000E+00
         0.00000E+00
         0.00000E+00
         0.00000E+00
         0.00000E+00
         0.00000E+00
         0.00000E+00
         0.00000E+00
         0.00000E+00
         0.00000E+00
         0.00000E+00
         0.00000E+00
         0.00000E+00
         0.00000E+00
         0.00000E+00
         0.00000E+00
         0.00000E+00
         0.00000E+00
         0.00000E+00
         0.00000E+00
         0.00000E+00
         0.00000E+00
         0.00000E+00
         0.00000E+00
         0.00000E+00
         0.00000E+00
         0.00000E+00
         0.00000E+00
         0.00000E+00
         0.00000E+00
         0.00000E+00
         0.00000E+00
         0.00000E+00
         0.00000E+00
         0.00000E+00
         0.00000E+00
         0.00000E+00
         0.00000E+00
         0.00000E+00
         0.00000E+00
         0.00000E+00
         0.00000E+00
         0.00000E+00
         0.00000E+00
         0.00000E+00
         0.00000E+00
         0.00000E+00
         0.00000E+00
         0.00000E+00
         0.00000E+00
         0.00000E+00
         0.00000E+00
         0.00000E+00
         0.00000E+00
         0.00000E+00
         0.00000E+00
         0.00000E+00
         0.00000E+00
         0.00000E+00
         0.00000E+00
         0.00000E+00
         0.00000E+00
         0.00000E+00
         0.00000E+00
         0.00000E+00
         0.00000E+00
         0.00000E+00
         0.00000E+00
         0.00000E+00
         0.00000E+00
         0.00000E+00
         0.00000E+00
         0.00000E+00
         0.00000E+00
         0.00000E+00
         0.00000E+00
         0.00000E+00
         0.00000E+00
         0.00000E+00
         0.00000E+00
         0.00000E+00
         0.00000E+00
         0.00000E+00
         0.00000E+00
         0.00000E+00
         0.00000E+00
         0.00000E+00
         0.00000E+00
         0.00000E+00
         0.00000E+00
         0.00000E+00
         0.00000E+00
         0.00000E+00
         0.00000E+00
         0.00000E+00
         0.00000E+00
         0.00000E+00
         0.00000E+00
         0.00000E+00
         0.00000E+00
         0.00000E+00
         0.00000E+00
         0.00000E+00
         0.00000E+00
         0.00000E+00
         0.00000E+00
         0.00000E+00
         0.00000E+00
         0.00000E+00
         0.00000E+00
         0.00000E+00
         0.00000E+00
         0.00000E+00
         0.00000E+00
         0.00000E+00
         0.00000E+00
         0.00000E+00
         0.00000E+00
         0.00000E+00
         0.00000E+00
         0.00000E+00
         0.00000E+00
         0.00000E+00
         0.00000E+00
         0.00000E+00
         0.00000E+00
         0.00000E+00
         0.00000E+00
         0.00000E+00
         0.00000E+00
         0.00000E+00
         0.00000E+00
         0.00000E+00
         0.00000E+00
         0.00000E+00
         0.00000E+00
         0.00000E+00
         0.00000E+00
         0.00000E+00
         0.00000E+00
         0.00000E+00
         0.00000E+00
         0.00000E+00
         0.00000E+00
         0.00000E+00
         0.00000E+00
         0.00000E+00
         0.00000E+00
         0.00000E+00
         0.00000E+00
         0.00000E+00
         0.00000E+00
         0.00000E+00
         0.00000E+00
         0.00000E+00
         0.00000E+00
         0.00000E+00
         0.00000E+00
         0.00000E+00
         0.00000E+00
         0.00000E+00
         0.00000E+00
         0.00000E+00
         0.00000E+00
         0.00000E+00
         0.00000E+00
         0.00000E+00
         0.00000E+00
         0.00000E+00
         0.00000E+00
         0.00000E+00
         0.00000E+00
         0.00000E+00
         0.00000E+00
         0.00000E+00
         0.00000E+00
         0.00000E+00
         0.00000E+00
         0.00000E+00
         0.00000E+00
         0.00000E+00
         0.00000E+00
         0.00000E+00
         0.00000E+00
         0.00000E+00
         0.00000E+00
         0.00000E+00
         0.00000E+00
         0.00000E+00
         0.00000E+00
         0.00000E+00
         0.00000E+00
         0.00000E+00
         0.00000E+00
         0.00000E+00
         0.00000E+00
         0.00000E+00
         0.00000E+00
         0.00000E+00
         0.00000E+00
         0.00000E+00
         0.00000E+00
         0.00000E+00
         0.00000E+00
         0.00000E+00
         0.00000E+00
         0.00000E+00
         0.00000E+00
         0.00000E+00
         0.00000E+00
         0.00000E+00
         0.00000E+00
         0.00000E+00
         0.00000E+00
         0.00000E+00
         0.00000E+00
         0.00000E+00
         0.00000E+00
         0.00000E+00
         0.00000E+00
         0.00000E+00
         0.00000E+00
         0.00000E+00
         0.00000E+00
         0.00000E+00
         0.00000E+00
         0.00000E+00
         0.00000E+00
         0.00000E+00
         0.00000E+00
         0.00000E+00
         0.00000E+00
         0.00000E+00
         0.00000E+00
         0.00000E+00
         0.00000E+00
         0.00000E+00
         0.00000E+00
         0.00000E+00
         0.00000E+00
         0.00000E+00
         0.00000E+00
         0.00000E+00
         0.00000E+00
         0.00000E+00
         0.00000E+00
         0.00000E+00
         0.00000E+00
         0.00000E+00
         0.00000E+00
         0.00000E+00
         0.00000E+00
         0.00000E+00
         0.00000E+00
         0.00000E+00
         0.00000E+00
         0.00000E+00
         0.00000E+00
         0.00000E+00
         0.00000E+00
         0.00000E+00
         0.00000E+00
         0.00000E+00
         0.00000E+00
         0.00000E+00
         0.00000E+00
         0.00000E+00
         0.00000E+00
         0.00000E+00
         0.00000E+00
         0.00000E+00
         0.00000E+00
         0.00000E+00
         0.00000E+00
         0.00000E+00
         0.00000E+00
         0.00000E+00
         0.00000E+00
         0.00000E+00
         0.00000E+00
         0.00000E+00
         0.00000E+00
         0.00000E+00
         0.00000E+00
         0.00000E+00
         0.00000E+00
         0.00000E+00
         0.00000E+00
         0.00000E+00
         0.00000E+00
         0.00000E+00
         0.00000E+00
         0.00000E+00
         0.00000E+00
         0.00000E+00
         0.00000E+00
         0.00000E+00
         0.00000E+00
         0.00000E+00
         0.00000E+00
         0.00000E+00
         0.00000E+00
         0.00000E+00
         0.00000E+00
         0.00000E+00
         0.00000E+00
         0.00000E+00
         0.00000E+00
         0.00000E+00
         0.00000E+00
         0.00000E+00
         0.00000E+00
         0.00000E+00
         0.00000E+00
         0.00000E+00
         0.00000E+00
         0.00000E+00
         0.00000E+00
         0.00000E+00
         0.00000E+00
         0.00000E+00
         0.00000E+00
         0.00000E+00
         0.00000E+00
         0.00000E+00
         0.00000E+00
         0.00000E+00
         0.00000E+00
         0.00000E+00
         0.00000E+00
         0.00000E+00
         0.00000E+00
         0.00000E+00
         0.00000E+00
         0.00000E+00
         0.00000E+00
         0.00000E+00
         0.00000E+00
         0.00000E+00
         0.00000E+00
         0.00000E+00
         0.00000E+00
         0.00000E+00
         0.00000E+00
         0.00000E+00
         0.00000E+00
         0.00000E+00
         0.00000E+00
         0.00000E+00
         0.00000E+00
         0.00000E+00
         0.00000E+00
         0.00000E+00
         0.00000E+00
         0.00000E+00
         0.00000E+00
         0.00000E+00
         0.00000E+00
         0.00000E+00
         0.00000E+00
         0.00000E+00
         0.00000E+00
         0.00000E+00
         0.00000E+00
         0.00000E+00
         0.00000E+00
         0.00000E+00
         0.00000E+00
         0.00000E+00
         0.00000E+00
         0.00000E+00
         0.00000E+00
         0.00000E+00
         0.00000E+00
         0.00000E+00
         0.00000E+00
         0.00000E+00
         0.00000E+00
         0.00000E+00
         0.00000E+00
         0.00000E+00
         0.00000E+00
         0.00000E+00
         0.00000E+00
         0.00000E+00
         0.00000E+00
         0.00000E+00
         0.00000E+00
         0.00000E+00
         0.00000E+00
         0.00000E+00
         0.00000E+00
         0.00000E+00
         0.00000E+00
         0.00000E+00
         0.00000E+00
         0.00000E+00
         0.00000E+00
         0.00000E+00
         0.00000E+00
         0.00000E+00
         0.00000E+00
         0.00000E+00
         0.00000E+00
         0.00000E+00
         0.00000E+00
         0.00000E+00
         0.00000E+00
         0.00000E+00
         0.00000E+00
         0.00000E+00
         0.00000E+00
         0.00000E+00
         0.00000E+00
         0.00000E+00
         0.00000E+00
         0.00000E+00
         0.00000E+00
         0.00000E+00
         0.00000E+00
         0.00000E+00
         0.00000E+00
         0.00000E+00
         0.00000E+00
         0.00000E+00
         0.00000E+00
         0.00000E+00
         0.00000E+00
         0.00000E+00
         0.00000E+00
         0.00000E+00
         0.00000E+00
         0.00000E+00
         0.00000E+00
         0.00000E+00
         0.00000E+00
         0.00000E+00
         0.00000E+00
         0.00000E+00
         0.00000E+00
         0.00000E+00
         0.00000E+00
         0.00000E+00
         0.00000E+00
         0.00000E+00
         0.00000E+00
         0.00000E+00
         0.00000E+00
         0.00000E+00
         0.00000E+00
         0.00000E+00
         0.00000E+00
         0.00000E+00
         0.00000E+00
         0.00000E+00
         0.00000E+00
         0.00000E+00
         0.00000E+00
         0.00000E+00
         0.00000E+00
         0.00000E+00
         0.00000E+00
         0.00000E+00
         0.00000E+00
         0.00000E+00
         0.00000E+00
         0.00000E+00
         0.00000E+00
         0.00000E+00
         0.00000E+00
         0.00000E+00
         0.00000E+00
         0.00000E+00
         0.00000E+00
         0.00000E+00
         0.00000E+00
         0.00000E+00
         0.00000E+00
         0.00000E+00
         0.00000E+00
         0.00000E+00
         0.00000E+00
         0.00000E+00
         0.00000E+00
         0.00000E+00
         0.00000E+00
         0.00000E+00
         0.00000E+00
         0.00000E+00
         0.00000E+00
         0.00000E+00
         0.00000E+00
         0.00000E+00
         0.00000E+00
         0.00000E+00
         0.00000E+00
         0.00000E+00
         0.00000E+00
         0.00000E+00
         0.00000E+00
         0.00000E+00
         0.00000E+00
         0.00000E+00
         0.00000E+00
         0.00000E+00
         0.00000E+00
         0.00000E+00
         0.00000E+00
         0.00000E+00
         0.00000E+00
         0.00000E+00
         0.00000E+00
         0.00000E+00
         0.00000E+00
         0.00000E+00
         0.00000E+00
         0.00000E+00
         0.00000E+00
         0.00000E+00
         0.00000E+00
         0.00000E+00
         0.00000E+00
         0.00000E+00
         0.00000E+00
         0.00000E+00
         0.00000E+00
         0.00000E+00
         0.00000E+00
         0.00000E+00
         0.00000E+00
         0.00000E+00
         0.00000E+00
         0.00000E+00
         0.00000E+00
         0.00000E+00
         0.00000E+00
         0.00000E+00
         0.00000E+00
         0.00000E+00
         0.00000E+00
         0.00000E+00
         0.00000E+00
         0.00000E+00
         0.00000E+00
         0.00000E+00
         0.00000E+00
         0.00000E+00
         0.00000E+00
         0.00000E+00
         0.00000E+00
         0.00000E+00
         0.00000E+00
         0.00000E+00
         0.00000E+00
         0.00000E+00
         0.00000E+00
         0.00000E+00
         0.00000E+00
         0.00000E+00
         0.00000E+00
         0.00000E+00
         0.00000E+00
         0.00000E+00
         0.00000E+00
         0.00000E+00
         0.00000E+00
         0.00000E+00
         0.00000E+00
         0.00000E+00
         0.00000E+00
         0.00000E+00
         0.00000E+00
         0.00000E+00
         0.00000E+00
         0.00000E+00
         0.00000E+00
         0.00000E+00
         0.00000E+00
         0.00000E+00
         0.00000E+00
         0.00000E+00
         0.00000E+00
         0.00000E+00
         0.00000E+00
         0.00000E+00
         0.00000E+00
         0.00000E+00
         0.00000E+00
         0.00000E+00
         0.00000E+00
         0.00000E+00
         0.00000E+00
         0.00000E+00
         0.00000E+00
         0.00000E+00
         0.00000E+00
         0.00000E+00
         0.00000E+00
         0.00000E+00
         0.00000E+00
         0.00000E+00
         0.00000E+00
         0.00000E+00
         0.00000E+00
         0.00000E+00
         0.00000E+00
         0.00000E+00
         0.00000E+00
         0.00000E+00
         0.00000E+00
         0.00000E+00
         0.00000E+00
         0.00000E+00
         0.00000E+00
         0.00000E+00
         0.00000E+00
         0.00000E+00
         0.00000E+00
         0.00000E+00
         0.00000E+00
         0.00000E+00
         0.00000E+00
         0.00000E+00
         0.00000E+00
         0.00000E+00
         0.00000E+00
         0.00000E+00
         0.00000E+00
         0.00000E+00
         0.00000E+00
         0.00000E+00
         0.00000E+00
         0.00000E+00
         0.00000E+00
         0.00000E+00
         0.00000E+00
         0.00000E+00
         0.00000E+00
         0.00000E+00
         0.00000E+00
         0.00000E+00
         0.00000E+00
         0.00000E+00
         0.00000E+00
         0.00000E+00
         0.00000E+00
         0.00000E+00
         0.00000E+00
         0.00000E+00
         0.00000E+00
         0.00000E+00
         0.00000E+00
         0.00000E+00
         0.00000E+00
         0.00000E+00
         0.00000E+00
         0.00000E+00
         0.00000E+00
         0.00000E+00
         0.00000E+00
         0.00000E+00
         0.00000E+00
         0.00000E+00
         0.00000E+00
         0.00000E+00
         0.00000E+00
         0.00000E+00
         0.00000E+00
         0.00000E+00
         0.00000E+00
         0.00000E+00
         0.00000E+00
         0.00000E+00
         0.00000E+00
         0.00000E+00
         0.00000E+00
         0.00000E+00
         0.00000E+00
         0.00000E+00
         0.00000E+00
         0.00000E+00
         0.00000E+00
         0.00000E+00
         0.00000E+00
         0.00000E+00
         0.00000E+00
         0.00000E+00
         0.00000E+00
         0.00000E+00
         0.00000E+00
         0.00000E+00
         0.00000E+00
         0.00000E+00
         0.00000E+00
         0.00000E+00
         0.00000E+00
         0.00000E+00
         0.00000E+00
         0.00000E+00
         0.00000E+00
         0.00000E+00
         0.00000E+00
         0.00000E+00
         0.00000E+00
         0.00000E+00
         0.00000E+00
         0.00000E+00
         0.00000E+00
         0.00000E+00
         0.00000E+00
         0.00000E+00
         0.00000E+00
         0.00000E+00
         0.00000E+00
         0.00000E+00
         0.00000E+00
         0.00000E+00
         0.00000E+00
         0.00000E+00
         0.00000E+00
         0.00000E+00
         0.00000E+00
         0.00000E+00
         0.00000E+00
         0.00000E+00
         0.00000E+00
         0.00000E+00
         0.00000E+00
         0.00000E+00
         0.00000E+00
         0.00000E+00
         0.00000E+00
         0.00000E+00
         0.00000E+00
         0.00000E+00
         0.00000E+00
         0.00000E+00
         0.00000E+00
         0.00000E+00
         0.00000E+00
         0.00000E+00
         0.00000E+00
         0.00000E+00
         0.00000E+00
         0.00000E+00
         0.00000E+00
         0.00000E+00
         0.00000E+00
         0.00000E+00
         0.00000E+00
         0.00000E+00
         0.00000E+00
         0.00000E+00
         0.00000E+00
         0.00000E+00
         0.00000E+00
         0.00000E+00
         0.00000E+00
         0.00000E+00
         0.00000E+00
         0.00000E+00
         0.00000E+00
         0.00000E+00
         0.00000E+00
         0.00000E+00
         0.00000E+00
         0.00000E+00
         0.00000E+00
         0.00000E+00
         0.00000E+00
         0.00000E+00
         0.00000E+00
         0.00000E+00
         0.00000E+00
         0.00000E+00
         0.00000E+00
         0.00000E+00
         0.00000E+00
         0.00000E+00
         0.00000E+00
         0.00000E+00
         0.00000E+00
         0.00000E+00
         0.00000E+00
         0.00000E+00
         0.00000E+00
         0.00000E+00
         0.00000E+00
         0.00000E+00
         0.00000E+00
         0.00000E+00
         0.00000E+00
         0.00000E+00
         0.00000E+00
         0.00000E+00
         0.00000E+00
         0.00000E+00
         0.00000E+00
         0.00000E+00
         0.00000E+00
         0.00000E+00
         0.00000E+00
         0.00000E+00
         0.00000E+00
         0.00000E+00
         0.00000E+00
         0.00000E+00
         0.00000E+00
         0.00000E+00
         0.00000E+00
         0.00000E+00
         0.00000E+00
         0.00000E+00
         0.00000E+00
         0.00000E+00
         0.00000E+00
         0.00000E+00
         0.00000E+00
         0.00000E+00
         0.00000E+00
         0.00000E+00
         0.00000E+00
         0.00000E+00
         0.00000E+00
         0.00000E+00
         0.00000E+00
         0.00000E+00
         0.00000E+00
         0.00000E+00
         0.00000E+00
         0.00000E+00
         0.00000E+00
         0.00000E+00
         0.00000E+00
         0.00000E+00
         0.00000E+00
         0.00000E+00
         0.00000E+00
         0.00000E+00
         0.00000E+00
         0.00000E+00
         0.00000E+00
         0.00000E+00
         0.00000E+00
         0.00000E+00
         0.00000E+00
         0.00000E+00
         0.00000E+00
         0.00000E+00
         0.00000E+00
         0.00000E+00
         0.00000E+00
         0.00000E+00
         0.00000E+00
         0.00000E+00
         0.00000E+00
         0.00000E+00
         0.00000E+00
         0.00000E+00
         0.00000E+00
         0.00000E+00
         0.00000E+00
         0.00000E+00
         0.00000E+00
         0.00000E+00
         0.00000E+00
         0.00000E+00
         0.00000E+00
         0.00000E+00
         0.00000E+00
         0.00000E+00
         0.00000E+00
         0.00000E+00
         0.00000E+00
         0.00000E+00
         0.00000E+00
         0.00000E+00
         0.00000E+00
         0.00000E+00
         0.00000E+00
         0.00000E+00
         0.00000E+00
         0.00000E+00
         0.00000E+00
         0.00000E+00
         0.00000E+00
         0.00000E+00
         0.00000E+00
         0.00000E+00
         0.00000E+00
         0.00000E+00
         0.00000E+00
         0.00000E+00
         0.00000E+00
         0.00000E+00
         0.00000E+00
         0.00000E+00
         0.00000E+00
         0.00000E+00
         0.00000E+00
         0.00000E+00
         0.00000E+00
         0.00000E+00
         0.00000E+00
         0.00000E+00
         0.00000E+00
         0.00000E+00
         0.00000E+00
         0.00000E+00
         0.00000E+00
         0.00000E+00
         0.00000E+00
         0.00000E+00
         0.00000E+00
         0.00000E+00
         0.00000E+00
         0.00000E+00
         0.00000E+00
         0.00000E+00
         0.00000E+00
         0.00000E+00
         0.00000E+00
         0.00000E+00
         0.00000E+00
         0.00000E+00
         0.00000E+00
         0.00000E+00
         0.00000E+00
         0.00000E+00
         0.00000E+00
         0.00000E+00
         0.00000E+00
         0.00000E+00
         0.00000E+00
         0.00000E+00
         0.00000E+00
         0.00000E+00
         0.00000E+00
         0.00000E+00
         0.00000E+00
         0.00000E+00
         0.00000E+00
         0.00000E+00
         0.00000E+00
         0.00000E+00
         0.00000E+00
         0.00000E+00
         0.00000E+00
         0.00000E+00
         0.00000E+00
         0.00000E+00
         0.00000E+00
         0.00000E+00
         0.00000E+00
         0.00000E+00
         0.00000E+00
         0.00000E+00
         0.00000E+00
         0.00000E+00
         0.00000E+00
         0.00000E+00
         0.00000E+00
         0.00000E+00
         0.00000E+00
         0.00000E+00
         0.00000E+00
         0.00000E+00
         0.00000E+00
         0.00000E+00
         0.00000E+00
         0.00000E+00
         0.00000E+00
         0.00000E+00
         0.00000E+00
         0.00000E+00
         0.00000E+00
         0.00000E+00
         0.00000E+00
         0.00000E+00
         0.00000E+00
         0.00000E+00
         0.00000E+00
         0.00000E+00
         0.00000E+00
         0.00000E+00
         0.00000E+00
         0.00000E+00
         0.00000E+00
         0.00000E+00
         0.00000E+00
         0.00000E+00
         0.00000E+00
         0.00000E+00
         0.00000E+00
         0.00000E+00
         0.00000E+00
         0.00000E+00
         0.00000E+00
         0.00000E+00
         0.00000E+00
         0.00000E+00
         0.00000E+00
         0.00000E+00
         0.00000E+00
         0.00000E+00
         0.00000E+00
         0.00000E+00
         0.00000E+00
         0.00000E+00
         0.00000E+00
         0.00000E+00
         0.00000E+00
         0.00000E+00
         0.00000E+00
         0.00000E+00
         0.00000E+00
         0.00000E+00
         0.00000E+00
         0.00000E+00
         0.00000E+00
         0.00000E+00
         0.00000E+00
         0.00000E+00
         0.00000E+00
         0.00000E+00
         0.00000E+00
         0.00000E+00
         0.00000E+00
         0.00000E+00
         0.00000E+00
         0.00000E+00
         0.00000E+00
         0.00000E+00
         0.00000E+00
         0.00000E+00
         0.00000E+00
         0.00000E+00
         0.00000E+00
         0.00000E+00
         0.00000E+00
         0.00000E+00
         0.00000E+00
         0.00000E+00
         0.00000E+00
         0.00000E+00
         0.00000E+00
         0.00000E+00
         0.00000E+00
         0.00000E+00
         0.00000E+00
         0.00000E+00
         0.00000E+00
         0.00000E+00
         0.00000E+00
         0.00000E+00
         0.00000E+00
         0.00000E+00
         0.00000E+00
         0.00000E+00
         0.00000E+00
         0.00000E+00
         0.00000E+00
         0.00000E+00
         0.00000E+00
         0.00000E+00
         0.00000E+00
         0.00000E+00
         0.00000E+00
         0.00000E+00
         0.00000E+00
         0.00000E+00
         0.00000E+00
         0.00000E+00
         0.00000E+00
         0.00000E+00
         0.00000E+00
         0.00000E+00
         0.00000E+00
         0.00000E+00
         0.00000E+00
         0.00000E+00
         0.00000E+00
         0.00000E+00
         0.00000E+00
         0.00000E+00
         0.00000E+00
         0.00000E+00
         0.00000E+00
         0.00000E+00
         0.00000E+00
         0.00000E+00
         0.00000E+00
         0.00000E+00
         0.00000E+00
         0.00000E+00
         0.00000E+00
         0.00000E+00
         0.00000E+00
         0.00000E+00
         0.00000E+00
         0.00000E+00
         0.00000E+00
         0.00000E+00
         0.00000E+00
         0.00000E+00
         0.00000E+00
         0.00000E+00
         0.00000E+00
         0.00000E+00
         0.00000E+00
         0.00000E+00
         0.00000E+00
         0.00000E+00
         0.00000E+00
         0.00000E+00
         0.00000E+00
         0.00000E+00
         0.00000E+00
         0.00000E+00
         0.00000E+00
         0.00000E+00
         0.00000E+00
         0.00000E+00
         0.00000E+00
         0.00000E+00
         0.00000E+00
         0.00000E+00
         0.00000E+00
         0.00000E+00
         0.00000E+00
         0.00000E+00
         0.00000E+00
         0.00000E+00
         0.00000E+00
         0.00000E+00
         0.00000E+00
         0.00000E+00
         0.00000E+00
         0.00000E+00
         0.00000E+00
         0.00000E+00
         0.00000E+00
         0.00000E+00
         0.00000E+00
         0.00000E+00
         0.00000E+00
         0.00000E+00
         0.00000E+00
         0.00000E+00
         0.00000E+00
         0.00000E+00
         0.00000E+00
         0.00000E+00
         0.00000E+00
         0.00000E+00
         0.00000E+00
         0.00000E+00
         0.00000E+00
         0.00000E+00
         0.00000E+00
         0.00000E+00
         0.00000E+00
         0.00000E+00
         0.00000E+00
         0.00000E+00
         0.00000E+00
         0.00000E+00
         0.00000E+00
         0.00000E+00
         0.00000E+00
         0.00000E+00
         0.00000E+00
         0.00000E+00
         0.00000E+00
         0.00000E+00
         0.00000E+00
         0.00000E+00
         0.00000E+00
         0.00000E+00
         0.00000E+00
         0.00000E+00
         0.00000E+00
         0.00000E+00
         0.00000E+00
         0.00000E+00
         0.00000E+00
         0.00000E+00
         0.00000E+00
         0.00000E+00
         0.00000E+00
         0.00000E+00
         0.00000E+00
         0.00000E+00
         0.00000E+00
         0.00000E+00
         0.00000E+00
         0.00000E+00
         0.00000E+00
         0.00000E+00
         0.00000E+00
         0.00000E+00
         0.00000E+00
         0.00000E+00
         0.00000E+00
         0.00000E+00
         0.00000E+00
         0.00000E+00
         0.00000E+00
         0.00000E+00
         0.00000E+00
         0.00000E+00
         0.00000E+00
         0.00000E+00
         0.00000E+00
         0.00000E+00
         0.00000E+00
         0.00000E+00
         0.00000E+00
         0.00000E+00
         0.00000E+00
         0.00000E+00
         0.00000E+00
         0.00000E+00
         0.00000E+00
         0.00000E+00
         0.00000E+00
         0.00000E+00
         0.00000E+00
         0.00000E+00
         0.00000E+00
         0.00000E+00
         0.00000E+00
         0.00000E+00
         0.00000E+00
         0.00000E+00
         0.00000E+00
         0.00000E+00
         0.00000E+00
         0.00000E+00
         0.00000E+00
         0.00000E+00
         0.00000E+00
         0.00000E+00
         0.00000E+00
         0.00000E+00
         0.00000E+00
         0.00000E+00
         0.00000E+00
         0.00000E+00
         0.00000E+00
         0.00000E+00
         0.00000E+00
         0.00000E+00
         0.00000E+00
         0.00000E+00
         0.00000E+00
         0.00000E+00
         0.00000E+00
         0.00000E+00
         0.00000E+00
         0.00000E+00
         0.00000E+00
         0.00000E+00
         0.00000E+00
         0.00000E+00
         0.00000E+00
         0.00000E+00
         0.00000E+00
         0.00000E+00
         0.00000E+00
         0.00000E+00
         0.00000E+00
         0.00000E+00
         0.00000E+00
         0.00000E+00
         0.00000E+00
         0.00000E+00
         0.00000E+00
         0.00000E+00
         0.00000E+00
         0.00000E+00
         0.00000E+00
         0.00000E+00
         0.00000E+00
         0.00000E+00
         0.00000E+00
         0.00000E+00
         0.00000E+00
         0.00000E+00
         0.00000E+00
         0.00000E+00
         0.00000E+00
         0.00000E+00
         0.00000E+00
         0.00000E+00
         0.00000E+00
         0.00000E+00
         0.00000E+00
         0.00000E+00
         0.00000E+00
         0.00000E+00
         0.00000E+00
         0.00000E+00
         0.00000E+00
         0.00000E+00
         0.00000E+00
         0.00000E+00
         0.00000E+00
         0.00000E+00
         0.00000E+00
         0.00000E+00
         0.00000E+00
         0.00000E+00
         0.00000E+00
         0.00000E+00
         0.00000E+00
         0.00000E+00
         0.00000E+00
         0.00000E+00
         0.00000E+00
         0.00000E+00
         0.00000E+00
         0.00000E+00
         0.00000E+00
         0.00000E+00
         0.00000E+00
         0.00000E+00
         0.00000E+00
         0.00000E+00
         0.00000E+00
         0.00000E+00
         0.00000E+00
         0.00000E+00
         0.00000E+00
         0.00000E+00
         0.00000E+00
         0.00000E+00
         0.00000E+00
         0.00000E+00
         0.00000E+00
         0.00000E+00
         0.00000E+00
         0.00000E+00
         0.00000E+00
         0.00000E+00
         0.00000E+00
         0.00000E+00
         0.00000E+00
         0.00000E+00
         0.00000E+00
         0.00000E+00
         0.00000E+00
         0.00000E+00
         0.00000E+00
         0.00000E+00
         0.00000E+00
         0.00000E+00
         0.00000E+00
         0.00000E+00
         0.00000E+00
         0.00000E+00
         0.00000E+00
         0.00000E+00
         0.00000E+00
         0.00000E+00
         0.00000E+00
         0.00000E+00
         0.00000E+00
         0.00000E+00
         0.00000E+00
         0.00000E+00
         0.00000E+00
         0.00000E+00
         0.00000E+00
         0.00000E+00
         0.00000E+00
         0.00000E+00
         0.00000E+00
         0.00000E+00
         0.00000E+00
         0.00000E+00
         0.00000E+00
         0.00000E+00
         0.00000E+00
         0.00000E+00
         0.00000E+00
         0.00000E+00
         0.00000E+00
         0.00000E+00
         0.00000E+00
         0.00000E+00
         0.00000E+00
         0.00000E+00
         0.00000E+00
         0.00000E+00
         0.00000E+00
         0.00000E+00
         0.00000E+00
         0.00000E+00
         0.00000E+00
         0.00000E+00
         0.00000E+00
         0.00000E+00
         0.00000E+00
         0.00000E+00
         0.00000E+00
         0.00000E+00
         0.00000E+00
         0.00000E+00
         0.00000E+00
         0.00000E+00
         0.00000E+00
         0.00000E+00
         0.00000E+00
         0.00000E+00
         0.00000E+00
         0.00000E+00
         0.00000E+00
         0.00000E+00
         0.00000E+00
         0.00000E+00
         0.00000E+00
         0.00000E+00
         0.00000E+00
         0.00000E+00
         0.00000E+00
         0.00000E+00
         0.00000E+00
         0.00000E+00
         0.00000E+00
         0.00000E+00
         0.00000E+00
         0.00000E+00
         0.00000E+00
         0.00000E+00
         0.00000E+00
         0.00000E+00
         0.00000E+00
         0.00000E+00
         0.00000E+00
         0.00000E+00
         0.00000E+00
         0.00000E+00
         0.00000E+00
         0.00000E+00
         0.00000E+00
         0.00000E+00
         0.00000E+00
         0.00000E+00
         0.00000E+00
         0.00000E+00
         0.00000E+00
         0.00000E+00
         0.00000E+00
         0.00000E+00
         0.00000E+00
         0.00000E+00
         0.00000E+00
         0.00000E+00
         0.00000E+00
         0.00000E+00
         0.00000E+00
         0.00000E+00
         0.00000E+00
         0.00000E+00
         0.00000E+00
         0.00000E+00
         0.00000E+00
         0.00000E+00
         0.00000E+00
         0.00000E+00
         0.00000E+00
         0.00000E+00
         0.00000E+00
         0.00000E+00
         0.00000E+00
         0.00000E+00
         0.00000E+00
         0.00000E+00
         0.00000E+00
         0.00000E+00
         0.00000E+00
         0.00000E+00
         0.00000E+00
         0.00000E+00
         0.00000E+00
         0.00000E+00
         0.00000E+00
         0.00000E+00
         0.00000E+00
         0.00000E+00
         0.00000E+00
         0.00000E+00
         0.00000E+00
         0.00000E+00
         0.00000E+00
         0.00000E+00
         0.00000E+00
         0.00000E+00
         0.00000E+00
         0.00000E+00
         0.00000E+00
         0.00000E+00
         0.00000E+00
         0.00000E+00
         0.00000E+00
         0.00000E+00
         0.00000E+00
         0.00000E+00
         0.00000E+00
         0.00000E+00
         0.00000E+00
         0.00000E+00
         0.00000E+00
         0.00000E+00
         0.00000E+00
         0.00000E+00
         0.00000E+00
         0.00000E+00
         0.00000E+00
         0.00000E+00
         0.00000E+00
         0.00000E+00
         0.00000E+00
         0.00000E+00
         0.00000E+00
         0.00000E+00
         0.00000E+00
         0.00000E+00
         0.00000E+00
         0.00000E+00
         0.00000E+00
         0.00000E+00
         0.00000E+00
         0.00000E+00
         0.00000E+00
         0.00000E+00
         0.00000E+00
         0.00000E+00
         0.00000E+00
         0.00000E+00
         0.00000E+00
         0.00000E+00
         0.00000E+00
         0.00000E+00
         0.00000E+00
         0.00000E+00
         0.00000E+00
         0.00000E+00
         0.00000E+00
         0.00000E+00
         0.00000E+00
         0.00000E+00
         0.00000E+00
         0.00000E+00
         0.00000E+00
         0.00000E+00
         0.00000E+00
         0.00000E+00
         0.00000E+00
         0.00000E+00
         0.00000E+00
         0.00000E+00
         0.00000E+00
         0.00000E+00
         0.00000E+00
         0.00000E+00
         0.00000E+00
         0.00000E+00
         0.00000E+00
         0.00000E+00
         0.00000E+00
         0.00000E+00
         0.00000E+00
         0.00000E+00
         0.00000E+00
         0.00000E+00
         0.00000E+00
         0.00000E+00
         0.00000E+00
         0.00000E+00
         0.00000E+00
         0.00000E+00
         0.00000E+00
         0.00000E+00
         0.00000E+00
         0.00000E+00
         0.00000E+00
         0.00000E+00
         0.00000E+00
         0.00000E+00
         0.00000E+00
         0.00000E+00
         0.00000E+00
         0.00000E+00
         0.00000E+00
         0.00000E+00
         0.00000E+00
         0.00000E+00
         0.00000E+00
         0.00000E+00
         0.00000E+00
         0.00000E+00
         0.00000E+00
         0.00000E+00
         0.00000E+00
         0.00000E+00
         0.00000E+00
         0.00000E+00
         0.00000E+00
         0.00000E+00
         0.00000E+00
         0.00000E+00
         0.00000E+00
         0.00000E+00
         0.00000E+00
         0.00000E+00
         0.00000E+00
         0.00000E+00
         0.00000E+00
         0.00000E+00
         0.00000E+00
         0.00000E+00
         0.00000E+00
         0.00000E+00
         0.00000E+00
         0.00000E+00
         0.00000E+00
         0.00000E+00
         0.00000E+00
         0.00000E+00
         0.00000E+00
         0.00000E+00
         0.00000E+00
         0.00000E+00
         0.00000E+00
         0.00000E+00
         0.00000E+00
         0.00000E+00
         0.00000E+00
         0.00000E+00
         0.00000E+00
         0.00000E+00
         0.00000E+00
         0.00000E+00
         0.00000E+00
         0.00000E+00
         0.00000E+00
         0.00000E+00
         0.00000E+00
         0.00000E+00
         0.00000E+00
         0.00000E+00
         0.00000E+00
         0.00000E+00
         0.00000E+00
         0.00000E+00
         0.00000E+00
         0.00000E+00
         0.00000E+00
         0.00000E+00
         0.00000E+00
         0.00000E+00
         0.00000E+00
         0.00000E+00
         0.00000E+00
         0.00000E+00
         0.00000E+00
         0.00000E+00
         0.00000E+00
         0.00000E+00
         0.00000E+00
         0.00000E+00
         0.00000E+00
         0.00000E+00
         0.00000E+00
         0.00000E+00
         0.00000E+00
         0.00000E+00
         0.00000E+00
         0.00000E+00
         0.00000E+00
         0.00000E+00
         0.00000E+00
         0.00000E+00
         0.00000E+00
         0.00000E+00
         0.00000E+00
         0.00000E+00
         0.00000E+00
         0.00000E+00
         0.00000E+00
         0.00000E+00
         0.00000E+00
         0.00000E+00
         0.00000E+00
         0.00000E+00
         0.00000E+00
         0.00000E+00
         0.00000E+00
         0.00000E+00
         0.00000E+00
         0.00000E+00
         0.00000E+00
         0.00000E+00
         0.00000E+00
         0.00000E+00
         0.00000E+00
         0.00000E+00
         0.00000E+00
         0.00000E+00
         0.00000E+00
         0.00000E+00
         0.00000E+00
         0.00000E+00
         0.00000E+00
         0.00000E+00
         0.00000E+00
         0.00000E+00
         0.00000E+00
         0.00000E+00
         0.00000E+00
         0.00000E+00
         0.00000E+00
         0.00000E+00
         0.00000E+00
         0.00000E+00
         0.00000E+00
         0.00000E+00
         0.00000E+00
         0.00000E+00
         0.00000E+00
         0.00000E+00
         0.00000E+00
         0.00000E+00
         0.00000E+00
         0.00000E+00
         0.00000E+00
         0.00000E+00
         0.00000E+00
         0.00000E+00
         0.00000E+00
         0.00000E+00
         0.00000E+00
         0.00000E+00
         0.00000E+00
         0.00000E+00
         0.00000E+00
         0.00000E+00
         0.00000E+00
         0.00000E+00
         0.00000E+00
         0.00000E+00
         0.00000E+00
         0.00000E+00
         0.00000E+00
         0.00000E+00
         0.00000E+00
         0.00000E+00
         0.00000E+00
         0.00000E+00
         0.00000E+00
         0.00000E+00
         0.00000E+00
         0.00000E+00
         0.00000E+00
         0.00000E+00
         0.00000E+00
         0.00000E+00
         0.00000E+00
         0.00000E+00
         0.00000E+00
         0.00000E+00
         0.00000E+00
         0.00000E+00
         0.00000E+00
         0.00000E+00
         0.00000E+00
         0.00000E+00
         0.00000E+00
         0.00000E+00
         0.00000E+00
         0.00000E+00
         0.00000E+00
         0.00000E+00
         0.00000E+00
         0.00000E+00
         0.00000E+00
         0.00000E+00
         0.00000E+00
         0.00000E+00
         0.00000E+00
         0.00000E+00
         0.00000E+00
         0.00000E+00
         0.00000E+00
         0.00000E+00
         0.00000E+00
         0.00000E+00
         0.00000E+00
         0.00000E+00
         0.00000E+00
         0.00000E+00
         0.00000E+00
         0.00000E+00
         0.00000E+00
         0.00000E+00
         0.00000E+00
         0.00000E+00
         0.00000E+00
         0.00000E+00
         0.00000E+00
         0.00000E+00
         0.00000E+00
         0.00000E+00
         0.00000E+00
         0.00000E+00
         0.00000E+00
         0.00000E+00
         0.00000E+00
         0.00000E+00
         0.00000E+00
         0.00000E+00
         0.00000E+00
         0.00000E+00
         0.00000E+00
         0.00000E+00
         0.00000E+00
         0.00000E+00
         0.00000E+00
         0.00000E+00
         0.00000E+00
         0.00000E+00
         0.00000E+00
         0.00000E+00
         0.00000E+00
         0.00000E+00
         0.00000E+00
  
SCALARS                     velocity_y  double 1
LOOKUP_TABLE default
         0.00000E+00
         0.00000E+00
         0.00000E+00
         0.00000E+00
         0.00000E+00
         0.00000E+00
         0.00000E+00
         0.00000E+00
         0.00000E+00
         0.00000E+00
         0.00000E+00
         0.00000E+00
         0.00000E+00
         0.00000E+00
         0.00000E+00
         0.00000E+00
         0.00000E+00
         0.00000E+00
         0.00000E+00
         0.00000E+00
         0.00000E+00
         0.00000E+00
         0.00000E+00
         0.00000E+00
         0.00000E+00
         0.00000E+00
         0.00000E+00
         0.00000E+00
         0.00000E+00
         0.00000E+00
         0.00000E+00
         0.00000E+00
         0.00000E+00
         0.00000E+00
         0.00000E+00
         0.00000E+00
         0.00000E+00
         0.00000E+00
         0.00000E+00
         0.00000E+00
         0.00000E+00
         0.00000E+00
         0.00000E+00
         0.00000E+00
         0.00000E+00
         0.00000E+00
         0.00000E+00
         0.00000E+00
         0.00000E+00
         0.00000E+00
         0.00000E+00
         0.00000E+00
         0.00000E+00
         0.00000E+00
         0.00000E+00
         0.00000E+00
         0.00000E+00
         0.00000E+00
         0.00000E+00
         0.00000E+00
         0.00000E+00
         0.00000E+00
         0.00000E+00
         0.00000E+00
         0.00000E+00
         0.00000E+00
         0.00000E+00
         0.00000E+00
         0.00000E+00
         0.00000E+00
         0.00000E+00
         0.00000E+00
         0.00000E+00
         0.00000E+00
         0.00000E+00
         0.00000E+00
         0.00000E+00
         0.00000E+00
         0.00000E+00
         0.00000E+00
         0.00000E+00
         0.00000E+00
         0.00000E+00
         0.00000E+00
         0.00000E+00
         0.00000E+00
         0.00000E+00
         0.00000E+00
         0.00000E+00
         0.00000E+00
         0.00000E+00
         0.00000E+00
         0.00000E+00
         0.00000E+00
         0.00000E+00
         0.00000E+00
         0.00000E+00
         0.00000E+00
         0.00000E+00
         0.00000E+00
         0.00000E+00
         0.00000E+00
         0.00000E+00
         0.00000E+00
         0.00000E+00
         0.00000E+00
         0.00000E+00
         0.00000E+00
         0.00000E+00
         0.00000E+00
         0.00000E+00
         0.00000E+00
         0.00000E+00
         0.00000E+00
         0.00000E+00
         0.00000E+00
         0.00000E+00
         0.00000E+00
         0.00000E+00
         0.00000E+00
         0.00000E+00
         0.00000E+00
         0.00000E+00
         0.00000E+00
         0.00000E+00
         0.00000E+00
         0.00000E+00
         0.00000E+00
         0.00000E+00
         0.00000E+00
         0.00000E+00
         0.00000E+00
         0.00000E+00
         0.00000E+00
         0.00000E+00
         0.00000E+00
         0.00000E+00
         0.00000E+00
         0.00000E+00
         0.00000E+00
         0.00000E+00
         0.00000E+00
         0.00000E+00
         0.00000E+00
         0.00000E+00
         0.00000E+00
         0.00000E+00
         0.00000E+00
         0.00000E+00
         0.00000E+00
         0.00000E+00
         0.00000E+00
         0.00000E+00
         0.00000E+00
         0.00000E+00
         0.00000E+00
         0.00000E+00
         0.00000E+00
         0.00000E+00
         0.00000E+00
         0.00000E+00
         0.00000E+00
         0.00000E+00
         0.00000E+00
         0.00000E+00
         0.00000E+00
         0.00000E+00
         0.00000E+00
         0.00000E+00
         0.00000E+00
         0.00000E+00
         0.00000E+00
         0.00000E+00
         0.00000E+00
         0.00000E+00
         0.00000E+00
         0.00000E+00
         0.00000E+00
         0.00000E+00
         0.00000E+00
         0.00000E+00
         0.00000E+00
         0.00000E+00
         0.00000E+00
         0.00000E+00
         0.00000E+00
         0.00000E+00
         0.00000E+00
         0.00000E+00
         0.00000E+00
         0.00000E+00
         0.00000E+00
         0.00000E+00
         0.00000E+00
         0.00000E+00
         0.00000E+00
         0.00000E+00
         0.00000E+00
         0.00000E+00
         0.00000E+00
         0.00000E+00
         0.00000E+00
         0.00000E+00
         0.00000E+00
         0.00000E+00
         0.00000E+00
         0.00000E+00
         0.00000E+00
         0.00000E+00
         0.00000E+00
         0.00000E+00
         0.00000E+00
         0.00000E+00
         0.00000E+00
         0.00000E+00
         0.00000E+00
         0.00000E+00
         0.00000E+00
         0.00000E+00
         0.00000E+00
         0.00000E+00
         0.00000E+00
         0.00000E+00
         0.00000E+00
         0.00000E+00
         0.00000E+00
         0.00000E+00
         0.00000E+00
         0.00000E+00
         0.00000E+00
         0.00000E+00
         0.00000E+00
         0.00000E+00
         0.00000E+00
         0.00000E+00
         0.00000E+00
         0.00000E+00
         0.00000E+00
         0.00000E+00
         0.00000E+00
         0.00000E+00
         0.00000E+00
         0.00000E+00
         0.00000E+00
         0.00000E+00
         0.00000E+00
         0.00000E+00
         0.00000E+00
         0.00000E+00
         0.00000E+00
         0.00000E+00
         0.00000E+00
         0.00000E+00
         0.00000E+00
         0.00000E+00
         0.00000E+00
         0.00000E+00
         0.00000E+00
         0.00000E+00
         0.00000E+00
         0.00000E+00
         0.00000E+00
         0.00000E+00
         0.00000E+00
         0.00000E+00
         0.00000E+00
         0.00000E+00
         0.00000E+00
         0.00000E+00
         0.00000E+00
         0.00000E+00
         0.00000E+00
         0.00000E+00
         0.00000E+00
         0.00000E+00
         0.00000E+00
         0.00000E+00
         0.00000E+00
         0.00000E+00
         0.00000E+00
         0.00000E+00
         0.00000E+00
         0.00000E+00
         0.00000E+00
         0.00000E+00
         0.00000E+00
         0.00000E+00
         0.00000E+00
         0.00000E+00
         0.00000E+00
         0.00000E+00
         0.00000E+00
         0.00000E+00
         0.00000E+00
         0.00000E+00
         0.00000E+00
         0.00000E+00
         0.00000E+00
         0.00000E+00
         0.00000E+00
         0.00000E+00
         0.00000E+00
         0.00000E+00
         0.00000E+00
         0.00000E+00
         0.00000E+00
         0.00000E+00
         0.00000E+00
         0.00000E+00
         0.00000E+00
         0.00000E+00
         0.00000E+00
         0.00000E+00
         0.00000E+00
         0.00000E+00
         0.00000E+00
         0.00000E+00
         0.00000E+00
         0.00000E+00
         0.00000E+00
         0.00000E+00
         0.00000E+00
         0.00000E+00
         0.00000E+00
         0.00000E+00
         0.00000E+00
         0.00000E+00
         0.00000E+00
         0.00000E+00
         0.00000E+00
         0.00000E+00
         0.00000E+00
         0.00000E+00
         0.00000E+00
         0.00000E+00
         0.00000E+00
         0.00000E+00
         0.00000E+00
         0.00000E+00
         0.00000E+00
         0.00000E+00
         0.00000E+00
         0.00000E+00
         0.00000E+00
         0.00000E+00
         0.00000E+00
         0.00000E+00
         0.00000E+00
         0.00000E+00
         0.00000E+00
         0.00000E+00
         0.00000E+00
         0.00000E+00
         0.00000E+00
         0.00000E+00
         0.00000E+00
         0.00000E+00
         0.00000E+00
         0.00000E+00
         0.00000E+00
         0.00000E+00
         0.00000E+00
         0.00000E+00
         0.00000E+00
         0.00000E+00
         0.00000E+00
         0.00000E+00
         0.00000E+00
         0.00000E+00
         0.00000E+00
         0.00000E+00
         0.00000E+00
         0.00000E+00
         0.00000E+00
         0.00000E+00
         0.00000E+00
         0.00000E+00
         0.00000E+00
         0.00000E+00
         0.00000E+00
         0.00000E+00
         0.00000E+00
         0.00000E+00
         0.00000E+00
         0.00000E+00
         0.00000E+00
         0.00000E+00
         0.00000E+00
         0.00000E+00
         0.00000E+00
         0.00000E+00
         0.00000E+00
         0.00000E+00
         0.00000E+00
         0.00000E+00
         0.00000E+00
         0.00000E+00
         0.00000E+00
         0.00000E+00
         0.00000E+00
         0.00000E+00
         0.00000E+00
         0.00000E+00
         0.00000E+00
         0.00000E+00
         0.00000E+00
         0.00000E+00
         0.00000E+00
         0.00000E+00
         0.00000E+00
         0.00000E+00
         0.00000E+00
         0.00000E+00
         0.00000E+00
         0.00000E+00
         0.00000E+00
         0.00000E+00
         0.00000E+00
         0.00000E+00
         0.00000E+00
         0.00000E+00
         0.00000E+00
         0.00000E+00
         0.00000E+00
         0.00000E+00
         0.00000E+00
         0.00000E+00
         0.00000E+00
         0.00000E+00
         0.00000E+00
         0.00000E+00
         0.00000E+00
         0.00000E+00
         0.00000E+00
         0.00000E+00
         0.00000E+00
         0.00000E+00
         0.00000E+00
         0.00000E+00
         0.00000E+00
         0.00000E+00
         0.00000E+00
         0.00000E+00
         0.00000E+00
         0.00000E+00
         0.00000E+00
         0.00000E+00
         0.00000E+00
         0.00000E+00
         0.00000E+00
         0.00000E+00
         0.00000E+00
         0.00000E+00
         0.00000E+00
         0.00000E+00
         0.00000E+00
         0.00000E+00
         0.00000E+00
         0.00000E+00
         0.00000E+00
         0.00000E+00
         0.00000E+00
         0.00000E+00
         0.00000E+00
         0.00000E+00
         0.00000E+00
         0.00000E+00
         0.00000E+00
         0.00000E+00
         0.00000E+00
         0.00000E+00
         0.00000E+00
         0.00000E+00
         0.00000E+00
         0.00000E+00
         0.00000E+00
         0.00000E+00
         0.00000E+00
         0.00000E+00
         0.00000E+00
         0.00000E+00
         0.00000E+00
         0.00000E+00
         0.00000E+00
         0.00000E+00
         0.00000E+00
         0.00000E+00
         0.00000E+00
         0.00000E+00
         0.00000E+00
         0.00000E+00
         0.00000E+00
         0.00000E+00
         0.00000E+00
         0.00000E+00
         0.00000E+00
         0.00000E+00
         0.00000E+00
         0.00000E+00
         0.00000E+00
         0.00000E+00
         0.00000E+00
         0.00000E+00
         0.00000E+00
         0.00000E+00
         0.00000E+00
         0.00000E+00
         0.00000E+00
         0.00000E+00
         0.00000E+00
         0.00000E+00
         0.00000E+00
         0.00000E+00
         0.00000E+00
         0.00000E+00
         0.00000E+00
         0.00000E+00
         0.00000E+00
         0.00000E+00
         0.00000E+00
         0.00000E+00
         0.00000E+00
         0.00000E+00
         0.00000E+00
         0.00000E+00
         0.00000E+00
         0.00000E+00
         0.00000E+00
         0.00000E+00
         0.00000E+00
         0.00000E+00
         0.00000E+00
         0.00000E+00
         0.00000E+00
         0.00000E+00
         0.00000E+00
         0.00000E+00
         0.00000E+00
         0.00000E+00
         0.00000E+00
         0.00000E+00
         0.00000E+00
         0.00000E+00
         0.00000E+00
         0.00000E+00
         0.00000E+00
         0.00000E+00
         0.00000E+00
         0.00000E+00
         0.00000E+00
         0.00000E+00
         0.00000E+00
         0.00000E+00
         0.00000E+00
         0.00000E+00
         0.00000E+00
         0.00000E+00
         0.00000E+00
         0.00000E+00
         0.00000E+00
         0.00000E+00
         0.00000E+00
         0.00000E+00
         0.00000E+00
         0.00000E+00
         0.00000E+00
         0.00000E+00
         0.00000E+00
         0.00000E+00
         0.00000E+00
         0.00000E+00
         0.00000E+00
         0.00000E+00
         0.00000E+00
         0.00000E+00
         0.00000E+00
         0.00000E+00
         0.00000E+00
         0.00000E+00
         0.00000E+00
         0.00000E+00
         0.00000E+00
         0.00000E+00
         0.00000E+00
         0.00000E+00
         0.00000E+00
         0.00000E+00
         0.00000E+00
         0.00000E+00
         0.00000E+00
         0.00000E+00
         0.00000E+00
         0.00000E+00
         0.00000E+00
         0.00000E+00
         0.00000E+00
         0.00000E+00
         0.00000E+00
         0.00000E+00
         0.00000E+00
         0.00000E+00
         0.00000E+00
         0.00000E+00
         0.00000E+00
         0.00000E+00
         0.00000E+00
         0.00000E+00
         0.00000E+00
         0.00000E+00
         0.00000E+00
         0.00000E+00
         0.00000E+00
         0.00000E+00
         0.00000E+00
         0.00000E+00
         0.00000E+00
         0.00000E+00
         0.00000E+00
         0.00000E+00
         0.00000E+00
         0.00000E+00
         0.00000E+00
         0.00000E+00
         0.00000E+00
         0.00000E+00
         0.00000E+00
         0.00000E+00
         0.00000E+00
         0.00000E+00
         0.00000E+00
         0.00000E+00
         0.00000E+00
         0.00000E+00
         0.00000E+00
         0.00000E+00
         0.00000E+00
         0.00000E+00
         0.00000E+00
         0.00000E+00
         0.00000E+00
         0.00000E+00
         0.00000E+00
         0.00000E+00
         0.00000E+00
         0.00000E+00
         0.00000E+00
         0.00000E+00
         0.00000E+00
         0.00000E+00
         0.00000E+00
         0.00000E+00
         0.00000E+00
         0.00000E+00
         0.00000E+00
         0.00000E+00
         0.00000E+00
         0.00000E+00
         0.00000E+00
         0.00000E+00
         0.00000E+00
         0.00000E+00
         0.00000E+00
         0.00000E+00
         0.00000E+00
         0.00000E+00
         0.00000E+00
         0.00000E+00
         0.00000E+00
         0.00000E+00
         0.00000E+00
         0.00000E+00
         0.00000E+00
         0.00000E+00
         0.00000E+00
         0.00000E+00
         0.00000E+00
         0.00000E+00
         0.00000E+00
         0.00000E+00
         0.00000E+00
         0.00000E+00
         0.00000E+00
         0.00000E+00
         0.00000E+00
         0.00000E+00
         0.00000E+00
         0.00000E+00
         0.00000E+00
         0.00000E+00
         0.00000E+00
         0.00000E+00
         0.00000E+00
         0.00000E+00
         0.00000E+00
         0.00000E+00
         0.00000E+00
         0.00000E+00
         0.00000E+00
         0.00000E+00
         0.00000E+00
         0.00000E+00
         0.00000E+00
         0.00000E+00
         0.00000E+00
         0.00000E+00
         0.00000E+00
         0.00000E+00
         0.00000E+00
         0.00000E+00
         0.00000E+00
         0.00000E+00
         0.00000E+00
         0.00000E+00
         0.00000E+00
         0.00000E+00
         0.00000E+00
         0.00000E+00
         0.00000E+00
         0.00000E+00
         0.00000E+00
         0.00000E+00
         0.00000E+00
         0.00000E+00
         0.00000E+00
         0.00000E+00
         0.00000E+00
         0.00000E+00
         0.00000E+00
         0.00000E+00
         0.00000E+00
         0.00000E+00
         0.00000E+00
         0.00000E+00
         0.00000E+00
         0.00000E+00
         0.00000E+00
         0.00000E+00
         0.00000E+00
         0.00000E+00
         0.00000E+00
         0.00000E+00
         0.00000E+00
         0.00000E+00
         0.00000E+00
         0.00000E+00
         0.00000E+00
         0.00000E+00
         0.00000E+00
         0.00000E+00
         0.00000E+00
         0.00000E+00
         0.00000E+00
         0.00000E+00
         0.00000E+00
         0.00000E+00
         0.00000E+00
         0.00000E+00
         0.00000E+00
         0.00000E+00
         0.00000E+00
         0.00000E+00
         0.00000E+00
         0.00000E+00
         0.00000E+00
         0.00000E+00
         0.00000E+00
         0.00000E+00
         0.00000E+00
         0.00000E+00
         0.00000E+00
         0.00000E+00
         0.00000E+00
         0.00000E+00
         0.00000E+00
         0.00000E+00
         0.00000E+00
         0.00000E+00
         0.00000E+00
         0.00000E+00
         0.00000E+00
         0.00000E+00
         0.00000E+00
         0.00000E+00
         0.00000E+00
         0.00000E+00
         0.00000E+00
         0.00000E+00
         0.00000E+00
         0.00000E+00
         0.00000E+00
         0.00000E+00
         0.00000E+00
         0.00000E+00
         0.00000E+00
         0.00000E+00
         0.00000E+00
         0.00000E+00
         0.00000E+00
         0.00000E+00
         0.00000E+00
         0.00000E+00
         0.00000E+00
         0.00000E+00
         0.00000E+00
         0.00000E+00
         0.00000E+00
         0.00000E+00
         0.00000E+00
         0.00000E+00
         0.00000E+00
         0.00000E+00
         0.00000E+00
         0.00000E+00
         0.00000E+00
         0.00000E+00
         0.00000E+00
         0.00000E+00
         0.00000E+00
         0.00000E+00
         0.00000E+00
         0.00000E+00
         0.00000E+00
         0.00000E+00
         0.00000E+00
         0.00000E+00
         0.00000E+00
         0.00000E+00
         0.00000E+00
         0.00000E+00
         0.00000E+00
         0.00000E+00
         0.00000E+00
         0.00000E+00
         0.00000E+00
         0.00000E+00
         0.00000E+00
         0.00000E+00
         0.00000E+00
         0.00000E+00
         0.00000E+00
         0.00000E+00
         0.00000E+00
         0.00000E+00
         0.00000E+00
         0.00000E+00
         0.00000E+00
         0.00000E+00
         0.00000E+00
         0.00000E+00
         0.00000E+00
         0.00000E+00
         0.00000E+00
         0.00000E+00
         0.00000E+00
         0.00000E+00
         0.00000E+00
         0.00000E+00
         0.00000E+00
         0.00000E+00
         0.00000E+00
         0.00000E+00
         0.00000E+00
         0.00000E+00
         0.00000E+00
         0.00000E+00
         0.00000E+00
         0.00000E+00
         0.00000E+00
         0.00000E+00
         0.00000E+00
         0.00000E+00
         0.00000E+00
         0.00000E+00
         0.00000E+00
         0.00000E+00
         0.00000E+00
         0.00000E+00
         0.00000E+00
         0.00000E+00
         0.00000E+00
         0.00000E+00
         0.00000E+00
         0.00000E+00
         0.00000E+00
         0.00000E+00
         0.00000E+00
         0.00000E+00
         0.00000E+00
         0.00000E+00
         0.00000E+00
         0.00000E+00
         0.00000E+00
         0.00000E+00
         0.00000E+00
         0.00000E+00
         0.00000E+00
         0.00000E+00
         0.00000E+00
         0.00000E+00
         0.00000E+00
         0.00000E+00
         0.00000E+00
         0.00000E+00
         0.00000E+00
         0.00000E+00
         0.00000E+00
         0.00000E+00
         0.00000E+00
         0.00000E+00
         0.00000E+00
         0.00000E+00
         0.00000E+00
         0.00000E+00
         0.00000E+00
         0.00000E+00
         0.00000E+00
         0.00000E+00
         0.00000E+00
         0.00000E+00
         0.00000E+00
         0.00000E+00
         0.00000E+00
         0.00000E+00
         0.00000E+00
         0.00000E+00
         0.00000E+00
         0.00000E+00
         0.00000E+00
         0.00000E+00
         0.00000E+00
         0.00000E+00
         0.00000E+00
         0.00000E+00
         0.00000E+00
         0.00000E+00
         0.00000E+00
         0.00000E+00
         0.00000E+00
         0.00000E+00
         0.00000E+00
         0.00000E+00
         0.00000E+00
         0.00000E+00
         0.00000E+00
         0.00000E+00
         0.00000E+00
         0.00000E+00
         0.00000E+00
         0.00000E+00
         0.00000E+00
         0.00000E+00
         0.00000E+00
         0.00000E+00
         0.00000E+00
         0.00000E+00
         0.00000E+00
         0.00000E+00
         0.00000E+00
         0.00000E+00
         0.00000E+00
         0.00000E+00
         0.00000E+00
         0.00000E+00
         0.00000E+00
         0.00000E+00
         0.00000E+00
         0.00000E+00
         0.00000E+00
         0.00000E+00
         0.00000E+00
         0.00000E+00
         0.00000E+00
         0.00000E+00
         0.00000E+00
         0.00000E+00
         0.00000E+00
         0.00000E+00
         0.00000E+00
         0.00000E+00
         0.00000E+00
         0.00000E+00
         0.00000E+00
         0.00000E+00
         0.00000E+00
         0.00000E+00
         0.00000E+00
         0.00000E+00
         0.00000E+00
         0.00000E+00
         0.00000E+00
         0.00000E+00
         0.00000E+00
         0.00000E+00
         0.00000E+00
         0.00000E+00
         0.00000E+00
         0.00000E+00
         0.00000E+00
         0.00000E+00
         0.00000E+00
         0.00000E+00
         0.00000E+00
         0.00000E+00
         0.00000E+00
         0.00000E+00
         0.00000E+00
         0.00000E+00
         0.00000E+00
         0.00000E+00
         0.00000E+00
         0.00000E+00
         0.00000E+00
         0.00000E+00
         0.00000E+00
         0.00000E+00
         0.00000E+00
         0.00000E+00
         0.00000E+00
         0.00000E+00
         0.00000E+00
         0.00000E+00
         0.00000E+00
         0.00000E+00
         0.00000E+00
         0.00000E+00
         0.00000E+00
         0.00000E+00
         0.00000E+00
         0.00000E+00
         0.00000E+00
         0.00000E+00
         0.00000E+00
         0.00000E+00
         0.00000E+00
         0.00000E+00
         0.00000E+00
         0.00000E+00
         0.00000E+00
         0.00000E+00
         0.00000E+00
         0.00000E+00
         0.00000E+00
         0.00000E+00
         0.00000E+00
         0.00000E+00
         0.00000E+00
         0.00000E+00
         0.00000E+00
         0.00000E+00
         0.00000E+00
         0.00000E+00
         0.00000E+00
         0.00000E+00
         0.00000E+00
         0.00000E+00
         0.00000E+00
         0.00000E+00
         0.00000E+00
         0.00000E+00
         0.00000E+00
         0.00000E+00
         0.00000E+00
         0.00000E+00
         0.00000E+00
         0.00000E+00
         0.00000E+00
         0.00000E+00
         0.00000E+00
         0.00000E+00
         0.00000E+00
         0.00000E+00
         0.00000E+00
         0.00000E+00
         0.00000E+00
         0.00000E+00
         0.00000E+00
         0.00000E+00
         0.00000E+00
         0.00000E+00
         0.00000E+00
         0.00000E+00
         0.00000E+00
         0.00000E+00
         0.00000E+00
         0.00000E+00
         0.00000E+00
         0.00000E+00
         0.00000E+00
         0.00000E+00
         0.00000E+00
         0.00000E+00
         0.00000E+00
         0.00000E+00
         0.00000E+00
         0.00000E+00
         0.00000E+00
         0.00000E+00
         0.00000E+00
         0.00000E+00
         0.00000E+00
         0.00000E+00
         0.00000E+00
         0.00000E+00
         0.00000E+00
         0.00000E+00
         0.00000E+00
         0.00000E+00
         0.00000E+00
         0.00000E+00
         0.00000E+00
         0.00000E+00
         0.00000E+00
         0.00000E+00
         0.00000E+00
         0.00000E+00
         0.00000E+00
         0.00000E+00
         0.00000E+00
         0.00000E+00
         0.00000E+00
         0.00000E+00
         0.00000E+00
         0.00000E+00
         0.00000E+00
         0.00000E+00
         0.00000E+00
         0.00000E+00
         0.00000E+00
         0.00000E+00
         0.00000E+00
         0.00000E+00
         0.00000E+00
         0.00000E+00
         0.00000E+00
         0.00000E+00
         0.00000E+00
         0.00000E+00
         0.00000E+00
         0.00000E+00
         0.00000E+00
         0.00000E+00
         0.00000E+00
         0.00000E+00
         0.00000E+00
         0.00000E+00
         0.00000E+00
         0.00000E+00
         0.00000E+00
         0.00000E+00
         0.00000E+00
         0.00000E+00
         0.00000E+00
         0.00000E+00
         0.00000E+00
         0.00000E+00
         0.00000E+00
         0.00000E+00
         0.00000E+00
         0.00000E+00
         0.00000E+00
         0.00000E+00
         0.00000E+00
         0.00000E+00
         0.00000E+00
         0.00000E+00
         0.00000E+00
         0.00000E+00
         0.00000E+00
         0.00000E+00
         0.00000E+00
         0.00000E+00
         0.00000E+00
         0.00000E+00
         0.00000E+00
         0.00000E+00
         0.00000E+00
         0.00000E+00
         0.00000E+00
         0.00000E+00
         0.00000E+00
         0.00000E+00
         0.00000E+00
         0.00000E+00
         0.00000E+00
         0.00000E+00
         0.00000E+00
         0.00000E+00
         0.00000E+00
         0.00000E+00
         0.00000E+00
         0.00000E+00
         0.00000E+00
         0.00000E+00
         0.00000E+00
         0.00000E+00
         0.00000E+00
         0.00000E+00
         0.00000E+00
         0.00000E+00
         0.00000E+00
         0.00000E+00
         0.00000E+00
         0.00000E+00
         0.00000E+00
         0.00000E+00
         0.00000E+00
         0.00000E+00
         0.00000E+00
         0.00000E+00
         0.00000E+00
         0.00000E+00
         0.00000E+00
         0.00000E+00
         0.00000E+00
         0.00000E+00
         0.00000E+00
         0.00000E+00
         0.00000E+00
         0.00000E+00
         0.00000E+00
         0.00000E+00
         0.00000E+00
         0.00000E+00
         0.00000E+00
         0.00000E+00
         0.00000E+00
         0.00000E+00
         0.00000E+00
         0.00000E+00
         0.00000E+00
         0.00000E+00
         0.00000E+00
         0.00000E+00
         0.00000E+00
         0.00000E+00
         0.00000E+00
         0.00000E+00
         0.00000E+00
         0.00000E+00
         0.00000E+00
         0.00000E+00
         0.00000E+00
         0.00000E+00
         0.00000E+00
         0.00000E+00
         0.00000E+00
         0.00000E+00
         0.00000E+00
         0.00000E+00
         0.00000E+00
         0.00000E+00
         0.00000E+00
         0.00000E+00
         0.00000E+00
         0.00000E+00
         0.00000E+00
         0.00000E+00
         0.00000E+00
         0.00000E+00
         0.00000E+00
         0.00000E+00
         0.00000E+00
         0.00000E+00
         0.00000E+00
         0.00000E+00
         0.00000E+00
         0.00000E+00
         0.00000E+00
         0.00000E+00
         0.00000E+00
         0.00000E+00
         0.00000E+00
         0.00000E+00
         0.00000E+00
         0.00000E+00
         0.00000E+00
         0.00000E+00
         0.00000E+00
         0.00000E+00
         0.00000E+00
         0.00000E+00
         0.00000E+00
         0.00000E+00
         0.00000E+00
         0.00000E+00
         0.00000E+00
         0.00000E+00
         0.00000E+00
         0.00000E+00
         0.00000E+00
         0.00000E+00
         0.00000E+00
         0.00000E+00
         0.00000E+00
         0.00000E+00
         0.00000E+00
         0.00000E+00
         0.00000E+00
         0.00000E+00
         0.00000E+00
         0.00000E+00
         0.00000E+00
         0.00000E+00
         0.00000E+00
         0.00000E+00
         0.00000E+00
         0.00000E+00
         0.00000E+00
         0.00000E+00
         0.00000E+00
         0.00000E+00
         0.00000E+00
         0.00000E+00
         0.00000E+00
         0.00000E+00
         0.00000E+00
         0.00000E+00
         0.00000E+00
         0.00000E+00
         0.00000E+00
         0.00000E+00
         0.00000E+00
         0.00000E+00
         0.00000E+00
         0.00000E+00
         0.00000E+00
         0.00000E+00
         0.00000E+00
         0.00000E+00
         0.00000E+00
         0.00000E+00
         0.00000E+00
         0.00000E+00
         0.00000E+00
         0.00000E+00
         0.00000E+00
         0.00000E+00
         0.00000E+00
         0.00000E+00
         0.00000E+00
         0.00000E+00
         0.00000E+00
         0.00000E+00
         0.00000E+00
         0.00000E+00
         0.00000E+00
         0.00000E+00
         0.00000E+00
         0.00000E+00
         0.00000E+00
         0.00000E+00
         0.00000E+00
         0.00000E+00
         0.00000E+00
         0.00000E+00
         0.00000E+00
         0.00000E+00
         0.00000E+00
         0.00000E+00
         0.00000E+00
         0.00000E+00
         0.00000E+00
         0.00000E+00
         0.00000E+00
         0.00000E+00
         0.00000E+00
         0.00000E+00
         0.00000E+00
         0.00000E+00
         0.00000E+00
         0.00000E+00
         0.00000E+00
         0.00000E+00
         0.00000E+00
         0.00000E+00
         0.00000E+00
         0.00000E+00
         0.00000E+00
         0.00000E+00
         0.00000E+00
         0.00000E+00
         0.00000E+00
         0.00000E+00
         0.00000E+00
         0.00000E+00
         0.00000E+00
         0.00000E+00
         0.00000E+00
         0.00000E+00
         0.00000E+00
         0.00000E+00
         0.00000E+00
         0.00000E+00
         0.00000E+00
         0.00000E+00
         0.00000E+00
         0.00000E+00
         0.00000E+00
         0.00000E+00
         0.00000E+00
         0.00000E+00
         0.00000E+00
         0.00000E+00
         0.00000E+00
         0.00000E+00
         0.00000E+00
         0.00000E+00
         0.00000E+00
         0.00000E+00
         0.00000E+00
         0.00000E+00
         0.00000E+00
         0.00000E+00
         0.00000E+00
         0.00000E+00
         0.00000E+00
         0.00000E+00
         0.00000E+00
         0.00000E+00
         0.00000E+00
         0.00000E+00
         0.00000E+00
         0.00000E+00
         0.00000E+00
         0.00000E+00
         0.00000E+00
         0.00000E+00
         0.00000E+00
         0.00000E+00
         0.00000E+00
         0.00000E+00
         0.00000E+00
         0.00000E+00
         0.00000E+00
         0.00000E+00
         0.00000E+00
         0.00000E+00
         0.00000E+00
         0.00000E+00
         0.00000E+00
         0.00000E+00
         0.00000E+00
         0.00000E+00
         0.00000E+00
         0.00000E+00
         0.00000E+00
         0.00000E+00
         0.00000E+00
         0.00000E+00
         0.00000E+00
         0.00000E+00
         0.00000E+00
         0.00000E+00
         0.00000E+00
         0.00000E+00
         0.00000E+00
         0.00000E+00
         0.00000E+00
         0.00000E+00
         0.00000E+00
         0.00000E+00
         0.00000E+00
         0.00000E+00
         0.00000E+00
         0.00000E+00
         0.00000E+00
         0.00000E+00
         0.00000E+00
         0.00000E+00
         0.00000E+00
         0.00000E+00
         0.00000E+00
         0.00000E+00
         0.00000E+00
         0.00000E+00
         0.00000E+00
         0.00000E+00
         0.00000E+00
         0.00000E+00
         0.00000E+00
         0.00000E+00
         0.00000E+00
         0.00000E+00
         0.00000E+00
         0.00000E+00
         0.00000E+00
         0.00000E+00
         0.00000E+00
         0.00000E+00
         0.00000E+00
         0.00000E+00
         0.00000E+00
         0.00000E+00
         0.00000E+00
         0.00000E+00
         0.00000E+00
         0.00000E+00
         0.00000E+00
         0.00000E+00
         0.00000E+00
         0.00000E+00
         0.00000E+00
         0.00000E+00
         0.00000E+00
         0.00000E+00
         0.00000E+00
         0.00000E+00
         0.00000E+00
         0.00000E+00
         0.00000E+00
         0.00000E+00
         0.00000E+00
         0.00000E+00
         0.00000E+00
         0.00000E+00
         0.00000E+00
         0.00000E+00
         0.00000E+00
         0.00000E+00
         0.00000E+00
         0.00000E+00
         0.00000E+00
         0.00000E+00
         0.00000E+00
         0.00000E+00
         0.00000E+00
         0.00000E+00
         0.00000E+00
         0.00000E+00
         0.00000E+00
         0.00000E+00
         0.00000E+00
         0.00000E+00
         0.00000E+00
         0.00000E+00
         0.00000E+00
         0.00000E+00
         0.00000E+00
         0.00000E+00
         0.00000E+00
         0.00000E+00
         0.00000E+00
         0.00000E+00
         0.00000E+00
         0.00000E+00
         0.00000E+00
         0.00000E+00
         0.00000E+00
         0.00000E+00
         0.00000E+00
         0.00000E+00
         0.00000E+00
         0.00000E+00
         0.00000E+00
         0.00000E+00
         0.00000E+00
         0.00000E+00
         0.00000E+00
         0.00000E+00
         0.00000E+00
         0.00000E+00
         0.00000E+00
         0.00000E+00
         0.00000E+00
         0.00000E+00
         0.00000E+00
         0.00000E+00
         0.00000E+00
         0.00000E+00
         0.00000E+00
         0.00000E+00
         0.00000E+00
         0.00000E+00
         0.00000E+00
         0.00000E+00
         0.00000E+00
         0.00000E+00
         0.00000E+00
         0.00000E+00
         0.00000E+00
         0.00000E+00
         0.00000E+00
         0.00000E+00
         0.00000E+00
         0.00000E+00
         0.00000E+00
         0.00000E+00
         0.00000E+00
         0.00000E+00
         0.00000E+00
         0.00000E+00
         0.00000E+00
         0.00000E+00
         0.00000E+00
         0.00000E+00
         0.00000E+00
         0.00000E+00
         0.00000E+00
         0.00000E+00
         0.00000E+00
         0.00000E+00
         0.00000E+00
         0.00000E+00
         0.00000E+00
         0.00000E+00
         0.00000E+00
         0.00000E+00
         0.00000E+00
         0.00000E+00
         0.00000E+00
         0.00000E+00
         0.00000E+00
         0.00000E+00
         0.00000E+00
         0.00000E+00
         0.00000E+00
         0.00000E+00
         0.00000E+00
         0.00000E+00
         0.00000E+00
         0.00000E+00
         0.00000E+00
         0.00000E+00
         0.00000E+00
         0.00000E+00
         0.00000E+00
         0.00000E+00
         0.00000E+00
         0.00000E+00
         0.00000E+00
         0.00000E+00
         0.00000E+00
         0.00000E+00
         0.00000E+00
         0.00000E+00
         0.00000E+00
         0.00000E+00
         0.00000E+00
         0.00000E+00
         0.00000E+00
         0.00000E+00
         0.00000E+00
         0.00000E+00
         0.00000E+00
         0.00000E+00
         0.00000E+00
         0.00000E+00
         0.00000E+00
         0.00000E+00
         0.00000E+00
         0.00000E+00
         0.00000E+00
         0.00000E+00
         0.00000E+00
         0.00000E+00
         0.00000E+00
         0.00000E+00
         0.00000E+00
         0.00000E+00
         0.00000E+00
         0.00000E+00
         0.00000E+00
         0.00000E+00
         0.00000E+00
         0.00000E+00
         0.00000E+00
         0.00000E+00
         0.00000E+00
         0.00000E+00
         0.00000E+00
         0.00000E+00
         0.00000E+00
         0.00000E+00
         0.00000E+00
         0.00000E+00
         0.00000E+00
         0.00000E+00
         0.00000E+00
         0.00000E+00
         0.00000E+00
         0.00000E+00
         0.00000E+00
         0.00000E+00
         0.00000E+00
         0.00000E+00
         0.00000E+00
         0.00000E+00
         0.00000E+00
         0.00000E+00
         0.00000E+00
         0.00000E+00
         0.00000E+00
         0.00000E+00
         0.00000E+00
         0.00000E+00
         0.00000E+00
         0.00000E+00
         0.00000E+00
         0.00000E+00
         0.00000E+00
         0.00000E+00
         0.00000E+00
         0.00000E+00
         0.00000E+00
         0.00000E+00
         0.00000E+00
         0.00000E+00
         0.00000E+00
         0.00000E+00
         0.00000E+00
         0.00000E+00
         0.00000E+00
         0.00000E+00
         0.00000E+00
         0.00000E+00
         0.00000E+00
         0.00000E+00
         0.00000E+00
         0.00000E+00
         0.00000E+00
         0.00000E+00
         0.00000E+00
         0.00000E+00
         0.00000E+00
         0.00000E+00
         0.00000E+00
         0.00000E+00
         0.00000E+00
         0.00000E+00
         0.00000E+00
         0.00000E+00
         0.00000E+00
         0.00000E+00
         0.00000E+00
         0.00000E+00
         0.00000E+00
         0.00000E+00
         0.00000E+00
         0.00000E+00
         0.00000E+00
         0.00000E+00
         0.00000E+00
         0.00000E+00
         0.00000E+00
         0.00000E+00
         0.00000E+00
         0.00000E+00
         0.00000E+00
         0.00000E+00
         0.00000E+00
         0.00000E+00
         0.00000E+00
         0.00000E+00
         0.00000E+00
         0.00000E+00
         0.00000E+00
         0.00000E+00
         0.00000E+00
         0.00000E+00
         0.00000E+00
         0.00000E+00
         0.00000E+00
         0.00000E+00
         0.00000E+00
         0.00000E+00
         0.00000E+00
         0.00000E+00
         0.00000E+00
         0.00000E+00
         0.00000E+00
         0.00000E+00
         0.00000E+00
         0.00000E+00
         0.00000E+00
         0.00000E+00
         0.00000E+00
         0.00000E+00
         0.00000E+00
         0.00000E+00
         0.00000E+00
         0.00000E+00
         0.00000E+00
         0.00000E+00
         0.00000E+00
         0.00000E+00
         0.00000E+00
         0.00000E+00
         0.00000E+00
         0.00000E+00
         0.00000E+00
         0.00000E+00
         0.00000E+00
         0.00000E+00
         0.00000E+00
         0.00000E+00
         0.00000E+00
         0.00000E+00
         0.00000E+00
         0.00000E+00
         0.00000E+00
         0.00000E+00
         0.00000E+00
         0.00000E+00
         0.00000E+00
         0.00000E+00
         0.00000E+00
         0.00000E+00
         0.00000E+00
         0.00000E+00
         0.00000E+00
         0.00000E+00
         0.00000E+00
         0.00000E+00
         0.00000E+00
         0.00000E+00
         0.00000E+00
         0.00000E+00
         0.00000E+00
         0.00000E+00
         0.00000E+00
         0.00000E+00
         0.00000E+00
         0.00000E+00
         0.00000E+00
         0.00000E+00
         0.00000E+00
         0.00000E+00
         0.00000E+00
         0.00000E+00
         0.00000E+00
         0.00000E+00
         0.00000E+00
         0.00000E+00
         0.00000E+00
         0.00000E+00
         0.00000E+00
         0.00000E+00
         0.00000E+00
         0.00000E+00
         0.00000E+00
         0.00000E+00
         0.00000E+00
         0.00000E+00
         0.00000E+00
         0.00000E+00
         0.00000E+00
         0.00000E+00
         0.00000E+00
         0.00000E+00
         0.00000E+00
         0.00000E+00
         0.00000E+00
         0.00000E+00
         0.00000E+00
         0.00000E+00
         0.00000E+00
         0.00000E+00
         0.00000E+00
         0.00000E+00
         0.00000E+00
         0.00000E+00
         0.00000E+00
         0.00000E+00
         0.00000E+00
         0.00000E+00
         0.00000E+00
         0.00000E+00
         0.00000E+00
         0.00000E+00
         0.00000E+00
         0.00000E+00
         0.00000E+00
         0.00000E+00
         0.00000E+00
         0.00000E+00
         0.00000E+00
         0.00000E+00
         0.00000E+00
         0.00000E+00
         0.00000E+00
         0.00000E+00
         0.00000E+00
         0.00000E+00
         0.00000E+00
         0.00000E+00
         0.00000E+00
         0.00000E+00
         0.00000E+00
         0.00000E+00
         0.00000E+00
         0.00000E+00
         0.00000E+00
         0.00000E+00
         0.00000E+00
         0.00000E+00
         0.00000E+00
         0.00000E+00
         0.00000E+00
         0.00000E+00
         0.00000E+00
         0.00000E+00
         0.00000E+00
         0.00000E+00
         0.00000E+00
         0.00000E+00
         0.00000E+00
         0.00000E+00
         0.00000E+00
         0.00000E+00
         0.00000E+00
         0.00000E+00
         0.00000E+00
         0.00000E+00
         0.00000E+00
         0.00000E+00
         0.00000E+00
         0.00000E+00
         0.00000E+00
         0.00000E+00
         0.00000E+00
         0.00000E+00
         0.00000E+00
         0.00000E+00
         0.00000E+00
         0.00000E+00
         0.00000E+00
         0.00000E+00
         0.00000E+00
         0.00000E+00
         0.00000E+00
         0.00000E+00
         0.00000E+00
         0.00000E+00
         0.00000E+00
         0.00000E+00
         0.00000E+00
         0.00000E+00
         0.00000E+00
         0.00000E+00
         0.00000E+00
         0.00000E+00
         0.00000E+00
         0.00000E+00
         0.00000E+00
         0.00000E+00
         0.00000E+00
         0.00000E+00
         0.00000E+00
         0.00000E+00
         0.00000E+00
  
SCALARS                     velocity_z  double 1
LOOKUP_TABLE default
        -0.37300E+03
        -0.37300E+03
        -0.37300E+03
        -0.37300E+03
         0.00000E+00
         0.00000E+00
         0.00000E+00
         0.00000E+00
        -0.37300E+03
        -0.37300E+03
         0.00000E+00
         0.00000E+00
        -0.37300E+03
        -0.37300E+03
         0.00000E+00
         0.00000E+00
        -0.37300E+03
        -0.37300E+03
         0.00000E+00
         0.00000E+00
        -0.37300E+03
        -0.37300E+03
        -0.37300E+03
         0.00000E+00
         0.00000E+00
         0.00000E+00
        -0.37300E+03
        -0.37300E+03
         0.00000E+00
         0.00000E+00
        -0.37300E+03
        -0.37300E+03
        -0.37300E+03
         0.00000E+00
         0.00000E+00
         0.00000E+00
        -0.37300E+03
        -0.37300E+03
         0.00000E+00
         0.00000E+00
        -0.37300E+03
        -0.37300E+03
         0.00000E+00
         0.00000E+00
        -0.37300E+03
        -0.37300E+03
         0.00000E+00
         0.00000E+00
        -0.37300E+03
         0.00000E+00
        -0.37300E+03
         0.00000E+00
        -0.37300E+03
         0.00000E+00
        -0.37300E+03
         0.00000E+00
        -0.37300E+03
        -0.37300E+03
         0.00000E+00
         0.00000E+00
        -0.37300E+03
        -0.37300E+03
         0.00000E+00
         0.00000E+00
        -0.37300E+03
         0.00000E+00
        -0.37300E+03
         0.00000E+00
        -0.37300E+03
        -0.37300E+03
         0.00000E+00
         0.00000E+00
        -0.37300E+03
         0.00000E+00
        -0.37300E+03
         0.00000E+00
        -0.37300E+03
         0.00000E+00
        -0.37300E+03
         0.00000E+00
        -0.37300E+03
        -0.37300E+03
         0.00000E+00
         0.00000E+00
        -0.37300E+03
         0.00000E+00
        -0.37300E+03
         0.00000E+00
        -0.37300E+03
         0.00000E+00
        -0.37300E+03
        -0.37300E+03
         0.00000E+00
         0.00000E+00
        -0.37300E+03
         0.00000E+00
        -0.37300E+03
         0.00000E+00
        -0.37300E+03
         0.00000E+00
        -0.37300E+03
        -0.37300E+03
         0.00000E+00
         0.00000E+00
        -0.37300E+03
        -0.37300E+03
         0.00000E+00
         0.00000E+00
        -0.37300E+03
         0.00000E+00
        -0.37300E+03
         0.00000E+00
        -0.37300E+03
         0.00000E+00
        -0.37300E+03
         0.00000E+00
        -0.37300E+03
         0.00000E+00
        -0.37300E+03
         0.00000E+00
        -0.37300E+03
         0.00000E+00
        -0.37300E+03
         0.00000E+00
        -0.37300E+03
         0.00000E+00
        -0.37300E+03
         0.00000E+00
        -0.37300E+03
         0.00000E+00
        -0.37300E+03
         0.00000E+00
        -0.37300E+03
         0.00000E+00
        -0.37300E+03
         0.00000E+00
        -0.37300E+03
         0.00000E+00
        -0.37300E+03
         0.00000E+00
        -0.37300E+03
         0.00000E+00
        -0.37300E+03
         0.00000E+00
        -0.37300E+03
         0.00000E+00
        -0.37300E+03
         0.00000E+00
        -0.37300E+03
         0.00000E+00
        -0.37300E+03
         0.00000E+00
        -0.37300E+03
         0.00000E+00
        -0.37300E+03
         0.00000E+00
        -0.37300E+03
        -0.37300E+03
        -0.37300E+03
        -0.37300E+03
        -0.37300E+03
        -0.37300E+03
        -0.37300E+03
        -0.37300E+03
        -0.37300E+03
        -0.37300E+03
        -0.37300E+03
        -0.37300E+03
        -0.37300E+03
        -0.37300E+03
        -0.37300E+03
        -0.37300E+03
        -0.37300E+03
        -0.37300E+03
        -0.37300E+03
        -0.37300E+03
        -0.37300E+03
        -0.37300E+03
        -0.37300E+03
        -0.37300E+03
        -0.37300E+03
        -0.37300E+03
        -0.37300E+03
        -0.37300E+03
        -0.37300E+03
        -0.37300E+03
        -0.37300E+03
        -0.37300E+03
        -0.37300E+03
        -0.37300E+03
        -0.37300E+03
        -0.37300E+03
        -0.37300E+03
        -0.37300E+03
        -0.37300E+03
        -0.37300E+03
        -0.37300E+03
        -0.37300E+03
        -0.37300E+03
        -0.37300E+03
        -0.37300E+03
        -0.37300E+03
        -0.37300E+03
        -0.37300E+03
        -0.37300E+03
        -0.37300E+03
        -0.37300E+03
        -0.37300E+03
        -0.37300E+03
        -0.37300E+03
        -0.37300E+03
        -0.37300E+03
        -0.37300E+03
        -0.37300E+03
        -0.37300E+03
        -0.37300E+03
        -0.37300E+03
        -0.37300E+03
        -0.37300E+03
        -0.37300E+03
        -0.37300E+03
        -0.37300E+03
        -0.37300E+03
        -0.37300E+03
        -0.37300E+03
        -0.37300E+03
        -0.37300E+03
        -0.37300E+03
        -0.37300E+03
        -0.37300E+03
        -0.37300E+03
        -0.37300E+03
        -0.37300E+03
        -0.37300E+03
        -0.37300E+03
        -0.37300E+03
        -0.37300E+03
        -0.37300E+03
        -0.37300E+03
        -0.37300E+03
        -0.37300E+03
        -0.37300E+03
        -0.37300E+03
        -0.37300E+03
        -0.37300E+03
        -0.37300E+03
        -0.37300E+03
        -0.37300E+03
        -0.37300E+03
        -0.37300E+03
        -0.37300E+03
        -0.37300E+03
        -0.37300E+03
        -0.37300E+03
        -0.37300E+03
        -0.37300E+03
        -0.37300E+03
        -0.37300E+03
        -0.37300E+03
        -0.37300E+03
        -0.37300E+03
        -0.37300E+03
        -0.37300E+03
        -0.37300E+03
        -0.37300E+03
        -0.37300E+03
        -0.37300E+03
        -0.37300E+03
        -0.37300E+03
        -0.37300E+03
        -0.37300E+03
        -0.37300E+03
        -0.37300E+03
        -0.37300E+03
        -0.37300E+03
        -0.37300E+03
        -0.37300E+03
        -0.37300E+03
        -0.37300E+03
        -0.37300E+03
        -0.37300E+03
        -0.37300E+03
        -0.37300E+03
        -0.37300E+03
        -0.37300E+03
        -0.37300E+03
        -0.37300E+03
        -0.37300E+03
        -0.37300E+03
        -0.37300E+03
        -0.37300E+03
        -0.37300E+03
        -0.37300E+03
        -0.37300E+03
        -0.37300E+03
        -0.37300E+03
        -0.37300E+03
        -0.37300E+03
        -0.37300E+03
        -0.37300E+03
        -0.37300E+03
        -0.37300E+03
        -0.37300E+03
        -0.37300E+03
        -0.37300E+03
        -0.37300E+03
        -0.37300E+03
        -0.37300E+03
        -0.37300E+03
        -0.37300E+03
        -0.37300E+03
        -0.37300E+03
        -0.37300E+03
        -0.37300E+03
        -0.37300E+03
        -0.37300E+03
        -0.37300E+03
        -0.37300E+03
        -0.37300E+03
        -0.37300E+03
        -0.37300E+03
        -0.37300E+03
        -0.37300E+03
        -0.37300E+03
        -0.37300E+03
        -0.37300E+03
        -0.37300E+03
        -0.37300E+03
        -0.37300E+03
        -0.37300E+03
        -0.37300E+03
        -0.37300E+03
        -0.37300E+03
        -0.37300E+03
        -0.37300E+03
        -0.37300E+03
        -0.37300E+03
        -0.37300E+03
        -0.37300E+03
        -0.37300E+03
        -0.37300E+03
        -0.37300E+03
        -0.37300E+03
        -0.37300E+03
        -0.37300E+03
        -0.37300E+03
        -0.37300E+03
        -0.37300E+03
        -0.37300E+03
        -0.37300E+03
        -0.37300E+03
        -0.37300E+03
        -0.37300E+03
        -0.37300E+03
        -0.37300E+03
        -0.37300E+03
        -0.37300E+03
        -0.37300E+03
        -0.37300E+03
        -0.37300E+03
        -0.37300E+03
        -0.37300E+03
        -0.37300E+03
        -0.37300E+03
        -0.37300E+03
        -0.37300E+03
        -0.37300E+03
        -0.37300E+03
        -0.37300E+03
        -0.37300E+03
        -0.37300E+03
        -0.37300E+03
        -0.37300E+03
        -0.37300E+03
        -0.37300E+03
        -0.37300E+03
        -0.37300E+03
        -0.37300E+03
        -0.37300E+03
        -0.37300E+03
        -0.37300E+03
        -0.37300E+03
        -0.37300E+03
        -0.37300E+03
        -0.37300E+03
        -0.37300E+03
        -0.37300E+03
        -0.37300E+03
        -0.37300E+03
        -0.37300E+03
        -0.37300E+03
        -0.37300E+03
        -0.37300E+03
        -0.37300E+03
        -0.37300E+03
        -0.37300E+03
        -0.37300E+03
        -0.37300E+03
        -0.37300E+03
        -0.37300E+03
        -0.37300E+03
        -0.37300E+03
        -0.37300E+03
        -0.37300E+03
        -0.37300E+03
        -0.37300E+03
        -0.37300E+03
        -0.37300E+03
        -0.37300E+03
        -0.37300E+03
        -0.37300E+03
        -0.37300E+03
        -0.37300E+03
        -0.37300E+03
        -0.37300E+03
        -0.37300E+03
        -0.37300E+03
        -0.37300E+03
        -0.37300E+03
        -0.37300E+03
        -0.37300E+03
        -0.37300E+03
        -0.37300E+03
        -0.37300E+03
        -0.37300E+03
        -0.37300E+03
        -0.37300E+03
        -0.37300E+03
        -0.37300E+03
        -0.37300E+03
        -0.37300E+03
        -0.37300E+03
        -0.37300E+03
        -0.37300E+03
        -0.37300E+03
        -0.37300E+03
        -0.37300E+03
        -0.37300E+03
        -0.37300E+03
        -0.37300E+03
        -0.37300E+03
        -0.37300E+03
        -0.37300E+03
        -0.37300E+03
        -0.37300E+03
        -0.37300E+03
        -0.37300E+03
        -0.37300E+03
        -0.37300E+03
        -0.37300E+03
        -0.37300E+03
        -0.37300E+03
        -0.37300E+03
        -0.37300E+03
        -0.37300E+03
        -0.37300E+03
        -0.37300E+03
        -0.37300E+03
        -0.37300E+03
        -0.37300E+03
        -0.37300E+03
        -0.37300E+03
        -0.37300E+03
        -0.37300E+03
        -0.37300E+03
        -0.37300E+03
        -0.37300E+03
        -0.37300E+03
        -0.37300E+03
        -0.37300E+03
        -0.37300E+03
        -0.37300E+03
        -0.37300E+03
        -0.37300E+03
        -0.37300E+03
        -0.37300E+03
        -0.37300E+03
        -0.37300E+03
        -0.37300E+03
        -0.37300E+03
        -0.37300E+03
        -0.37300E+03
        -0.37300E+03
        -0.37300E+03
        -0.37300E+03
        -0.37300E+03
        -0.37300E+03
        -0.37300E+03
        -0.37300E+03
        -0.37300E+03
        -0.37300E+03
        -0.37300E+03
        -0.37300E+03
        -0.37300E+03
        -0.37300E+03
        -0.37300E+03
        -0.37300E+03
        -0.37300E+03
        -0.37300E+03
        -0.37300E+03
        -0.37300E+03
        -0.37300E+03
        -0.37300E+03
        -0.37300E+03
        -0.37300E+03
        -0.37300E+03
        -0.37300E+03
        -0.37300E+03
        -0.37300E+03
        -0.37300E+03
        -0.37300E+03
        -0.37300E+03
        -0.37300E+03
        -0.37300E+03
        -0.37300E+03
        -0.37300E+03
        -0.37300E+03
        -0.37300E+03
        -0.37300E+03
        -0.37300E+03
        -0.37300E+03
        -0.37300E+03
        -0.37300E+03
        -0.37300E+03
        -0.37300E+03
        -0.37300E+03
        -0.37300E+03
        -0.37300E+03
        -0.37300E+03
        -0.37300E+03
        -0.37300E+03
        -0.37300E+03
        -0.37300E+03
        -0.37300E+03
        -0.37300E+03
        -0.37300E+03
        -0.37300E+03
        -0.37300E+03
        -0.37300E+03
        -0.37300E+03
        -0.37300E+03
        -0.37300E+03
        -0.37300E+03
        -0.37300E+03
        -0.37300E+03
        -0.37300E+03
        -0.37300E+03
        -0.37300E+03
        -0.37300E+03
        -0.37300E+03
        -0.37300E+03
        -0.37300E+03
        -0.37300E+03
        -0.37300E+03
        -0.37300E+03
        -0.37300E+03
        -0.37300E+03
        -0.37300E+03
        -0.37300E+03
        -0.37300E+03
        -0.37300E+03
        -0.37300E+03
        -0.37300E+03
        -0.37300E+03
        -0.37300E+03
        -0.37300E+03
        -0.37300E+03
        -0.37300E+03
        -0.37300E+03
        -0.37300E+03
        -0.37300E+03
        -0.37300E+03
        -0.37300E+03
        -0.37300E+03
        -0.37300E+03
        -0.37300E+03
        -0.37300E+03
        -0.37300E+03
        -0.37300E+03
        -0.37300E+03
        -0.37300E+03
        -0.37300E+03
        -0.37300E+03
        -0.37300E+03
        -0.37300E+03
        -0.37300E+03
        -0.37300E+03
        -0.37300E+03
        -0.37300E+03
        -0.37300E+03
        -0.37300E+03
        -0.37300E+03
        -0.37300E+03
        -0.37300E+03
        -0.37300E+03
        -0.37300E+03
        -0.37300E+03
        -0.37300E+03
        -0.37300E+03
        -0.37300E+03
        -0.37300E+03
        -0.37300E+03
        -0.37300E+03
        -0.37300E+03
        -0.37300E+03
        -0.37300E+03
        -0.37300E+03
        -0.37300E+03
        -0.37300E+03
        -0.37300E+03
        -0.37300E+03
        -0.37300E+03
        -0.37300E+03
        -0.37300E+03
        -0.37300E+03
        -0.37300E+03
        -0.37300E+03
        -0.37300E+03
        -0.37300E+03
        -0.37300E+03
        -0.37300E+03
        -0.37300E+03
        -0.37300E+03
        -0.37300E+03
        -0.37300E+03
        -0.37300E+03
        -0.37300E+03
        -0.37300E+03
        -0.37300E+03
        -0.37300E+03
        -0.37300E+03
        -0.37300E+03
        -0.37300E+03
        -0.37300E+03
        -0.37300E+03
        -0.37300E+03
        -0.37300E+03
        -0.37300E+03
        -0.37300E+03
        -0.37300E+03
        -0.37300E+03
        -0.37300E+03
        -0.37300E+03
        -0.37300E+03
        -0.37300E+03
        -0.37300E+03
        -0.37300E+03
        -0.37300E+03
        -0.37300E+03
        -0.37300E+03
        -0.37300E+03
        -0.37300E+03
        -0.37300E+03
        -0.37300E+03
        -0.37300E+03
        -0.37300E+03
        -0.37300E+03
        -0.37300E+03
        -0.37300E+03
        -0.37300E+03
        -0.37300E+03
        -0.37300E+03
        -0.37300E+03
        -0.37300E+03
        -0.37300E+03
        -0.37300E+03
        -0.37300E+03
        -0.37300E+03
        -0.37300E+03
        -0.37300E+03
        -0.37300E+03
        -0.37300E+03
        -0.37300E+03
        -0.37300E+03
        -0.37300E+03
        -0.37300E+03
        -0.37300E+03
        -0.37300E+03
        -0.37300E+03
        -0.37300E+03
        -0.37300E+03
        -0.37300E+03
        -0.37300E+03
        -0.37300E+03
        -0.37300E+03
        -0.37300E+03
        -0.37300E+03
        -0.37300E+03
        -0.37300E+03
        -0.37300E+03
        -0.37300E+03
        -0.37300E+03
        -0.37300E+03
        -0.37300E+03
        -0.37300E+03
        -0.37300E+03
        -0.37300E+03
        -0.37300E+03
        -0.37300E+03
        -0.37300E+03
        -0.37300E+03
        -0.37300E+03
        -0.37300E+03
        -0.37300E+03
        -0.37300E+03
        -0.37300E+03
        -0.37300E+03
        -0.37300E+03
        -0.37300E+03
        -0.37300E+03
        -0.37300E+03
        -0.37300E+03
        -0.37300E+03
        -0.37300E+03
        -0.37300E+03
        -0.37300E+03
        -0.37300E+03
        -0.37300E+03
        -0.37300E+03
        -0.37300E+03
        -0.37300E+03
        -0.37300E+03
        -0.37300E+03
        -0.37300E+03
        -0.37300E+03
        -0.37300E+03
        -0.37300E+03
        -0.37300E+03
        -0.37300E+03
        -0.37300E+03
        -0.37300E+03
        -0.37300E+03
        -0.37300E+03
        -0.37300E+03
        -0.37300E+03
        -0.37300E+03
        -0.37300E+03
        -0.37300E+03
        -0.37300E+03
        -0.37300E+03
        -0.37300E+03
        -0.37300E+03
        -0.37300E+03
        -0.37300E+03
        -0.37300E+03
        -0.37300E+03
        -0.37300E+03
        -0.37300E+03
        -0.37300E+03
        -0.37300E+03
        -0.37300E+03
        -0.37300E+03
        -0.37300E+03
        -0.37300E+03
        -0.37300E+03
        -0.37300E+03
        -0.37300E+03
        -0.37300E+03
        -0.37300E+03
        -0.37300E+03
        -0.37300E+03
        -0.37300E+03
        -0.37300E+03
        -0.37300E+03
        -0.37300E+03
        -0.37300E+03
        -0.37300E+03
        -0.37300E+03
        -0.37300E+03
        -0.37300E+03
        -0.37300E+03
        -0.37300E+03
        -0.37300E+03
        -0.37300E+03
        -0.37300E+03
        -0.37300E+03
        -0.37300E+03
        -0.37300E+03
        -0.37300E+03
        -0.37300E+03
        -0.37300E+03
        -0.37300E+03
        -0.37300E+03
        -0.37300E+03
        -0.37300E+03
        -0.37300E+03
        -0.37300E+03
        -0.37300E+03
        -0.37300E+03
        -0.37300E+03
        -0.37300E+03
        -0.37300E+03
        -0.37300E+03
        -0.37300E+03
        -0.37300E+03
        -0.37300E+03
        -0.37300E+03
        -0.37300E+03
        -0.37300E+03
        -0.37300E+03
        -0.37300E+03
        -0.37300E+03
        -0.37300E+03
        -0.37300E+03
        -0.37300E+03
        -0.37300E+03
        -0.37300E+03
        -0.37300E+03
        -0.37300E+03
        -0.37300E+03
        -0.37300E+03
        -0.37300E+03
        -0.37300E+03
        -0.37300E+03
        -0.37300E+03
        -0.37300E+03
        -0.37300E+03
        -0.37300E+03
        -0.37300E+03
        -0.37300E+03
        -0.37300E+03
        -0.37300E+03
        -0.37300E+03
        -0.37300E+03
        -0.37300E+03
        -0.37300E+03
        -0.37300E+03
        -0.37300E+03
        -0.37300E+03
        -0.37300E+03
        -0.37300E+03
        -0.37300E+03
        -0.37300E+03
        -0.37300E+03
        -0.37300E+03
        -0.37300E+03
        -0.37300E+03
        -0.37300E+03
        -0.37300E+03
        -0.37300E+03
        -0.37300E+03
        -0.37300E+03
        -0.37300E+03
        -0.37300E+03
        -0.37300E+03
        -0.37300E+03
        -0.37300E+03
        -0.37300E+03
        -0.37300E+03
        -0.37300E+03
        -0.37300E+03
        -0.37300E+03
        -0.37300E+03
        -0.37300E+03
        -0.37300E+03
        -0.37300E+03
        -0.37300E+03
        -0.37300E+03
        -0.37300E+03
        -0.37300E+03
        -0.37300E+03
        -0.37300E+03
        -0.37300E+03
        -0.37300E+03
        -0.37300E+03
        -0.37300E+03
        -0.37300E+03
        -0.37300E+03
        -0.37300E+03
        -0.37300E+03
        -0.37300E+03
        -0.37300E+03
        -0.37300E+03
        -0.37300E+03
        -0.37300E+03
        -0.37300E+03
        -0.37300E+03
        -0.37300E+03
        -0.37300E+03
        -0.37300E+03
        -0.37300E+03
        -0.37300E+03
        -0.37300E+03
        -0.37300E+03
        -0.37300E+03
        -0.37300E+03
        -0.37300E+03
        -0.37300E+03
        -0.37300E+03
        -0.37300E+03
        -0.37300E+03
        -0.37300E+03
        -0.37300E+03
        -0.37300E+03
        -0.37300E+03
        -0.37300E+03
        -0.37300E+03
        -0.37300E+03
        -0.37300E+03
        -0.37300E+03
        -0.37300E+03
        -0.37300E+03
        -0.37300E+03
        -0.37300E+03
        -0.37300E+03
        -0.37300E+03
        -0.37300E+03
        -0.37300E+03
        -0.37300E+03
        -0.37300E+03
        -0.37300E+03
        -0.37300E+03
        -0.37300E+03
        -0.37300E+03
        -0.37300E+03
        -0.37300E+03
        -0.37300E+03
        -0.37300E+03
        -0.37300E+03
        -0.37300E+03
        -0.37300E+03
        -0.37300E+03
        -0.37300E+03
        -0.37300E+03
        -0.37300E+03
        -0.37300E+03
        -0.37300E+03
        -0.37300E+03
        -0.37300E+03
        -0.37300E+03
        -0.37300E+03
        -0.37300E+03
        -0.37300E+03
        -0.37300E+03
        -0.37300E+03
        -0.37300E+03
        -0.37300E+03
        -0.37300E+03
        -0.37300E+03
        -0.37300E+03
        -0.37300E+03
        -0.37300E+03
        -0.37300E+03
        -0.37300E+03
        -0.37300E+03
        -0.37300E+03
        -0.37300E+03
        -0.37300E+03
        -0.37300E+03
        -0.37300E+03
        -0.37300E+03
        -0.37300E+03
        -0.37300E+03
        -0.37300E+03
        -0.37300E+03
        -0.37300E+03
        -0.37300E+03
        -0.37300E+03
        -0.37300E+03
        -0.37300E+03
        -0.37300E+03
        -0.37300E+03
        -0.37300E+03
        -0.37300E+03
        -0.37300E+03
        -0.37300E+03
        -0.37300E+03
        -0.37300E+03
        -0.37300E+03
        -0.37300E+03
        -0.37300E+03
        -0.37300E+03
        -0.37300E+03
        -0.37300E+03
        -0.37300E+03
        -0.37300E+03
        -0.37300E+03
        -0.37300E+03
        -0.37300E+03
        -0.37300E+03
        -0.37300E+03
        -0.37300E+03
        -0.37300E+03
        -0.37300E+03
        -0.37300E+03
        -0.37300E+03
        -0.37300E+03
        -0.37300E+03
        -0.37300E+03
        -0.37300E+03
        -0.37300E+03
        -0.37300E+03
        -0.37300E+03
        -0.37300E+03
        -0.37300E+03
        -0.37300E+03
        -0.37300E+03
        -0.37300E+03
        -0.37300E+03
        -0.37300E+03
        -0.37300E+03
        -0.37300E+03
        -0.37300E+03
        -0.37300E+03
        -0.37300E+03
        -0.37300E+03
        -0.37300E+03
        -0.37300E+03
        -0.37300E+03
        -0.37300E+03
        -0.37300E+03
        -0.37300E+03
        -0.37300E+03
        -0.37300E+03
        -0.37300E+03
        -0.37300E+03
        -0.37300E+03
        -0.37300E+03
        -0.37300E+03
        -0.37300E+03
        -0.37300E+03
        -0.37300E+03
        -0.37300E+03
        -0.37300E+03
        -0.37300E+03
        -0.37300E+03
        -0.37300E+03
        -0.37300E+03
        -0.37300E+03
        -0.37300E+03
        -0.37300E+03
        -0.37300E+03
        -0.37300E+03
        -0.37300E+03
        -0.37300E+03
        -0.37300E+03
        -0.37300E+03
        -0.37300E+03
        -0.37300E+03
        -0.37300E+03
        -0.37300E+03
        -0.37300E+03
        -0.37300E+03
        -0.37300E+03
        -0.37300E+03
        -0.37300E+03
        -0.37300E+03
        -0.37300E+03
        -0.37300E+03
        -0.37300E+03
        -0.37300E+03
        -0.37300E+03
        -0.37300E+03
        -0.37300E+03
        -0.37300E+03
        -0.37300E+03
        -0.37300E+03
        -0.37300E+03
        -0.37300E+03
        -0.37300E+03
        -0.37300E+03
        -0.37300E+03
        -0.37300E+03
        -0.37300E+03
        -0.37300E+03
        -0.37300E+03
        -0.37300E+03
        -0.37300E+03
        -0.37300E+03
        -0.37300E+03
        -0.37300E+03
        -0.37300E+03
        -0.37300E+03
        -0.37300E+03
        -0.37300E+03
        -0.37300E+03
        -0.37300E+03
        -0.37300E+03
        -0.37300E+03
        -0.37300E+03
        -0.37300E+03
        -0.37300E+03
        -0.37300E+03
        -0.37300E+03
        -0.37300E+03
        -0.37300E+03
        -0.37300E+03
        -0.37300E+03
        -0.37300E+03
        -0.37300E+03
        -0.37300E+03
        -0.37300E+03
        -0.37300E+03
        -0.37300E+03
        -0.37300E+03
        -0.37300E+03
        -0.37300E+03
        -0.37300E+03
        -0.37300E+03
        -0.37300E+03
        -0.37300E+03
        -0.37300E+03
        -0.37300E+03
        -0.37300E+03
        -0.37300E+03
        -0.37300E+03
        -0.37300E+03
        -0.37300E+03
        -0.37300E+03
        -0.37300E+03
        -0.37300E+03
        -0.37300E+03
        -0.37300E+03
        -0.37300E+03
        -0.37300E+03
        -0.37300E+03
        -0.37300E+03
        -0.37300E+03
        -0.37300E+03
        -0.37300E+03
        -0.37300E+03
        -0.37300E+03
        -0.37300E+03
        -0.37300E+03
        -0.37300E+03
        -0.37300E+03
        -0.37300E+03
        -0.37300E+03
        -0.37300E+03
        -0.37300E+03
        -0.37300E+03
        -0.37300E+03
        -0.37300E+03
        -0.37300E+03
        -0.37300E+03
        -0.37300E+03
        -0.37300E+03
        -0.37300E+03
        -0.37300E+03
        -0.37300E+03
        -0.37300E+03
        -0.37300E+03
        -0.37300E+03
        -0.37300E+03
        -0.37300E+03
        -0.37300E+03
        -0.37300E+03
        -0.37300E+03
        -0.37300E+03
        -0.37300E+03
        -0.37300E+03
        -0.37300E+03
        -0.37300E+03
        -0.37300E+03
        -0.37300E+03
        -0.37300E+03
        -0.37300E+03
        -0.37300E+03
        -0.37300E+03
        -0.37300E+03
        -0.37300E+03
        -0.37300E+03
        -0.37300E+03
        -0.37300E+03
        -0.37300E+03
        -0.37300E+03
        -0.37300E+03
        -0.37300E+03
        -0.37300E+03
        -0.37300E+03
        -0.37300E+03
        -0.37300E+03
        -0.37300E+03
        -0.37300E+03
        -0.37300E+03
        -0.37300E+03
        -0.37300E+03
        -0.37300E+03
        -0.37300E+03
        -0.37300E+03
        -0.37300E+03
        -0.37300E+03
        -0.37300E+03
        -0.37300E+03
        -0.37300E+03
        -0.37300E+03
        -0.37300E+03
        -0.37300E+03
        -0.37300E+03
        -0.37300E+03
        -0.37300E+03
        -0.37300E+03
        -0.37300E+03
        -0.37300E+03
        -0.37300E+03
        -0.37300E+03
        -0.37300E+03
        -0.37300E+03
        -0.37300E+03
        -0.37300E+03
        -0.37300E+03
        -0.37300E+03
        -0.37300E+03
        -0.37300E+03
        -0.37300E+03
        -0.37300E+03
        -0.37300E+03
        -0.37300E+03
        -0.37300E+03
        -0.37300E+03
        -0.37300E+03
        -0.37300E+03
        -0.37300E+03
        -0.37300E+03
        -0.37300E+03
        -0.37300E+03
        -0.37300E+03
        -0.37300E+03
        -0.37300E+03
        -0.37300E+03
        -0.37300E+03
        -0.37300E+03
        -0.37300E+03
        -0.37300E+03
        -0.37300E+03
        -0.37300E+03
        -0.37300E+03
        -0.37300E+03
        -0.37300E+03
        -0.37300E+03
        -0.37300E+03
        -0.37300E+03
        -0.37300E+03
        -0.37300E+03
        -0.37300E+03
        -0.37300E+03
        -0.37300E+03
        -0.37300E+03
        -0.37300E+03
        -0.37300E+03
        -0.37300E+03
        -0.37300E+03
        -0.37300E+03
        -0.37300E+03
        -0.37300E+03
        -0.37300E+03
        -0.37300E+03
        -0.37300E+03
        -0.37300E+03
        -0.37300E+03
        -0.37300E+03
        -0.37300E+03
        -0.37300E+03
        -0.37300E+03
        -0.37300E+03
        -0.37300E+03
        -0.37300E+03
        -0.37300E+03
        -0.37300E+03
        -0.37300E+03
        -0.37300E+03
        -0.37300E+03
        -0.37300E+03
        -0.37300E+03
        -0.37300E+03
        -0.37300E+03
        -0.37300E+03
        -0.37300E+03
        -0.37300E+03
        -0.37300E+03
        -0.37300E+03
        -0.37300E+03
        -0.37300E+03
        -0.37300E+03
        -0.37300E+03
        -0.37300E+03
        -0.37300E+03
        -0.37300E+03
        -0.37300E+03
        -0.37300E+03
        -0.37300E+03
        -0.37300E+03
        -0.37300E+03
        -0.37300E+03
        -0.37300E+03
        -0.37300E+03
        -0.37300E+03
        -0.37300E+03
        -0.37300E+03
        -0.37300E+03
        -0.37300E+03
        -0.37300E+03
        -0.37300E+03
        -0.37300E+03
        -0.37300E+03
        -0.37300E+03
        -0.37300E+03
        -0.37300E+03
        -0.37300E+03
        -0.37300E+03
        -0.37300E+03
        -0.37300E+03
        -0.37300E+03
        -0.37300E+03
        -0.37300E+03
        -0.37300E+03
        -0.37300E+03
        -0.37300E+03
        -0.37300E+03
        -0.37300E+03
        -0.37300E+03
        -0.37300E+03
        -0.37300E+03
        -0.37300E+03
        -0.37300E+03
        -0.37300E+03
        -0.37300E+03
        -0.37300E+03
        -0.37300E+03
        -0.37300E+03
        -0.37300E+03
        -0.37300E+03
        -0.37300E+03
        -0.37300E+03
        -0.37300E+03
        -0.37300E+03
        -0.37300E+03
        -0.37300E+03
        -0.37300E+03
        -0.37300E+03
        -0.37300E+03
        -0.37300E+03
        -0.37300E+03
        -0.37300E+03
        -0.37300E+03
        -0.37300E+03
        -0.37300E+03
        -0.37300E+03
        -0.37300E+03
        -0.37300E+03
        -0.37300E+03
        -0.37300E+03
        -0.37300E+03
        -0.37300E+03
        -0.37300E+03
        -0.37300E+03
        -0.37300E+03
        -0.37300E+03
        -0.37300E+03
        -0.37300E+03
        -0.37300E+03
        -0.37300E+03
        -0.37300E+03
        -0.37300E+03
        -0.37300E+03
        -0.37300E+03
        -0.37300E+03
        -0.37300E+03
        -0.37300E+03
        -0.37300E+03
        -0.37300E+03
        -0.37300E+03
        -0.37300E+03
        -0.37300E+03
        -0.37300E+03
        -0.37300E+03
        -0.37300E+03
        -0.37300E+03
        -0.37300E+03
        -0.37300E+03
        -0.37300E+03
        -0.37300E+03
        -0.37300E+03
        -0.37300E+03
        -0.37300E+03
        -0.37300E+03
        -0.37300E+03
        -0.37300E+03
        -0.37300E+03
        -0.37300E+03
        -0.37300E+03
        -0.37300E+03
        -0.37300E+03
        -0.37300E+03
        -0.37300E+03
        -0.37300E+03
        -0.37300E+03
        -0.37300E+03
        -0.37300E+03
        -0.37300E+03
        -0.37300E+03
        -0.37300E+03
        -0.37300E+03
        -0.37300E+03
        -0.37300E+03
        -0.37300E+03
        -0.37300E+03
        -0.37300E+03
        -0.37300E+03
        -0.37300E+03
        -0.37300E+03
        -0.37300E+03
        -0.37300E+03
        -0.37300E+03
        -0.37300E+03
        -0.37300E+03
        -0.37300E+03
        -0.37300E+03
        -0.37300E+03
        -0.37300E+03
        -0.37300E+03
        -0.37300E+03
        -0.37300E+03
        -0.37300E+03
        -0.37300E+03
        -0.37300E+03
        -0.37300E+03
        -0.37300E+03
        -0.37300E+03
        -0.37300E+03
        -0.37300E+03
        -0.37300E+03
        -0.37300E+03
        -0.37300E+03
        -0.37300E+03
        -0.37300E+03
        -0.37300E+03
        -0.37300E+03
        -0.37300E+03
        -0.37300E+03
        -0.37300E+03
        -0.37300E+03
        -0.37300E+03
        -0.37300E+03
        -0.37300E+03
        -0.37300E+03
        -0.37300E+03
        -0.37300E+03
        -0.37300E+03
        -0.37300E+03
        -0.37300E+03
        -0.37300E+03
        -0.37300E+03
        -0.37300E+03
        -0.37300E+03
        -0.37300E+03
        -0.37300E+03
        -0.37300E+03
        -0.37300E+03
        -0.37300E+03
        -0.37300E+03
        -0.37300E+03
        -0.37300E+03
        -0.37300E+03
        -0.37300E+03
        -0.37300E+03
        -0.37300E+03
        -0.37300E+03
        -0.37300E+03
        -0.37300E+03
        -0.37300E+03
        -0.37300E+03
        -0.37300E+03
        -0.37300E+03
        -0.37300E+03
        -0.37300E+03
        -0.37300E+03
        -0.37300E+03
        -0.37300E+03
        -0.37300E+03
        -0.37300E+03
        -0.37300E+03
        -0.37300E+03
        -0.37300E+03
        -0.37300E+03
        -0.37300E+03
        -0.37300E+03
        -0.37300E+03
        -0.37300E+03
        -0.37300E+03
        -0.37300E+03
        -0.37300E+03
        -0.37300E+03
        -0.37300E+03
        -0.37300E+03
        -0.37300E+03
        -0.37300E+03
        -0.37300E+03
        -0.37300E+03
        -0.37300E+03
        -0.37300E+03
        -0.37300E+03
        -0.37300E+03
        -0.37300E+03
        -0.37300E+03
        -0.37300E+03
        -0.37300E+03
        -0.37300E+03
        -0.37300E+03
        -0.37300E+03
        -0.37300E+03
        -0.37300E+03
        -0.37300E+03
        -0.37300E+03
        -0.37300E+03
        -0.37300E+03
        -0.37300E+03
        -0.37300E+03
        -0.37300E+03
        -0.37300E+03
        -0.37300E+03
        -0.37300E+03
        -0.37300E+03
        -0.37300E+03
        -0.37300E+03
        -0.37300E+03
        -0.37300E+03
        -0.37300E+03
        -0.37300E+03
        -0.37300E+03
        -0.37300E+03
        -0.37300E+03
        -0.37300E+03
        -0.37300E+03
        -0.37300E+03
        -0.37300E+03
        -0.37300E+03
        -0.37300E+03
        -0.37300E+03
        -0.37300E+03
        -0.37300E+03
        -0.37300E+03
        -0.37300E+03
        -0.37300E+03
        -0.37300E+03
        -0.37300E+03
        -0.37300E+03
        -0.37300E+03
        -0.37300E+03
        -0.37300E+03
        -0.37300E+03
        -0.37300E+03
        -0.37300E+03
        -0.37300E+03
        -0.37300E+03
        -0.37300E+03
        -0.37300E+03
        -0.37300E+03
        -0.37300E+03
        -0.37300E+03
        -0.37300E+03
        -0.37300E+03
        -0.37300E+03
        -0.37300E+03
        -0.37300E+03
        -0.37300E+03
        -0.37300E+03
        -0.37300E+03
        -0.37300E+03
        -0.37300E+03
        -0.37300E+03
        -0.37300E+03
        -0.37300E+03
        -0.37300E+03
        -0.37300E+03
        -0.37300E+03
        -0.37300E+03
        -0.37300E+03
        -0.37300E+03
        -0.37300E+03
        -0.37300E+03
        -0.37300E+03
        -0.37300E+03
        -0.37300E+03
        -0.37300E+03
        -0.37300E+03
        -0.37300E+03
        -0.37300E+03
        -0.37300E+03
        -0.37300E+03
        -0.37300E+03
        -0.37300E+03
        -0.37300E+03
        -0.37300E+03
        -0.37300E+03
        -0.37300E+03
        -0.37300E+03
        -0.37300E+03
        -0.37300E+03
        -0.37300E+03
        -0.37300E+03
        -0.37300E+03
        -0.37300E+03
        -0.37300E+03
        -0.37300E+03
        -0.37300E+03
        -0.37300E+03
        -0.37300E+03
        -0.37300E+03
        -0.37300E+03
        -0.37300E+03
        -0.37300E+03
        -0.37300E+03
        -0.37300E+03
        -0.37300E+03
        -0.37300E+03
        -0.37300E+03
        -0.37300E+03
        -0.37300E+03
        -0.37300E+03
        -0.37300E+03
        -0.37300E+03
        -0.37300E+03
        -0.37300E+03
        -0.37300E+03
        -0.37300E+03
        -0.37300E+03
        -0.37300E+03
        -0.37300E+03
        -0.37300E+03
        -0.37300E+03
        -0.37300E+03
        -0.37300E+03
        -0.37300E+03
        -0.37300E+03
        -0.37300E+03
        -0.37300E+03
        -0.37300E+03
        -0.37300E+03
        -0.37300E+03
        -0.37300E+03
        -0.37300E+03
        -0.37300E+03
        -0.37300E+03
        -0.37300E+03
        -0.37300E+03
        -0.37300E+03
        -0.37300E+03
        -0.37300E+03
        -0.37300E+03
        -0.37300E+03
        -0.37300E+03
        -0.37300E+03
        -0.37300E+03
        -0.37300E+03
        -0.37300E+03
        -0.37300E+03
        -0.37300E+03
        -0.37300E+03
        -0.37300E+03
        -0.37300E+03
        -0.37300E+03
        -0.37300E+03
        -0.37300E+03
        -0.37300E+03
        -0.37300E+03
        -0.37300E+03
        -0.37300E+03
        -0.37300E+03
        -0.37300E+03
        -0.37300E+03
        -0.37300E+03
        -0.37300E+03
        -0.37300E+03
        -0.37300E+03
        -0.37300E+03
        -0.37300E+03
        -0.37300E+03
        -0.37300E+03
        -0.37300E+03
        -0.37300E+03
        -0.37300E+03
        -0.37300E+03
        -0.37300E+03
        -0.37300E+03
        -0.37300E+03
        -0.37300E+03
        -0.37300E+03
        -0.37300E+03
        -0.37300E+03
        -0.37300E+03
        -0.37300E+03
        -0.37300E+03
        -0.37300E+03
        -0.37300E+03
        -0.37300E+03
        -0.37300E+03
        -0.37300E+03
        -0.37300E+03
        -0.37300E+03
        -0.37300E+03
        -0.37300E+03
        -0.37300E+03
        -0.37300E+03
        -0.37300E+03
        -0.37300E+03
        -0.37300E+03
        -0.37300E+03
        -0.37300E+03
        -0.37300E+03
        -0.37300E+03
        -0.37300E+03
        -0.37300E+03
        -0.37300E+03
        -0.37300E+03
        -0.37300E+03
        -0.37300E+03
        -0.37300E+03
        -0.37300E+03
        -0.37300E+03
        -0.37300E+03
        -0.37300E+03
        -0.37300E+03
        -0.37300E+03
        -0.37300E+03
        -0.37300E+03
        -0.37300E+03
        -0.37300E+03
        -0.37300E+03
        -0.37300E+03
        -0.37300E+03
        -0.37300E+03
        -0.37300E+03
        -0.37300E+03
        -0.37300E+03
        -0.37300E+03
        -0.37300E+03
        -0.37300E+03
        -0.37300E+03
        -0.37300E+03
        -0.37300E+03
        -0.37300E+03
        -0.37300E+03
        -0.37300E+03
        -0.37300E+03
        -0.37300E+03
        -0.37300E+03
        -0.37300E+03
        -0.37300E+03
        -0.37300E+03
        -0.37300E+03
        -0.37300E+03
        -0.37300E+03
        -0.37300E+03
        -0.37300E+03
        -0.37300E+03
        -0.37300E+03
        -0.37300E+03
        -0.37300E+03
        -0.37300E+03
        -0.37300E+03
        -0.37300E+03
        -0.37300E+03
        -0.37300E+03
        -0.37300E+03
        -0.37300E+03
        -0.37300E+03
        -0.37300E+03
        -0.37300E+03
        -0.37300E+03
        -0.37300E+03
        -0.37300E+03
        -0.37300E+03
        -0.37300E+03
        -0.37300E+03
        -0.37300E+03
        -0.37300E+03
        -0.37300E+03
        -0.37300E+03
        -0.37300E+03
        -0.37300E+03
        -0.37300E+03
        -0.37300E+03
        -0.37300E+03
        -0.37300E+03
        -0.37300E+03
        -0.37300E+03
        -0.37300E+03
        -0.37300E+03
        -0.37300E+03
        -0.37300E+03
        -0.37300E+03
        -0.37300E+03
        -0.37300E+03
        -0.37300E+03
        -0.37300E+03
        -0.37300E+03
        -0.37300E+03
        -0.37300E+03
        -0.37300E+03
        -0.37300E+03
        -0.37300E+03
        -0.37300E+03
        -0.37300E+03
        -0.37300E+03
        -0.37300E+03
        -0.37300E+03
        -0.37300E+03
        -0.37300E+03
        -0.37300E+03
        -0.37300E+03
        -0.37300E+03
        -0.37300E+03
        -0.37300E+03
        -0.37300E+03
        -0.37300E+03
        -0.37300E+03
        -0.37300E+03
        -0.37300E+03
        -0.37300E+03
        -0.37300E+03
        -0.37300E+03
        -0.37300E+03
        -0.37300E+03
        -0.37300E+03
        -0.37300E+03
        -0.37300E+03
        -0.37300E+03
        -0.37300E+03
        -0.37300E+03
        -0.37300E+03
        -0.37300E+03
        -0.37300E+03
        -0.37300E+03
        -0.37300E+03
        -0.37300E+03
        -0.37300E+03
        -0.37300E+03
        -0.37300E+03
        -0.37300E+03
        -0.37300E+03
        -0.37300E+03
        -0.37300E+03
        -0.37300E+03
        -0.37300E+03
        -0.37300E+03
        -0.37300E+03
        -0.37300E+03
        -0.37300E+03
        -0.37300E+03
        -0.37300E+03
        -0.37300E+03
        -0.37300E+03
        -0.37300E+03
        -0.37300E+03
        -0.37300E+03
        -0.37300E+03
        -0.37300E+03
        -0.37300E+03
        -0.37300E+03
        -0.37300E+03
        -0.37300E+03
        -0.37300E+03
        -0.37300E+03
        -0.37300E+03
        -0.37300E+03
        -0.37300E+03
        -0.37300E+03
        -0.37300E+03
        -0.37300E+03
        -0.37300E+03
        -0.37300E+03
        -0.37300E+03
        -0.37300E+03
        -0.37300E+03
        -0.37300E+03
        -0.37300E+03
        -0.37300E+03
        -0.37300E+03
        -0.37300E+03
        -0.37300E+03
        -0.37300E+03
        -0.37300E+03
        -0.37300E+03
        -0.37300E+03
        -0.37300E+03
        -0.37300E+03
        -0.37300E+03
        -0.37300E+03
        -0.37300E+03
        -0.37300E+03
        -0.37300E+03
        -0.37300E+03
        -0.37300E+03
        -0.37300E+03
        -0.37300E+03
        -0.37300E+03
        -0.37300E+03
        -0.37300E+03
        -0.37300E+03
        -0.37300E+03
        -0.37300E+03
        -0.37300E+03
        -0.37300E+03
        -0.37300E+03
        -0.37300E+03
        -0.37300E+03
        -0.37300E+03
        -0.37300E+03
        -0.37300E+03
        -0.37300E+03
        -0.37300E+03
        -0.37300E+03
        -0.37300E+03
        -0.37300E+03
        -0.37300E+03
        -0.37300E+03
        -0.37300E+03
        -0.37300E+03
        -0.37300E+03
        -0.37300E+03
        -0.37300E+03
        -0.37300E+03
        -0.37300E+03
        -0.37300E+03
        -0.37300E+03
        -0.37300E+03
        -0.37300E+03
        -0.37300E+03
        -0.37300E+03
        -0.37300E+03
        -0.37300E+03
        -0.37300E+03
        -0.37300E+03
        -0.37300E+03
        -0.37300E+03
        -0.37300E+03
        -0.37300E+03
        -0.37300E+03
        -0.37300E+03
        -0.37300E+03
        -0.37300E+03
        -0.37300E+03
        -0.37300E+03
        -0.37300E+03
        -0.37300E+03
        -0.37300E+03
        -0.37300E+03
        -0.37300E+03
        -0.37300E+03
        -0.37300E+03
        -0.37300E+03
        -0.37300E+03
        -0.37300E+03
        -0.37300E+03
        -0.37300E+03
        -0.37300E+03
        -0.37300E+03
        -0.37300E+03
        -0.37300E+03
  
SCALARS                 acceleration_x  double 1
LOOKUP_TABLE default
         0.00000E+00
         0.00000E+00
         0.00000E+00
         0.00000E+00
         0.00000E+00
         0.00000E+00
         0.00000E+00
         0.00000E+00
         0.00000E+00
         0.00000E+00
         0.00000E+00
         0.00000E+00
         0.00000E+00
         0.00000E+00
         0.00000E+00
         0.00000E+00
         0.00000E+00
         0.00000E+00
         0.00000E+00
         0.00000E+00
         0.00000E+00
         0.00000E+00
         0.00000E+00
         0.00000E+00
         0.00000E+00
         0.00000E+00
         0.00000E+00
         0.00000E+00
         0.00000E+00
         0.00000E+00
         0.00000E+00
         0.00000E+00
         0.00000E+00
         0.00000E+00
         0.00000E+00
         0.00000E+00
         0.00000E+00
         0.00000E+00
         0.00000E+00
         0.00000E+00
         0.00000E+00
         0.00000E+00
         0.00000E+00
         0.00000E+00
         0.00000E+00
         0.00000E+00
         0.00000E+00
         0.00000E+00
         0.00000E+00
         0.00000E+00
         0.00000E+00
         0.00000E+00
         0.00000E+00
         0.00000E+00
         0.00000E+00
         0.00000E+00
         0.00000E+00
         0.00000E+00
         0.00000E+00
         0.00000E+00
         0.00000E+00
         0.00000E+00
         0.00000E+00
         0.00000E+00
         0.00000E+00
         0.00000E+00
         0.00000E+00
         0.00000E+00
         0.00000E+00
         0.00000E+00
         0.00000E+00
         0.00000E+00
         0.00000E+00
         0.00000E+00
         0.00000E+00
         0.00000E+00
         0.00000E+00
         0.00000E+00
         0.00000E+00
         0.00000E+00
         0.00000E+00
         0.00000E+00
         0.00000E+00
         0.00000E+00
         0.00000E+00
         0.00000E+00
         0.00000E+00
         0.00000E+00
         0.00000E+00
         0.00000E+00
         0.00000E+00
         0.00000E+00
         0.00000E+00
         0.00000E+00
         0.00000E+00
         0.00000E+00
         0.00000E+00
         0.00000E+00
         0.00000E+00
         0.00000E+00
         0.00000E+00
         0.00000E+00
         0.00000E+00
         0.00000E+00
         0.00000E+00
         0.00000E+00
         0.00000E+00
         0.00000E+00
         0.00000E+00
         0.00000E+00
         0.00000E+00
         0.00000E+00
         0.00000E+00
         0.00000E+00
         0.00000E+00
         0.00000E+00
         0.00000E+00
         0.00000E+00
         0.00000E+00
         0.00000E+00
         0.00000E+00
         0.00000E+00
         0.00000E+00
         0.00000E+00
         0.00000E+00
         0.00000E+00
         0.00000E+00
         0.00000E+00
         0.00000E+00
         0.00000E+00
         0.00000E+00
         0.00000E+00
         0.00000E+00
         0.00000E+00
         0.00000E+00
         0.00000E+00
         0.00000E+00
         0.00000E+00
         0.00000E+00
         0.00000E+00
         0.00000E+00
         0.00000E+00
         0.00000E+00
         0.00000E+00
         0.00000E+00
         0.00000E+00
         0.00000E+00
         0.00000E+00
         0.00000E+00
         0.00000E+00
         0.00000E+00
         0.00000E+00
         0.00000E+00
         0.00000E+00
         0.00000E+00
         0.00000E+00
         0.00000E+00
         0.00000E+00
         0.00000E+00
         0.00000E+00
         0.00000E+00
         0.00000E+00
         0.00000E+00
         0.00000E+00
         0.00000E+00
         0.00000E+00
         0.00000E+00
         0.00000E+00
         0.00000E+00
         0.00000E+00
         0.00000E+00
         0.00000E+00
         0.00000E+00
         0.00000E+00
         0.00000E+00
         0.00000E+00
         0.00000E+00
         0.00000E+00
         0.00000E+00
         0.00000E+00
         0.00000E+00
         0.00000E+00
         0.00000E+00
         0.00000E+00
         0.00000E+00
         0.00000E+00
         0.00000E+00
         0.00000E+00
         0.00000E+00
         0.00000E+00
         0.00000E+00
         0.00000E+00
         0.00000E+00
         0.00000E+00
         0.00000E+00
         0.00000E+00
         0.00000E+00
         0.00000E+00
         0.00000E+00
         0.00000E+00
         0.00000E+00
         0.00000E+00
         0.00000E+00
         0.00000E+00
         0.00000E+00
         0.00000E+00
         0.00000E+00
         0.00000E+00
         0.00000E+00
         0.00000E+00
         0.00000E+00
         0.00000E+00
         0.00000E+00
         0.00000E+00
         0.00000E+00
         0.00000E+00
         0.00000E+00
         0.00000E+00
         0.00000E+00
         0.00000E+00
         0.00000E+00
         0.00000E+00
         0.00000E+00
         0.00000E+00
         0.00000E+00
         0.00000E+00
         0.00000E+00
         0.00000E+00
         0.00000E+00
         0.00000E+00
         0.00000E+00
         0.00000E+00
         0.00000E+00
         0.00000E+00
         0.00000E+00
         0.00000E+00
         0.00000E+00
         0.00000E+00
         0.00000E+00
         0.00000E+00
         0.00000E+00
         0.00000E+00
         0.00000E+00
         0.00000E+00
         0.00000E+00
         0.00000E+00
         0.00000E+00
         0.00000E+00
         0.00000E+00
         0.00000E+00
         0.00000E+00
         0.00000E+00
         0.00000E+00
         0.00000E+00
         0.00000E+00
         0.00000E+00
         0.00000E+00
         0.00000E+00
         0.00000E+00
         0.00000E+00
         0.00000E+00
         0.00000E+00
         0.00000E+00
         0.00000E+00
         0.00000E+00
         0.00000E+00
         0.00000E+00
         0.00000E+00
         0.00000E+00
         0.00000E+00
         0.00000E+00
         0.00000E+00
         0.00000E+00
         0.00000E+00
         0.00000E+00
         0.00000E+00
         0.00000E+00
         0.00000E+00
         0.00000E+00
         0.00000E+00
         0.00000E+00
         0.00000E+00
         0.00000E+00
         0.00000E+00
         0.00000E+00
         0.00000E+00
         0.00000E+00
         0.00000E+00
         0.00000E+00
         0.00000E+00
         0.00000E+00
         0.00000E+00
         0.00000E+00
         0.00000E+00
         0.00000E+00
         0.00000E+00
         0.00000E+00
         0.00000E+00
         0.00000E+00
         0.00000E+00
         0.00000E+00
         0.00000E+00
         0.00000E+00
         0.00000E+00
         0.00000E+00
         0.00000E+00
         0.00000E+00
         0.00000E+00
         0.00000E+00
         0.00000E+00
         0.00000E+00
         0.00000E+00
         0.00000E+00
         0.00000E+00
         0.00000E+00
         0.00000E+00
         0.00000E+00
         0.00000E+00
         0.00000E+00
         0.00000E+00
         0.00000E+00
         0.00000E+00
         0.00000E+00
         0.00000E+00
         0.00000E+00
         0.00000E+00
         0.00000E+00
         0.00000E+00
         0.00000E+00
         0.00000E+00
         0.00000E+00
         0.00000E+00
         0.00000E+00
         0.00000E+00
         0.00000E+00
         0.00000E+00
         0.00000E+00
         0.00000E+00
         0.00000E+00
         0.00000E+00
         0.00000E+00
         0.00000E+00
         0.00000E+00
         0.00000E+00
         0.00000E+00
         0.00000E+00
         0.00000E+00
         0.00000E+00
         0.00000E+00
         0.00000E+00
         0.00000E+00
         0.00000E+00
         0.00000E+00
         0.00000E+00
         0.00000E+00
         0.00000E+00
         0.00000E+00
         0.00000E+00
         0.00000E+00
         0.00000E+00
         0.00000E+00
         0.00000E+00
         0.00000E+00
         0.00000E+00
         0.00000E+00
         0.00000E+00
         0.00000E+00
         0.00000E+00
         0.00000E+00
         0.00000E+00
         0.00000E+00
         0.00000E+00
         0.00000E+00
         0.00000E+00
         0.00000E+00
         0.00000E+00
         0.00000E+00
         0.00000E+00
         0.00000E+00
         0.00000E+00
         0.00000E+00
         0.00000E+00
         0.00000E+00
         0.00000E+00
         0.00000E+00
         0.00000E+00
         0.00000E+00
         0.00000E+00
         0.00000E+00
         0.00000E+00
         0.00000E+00
         0.00000E+00
         0.00000E+00
         0.00000E+00
         0.00000E+00
         0.00000E+00
         0.00000E+00
         0.00000E+00
         0.00000E+00
         0.00000E+00
         0.00000E+00
         0.00000E+00
         0.00000E+00
         0.00000E+00
         0.00000E+00
         0.00000E+00
         0.00000E+00
         0.00000E+00
         0.00000E+00
         0.00000E+00
         0.00000E+00
         0.00000E+00
         0.00000E+00
         0.00000E+00
         0.00000E+00
         0.00000E+00
         0.00000E+00
         0.00000E+00
         0.00000E+00
         0.00000E+00
         0.00000E+00
         0.00000E+00
         0.00000E+00
         0.00000E+00
         0.00000E+00
         0.00000E+00
         0.00000E+00
         0.00000E+00
         0.00000E+00
         0.00000E+00
         0.00000E+00
         0.00000E+00
         0.00000E+00
         0.00000E+00
         0.00000E+00
         0.00000E+00
         0.00000E+00
         0.00000E+00
         0.00000E+00
         0.00000E+00
         0.00000E+00
         0.00000E+00
         0.00000E+00
         0.00000E+00
         0.00000E+00
         0.00000E+00
         0.00000E+00
         0.00000E+00
         0.00000E+00
         0.00000E+00
         0.00000E+00
         0.00000E+00
         0.00000E+00
         0.00000E+00
         0.00000E+00
         0.00000E+00
         0.00000E+00
         0.00000E+00
         0.00000E+00
         0.00000E+00
         0.00000E+00
         0.00000E+00
         0.00000E+00
         0.00000E+00
         0.00000E+00
         0.00000E+00
         0.00000E+00
         0.00000E+00
         0.00000E+00
         0.00000E+00
         0.00000E+00
         0.00000E+00
         0.00000E+00
         0.00000E+00
         0.00000E+00
         0.00000E+00
         0.00000E+00
         0.00000E+00
         0.00000E+00
         0.00000E+00
         0.00000E+00
         0.00000E+00
         0.00000E+00
         0.00000E+00
         0.00000E+00
         0.00000E+00
         0.00000E+00
         0.00000E+00
         0.00000E+00
         0.00000E+00
         0.00000E+00
         0.00000E+00
         0.00000E+00
         0.00000E+00
         0.00000E+00
         0.00000E+00
         0.00000E+00
         0.00000E+00
         0.00000E+00
         0.00000E+00
         0.00000E+00
         0.00000E+00
         0.00000E+00
         0.00000E+00
         0.00000E+00
         0.00000E+00
         0.00000E+00
         0.00000E+00
         0.00000E+00
         0.00000E+00
         0.00000E+00
         0.00000E+00
         0.00000E+00
         0.00000E+00
         0.00000E+00
         0.00000E+00
         0.00000E+00
         0.00000E+00
         0.00000E+00
         0.00000E+00
         0.00000E+00
         0.00000E+00
         0.00000E+00
         0.00000E+00
         0.00000E+00
         0.00000E+00
         0.00000E+00
         0.00000E+00
         0.00000E+00
         0.00000E+00
         0.00000E+00
         0.00000E+00
         0.00000E+00
         0.00000E+00
         0.00000E+00
         0.00000E+00
         0.00000E+00
         0.00000E+00
         0.00000E+00
         0.00000E+00
         0.00000E+00
         0.00000E+00
         0.00000E+00
         0.00000E+00
         0.00000E+00
         0.00000E+00
         0.00000E+00
         0.00000E+00
         0.00000E+00
         0.00000E+00
         0.00000E+00
         0.00000E+00
         0.00000E+00
         0.00000E+00
         0.00000E+00
         0.00000E+00
         0.00000E+00
         0.00000E+00
         0.00000E+00
         0.00000E+00
         0.00000E+00
         0.00000E+00
         0.00000E+00
         0.00000E+00
         0.00000E+00
         0.00000E+00
         0.00000E+00
         0.00000E+00
         0.00000E+00
         0.00000E+00
         0.00000E+00
         0.00000E+00
         0.00000E+00
         0.00000E+00
         0.00000E+00
         0.00000E+00
         0.00000E+00
         0.00000E+00
         0.00000E+00
         0.00000E+00
         0.00000E+00
         0.00000E+00
         0.00000E+00
         0.00000E+00
         0.00000E+00
         0.00000E+00
         0.00000E+00
         0.00000E+00
         0.00000E+00
         0.00000E+00
         0.00000E+00
         0.00000E+00
         0.00000E+00
         0.00000E+00
         0.00000E+00
         0.00000E+00
         0.00000E+00
         0.00000E+00
         0.00000E+00
         0.00000E+00
         0.00000E+00
         0.00000E+00
         0.00000E+00
         0.00000E+00
         0.00000E+00
         0.00000E+00
         0.00000E+00
         0.00000E+00
         0.00000E+00
         0.00000E+00
         0.00000E+00
         0.00000E+00
         0.00000E+00
         0.00000E+00
         0.00000E+00
         0.00000E+00
         0.00000E+00
         0.00000E+00
         0.00000E+00
         0.00000E+00
         0.00000E+00
         0.00000E+00
         0.00000E+00
         0.00000E+00
         0.00000E+00
         0.00000E+00
         0.00000E+00
         0.00000E+00
         0.00000E+00
         0.00000E+00
         0.00000E+00
         0.00000E+00
         0.00000E+00
         0.00000E+00
         0.00000E+00
         0.00000E+00
         0.00000E+00
         0.00000E+00
         0.00000E+00
         0.00000E+00
         0.00000E+00
         0.00000E+00
         0.00000E+00
         0.00000E+00
         0.00000E+00
         0.00000E+00
         0.00000E+00
         0.00000E+00
         0.00000E+00
         0.00000E+00
         0.00000E+00
         0.00000E+00
         0.00000E+00
         0.00000E+00
         0.00000E+00
         0.00000E+00
         0.00000E+00
         0.00000E+00
         0.00000E+00
         0.00000E+00
         0.00000E+00
         0.00000E+00
         0.00000E+00
         0.00000E+00
         0.00000E+00
         0.00000E+00
         0.00000E+00
         0.00000E+00
         0.00000E+00
         0.00000E+00
         0.00000E+00
         0.00000E+00
         0.00000E+00
         0.00000E+00
         0.00000E+00
         0.00000E+00
         0.00000E+00
         0.00000E+00
         0.00000E+00
         0.00000E+00
         0.00000E+00
         0.00000E+00
         0.00000E+00
         0.00000E+00
         0.00000E+00
         0.00000E+00
         0.00000E+00
         0.00000E+00
         0.00000E+00
         0.00000E+00
         0.00000E+00
         0.00000E+00
         0.00000E+00
         0.00000E+00
         0.00000E+00
         0.00000E+00
         0.00000E+00
         0.00000E+00
         0.00000E+00
         0.00000E+00
         0.00000E+00
         0.00000E+00
         0.00000E+00
         0.00000E+00
         0.00000E+00
         0.00000E+00
         0.00000E+00
         0.00000E+00
         0.00000E+00
         0.00000E+00
         0.00000E+00
         0.00000E+00
         0.00000E+00
         0.00000E+00
         0.00000E+00
         0.00000E+00
         0.00000E+00
         0.00000E+00
         0.00000E+00
         0.00000E+00
         0.00000E+00
         0.00000E+00
         0.00000E+00
         0.00000E+00
         0.00000E+00
         0.00000E+00
         0.00000E+00
         0.00000E+00
         0.00000E+00
         0.00000E+00
         0.00000E+00
         0.00000E+00
         0.00000E+00
         0.00000E+00
         0.00000E+00
         0.00000E+00
         0.00000E+00
         0.00000E+00
         0.00000E+00
         0.00000E+00
         0.00000E+00
         0.00000E+00
         0.00000E+00
         0.00000E+00
         0.00000E+00
         0.00000E+00
         0.00000E+00
         0.00000E+00
         0.00000E+00
         0.00000E+00
         0.00000E+00
         0.00000E+00
         0.00000E+00
         0.00000E+00
         0.00000E+00
         0.00000E+00
         0.00000E+00
         0.00000E+00
         0.00000E+00
         0.00000E+00
         0.00000E+00
         0.00000E+00
         0.00000E+00
         0.00000E+00
         0.00000E+00
         0.00000E+00
         0.00000E+00
         0.00000E+00
         0.00000E+00
         0.00000E+00
         0.00000E+00
         0.00000E+00
         0.00000E+00
         0.00000E+00
         0.00000E+00
         0.00000E+00
         0.00000E+00
         0.00000E+00
         0.00000E+00
         0.00000E+00
         0.00000E+00
         0.00000E+00
         0.00000E+00
         0.00000E+00
         0.00000E+00
         0.00000E+00
         0.00000E+00
         0.00000E+00
         0.00000E+00
         0.00000E+00
         0.00000E+00
         0.00000E+00
         0.00000E+00
         0.00000E+00
         0.00000E+00
         0.00000E+00
         0.00000E+00
         0.00000E+00
         0.00000E+00
         0.00000E+00
         0.00000E+00
         0.00000E+00
         0.00000E+00
         0.00000E+00
         0.00000E+00
         0.00000E+00
         0.00000E+00
         0.00000E+00
         0.00000E+00
         0.00000E+00
         0.00000E+00
         0.00000E+00
         0.00000E+00
         0.00000E+00
         0.00000E+00
         0.00000E+00
         0.00000E+00
         0.00000E+00
         0.00000E+00
         0.00000E+00
         0.00000E+00
         0.00000E+00
         0.00000E+00
         0.00000E+00
         0.00000E+00
         0.00000E+00
         0.00000E+00
         0.00000E+00
         0.00000E+00
         0.00000E+00
         0.00000E+00
         0.00000E+00
         0.00000E+00
         0.00000E+00
         0.00000E+00
         0.00000E+00
         0.00000E+00
         0.00000E+00
         0.00000E+00
         0.00000E+00
         0.00000E+00
         0.00000E+00
         0.00000E+00
         0.00000E+00
         0.00000E+00
         0.00000E+00
         0.00000E+00
         0.00000E+00
         0.00000E+00
         0.00000E+00
         0.00000E+00
         0.00000E+00
         0.00000E+00
         0.00000E+00
         0.00000E+00
         0.00000E+00
         0.00000E+00
         0.00000E+00
         0.00000E+00
         0.00000E+00
         0.00000E+00
         0.00000E+00
         0.00000E+00
         0.00000E+00
         0.00000E+00
         0.00000E+00
         0.00000E+00
         0.00000E+00
         0.00000E+00
         0.00000E+00
         0.00000E+00
         0.00000E+00
         0.00000E+00
         0.00000E+00
         0.00000E+00
         0.00000E+00
         0.00000E+00
         0.00000E+00
         0.00000E+00
         0.00000E+00
         0.00000E+00
         0.00000E+00
         0.00000E+00
         0.00000E+00
         0.00000E+00
         0.00000E+00
         0.00000E+00
         0.00000E+00
         0.00000E+00
         0.00000E+00
         0.00000E+00
         0.00000E+00
         0.00000E+00
         0.00000E+00
         0.00000E+00
         0.00000E+00
         0.00000E+00
         0.00000E+00
         0.00000E+00
         0.00000E+00
         0.00000E+00
         0.00000E+00
         0.00000E+00
         0.00000E+00
         0.00000E+00
         0.00000E+00
         0.00000E+00
         0.00000E+00
         0.00000E+00
         0.00000E+00
         0.00000E+00
         0.00000E+00
         0.00000E+00
         0.00000E+00
         0.00000E+00
         0.00000E+00
         0.00000E+00
         0.00000E+00
         0.00000E+00
         0.00000E+00
         0.00000E+00
         0.00000E+00
         0.00000E+00
         0.00000E+00
         0.00000E+00
         0.00000E+00
         0.00000E+00
         0.00000E+00
         0.00000E+00
         0.00000E+00
         0.00000E+00
         0.00000E+00
         0.00000E+00
         0.00000E+00
         0.00000E+00
         0.00000E+00
         0.00000E+00
         0.00000E+00
         0.00000E+00
         0.00000E+00
         0.00000E+00
         0.00000E+00
         0.00000E+00
         0.00000E+00
         0.00000E+00
         0.00000E+00
         0.00000E+00
         0.00000E+00
         0.00000E+00
         0.00000E+00
         0.00000E+00
         0.00000E+00
         0.00000E+00
         0.00000E+00
         0.00000E+00
         0.00000E+00
         0.00000E+00
         0.00000E+00
         0.00000E+00
         0.00000E+00
         0.00000E+00
         0.00000E+00
         0.00000E+00
         0.00000E+00
         0.00000E+00
         0.00000E+00
         0.00000E+00
         0.00000E+00
         0.00000E+00
         0.00000E+00
         0.00000E+00
         0.00000E+00
         0.00000E+00
         0.00000E+00
         0.00000E+00
         0.00000E+00
         0.00000E+00
         0.00000E+00
         0.00000E+00
         0.00000E+00
         0.00000E+00
         0.00000E+00
         0.00000E+00
         0.00000E+00
         0.00000E+00
         0.00000E+00
         0.00000E+00
         0.00000E+00
         0.00000E+00
         0.00000E+00
         0.00000E+00
         0.00000E+00
         0.00000E+00
         0.00000E+00
         0.00000E+00
         0.00000E+00
         0.00000E+00
         0.00000E+00
         0.00000E+00
         0.00000E+00
         0.00000E+00
         0.00000E+00
         0.00000E+00
         0.00000E+00
         0.00000E+00
         0.00000E+00
         0.00000E+00
         0.00000E+00
         0.00000E+00
         0.00000E+00
         0.00000E+00
         0.00000E+00
         0.00000E+00
         0.00000E+00
         0.00000E+00
         0.00000E+00
         0.00000E+00
         0.00000E+00
         0.00000E+00
         0.00000E+00
         0.00000E+00
         0.00000E+00
         0.00000E+00
         0.00000E+00
         0.00000E+00
         0.00000E+00
         0.00000E+00
         0.00000E+00
         0.00000E+00
         0.00000E+00
         0.00000E+00
         0.00000E+00
         0.00000E+00
         0.00000E+00
         0.00000E+00
         0.00000E+00
         0.00000E+00
         0.00000E+00
         0.00000E+00
         0.00000E+00
         0.00000E+00
         0.00000E+00
         0.00000E+00
         0.00000E+00
         0.00000E+00
         0.00000E+00
         0.00000E+00
         0.00000E+00
         0.00000E+00
         0.00000E+00
         0.00000E+00
         0.00000E+00
         0.00000E+00
         0.00000E+00
         0.00000E+00
         0.00000E+00
         0.00000E+00
         0.00000E+00
         0.00000E+00
         0.00000E+00
         0.00000E+00
         0.00000E+00
         0.00000E+00
         0.00000E+00
         0.00000E+00
         0.00000E+00
         0.00000E+00
         0.00000E+00
         0.00000E+00
         0.00000E+00
         0.00000E+00
         0.00000E+00
         0.00000E+00
         0.00000E+00
         0.00000E+00
         0.00000E+00
         0.00000E+00
         0.00000E+00
         0.00000E+00
         0.00000E+00
         0.00000E+00
         0.00000E+00
         0.00000E+00
         0.00000E+00
         0.00000E+00
         0.00000E+00
         0.00000E+00
         0.00000E+00
         0.00000E+00
         0.00000E+00
         0.00000E+00
         0.00000E+00
         0.00000E+00
         0.00000E+00
         0.00000E+00
         0.00000E+00
         0.00000E+00
         0.00000E+00
         0.00000E+00
         0.00000E+00
         0.00000E+00
         0.00000E+00
         0.00000E+00
         0.00000E+00
         0.00000E+00
         0.00000E+00
         0.00000E+00
         0.00000E+00
         0.00000E+00
         0.00000E+00
         0.00000E+00
         0.00000E+00
         0.00000E+00
         0.00000E+00
         0.00000E+00
         0.00000E+00
         0.00000E+00
         0.00000E+00
         0.00000E+00
         0.00000E+00
         0.00000E+00
         0.00000E+00
         0.00000E+00
         0.00000E+00
         0.00000E+00
         0.00000E+00
         0.00000E+00
         0.00000E+00
         0.00000E+00
         0.00000E+00
         0.00000E+00
         0.00000E+00
         0.00000E+00
         0.00000E+00
         0.00000E+00
         0.00000E+00
         0.00000E+00
         0.00000E+00
         0.00000E+00
         0.00000E+00
         0.00000E+00
         0.00000E+00
         0.00000E+00
         0.00000E+00
         0.00000E+00
         0.00000E+00
         0.00000E+00
         0.00000E+00
         0.00000E+00
         0.00000E+00
         0.00000E+00
         0.00000E+00
         0.00000E+00
         0.00000E+00
         0.00000E+00
         0.00000E+00
         0.00000E+00
         0.00000E+00
         0.00000E+00
         0.00000E+00
         0.00000E+00
         0.00000E+00
         0.00000E+00
         0.00000E+00
         0.00000E+00
         0.00000E+00
         0.00000E+00
         0.00000E+00
         0.00000E+00
         0.00000E+00
         0.00000E+00
         0.00000E+00
         0.00000E+00
         0.00000E+00
         0.00000E+00
         0.00000E+00
         0.00000E+00
         0.00000E+00
         0.00000E+00
         0.00000E+00
         0.00000E+00
         0.00000E+00
         0.00000E+00
         0.00000E+00
         0.00000E+00
         0.00000E+00
         0.00000E+00
         0.00000E+00
         0.00000E+00
         0.00000E+00
         0.00000E+00
         0.00000E+00
         0.00000E+00
         0.00000E+00
         0.00000E+00
         0.00000E+00
         0.00000E+00
         0.00000E+00
         0.00000E+00
         0.00000E+00
         0.00000E+00
         0.00000E+00
         0.00000E+00
         0.00000E+00
         0.00000E+00
         0.00000E+00
         0.00000E+00
         0.00000E+00
         0.00000E+00
         0.00000E+00
         0.00000E+00
         0.00000E+00
         0.00000E+00
         0.00000E+00
         0.00000E+00
         0.00000E+00
         0.00000E+00
         0.00000E+00
         0.00000E+00
         0.00000E+00
         0.00000E+00
         0.00000E+00
         0.00000E+00
         0.00000E+00
         0.00000E+00
         0.00000E+00
         0.00000E+00
         0.00000E+00
         0.00000E+00
         0.00000E+00
         0.00000E+00
         0.00000E+00
         0.00000E+00
         0.00000E+00
         0.00000E+00
         0.00000E+00
         0.00000E+00
         0.00000E+00
         0.00000E+00
         0.00000E+00
         0.00000E+00
         0.00000E+00
         0.00000E+00
         0.00000E+00
         0.00000E+00
         0.00000E+00
         0.00000E+00
         0.00000E+00
         0.00000E+00
         0.00000E+00
         0.00000E+00
         0.00000E+00
         0.00000E+00
         0.00000E+00
         0.00000E+00
         0.00000E+00
         0.00000E+00
         0.00000E+00
         0.00000E+00
         0.00000E+00
         0.00000E+00
         0.00000E+00
         0.00000E+00
         0.00000E+00
         0.00000E+00
         0.00000E+00
         0.00000E+00
         0.00000E+00
         0.00000E+00
         0.00000E+00
         0.00000E+00
         0.00000E+00
         0.00000E+00
         0.00000E+00
         0.00000E+00
         0.00000E+00
         0.00000E+00
         0.00000E+00
         0.00000E+00
         0.00000E+00
         0.00000E+00
         0.00000E+00
         0.00000E+00
         0.00000E+00
         0.00000E+00
         0.00000E+00
         0.00000E+00
         0.00000E+00
         0.00000E+00
         0.00000E+00
         0.00000E+00
         0.00000E+00
         0.00000E+00
         0.00000E+00
         0.00000E+00
         0.00000E+00
         0.00000E+00
         0.00000E+00
         0.00000E+00
         0.00000E+00
         0.00000E+00
         0.00000E+00
         0.00000E+00
         0.00000E+00
         0.00000E+00
         0.00000E+00
         0.00000E+00
         0.00000E+00
         0.00000E+00
         0.00000E+00
         0.00000E+00
         0.00000E+00
         0.00000E+00
         0.00000E+00
         0.00000E+00
         0.00000E+00
         0.00000E+00
         0.00000E+00
         0.00000E+00
         0.00000E+00
         0.00000E+00
         0.00000E+00
         0.00000E+00
         0.00000E+00
         0.00000E+00
         0.00000E+00
         0.00000E+00
         0.00000E+00
         0.00000E+00
         0.00000E+00
         0.00000E+00
         0.00000E+00
         0.00000E+00
         0.00000E+00
         0.00000E+00
         0.00000E+00
         0.00000E+00
         0.00000E+00
         0.00000E+00
         0.00000E+00
         0.00000E+00
         0.00000E+00
         0.00000E+00
         0.00000E+00
         0.00000E+00
         0.00000E+00
         0.00000E+00
         0.00000E+00
         0.00000E+00
         0.00000E+00
         0.00000E+00
         0.00000E+00
         0.00000E+00
         0.00000E+00
         0.00000E+00
         0.00000E+00
         0.00000E+00
         0.00000E+00
         0.00000E+00
         0.00000E+00
         0.00000E+00
         0.00000E+00
         0.00000E+00
         0.00000E+00
         0.00000E+00
         0.00000E+00
         0.00000E+00
         0.00000E+00
         0.00000E+00
         0.00000E+00
         0.00000E+00
         0.00000E+00
         0.00000E+00
         0.00000E+00
         0.00000E+00
         0.00000E+00
         0.00000E+00
         0.00000E+00
         0.00000E+00
         0.00000E+00
         0.00000E+00
         0.00000E+00
         0.00000E+00
         0.00000E+00
         0.00000E+00
         0.00000E+00
         0.00000E+00
         0.00000E+00
         0.00000E+00
         0.00000E+00
         0.00000E+00
         0.00000E+00
         0.00000E+00
         0.00000E+00
         0.00000E+00
         0.00000E+00
         0.00000E+00
         0.00000E+00
         0.00000E+00
         0.00000E+00
         0.00000E+00
         0.00000E+00
         0.00000E+00
         0.00000E+00
         0.00000E+00
         0.00000E+00
         0.00000E+00
         0.00000E+00
         0.00000E+00
         0.00000E+00
         0.00000E+00
         0.00000E+00
         0.00000E+00
         0.00000E+00
         0.00000E+00
         0.00000E+00
         0.00000E+00
         0.00000E+00
         0.00000E+00
         0.00000E+00
         0.00000E+00
         0.00000E+00
         0.00000E+00
         0.00000E+00
         0.00000E+00
         0.00000E+00
         0.00000E+00
         0.00000E+00
         0.00000E+00
         0.00000E+00
         0.00000E+00
         0.00000E+00
         0.00000E+00
         0.00000E+00
         0.00000E+00
         0.00000E+00
         0.00000E+00
         0.00000E+00
         0.00000E+00
         0.00000E+00
         0.00000E+00
         0.00000E+00
         0.00000E+00
         0.00000E+00
         0.00000E+00
         0.00000E+00
         0.00000E+00
         0.00000E+00
         0.00000E+00
         0.00000E+00
         0.00000E+00
         0.00000E+00
         0.00000E+00
         0.00000E+00
         0.00000E+00
         0.00000E+00
         0.00000E+00
         0.00000E+00
         0.00000E+00
         0.00000E+00
         0.00000E+00
         0.00000E+00
         0.00000E+00
         0.00000E+00
         0.00000E+00
         0.00000E+00
         0.00000E+00
         0.00000E+00
         0.00000E+00
         0.00000E+00
         0.00000E+00
         0.00000E+00
         0.00000E+00
         0.00000E+00
         0.00000E+00
         0.00000E+00
         0.00000E+00
         0.00000E+00
         0.00000E+00
         0.00000E+00
         0.00000E+00
         0.00000E+00
         0.00000E+00
         0.00000E+00
         0.00000E+00
         0.00000E+00
         0.00000E+00
         0.00000E+00
         0.00000E+00
         0.00000E+00
         0.00000E+00
         0.00000E+00
         0.00000E+00
         0.00000E+00
         0.00000E+00
         0.00000E+00
         0.00000E+00
         0.00000E+00
         0.00000E+00
         0.00000E+00
         0.00000E+00
         0.00000E+00
         0.00000E+00
         0.00000E+00
         0.00000E+00
         0.00000E+00
         0.00000E+00
         0.00000E+00
         0.00000E+00
         0.00000E+00
         0.00000E+00
         0.00000E+00
         0.00000E+00
         0.00000E+00
         0.00000E+00
         0.00000E+00
         0.00000E+00
         0.00000E+00
         0.00000E+00
         0.00000E+00
         0.00000E+00
         0.00000E+00
         0.00000E+00
         0.00000E+00
         0.00000E+00
         0.00000E+00
         0.00000E+00
         0.00000E+00
         0.00000E+00
         0.00000E+00
         0.00000E+00
         0.00000E+00
         0.00000E+00
         0.00000E+00
         0.00000E+00
         0.00000E+00
         0.00000E+00
         0.00000E+00
         0.00000E+00
         0.00000E+00
         0.00000E+00
         0.00000E+00
         0.00000E+00
         0.00000E+00
         0.00000E+00
         0.00000E+00
         0.00000E+00
         0.00000E+00
         0.00000E+00
         0.00000E+00
         0.00000E+00
         0.00000E+00
         0.00000E+00
         0.00000E+00
         0.00000E+00
         0.00000E+00
         0.00000E+00
         0.00000E+00
         0.00000E+00
         0.00000E+00
         0.00000E+00
         0.00000E+00
         0.00000E+00
         0.00000E+00
         0.00000E+00
         0.00000E+00
         0.00000E+00
         0.00000E+00
         0.00000E+00
         0.00000E+00
         0.00000E+00
         0.00000E+00
         0.00000E+00
         0.00000E+00
         0.00000E+00
         0.00000E+00
         0.00000E+00
         0.00000E+00
         0.00000E+00
         0.00000E+00
         0.00000E+00
         0.00000E+00
         0.00000E+00
         0.00000E+00
         0.00000E+00
         0.00000E+00
         0.00000E+00
         0.00000E+00
         0.00000E+00
         0.00000E+00
         0.00000E+00
         0.00000E+00
         0.00000E+00
         0.00000E+00
         0.00000E+00
         0.00000E+00
         0.00000E+00
         0.00000E+00
         0.00000E+00
         0.00000E+00
         0.00000E+00
         0.00000E+00
         0.00000E+00
         0.00000E+00
         0.00000E+00
         0.00000E+00
         0.00000E+00
         0.00000E+00
         0.00000E+00
         0.00000E+00
         0.00000E+00
         0.00000E+00
         0.00000E+00
         0.00000E+00
         0.00000E+00
         0.00000E+00
         0.00000E+00
         0.00000E+00
         0.00000E+00
         0.00000E+00
         0.00000E+00
         0.00000E+00
         0.00000E+00
         0.00000E+00
         0.00000E+00
         0.00000E+00
         0.00000E+00
         0.00000E+00
         0.00000E+00
         0.00000E+00
         0.00000E+00
         0.00000E+00
         0.00000E+00
         0.00000E+00
         0.00000E+00
         0.00000E+00
         0.00000E+00
         0.00000E+00
         0.00000E+00
         0.00000E+00
         0.00000E+00
         0.00000E+00
         0.00000E+00
         0.00000E+00
         0.00000E+00
         0.00000E+00
         0.00000E+00
         0.00000E+00
         0.00000E+00
         0.00000E+00
         0.00000E+00
         0.00000E+00
         0.00000E+00
         0.00000E+00
         0.00000E+00
         0.00000E+00
         0.00000E+00
         0.00000E+00
         0.00000E+00
         0.00000E+00
         0.00000E+00
         0.00000E+00
         0.00000E+00
         0.00000E+00
         0.00000E+00
         0.00000E+00
         0.00000E+00
         0.00000E+00
         0.00000E+00
         0.00000E+00
         0.00000E+00
         0.00000E+00
         0.00000E+00
         0.00000E+00
         0.00000E+00
         0.00000E+00
         0.00000E+00
         0.00000E+00
         0.00000E+00
         0.00000E+00
         0.00000E+00
         0.00000E+00
         0.00000E+00
         0.00000E+00
         0.00000E+00
         0.00000E+00
         0.00000E+00
         0.00000E+00
         0.00000E+00
         0.00000E+00
         0.00000E+00
         0.00000E+00
         0.00000E+00
         0.00000E+00
         0.00000E+00
         0.00000E+00
         0.00000E+00
         0.00000E+00
         0.00000E+00
         0.00000E+00
         0.00000E+00
         0.00000E+00
         0.00000E+00
         0.00000E+00
         0.00000E+00
         0.00000E+00
         0.00000E+00
         0.00000E+00
         0.00000E+00
         0.00000E+00
         0.00000E+00
         0.00000E+00
         0.00000E+00
         0.00000E+00
         0.00000E+00
         0.00000E+00
         0.00000E+00
         0.00000E+00
         0.00000E+00
         0.00000E+00
         0.00000E+00
         0.00000E+00
         0.00000E+00
         0.00000E+00
         0.00000E+00
         0.00000E+00
         0.00000E+00
         0.00000E+00
         0.00000E+00
         0.00000E+00
         0.00000E+00
         0.00000E+00
         0.00000E+00
         0.00000E+00
         0.00000E+00
         0.00000E+00
         0.00000E+00
         0.00000E+00
         0.00000E+00
         0.00000E+00
         0.00000E+00
         0.00000E+00
         0.00000E+00
         0.00000E+00
         0.00000E+00
         0.00000E+00
         0.00000E+00
         0.00000E+00
         0.00000E+00
         0.00000E+00
         0.00000E+00
         0.00000E+00
         0.00000E+00
         0.00000E+00
         0.00000E+00
         0.00000E+00
         0.00000E+00
         0.00000E+00
         0.00000E+00
         0.00000E+00
         0.00000E+00
         0.00000E+00
         0.00000E+00
         0.00000E+00
         0.00000E+00
         0.00000E+00
         0.00000E+00
         0.00000E+00
         0.00000E+00
         0.00000E+00
         0.00000E+00
         0.00000E+00
         0.00000E+00
         0.00000E+00
         0.00000E+00
         0.00000E+00
         0.00000E+00
         0.00000E+00
         0.00000E+00
         0.00000E+00
         0.00000E+00
         0.00000E+00
         0.00000E+00
         0.00000E+00
         0.00000E+00
         0.00000E+00
         0.00000E+00
         0.00000E+00
         0.00000E+00
         0.00000E+00
         0.00000E+00
         0.00000E+00
         0.00000E+00
         0.00000E+00
         0.00000E+00
         0.00000E+00
         0.00000E+00
         0.00000E+00
         0.00000E+00
         0.00000E+00
         0.00000E+00
         0.00000E+00
         0.00000E+00
         0.00000E+00
         0.00000E+00
         0.00000E+00
         0.00000E+00
         0.00000E+00
         0.00000E+00
         0.00000E+00
         0.00000E+00
         0.00000E+00
         0.00000E+00
         0.00000E+00
         0.00000E+00
         0.00000E+00
         0.00000E+00
         0.00000E+00
         0.00000E+00
         0.00000E+00
         0.00000E+00
         0.00000E+00
         0.00000E+00
         0.00000E+00
         0.00000E+00
         0.00000E+00
         0.00000E+00
         0.00000E+00
         0.00000E+00
         0.00000E+00
         0.00000E+00
         0.00000E+00
         0.00000E+00
         0.00000E+00
         0.00000E+00
         0.00000E+00
         0.00000E+00
         0.00000E+00
         0.00000E+00
         0.00000E+00
         0.00000E+00
         0.00000E+00
         0.00000E+00
         0.00000E+00
         0.00000E+00
         0.00000E+00
         0.00000E+00
         0.00000E+00
         0.00000E+00
         0.00000E+00
         0.00000E+00
         0.00000E+00
         0.00000E+00
         0.00000E+00
         0.00000E+00
         0.00000E+00
         0.00000E+00
         0.00000E+00
         0.00000E+00
         0.00000E+00
         0.00000E+00
         0.00000E+00
         0.00000E+00
         0.00000E+00
         0.00000E+00
         0.00000E+00
         0.00000E+00
         0.00000E+00
         0.00000E+00
         0.00000E+00
         0.00000E+00
         0.00000E+00
         0.00000E+00
         0.00000E+00
         0.00000E+00
         0.00000E+00
         0.00000E+00
         0.00000E+00
         0.00000E+00
         0.00000E+00
         0.00000E+00
         0.00000E+00
         0.00000E+00
         0.00000E+00
         0.00000E+00
         0.00000E+00
         0.00000E+00
         0.00000E+00
         0.00000E+00
         0.00000E+00
         0.00000E+00
         0.00000E+00
         0.00000E+00
         0.00000E+00
         0.00000E+00
         0.00000E+00
         0.00000E+00
         0.00000E+00
         0.00000E+00
         0.00000E+00
         0.00000E+00
         0.00000E+00
         0.00000E+00
         0.00000E+00
         0.00000E+00
         0.00000E+00
         0.00000E+00
         0.00000E+00
         0.00000E+00
         0.00000E+00
         0.00000E+00
         0.00000E+00
         0.00000E+00
         0.00000E+00
         0.00000E+00
         0.00000E+00
         0.00000E+00
         0.00000E+00
         0.00000E+00
         0.00000E+00
         0.00000E+00
         0.00000E+00
         0.00000E+00
         0.00000E+00
         0.00000E+00
         0.00000E+00
         0.00000E+00
         0.00000E+00
         0.00000E+00
         0.00000E+00
         0.00000E+00
         0.00000E+00
         0.00000E+00
         0.00000E+00
         0.00000E+00
         0.00000E+00
         0.00000E+00
         0.00000E+00
         0.00000E+00
         0.00000E+00
         0.00000E+00
         0.00000E+00
         0.00000E+00
         0.00000E+00
         0.00000E+00
         0.00000E+00
         0.00000E+00
         0.00000E+00
         0.00000E+00
         0.00000E+00
  
SCALARS                 acceleration_y  double 1
LOOKUP_TABLE default
         0.00000E+00
         0.00000E+00
         0.00000E+00
         0.00000E+00
         0.00000E+00
         0.00000E+00
         0.00000E+00
         0.00000E+00
         0.00000E+00
         0.00000E+00
         0.00000E+00
         0.00000E+00
         0.00000E+00
         0.00000E+00
         0.00000E+00
         0.00000E+00
         0.00000E+00
         0.00000E+00
         0.00000E+00
         0.00000E+00
         0.00000E+00
         0.00000E+00
         0.00000E+00
         0.00000E+00
         0.00000E+00
         0.00000E+00
         0.00000E+00
         0.00000E+00
         0.00000E+00
         0.00000E+00
         0.00000E+00
         0.00000E+00
         0.00000E+00
         0.00000E+00
         0.00000E+00
         0.00000E+00
         0.00000E+00
         0.00000E+00
         0.00000E+00
         0.00000E+00
         0.00000E+00
         0.00000E+00
         0.00000E+00
         0.00000E+00
         0.00000E+00
         0.00000E+00
         0.00000E+00
         0.00000E+00
         0.00000E+00
         0.00000E+00
         0.00000E+00
         0.00000E+00
         0.00000E+00
         0.00000E+00
         0.00000E+00
         0.00000E+00
         0.00000E+00
         0.00000E+00
         0.00000E+00
         0.00000E+00
         0.00000E+00
         0.00000E+00
         0.00000E+00
         0.00000E+00
         0.00000E+00
         0.00000E+00
         0.00000E+00
         0.00000E+00
         0.00000E+00
         0.00000E+00
         0.00000E+00
         0.00000E+00
         0.00000E+00
         0.00000E+00
         0.00000E+00
         0.00000E+00
         0.00000E+00
         0.00000E+00
         0.00000E+00
         0.00000E+00
         0.00000E+00
         0.00000E+00
         0.00000E+00
         0.00000E+00
         0.00000E+00
         0.00000E+00
         0.00000E+00
         0.00000E+00
         0.00000E+00
         0.00000E+00
         0.00000E+00
         0.00000E+00
         0.00000E+00
         0.00000E+00
         0.00000E+00
         0.00000E+00
         0.00000E+00
         0.00000E+00
         0.00000E+00
         0.00000E+00
         0.00000E+00
         0.00000E+00
         0.00000E+00
         0.00000E+00
         0.00000E+00
         0.00000E+00
         0.00000E+00
         0.00000E+00
         0.00000E+00
         0.00000E+00
         0.00000E+00
         0.00000E+00
         0.00000E+00
         0.00000E+00
         0.00000E+00
         0.00000E+00
         0.00000E+00
         0.00000E+00
         0.00000E+00
         0.00000E+00
         0.00000E+00
         0.00000E+00
         0.00000E+00
         0.00000E+00
         0.00000E+00
         0.00000E+00
         0.00000E+00
         0.00000E+00
         0.00000E+00
         0.00000E+00
         0.00000E+00
         0.00000E+00
         0.00000E+00
         0.00000E+00
         0.00000E+00
         0.00000E+00
         0.00000E+00
         0.00000E+00
         0.00000E+00
         0.00000E+00
         0.00000E+00
         0.00000E+00
         0.00000E+00
         0.00000E+00
         0.00000E+00
         0.00000E+00
         0.00000E+00
         0.00000E+00
         0.00000E+00
         0.00000E+00
         0.00000E+00
         0.00000E+00
         0.00000E+00
         0.00000E+00
         0.00000E+00
         0.00000E+00
         0.00000E+00
         0.00000E+00
         0.00000E+00
         0.00000E+00
         0.00000E+00
         0.00000E+00
         0.00000E+00
         0.00000E+00
         0.00000E+00
         0.00000E+00
         0.00000E+00
         0.00000E+00
         0.00000E+00
         0.00000E+00
         0.00000E+00
         0.00000E+00
         0.00000E+00
         0.00000E+00
         0.00000E+00
         0.00000E+00
         0.00000E+00
         0.00000E+00
         0.00000E+00
         0.00000E+00
         0.00000E+00
         0.00000E+00
         0.00000E+00
         0.00000E+00
         0.00000E+00
         0.00000E+00
         0.00000E+00
         0.00000E+00
         0.00000E+00
         0.00000E+00
         0.00000E+00
         0.00000E+00
         0.00000E+00
         0.00000E+00
         0.00000E+00
         0.00000E+00
         0.00000E+00
         0.00000E+00
         0.00000E+00
         0.00000E+00
         0.00000E+00
         0.00000E+00
         0.00000E+00
         0.00000E+00
         0.00000E+00
         0.00000E+00
         0.00000E+00
         0.00000E+00
         0.00000E+00
         0.00000E+00
         0.00000E+00
         0.00000E+00
         0.00000E+00
         0.00000E+00
         0.00000E+00
         0.00000E+00
         0.00000E+00
         0.00000E+00
         0.00000E+00
         0.00000E+00
         0.00000E+00
         0.00000E+00
         0.00000E+00
         0.00000E+00
         0.00000E+00
         0.00000E+00
         0.00000E+00
         0.00000E+00
         0.00000E+00
         0.00000E+00
         0.00000E+00
         0.00000E+00
         0.00000E+00
         0.00000E+00
         0.00000E+00
         0.00000E+00
         0.00000E+00
         0.00000E+00
         0.00000E+00
         0.00000E+00
         0.00000E+00
         0.00000E+00
         0.00000E+00
         0.00000E+00
         0.00000E+00
         0.00000E+00
         0.00000E+00
         0.00000E+00
         0.00000E+00
         0.00000E+00
         0.00000E+00
         0.00000E+00
         0.00000E+00
         0.00000E+00
         0.00000E+00
         0.00000E+00
         0.00000E+00
         0.00000E+00
         0.00000E+00
         0.00000E+00
         0.00000E+00
         0.00000E+00
         0.00000E+00
         0.00000E+00
         0.00000E+00
         0.00000E+00
         0.00000E+00
         0.00000E+00
         0.00000E+00
         0.00000E+00
         0.00000E+00
         0.00000E+00
         0.00000E+00
         0.00000E+00
         0.00000E+00
         0.00000E+00
         0.00000E+00
         0.00000E+00
         0.00000E+00
         0.00000E+00
         0.00000E+00
         0.00000E+00
         0.00000E+00
         0.00000E+00
         0.00000E+00
         0.00000E+00
         0.00000E+00
         0.00000E+00
         0.00000E+00
         0.00000E+00
         0.00000E+00
         0.00000E+00
         0.00000E+00
         0.00000E+00
         0.00000E+00
         0.00000E+00
         0.00000E+00
         0.00000E+00
         0.00000E+00
         0.00000E+00
         0.00000E+00
         0.00000E+00
         0.00000E+00
         0.00000E+00
         0.00000E+00
         0.00000E+00
         0.00000E+00
         0.00000E+00
         0.00000E+00
         0.00000E+00
         0.00000E+00
         0.00000E+00
         0.00000E+00
         0.00000E+00
         0.00000E+00
         0.00000E+00
         0.00000E+00
         0.00000E+00
         0.00000E+00
         0.00000E+00
         0.00000E+00
         0.00000E+00
         0.00000E+00
         0.00000E+00
         0.00000E+00
         0.00000E+00
         0.00000E+00
         0.00000E+00
         0.00000E+00
         0.00000E+00
         0.00000E+00
         0.00000E+00
         0.00000E+00
         0.00000E+00
         0.00000E+00
         0.00000E+00
         0.00000E+00
         0.00000E+00
         0.00000E+00
         0.00000E+00
         0.00000E+00
         0.00000E+00
         0.00000E+00
         0.00000E+00
         0.00000E+00
         0.00000E+00
         0.00000E+00
         0.00000E+00
         0.00000E+00
         0.00000E+00
         0.00000E+00
         0.00000E+00
         0.00000E+00
         0.00000E+00
         0.00000E+00
         0.00000E+00
         0.00000E+00
         0.00000E+00
         0.00000E+00
         0.00000E+00
         0.00000E+00
         0.00000E+00
         0.00000E+00
         0.00000E+00
         0.00000E+00
         0.00000E+00
         0.00000E+00
         0.00000E+00
         0.00000E+00
         0.00000E+00
         0.00000E+00
         0.00000E+00
         0.00000E+00
         0.00000E+00
         0.00000E+00
         0.00000E+00
         0.00000E+00
         0.00000E+00
         0.00000E+00
         0.00000E+00
         0.00000E+00
         0.00000E+00
         0.00000E+00
         0.00000E+00
         0.00000E+00
         0.00000E+00
         0.00000E+00
         0.00000E+00
         0.00000E+00
         0.00000E+00
         0.00000E+00
         0.00000E+00
         0.00000E+00
         0.00000E+00
         0.00000E+00
         0.00000E+00
         0.00000E+00
         0.00000E+00
         0.00000E+00
         0.00000E+00
         0.00000E+00
         0.00000E+00
         0.00000E+00
         0.00000E+00
         0.00000E+00
         0.00000E+00
         0.00000E+00
         0.00000E+00
         0.00000E+00
         0.00000E+00
         0.00000E+00
         0.00000E+00
         0.00000E+00
         0.00000E+00
         0.00000E+00
         0.00000E+00
         0.00000E+00
         0.00000E+00
         0.00000E+00
         0.00000E+00
         0.00000E+00
         0.00000E+00
         0.00000E+00
         0.00000E+00
         0.00000E+00
         0.00000E+00
         0.00000E+00
         0.00000E+00
         0.00000E+00
         0.00000E+00
         0.00000E+00
         0.00000E+00
         0.00000E+00
         0.00000E+00
         0.00000E+00
         0.00000E+00
         0.00000E+00
         0.00000E+00
         0.00000E+00
         0.00000E+00
         0.00000E+00
         0.00000E+00
         0.00000E+00
         0.00000E+00
         0.00000E+00
         0.00000E+00
         0.00000E+00
         0.00000E+00
         0.00000E+00
         0.00000E+00
         0.00000E+00
         0.00000E+00
         0.00000E+00
         0.00000E+00
         0.00000E+00
         0.00000E+00
         0.00000E+00
         0.00000E+00
         0.00000E+00
         0.00000E+00
         0.00000E+00
         0.00000E+00
         0.00000E+00
         0.00000E+00
         0.00000E+00
         0.00000E+00
         0.00000E+00
         0.00000E+00
         0.00000E+00
         0.00000E+00
         0.00000E+00
         0.00000E+00
         0.00000E+00
         0.00000E+00
         0.00000E+00
         0.00000E+00
         0.00000E+00
         0.00000E+00
         0.00000E+00
         0.00000E+00
         0.00000E+00
         0.00000E+00
         0.00000E+00
         0.00000E+00
         0.00000E+00
         0.00000E+00
         0.00000E+00
         0.00000E+00
         0.00000E+00
         0.00000E+00
         0.00000E+00
         0.00000E+00
         0.00000E+00
         0.00000E+00
         0.00000E+00
         0.00000E+00
         0.00000E+00
         0.00000E+00
         0.00000E+00
         0.00000E+00
         0.00000E+00
         0.00000E+00
         0.00000E+00
         0.00000E+00
         0.00000E+00
         0.00000E+00
         0.00000E+00
         0.00000E+00
         0.00000E+00
         0.00000E+00
         0.00000E+00
         0.00000E+00
         0.00000E+00
         0.00000E+00
         0.00000E+00
         0.00000E+00
         0.00000E+00
         0.00000E+00
         0.00000E+00
         0.00000E+00
         0.00000E+00
         0.00000E+00
         0.00000E+00
         0.00000E+00
         0.00000E+00
         0.00000E+00
         0.00000E+00
         0.00000E+00
         0.00000E+00
         0.00000E+00
         0.00000E+00
         0.00000E+00
         0.00000E+00
         0.00000E+00
         0.00000E+00
         0.00000E+00
         0.00000E+00
         0.00000E+00
         0.00000E+00
         0.00000E+00
         0.00000E+00
         0.00000E+00
         0.00000E+00
         0.00000E+00
         0.00000E+00
         0.00000E+00
         0.00000E+00
         0.00000E+00
         0.00000E+00
         0.00000E+00
         0.00000E+00
         0.00000E+00
         0.00000E+00
         0.00000E+00
         0.00000E+00
         0.00000E+00
         0.00000E+00
         0.00000E+00
         0.00000E+00
         0.00000E+00
         0.00000E+00
         0.00000E+00
         0.00000E+00
         0.00000E+00
         0.00000E+00
         0.00000E+00
         0.00000E+00
         0.00000E+00
         0.00000E+00
         0.00000E+00
         0.00000E+00
         0.00000E+00
         0.00000E+00
         0.00000E+00
         0.00000E+00
         0.00000E+00
         0.00000E+00
         0.00000E+00
         0.00000E+00
         0.00000E+00
         0.00000E+00
         0.00000E+00
         0.00000E+00
         0.00000E+00
         0.00000E+00
         0.00000E+00
         0.00000E+00
         0.00000E+00
         0.00000E+00
         0.00000E+00
         0.00000E+00
         0.00000E+00
         0.00000E+00
         0.00000E+00
         0.00000E+00
         0.00000E+00
         0.00000E+00
         0.00000E+00
         0.00000E+00
         0.00000E+00
         0.00000E+00
         0.00000E+00
         0.00000E+00
         0.00000E+00
         0.00000E+00
         0.00000E+00
         0.00000E+00
         0.00000E+00
         0.00000E+00
         0.00000E+00
         0.00000E+00
         0.00000E+00
         0.00000E+00
         0.00000E+00
         0.00000E+00
         0.00000E+00
         0.00000E+00
         0.00000E+00
         0.00000E+00
         0.00000E+00
         0.00000E+00
         0.00000E+00
         0.00000E+00
         0.00000E+00
         0.00000E+00
         0.00000E+00
         0.00000E+00
         0.00000E+00
         0.00000E+00
         0.00000E+00
         0.00000E+00
         0.00000E+00
         0.00000E+00
         0.00000E+00
         0.00000E+00
         0.00000E+00
         0.00000E+00
         0.00000E+00
         0.00000E+00
         0.00000E+00
         0.00000E+00
         0.00000E+00
         0.00000E+00
         0.00000E+00
         0.00000E+00
         0.00000E+00
         0.00000E+00
         0.00000E+00
         0.00000E+00
         0.00000E+00
         0.00000E+00
         0.00000E+00
         0.00000E+00
         0.00000E+00
         0.00000E+00
         0.00000E+00
         0.00000E+00
         0.00000E+00
         0.00000E+00
         0.00000E+00
         0.00000E+00
         0.00000E+00
         0.00000E+00
         0.00000E+00
         0.00000E+00
         0.00000E+00
         0.00000E+00
         0.00000E+00
         0.00000E+00
         0.00000E+00
         0.00000E+00
         0.00000E+00
         0.00000E+00
         0.00000E+00
         0.00000E+00
         0.00000E+00
         0.00000E+00
         0.00000E+00
         0.00000E+00
         0.00000E+00
         0.00000E+00
         0.00000E+00
         0.00000E+00
         0.00000E+00
         0.00000E+00
         0.00000E+00
         0.00000E+00
         0.00000E+00
         0.00000E+00
         0.00000E+00
         0.00000E+00
         0.00000E+00
         0.00000E+00
         0.00000E+00
         0.00000E+00
         0.00000E+00
         0.00000E+00
         0.00000E+00
         0.00000E+00
         0.00000E+00
         0.00000E+00
         0.00000E+00
         0.00000E+00
         0.00000E+00
         0.00000E+00
         0.00000E+00
         0.00000E+00
         0.00000E+00
         0.00000E+00
         0.00000E+00
         0.00000E+00
         0.00000E+00
         0.00000E+00
         0.00000E+00
         0.00000E+00
         0.00000E+00
         0.00000E+00
         0.00000E+00
         0.00000E+00
         0.00000E+00
         0.00000E+00
         0.00000E+00
         0.00000E+00
         0.00000E+00
         0.00000E+00
         0.00000E+00
         0.00000E+00
         0.00000E+00
         0.00000E+00
         0.00000E+00
         0.00000E+00
         0.00000E+00
         0.00000E+00
         0.00000E+00
         0.00000E+00
         0.00000E+00
         0.00000E+00
         0.00000E+00
         0.00000E+00
         0.00000E+00
         0.00000E+00
         0.00000E+00
         0.00000E+00
         0.00000E+00
         0.00000E+00
         0.00000E+00
         0.00000E+00
         0.00000E+00
         0.00000E+00
         0.00000E+00
         0.00000E+00
         0.00000E+00
         0.00000E+00
         0.00000E+00
         0.00000E+00
         0.00000E+00
         0.00000E+00
         0.00000E+00
         0.00000E+00
         0.00000E+00
         0.00000E+00
         0.00000E+00
         0.00000E+00
         0.00000E+00
         0.00000E+00
         0.00000E+00
         0.00000E+00
         0.00000E+00
         0.00000E+00
         0.00000E+00
         0.00000E+00
         0.00000E+00
         0.00000E+00
         0.00000E+00
         0.00000E+00
         0.00000E+00
         0.00000E+00
         0.00000E+00
         0.00000E+00
         0.00000E+00
         0.00000E+00
         0.00000E+00
         0.00000E+00
         0.00000E+00
         0.00000E+00
         0.00000E+00
         0.00000E+00
         0.00000E+00
         0.00000E+00
         0.00000E+00
         0.00000E+00
         0.00000E+00
         0.00000E+00
         0.00000E+00
         0.00000E+00
         0.00000E+00
         0.00000E+00
         0.00000E+00
         0.00000E+00
         0.00000E+00
         0.00000E+00
         0.00000E+00
         0.00000E+00
         0.00000E+00
         0.00000E+00
         0.00000E+00
         0.00000E+00
         0.00000E+00
         0.00000E+00
         0.00000E+00
         0.00000E+00
         0.00000E+00
         0.00000E+00
         0.00000E+00
         0.00000E+00
         0.00000E+00
         0.00000E+00
         0.00000E+00
         0.00000E+00
         0.00000E+00
         0.00000E+00
         0.00000E+00
         0.00000E+00
         0.00000E+00
         0.00000E+00
         0.00000E+00
         0.00000E+00
         0.00000E+00
         0.00000E+00
         0.00000E+00
         0.00000E+00
         0.00000E+00
         0.00000E+00
         0.00000E+00
         0.00000E+00
         0.00000E+00
         0.00000E+00
         0.00000E+00
         0.00000E+00
         0.00000E+00
         0.00000E+00
         0.00000E+00
         0.00000E+00
         0.00000E+00
         0.00000E+00
         0.00000E+00
         0.00000E+00
         0.00000E+00
         0.00000E+00
         0.00000E+00
         0.00000E+00
         0.00000E+00
         0.00000E+00
         0.00000E+00
         0.00000E+00
         0.00000E+00
         0.00000E+00
         0.00000E+00
         0.00000E+00
         0.00000E+00
         0.00000E+00
         0.00000E+00
         0.00000E+00
         0.00000E+00
         0.00000E+00
         0.00000E+00
         0.00000E+00
         0.00000E+00
         0.00000E+00
         0.00000E+00
         0.00000E+00
         0.00000E+00
         0.00000E+00
         0.00000E+00
         0.00000E+00
         0.00000E+00
         0.00000E+00
         0.00000E+00
         0.00000E+00
         0.00000E+00
         0.00000E+00
         0.00000E+00
         0.00000E+00
         0.00000E+00
         0.00000E+00
         0.00000E+00
         0.00000E+00
         0.00000E+00
         0.00000E+00
         0.00000E+00
         0.00000E+00
         0.00000E+00
         0.00000E+00
         0.00000E+00
         0.00000E+00
         0.00000E+00
         0.00000E+00
         0.00000E+00
         0.00000E+00
         0.00000E+00
         0.00000E+00
         0.00000E+00
         0.00000E+00
         0.00000E+00
         0.00000E+00
         0.00000E+00
         0.00000E+00
         0.00000E+00
         0.00000E+00
         0.00000E+00
         0.00000E+00
         0.00000E+00
         0.00000E+00
         0.00000E+00
         0.00000E+00
         0.00000E+00
         0.00000E+00
         0.00000E+00
         0.00000E+00
         0.00000E+00
         0.00000E+00
         0.00000E+00
         0.00000E+00
         0.00000E+00
         0.00000E+00
         0.00000E+00
         0.00000E+00
         0.00000E+00
         0.00000E+00
         0.00000E+00
         0.00000E+00
         0.00000E+00
         0.00000E+00
         0.00000E+00
         0.00000E+00
         0.00000E+00
         0.00000E+00
         0.00000E+00
         0.00000E+00
         0.00000E+00
         0.00000E+00
         0.00000E+00
         0.00000E+00
         0.00000E+00
         0.00000E+00
         0.00000E+00
         0.00000E+00
         0.00000E+00
         0.00000E+00
         0.00000E+00
         0.00000E+00
         0.00000E+00
         0.00000E+00
         0.00000E+00
         0.00000E+00
         0.00000E+00
         0.00000E+00
         0.00000E+00
         0.00000E+00
         0.00000E+00
         0.00000E+00
         0.00000E+00
         0.00000E+00
         0.00000E+00
         0.00000E+00
         0.00000E+00
         0.00000E+00
         0.00000E+00
         0.00000E+00
         0.00000E+00
         0.00000E+00
         0.00000E+00
         0.00000E+00
         0.00000E+00
         0.00000E+00
         0.00000E+00
         0.00000E+00
         0.00000E+00
         0.00000E+00
         0.00000E+00
         0.00000E+00
         0.00000E+00
         0.00000E+00
         0.00000E+00
         0.00000E+00
         0.00000E+00
         0.00000E+00
         0.00000E+00
         0.00000E+00
         0.00000E+00
         0.00000E+00
         0.00000E+00
         0.00000E+00
         0.00000E+00
         0.00000E+00
         0.00000E+00
         0.00000E+00
         0.00000E+00
         0.00000E+00
         0.00000E+00
         0.00000E+00
         0.00000E+00
         0.00000E+00
         0.00000E+00
         0.00000E+00
         0.00000E+00
         0.00000E+00
         0.00000E+00
         0.00000E+00
         0.00000E+00
         0.00000E+00
         0.00000E+00
         0.00000E+00
         0.00000E+00
         0.00000E+00
         0.00000E+00
         0.00000E+00
         0.00000E+00
         0.00000E+00
         0.00000E+00
         0.00000E+00
         0.00000E+00
         0.00000E+00
         0.00000E+00
         0.00000E+00
         0.00000E+00
         0.00000E+00
         0.00000E+00
         0.00000E+00
         0.00000E+00
         0.00000E+00
         0.00000E+00
         0.00000E+00
         0.00000E+00
         0.00000E+00
         0.00000E+00
         0.00000E+00
         0.00000E+00
         0.00000E+00
         0.00000E+00
         0.00000E+00
         0.00000E+00
         0.00000E+00
         0.00000E+00
         0.00000E+00
         0.00000E+00
         0.00000E+00
         0.00000E+00
         0.00000E+00
         0.00000E+00
         0.00000E+00
         0.00000E+00
         0.00000E+00
         0.00000E+00
         0.00000E+00
         0.00000E+00
         0.00000E+00
         0.00000E+00
         0.00000E+00
         0.00000E+00
         0.00000E+00
         0.00000E+00
         0.00000E+00
         0.00000E+00
         0.00000E+00
         0.00000E+00
         0.00000E+00
         0.00000E+00
         0.00000E+00
         0.00000E+00
         0.00000E+00
         0.00000E+00
         0.00000E+00
         0.00000E+00
         0.00000E+00
         0.00000E+00
         0.00000E+00
         0.00000E+00
         0.00000E+00
         0.00000E+00
         0.00000E+00
         0.00000E+00
         0.00000E+00
         0.00000E+00
         0.00000E+00
         0.00000E+00
         0.00000E+00
         0.00000E+00
         0.00000E+00
         0.00000E+00
         0.00000E+00
         0.00000E+00
         0.00000E+00
         0.00000E+00
         0.00000E+00
         0.00000E+00
         0.00000E+00
         0.00000E+00
         0.00000E+00
         0.00000E+00
         0.00000E+00
         0.00000E+00
         0.00000E+00
         0.00000E+00
         0.00000E+00
         0.00000E+00
         0.00000E+00
         0.00000E+00
         0.00000E+00
         0.00000E+00
         0.00000E+00
         0.00000E+00
         0.00000E+00
         0.00000E+00
         0.00000E+00
         0.00000E+00
         0.00000E+00
         0.00000E+00
         0.00000E+00
         0.00000E+00
         0.00000E+00
         0.00000E+00
         0.00000E+00
         0.00000E+00
         0.00000E+00
         0.00000E+00
         0.00000E+00
         0.00000E+00
         0.00000E+00
         0.00000E+00
         0.00000E+00
         0.00000E+00
         0.00000E+00
         0.00000E+00
         0.00000E+00
         0.00000E+00
         0.00000E+00
         0.00000E+00
         0.00000E+00
         0.00000E+00
         0.00000E+00
         0.00000E+00
         0.00000E+00
         0.00000E+00
         0.00000E+00
         0.00000E+00
         0.00000E+00
         0.00000E+00
         0.00000E+00
         0.00000E+00
         0.00000E+00
         0.00000E+00
         0.00000E+00
         0.00000E+00
         0.00000E+00
         0.00000E+00
         0.00000E+00
         0.00000E+00
         0.00000E+00
         0.00000E+00
         0.00000E+00
         0.00000E+00
         0.00000E+00
         0.00000E+00
         0.00000E+00
         0.00000E+00
         0.00000E+00
         0.00000E+00
         0.00000E+00
         0.00000E+00
         0.00000E+00
         0.00000E+00
         0.00000E+00
         0.00000E+00
         0.00000E+00
         0.00000E+00
         0.00000E+00
         0.00000E+00
         0.00000E+00
         0.00000E+00
         0.00000E+00
         0.00000E+00
         0.00000E+00
         0.00000E+00
         0.00000E+00
         0.00000E+00
         0.00000E+00
         0.00000E+00
         0.00000E+00
         0.00000E+00
         0.00000E+00
         0.00000E+00
         0.00000E+00
         0.00000E+00
         0.00000E+00
         0.00000E+00
         0.00000E+00
         0.00000E+00
         0.00000E+00
         0.00000E+00
         0.00000E+00
         0.00000E+00
         0.00000E+00
         0.00000E+00
         0.00000E+00
         0.00000E+00
         0.00000E+00
         0.00000E+00
         0.00000E+00
         0.00000E+00
         0.00000E+00
         0.00000E+00
         0.00000E+00
         0.00000E+00
         0.00000E+00
         0.00000E+00
         0.00000E+00
         0.00000E+00
         0.00000E+00
         0.00000E+00
         0.00000E+00
         0.00000E+00
         0.00000E+00
         0.00000E+00
         0.00000E+00
         0.00000E+00
         0.00000E+00
         0.00000E+00
         0.00000E+00
         0.00000E+00
         0.00000E+00
         0.00000E+00
         0.00000E+00
         0.00000E+00
         0.00000E+00
         0.00000E+00
         0.00000E+00
         0.00000E+00
         0.00000E+00
         0.00000E+00
         0.00000E+00
         0.00000E+00
         0.00000E+00
         0.00000E+00
         0.00000E+00
         0.00000E+00
         0.00000E+00
         0.00000E+00
         0.00000E+00
         0.00000E+00
         0.00000E+00
         0.00000E+00
         0.00000E+00
         0.00000E+00
         0.00000E+00
         0.00000E+00
         0.00000E+00
         0.00000E+00
         0.00000E+00
         0.00000E+00
         0.00000E+00
         0.00000E+00
         0.00000E+00
         0.00000E+00
         0.00000E+00
         0.00000E+00
         0.00000E+00
         0.00000E+00
         0.00000E+00
         0.00000E+00
         0.00000E+00
         0.00000E+00
         0.00000E+00
         0.00000E+00
         0.00000E+00
         0.00000E+00
         0.00000E+00
         0.00000E+00
         0.00000E+00
         0.00000E+00
         0.00000E+00
         0.00000E+00
         0.00000E+00
         0.00000E+00
         0.00000E+00
         0.00000E+00
         0.00000E+00
         0.00000E+00
         0.00000E+00
         0.00000E+00
         0.00000E+00
         0.00000E+00
         0.00000E+00
         0.00000E+00
         0.00000E+00
         0.00000E+00
         0.00000E+00
         0.00000E+00
         0.00000E+00
         0.00000E+00
         0.00000E+00
         0.00000E+00
         0.00000E+00
         0.00000E+00
         0.00000E+00
         0.00000E+00
         0.00000E+00
         0.00000E+00
         0.00000E+00
         0.00000E+00
         0.00000E+00
         0.00000E+00
         0.00000E+00
         0.00000E+00
         0.00000E+00
         0.00000E+00
         0.00000E+00
         0.00000E+00
         0.00000E+00
         0.00000E+00
         0.00000E+00
         0.00000E+00
         0.00000E+00
         0.00000E+00
         0.00000E+00
         0.00000E+00
         0.00000E+00
         0.00000E+00
         0.00000E+00
         0.00000E+00
         0.00000E+00
         0.00000E+00
         0.00000E+00
         0.00000E+00
         0.00000E+00
         0.00000E+00
         0.00000E+00
         0.00000E+00
         0.00000E+00
         0.00000E+00
         0.00000E+00
         0.00000E+00
         0.00000E+00
         0.00000E+00
         0.00000E+00
         0.00000E+00
         0.00000E+00
         0.00000E+00
         0.00000E+00
         0.00000E+00
         0.00000E+00
         0.00000E+00
         0.00000E+00
         0.00000E+00
         0.00000E+00
         0.00000E+00
         0.00000E+00
         0.00000E+00
         0.00000E+00
         0.00000E+00
         0.00000E+00
         0.00000E+00
         0.00000E+00
         0.00000E+00
         0.00000E+00
         0.00000E+00
         0.00000E+00
         0.00000E+00
         0.00000E+00
         0.00000E+00
         0.00000E+00
         0.00000E+00
         0.00000E+00
         0.00000E+00
         0.00000E+00
         0.00000E+00
         0.00000E+00
         0.00000E+00
         0.00000E+00
         0.00000E+00
         0.00000E+00
         0.00000E+00
         0.00000E+00
         0.00000E+00
         0.00000E+00
         0.00000E+00
         0.00000E+00
         0.00000E+00
         0.00000E+00
         0.00000E+00
         0.00000E+00
         0.00000E+00
         0.00000E+00
         0.00000E+00
         0.00000E+00
         0.00000E+00
         0.00000E+00
         0.00000E+00
         0.00000E+00
         0.00000E+00
         0.00000E+00
         0.00000E+00
         0.00000E+00
         0.00000E+00
         0.00000E+00
         0.00000E+00
         0.00000E+00
         0.00000E+00
         0.00000E+00
         0.00000E+00
         0.00000E+00
         0.00000E+00
         0.00000E+00
         0.00000E+00
         0.00000E+00
         0.00000E+00
         0.00000E+00
         0.00000E+00
         0.00000E+00
         0.00000E+00
         0.00000E+00
         0.00000E+00
         0.00000E+00
         0.00000E+00
         0.00000E+00
         0.00000E+00
         0.00000E+00
         0.00000E+00
         0.00000E+00
         0.00000E+00
         0.00000E+00
         0.00000E+00
         0.00000E+00
         0.00000E+00
         0.00000E+00
         0.00000E+00
         0.00000E+00
         0.00000E+00
         0.00000E+00
         0.00000E+00
         0.00000E+00
         0.00000E+00
         0.00000E+00
         0.00000E+00
         0.00000E+00
         0.00000E+00
         0.00000E+00
         0.00000E+00
         0.00000E+00
         0.00000E+00
         0.00000E+00
         0.00000E+00
         0.00000E+00
         0.00000E+00
         0.00000E+00
         0.00000E+00
         0.00000E+00
         0.00000E+00
         0.00000E+00
         0.00000E+00
         0.00000E+00
         0.00000E+00
         0.00000E+00
         0.00000E+00
         0.00000E+00
         0.00000E+00
         0.00000E+00
         0.00000E+00
         0.00000E+00
         0.00000E+00
         0.00000E+00
         0.00000E+00
         0.00000E+00
         0.00000E+00
         0.00000E+00
         0.00000E+00
         0.00000E+00
         0.00000E+00
         0.00000E+00
         0.00000E+00
         0.00000E+00
         0.00000E+00
         0.00000E+00
         0.00000E+00
         0.00000E+00
         0.00000E+00
         0.00000E+00
         0.00000E+00
         0.00000E+00
         0.00000E+00
         0.00000E+00
         0.00000E+00
         0.00000E+00
         0.00000E+00
         0.00000E+00
         0.00000E+00
         0.00000E+00
         0.00000E+00
         0.00000E+00
         0.00000E+00
         0.00000E+00
         0.00000E+00
         0.00000E+00
         0.00000E+00
         0.00000E+00
         0.00000E+00
         0.00000E+00
         0.00000E+00
         0.00000E+00
         0.00000E+00
         0.00000E+00
         0.00000E+00
         0.00000E+00
         0.00000E+00
         0.00000E+00
         0.00000E+00
         0.00000E+00
         0.00000E+00
         0.00000E+00
         0.00000E+00
         0.00000E+00
         0.00000E+00
         0.00000E+00
         0.00000E+00
         0.00000E+00
         0.00000E+00
         0.00000E+00
         0.00000E+00
         0.00000E+00
         0.00000E+00
         0.00000E+00
         0.00000E+00
         0.00000E+00
         0.00000E+00
         0.00000E+00
         0.00000E+00
         0.00000E+00
         0.00000E+00
         0.00000E+00
         0.00000E+00
         0.00000E+00
         0.00000E+00
         0.00000E+00
         0.00000E+00
         0.00000E+00
         0.00000E+00
         0.00000E+00
         0.00000E+00
         0.00000E+00
         0.00000E+00
         0.00000E+00
         0.00000E+00
         0.00000E+00
         0.00000E+00
         0.00000E+00
         0.00000E+00
         0.00000E+00
         0.00000E+00
         0.00000E+00
         0.00000E+00
         0.00000E+00
         0.00000E+00
         0.00000E+00
         0.00000E+00
         0.00000E+00
         0.00000E+00
         0.00000E+00
         0.00000E+00
         0.00000E+00
         0.00000E+00
         0.00000E+00
         0.00000E+00
         0.00000E+00
         0.00000E+00
         0.00000E+00
         0.00000E+00
         0.00000E+00
         0.00000E+00
         0.00000E+00
         0.00000E+00
         0.00000E+00
         0.00000E+00
         0.00000E+00
         0.00000E+00
         0.00000E+00
         0.00000E+00
         0.00000E+00
         0.00000E+00
         0.00000E+00
         0.00000E+00
         0.00000E+00
         0.00000E+00
         0.00000E+00
         0.00000E+00
         0.00000E+00
         0.00000E+00
         0.00000E+00
         0.00000E+00
         0.00000E+00
         0.00000E+00
         0.00000E+00
         0.00000E+00
         0.00000E+00
         0.00000E+00
         0.00000E+00
         0.00000E+00
         0.00000E+00
         0.00000E+00
         0.00000E+00
         0.00000E+00
         0.00000E+00
         0.00000E+00
         0.00000E+00
         0.00000E+00
         0.00000E+00
         0.00000E+00
         0.00000E+00
         0.00000E+00
         0.00000E+00
         0.00000E+00
         0.00000E+00
         0.00000E+00
         0.00000E+00
         0.00000E+00
         0.00000E+00
         0.00000E+00
         0.00000E+00
         0.00000E+00
         0.00000E+00
         0.00000E+00
         0.00000E+00
         0.00000E+00
         0.00000E+00
         0.00000E+00
         0.00000E+00
         0.00000E+00
         0.00000E+00
         0.00000E+00
         0.00000E+00
         0.00000E+00
         0.00000E+00
         0.00000E+00
         0.00000E+00
         0.00000E+00
         0.00000E+00
         0.00000E+00
         0.00000E+00
         0.00000E+00
         0.00000E+00
         0.00000E+00
         0.00000E+00
         0.00000E+00
         0.00000E+00
         0.00000E+00
         0.00000E+00
         0.00000E+00
         0.00000E+00
         0.00000E+00
         0.00000E+00
         0.00000E+00
         0.00000E+00
         0.00000E+00
         0.00000E+00
         0.00000E+00
         0.00000E+00
         0.00000E+00
         0.00000E+00
         0.00000E+00
         0.00000E+00
         0.00000E+00
         0.00000E+00
         0.00000E+00
         0.00000E+00
         0.00000E+00
         0.00000E+00
         0.00000E+00
         0.00000E+00
         0.00000E+00
         0.00000E+00
         0.00000E+00
         0.00000E+00
         0.00000E+00
         0.00000E+00
         0.00000E+00
         0.00000E+00
         0.00000E+00
         0.00000E+00
         0.00000E+00
         0.00000E+00
         0.00000E+00
         0.00000E+00
         0.00000E+00
         0.00000E+00
         0.00000E+00
         0.00000E+00
         0.00000E+00
         0.00000E+00
         0.00000E+00
         0.00000E+00
         0.00000E+00
         0.00000E+00
         0.00000E+00
         0.00000E+00
         0.00000E+00
         0.00000E+00
         0.00000E+00
         0.00000E+00
         0.00000E+00
         0.00000E+00
         0.00000E+00
         0.00000E+00
         0.00000E+00
         0.00000E+00
         0.00000E+00
         0.00000E+00
         0.00000E+00
         0.00000E+00
         0.00000E+00
         0.00000E+00
         0.00000E+00
         0.00000E+00
         0.00000E+00
         0.00000E+00
         0.00000E+00
         0.00000E+00
         0.00000E+00
         0.00000E+00
         0.00000E+00
         0.00000E+00
         0.00000E+00
         0.00000E+00
         0.00000E+00
         0.00000E+00
         0.00000E+00
         0.00000E+00
         0.00000E+00
         0.00000E+00
         0.00000E+00
         0.00000E+00
         0.00000E+00
         0.00000E+00
         0.00000E+00
         0.00000E+00
         0.00000E+00
         0.00000E+00
         0.00000E+00
         0.00000E+00
         0.00000E+00
         0.00000E+00
         0.00000E+00
         0.00000E+00
         0.00000E+00
         0.00000E+00
         0.00000E+00
         0.00000E+00
         0.00000E+00
         0.00000E+00
         0.00000E+00
         0.00000E+00
         0.00000E+00
         0.00000E+00
         0.00000E+00
         0.00000E+00
         0.00000E+00
         0.00000E+00
         0.00000E+00
         0.00000E+00
         0.00000E+00
         0.00000E+00
         0.00000E+00
         0.00000E+00
         0.00000E+00
         0.00000E+00
         0.00000E+00
         0.00000E+00
         0.00000E+00
         0.00000E+00
         0.00000E+00
         0.00000E+00
         0.00000E+00
         0.00000E+00
         0.00000E+00
         0.00000E+00
         0.00000E+00
         0.00000E+00
         0.00000E+00
         0.00000E+00
         0.00000E+00
         0.00000E+00
         0.00000E+00
         0.00000E+00
         0.00000E+00
         0.00000E+00
         0.00000E+00
         0.00000E+00
         0.00000E+00
         0.00000E+00
         0.00000E+00
         0.00000E+00
         0.00000E+00
         0.00000E+00
         0.00000E+00
         0.00000E+00
         0.00000E+00
         0.00000E+00
         0.00000E+00
         0.00000E+00
         0.00000E+00
         0.00000E+00
         0.00000E+00
         0.00000E+00
         0.00000E+00
         0.00000E+00
         0.00000E+00
         0.00000E+00
         0.00000E+00
         0.00000E+00
         0.00000E+00
         0.00000E+00
         0.00000E+00
         0.00000E+00
         0.00000E+00
         0.00000E+00
         0.00000E+00
         0.00000E+00
         0.00000E+00
         0.00000E+00
         0.00000E+00
         0.00000E+00
         0.00000E+00
         0.00000E+00
         0.00000E+00
         0.00000E+00
         0.00000E+00
         0.00000E+00
         0.00000E+00
         0.00000E+00
         0.00000E+00
         0.00000E+00
         0.00000E+00
         0.00000E+00
         0.00000E+00
         0.00000E+00
         0.00000E+00
         0.00000E+00
         0.00000E+00
         0.00000E+00
         0.00000E+00
         0.00000E+00
         0.00000E+00
         0.00000E+00
         0.00000E+00
         0.00000E+00
         0.00000E+00
         0.00000E+00
         0.00000E+00
         0.00000E+00
         0.00000E+00
         0.00000E+00
         0.00000E+00
         0.00000E+00
         0.00000E+00
         0.00000E+00
         0.00000E+00
         0.00000E+00
         0.00000E+00
         0.00000E+00
         0.00000E+00
         0.00000E+00
         0.00000E+00
         0.00000E+00
         0.00000E+00
         0.00000E+00
         0.00000E+00
         0.00000E+00
         0.00000E+00
         0.00000E+00
         0.00000E+00
         0.00000E+00
         0.00000E+00
         0.00000E+00
         0.00000E+00
         0.00000E+00
         0.00000E+00
         0.00000E+00
         0.00000E+00
         0.00000E+00
         0.00000E+00
         0.00000E+00
         0.00000E+00
         0.00000E+00
         0.00000E+00
         0.00000E+00
         0.00000E+00
         0.00000E+00
         0.00000E+00
         0.00000E+00
         0.00000E+00
         0.00000E+00
         0.00000E+00
         0.00000E+00
         0.00000E+00
         0.00000E+00
         0.00000E+00
         0.00000E+00
         0.00000E+00
         0.00000E+00
         0.00000E+00
         0.00000E+00
         0.00000E+00
         0.00000E+00
         0.00000E+00
         0.00000E+00
         0.00000E+00
         0.00000E+00
         0.00000E+00
         0.00000E+00
         0.00000E+00
         0.00000E+00
         0.00000E+00
         0.00000E+00
         0.00000E+00
         0.00000E+00
         0.00000E+00
         0.00000E+00
         0.00000E+00
         0.00000E+00
         0.00000E+00
         0.00000E+00
         0.00000E+00
         0.00000E+00
         0.00000E+00
         0.00000E+00
         0.00000E+00
         0.00000E+00
         0.00000E+00
         0.00000E+00
         0.00000E+00
         0.00000E+00
         0.00000E+00
         0.00000E+00
         0.00000E+00
         0.00000E+00
         0.00000E+00
         0.00000E+00
         0.00000E+00
         0.00000E+00
         0.00000E+00
         0.00000E+00
         0.00000E+00
  
SCALARS                 acceleration_z  double 1
LOOKUP_TABLE default
         0.00000E+00
         0.00000E+00
         0.00000E+00
         0.00000E+00
         0.00000E+00
         0.00000E+00
         0.00000E+00
         0.00000E+00
         0.00000E+00
         0.00000E+00
         0.00000E+00
         0.00000E+00
         0.00000E+00
         0.00000E+00
         0.00000E+00
         0.00000E+00
         0.00000E+00
         0.00000E+00
         0.00000E+00
         0.00000E+00
         0.00000E+00
         0.00000E+00
         0.00000E+00
         0.00000E+00
         0.00000E+00
         0.00000E+00
         0.00000E+00
         0.00000E+00
         0.00000E+00
         0.00000E+00
         0.00000E+00
         0.00000E+00
         0.00000E+00
         0.00000E+00
         0.00000E+00
         0.00000E+00
         0.00000E+00
         0.00000E+00
         0.00000E+00
         0.00000E+00
         0.00000E+00
         0.00000E+00
         0.00000E+00
         0.00000E+00
         0.00000E+00
         0.00000E+00
         0.00000E+00
         0.00000E+00
         0.00000E+00
         0.00000E+00
         0.00000E+00
         0.00000E+00
         0.00000E+00
         0.00000E+00
         0.00000E+00
         0.00000E+00
         0.00000E+00
         0.00000E+00
         0.00000E+00
         0.00000E+00
         0.00000E+00
         0.00000E+00
         0.00000E+00
         0.00000E+00
         0.00000E+00
         0.00000E+00
         0.00000E+00
         0.00000E+00
         0.00000E+00
         0.00000E+00
         0.00000E+00
         0.00000E+00
         0.00000E+00
         0.00000E+00
         0.00000E+00
         0.00000E+00
         0.00000E+00
         0.00000E+00
         0.00000E+00
         0.00000E+00
         0.00000E+00
         0.00000E+00
         0.00000E+00
         0.00000E+00
         0.00000E+00
         0.00000E+00
         0.00000E+00
         0.00000E+00
         0.00000E+00
         0.00000E+00
         0.00000E+00
         0.00000E+00
         0.00000E+00
         0.00000E+00
         0.00000E+00
         0.00000E+00
         0.00000E+00
         0.00000E+00
         0.00000E+00
         0.00000E+00
         0.00000E+00
         0.00000E+00
         0.00000E+00
         0.00000E+00
         0.00000E+00
         0.00000E+00
         0.00000E+00
         0.00000E+00
         0.00000E+00
         0.00000E+00
         0.00000E+00
         0.00000E+00
         0.00000E+00
         0.00000E+00
         0.00000E+00
         0.00000E+00
         0.00000E+00
         0.00000E+00
         0.00000E+00
         0.00000E+00
         0.00000E+00
         0.00000E+00
         0.00000E+00
         0.00000E+00
         0.00000E+00
         0.00000E+00
         0.00000E+00
         0.00000E+00
         0.00000E+00
         0.00000E+00
         0.00000E+00
         0.00000E+00
         0.00000E+00
         0.00000E+00
         0.00000E+00
         0.00000E+00
         0.00000E+00
         0.00000E+00
         0.00000E+00
         0.00000E+00
         0.00000E+00
         0.00000E+00
         0.00000E+00
         0.00000E+00
         0.00000E+00
         0.00000E+00
         0.00000E+00
         0.00000E+00
         0.00000E+00
         0.00000E+00
         0.00000E+00
         0.00000E+00
         0.00000E+00
         0.00000E+00
         0.00000E+00
         0.00000E+00
         0.00000E+00
         0.00000E+00
         0.00000E+00
         0.00000E+00
         0.00000E+00
         0.00000E+00
         0.00000E+00
         0.00000E+00
         0.00000E+00
         0.00000E+00
         0.00000E+00
         0.00000E+00
         0.00000E+00
         0.00000E+00
         0.00000E+00
         0.00000E+00
         0.00000E+00
         0.00000E+00
         0.00000E+00
         0.00000E+00
         0.00000E+00
         0.00000E+00
         0.00000E+00
         0.00000E+00
         0.00000E+00
         0.00000E+00
         0.00000E+00
         0.00000E+00
         0.00000E+00
         0.00000E+00
         0.00000E+00
         0.00000E+00
         0.00000E+00
         0.00000E+00
         0.00000E+00
         0.00000E+00
         0.00000E+00
         0.00000E+00
         0.00000E+00
         0.00000E+00
         0.00000E+00
         0.00000E+00
         0.00000E+00
         0.00000E+00
         0.00000E+00
         0.00000E+00
         0.00000E+00
         0.00000E+00
         0.00000E+00
         0.00000E+00
         0.00000E+00
         0.00000E+00
         0.00000E+00
         0.00000E+00
         0.00000E+00
         0.00000E+00
         0.00000E+00
         0.00000E+00
         0.00000E+00
         0.00000E+00
         0.00000E+00
         0.00000E+00
         0.00000E+00
         0.00000E+00
         0.00000E+00
         0.00000E+00
         0.00000E+00
         0.00000E+00
         0.00000E+00
         0.00000E+00
         0.00000E+00
         0.00000E+00
         0.00000E+00
         0.00000E+00
         0.00000E+00
         0.00000E+00
         0.00000E+00
         0.00000E+00
         0.00000E+00
         0.00000E+00
         0.00000E+00
         0.00000E+00
         0.00000E+00
         0.00000E+00
         0.00000E+00
         0.00000E+00
         0.00000E+00
         0.00000E+00
         0.00000E+00
         0.00000E+00
         0.00000E+00
         0.00000E+00
         0.00000E+00
         0.00000E+00
         0.00000E+00
         0.00000E+00
         0.00000E+00
         0.00000E+00
         0.00000E+00
         0.00000E+00
         0.00000E+00
         0.00000E+00
         0.00000E+00
         0.00000E+00
         0.00000E+00
         0.00000E+00
         0.00000E+00
         0.00000E+00
         0.00000E+00
         0.00000E+00
         0.00000E+00
         0.00000E+00
         0.00000E+00
         0.00000E+00
         0.00000E+00
         0.00000E+00
         0.00000E+00
         0.00000E+00
         0.00000E+00
         0.00000E+00
         0.00000E+00
         0.00000E+00
         0.00000E+00
         0.00000E+00
         0.00000E+00
         0.00000E+00
         0.00000E+00
         0.00000E+00
         0.00000E+00
         0.00000E+00
         0.00000E+00
         0.00000E+00
         0.00000E+00
         0.00000E+00
         0.00000E+00
         0.00000E+00
         0.00000E+00
         0.00000E+00
         0.00000E+00
         0.00000E+00
         0.00000E+00
         0.00000E+00
         0.00000E+00
         0.00000E+00
         0.00000E+00
         0.00000E+00
         0.00000E+00
         0.00000E+00
         0.00000E+00
         0.00000E+00
         0.00000E+00
         0.00000E+00
         0.00000E+00
         0.00000E+00
         0.00000E+00
         0.00000E+00
         0.00000E+00
         0.00000E+00
         0.00000E+00
         0.00000E+00
         0.00000E+00
         0.00000E+00
         0.00000E+00
         0.00000E+00
         0.00000E+00
         0.00000E+00
         0.00000E+00
         0.00000E+00
         0.00000E+00
         0.00000E+00
         0.00000E+00
         0.00000E+00
         0.00000E+00
         0.00000E+00
         0.00000E+00
         0.00000E+00
         0.00000E+00
         0.00000E+00
         0.00000E+00
         0.00000E+00
         0.00000E+00
         0.00000E+00
         0.00000E+00
         0.00000E+00
         0.00000E+00
         0.00000E+00
         0.00000E+00
         0.00000E+00
         0.00000E+00
         0.00000E+00
         0.00000E+00
         0.00000E+00
         0.00000E+00
         0.00000E+00
         0.00000E+00
         0.00000E+00
         0.00000E+00
         0.00000E+00
         0.00000E+00
         0.00000E+00
         0.00000E+00
         0.00000E+00
         0.00000E+00
         0.00000E+00
         0.00000E+00
         0.00000E+00
         0.00000E+00
         0.00000E+00
         0.00000E+00
         0.00000E+00
         0.00000E+00
         0.00000E+00
         0.00000E+00
         0.00000E+00
         0.00000E+00
         0.00000E+00
         0.00000E+00
         0.00000E+00
         0.00000E+00
         0.00000E+00
         0.00000E+00
         0.00000E+00
         0.00000E+00
         0.00000E+00
         0.00000E+00
         0.00000E+00
         0.00000E+00
         0.00000E+00
         0.00000E+00
         0.00000E+00
         0.00000E+00
         0.00000E+00
         0.00000E+00
         0.00000E+00
         0.00000E+00
         0.00000E+00
         0.00000E+00
         0.00000E+00
         0.00000E+00
         0.00000E+00
         0.00000E+00
         0.00000E+00
         0.00000E+00
         0.00000E+00
         0.00000E+00
         0.00000E+00
         0.00000E+00
         0.00000E+00
         0.00000E+00
         0.00000E+00
         0.00000E+00
         0.00000E+00
         0.00000E+00
         0.00000E+00
         0.00000E+00
         0.00000E+00
         0.00000E+00
         0.00000E+00
         0.00000E+00
         0.00000E+00
         0.00000E+00
         0.00000E+00
         0.00000E+00
         0.00000E+00
         0.00000E+00
         0.00000E+00
         0.00000E+00
         0.00000E+00
         0.00000E+00
         0.00000E+00
         0.00000E+00
         0.00000E+00
         0.00000E+00
         0.00000E+00
         0.00000E+00
         0.00000E+00
         0.00000E+00
         0.00000E+00
         0.00000E+00
         0.00000E+00
         0.00000E+00
         0.00000E+00
         0.00000E+00
         0.00000E+00
         0.00000E+00
         0.00000E+00
         0.00000E+00
         0.00000E+00
         0.00000E+00
         0.00000E+00
         0.00000E+00
         0.00000E+00
         0.00000E+00
         0.00000E+00
         0.00000E+00
         0.00000E+00
         0.00000E+00
         0.00000E+00
         0.00000E+00
         0.00000E+00
         0.00000E+00
         0.00000E+00
         0.00000E+00
         0.00000E+00
         0.00000E+00
         0.00000E+00
         0.00000E+00
         0.00000E+00
         0.00000E+00
         0.00000E+00
         0.00000E+00
         0.00000E+00
         0.00000E+00
         0.00000E+00
         0.00000E+00
         0.00000E+00
         0.00000E+00
         0.00000E+00
         0.00000E+00
         0.00000E+00
         0.00000E+00
         0.00000E+00
         0.00000E+00
         0.00000E+00
         0.00000E+00
         0.00000E+00
         0.00000E+00
         0.00000E+00
         0.00000E+00
         0.00000E+00
         0.00000E+00
         0.00000E+00
         0.00000E+00
         0.00000E+00
         0.00000E+00
         0.00000E+00
         0.00000E+00
         0.00000E+00
         0.00000E+00
         0.00000E+00
         0.00000E+00
         0.00000E+00
         0.00000E+00
         0.00000E+00
         0.00000E+00
         0.00000E+00
         0.00000E+00
         0.00000E+00
         0.00000E+00
         0.00000E+00
         0.00000E+00
         0.00000E+00
         0.00000E+00
         0.00000E+00
         0.00000E+00
         0.00000E+00
         0.00000E+00
         0.00000E+00
         0.00000E+00
         0.00000E+00
         0.00000E+00
         0.00000E+00
         0.00000E+00
         0.00000E+00
         0.00000E+00
         0.00000E+00
         0.00000E+00
         0.00000E+00
         0.00000E+00
         0.00000E+00
         0.00000E+00
         0.00000E+00
         0.00000E+00
         0.00000E+00
         0.00000E+00
         0.00000E+00
         0.00000E+00
         0.00000E+00
         0.00000E+00
         0.00000E+00
         0.00000E+00
         0.00000E+00
         0.00000E+00
         0.00000E+00
         0.00000E+00
         0.00000E+00
         0.00000E+00
         0.00000E+00
         0.00000E+00
         0.00000E+00
         0.00000E+00
         0.00000E+00
         0.00000E+00
         0.00000E+00
         0.00000E+00
         0.00000E+00
         0.00000E+00
         0.00000E+00
         0.00000E+00
         0.00000E+00
         0.00000E+00
         0.00000E+00
         0.00000E+00
         0.00000E+00
         0.00000E+00
         0.00000E+00
         0.00000E+00
         0.00000E+00
         0.00000E+00
         0.00000E+00
         0.00000E+00
         0.00000E+00
         0.00000E+00
         0.00000E+00
         0.00000E+00
         0.00000E+00
         0.00000E+00
         0.00000E+00
         0.00000E+00
         0.00000E+00
         0.00000E+00
         0.00000E+00
         0.00000E+00
         0.00000E+00
         0.00000E+00
         0.00000E+00
         0.00000E+00
         0.00000E+00
         0.00000E+00
         0.00000E+00
         0.00000E+00
         0.00000E+00
         0.00000E+00
         0.00000E+00
         0.00000E+00
         0.00000E+00
         0.00000E+00
         0.00000E+00
         0.00000E+00
         0.00000E+00
         0.00000E+00
         0.00000E+00
         0.00000E+00
         0.00000E+00
         0.00000E+00
         0.00000E+00
         0.00000E+00
         0.00000E+00
         0.00000E+00
         0.00000E+00
         0.00000E+00
         0.00000E+00
         0.00000E+00
         0.00000E+00
         0.00000E+00
         0.00000E+00
         0.00000E+00
         0.00000E+00
         0.00000E+00
         0.00000E+00
         0.00000E+00
         0.00000E+00
         0.00000E+00
         0.00000E+00
         0.00000E+00
         0.00000E+00
         0.00000E+00
         0.00000E+00
         0.00000E+00
         0.00000E+00
         0.00000E+00
         0.00000E+00
         0.00000E+00
         0.00000E+00
         0.00000E+00
         0.00000E+00
         0.00000E+00
         0.00000E+00
         0.00000E+00
         0.00000E+00
         0.00000E+00
         0.00000E+00
         0.00000E+00
         0.00000E+00
         0.00000E+00
         0.00000E+00
         0.00000E+00
         0.00000E+00
         0.00000E+00
         0.00000E+00
         0.00000E+00
         0.00000E+00
         0.00000E+00
         0.00000E+00
         0.00000E+00
         0.00000E+00
         0.00000E+00
         0.00000E+00
         0.00000E+00
         0.00000E+00
         0.00000E+00
         0.00000E+00
         0.00000E+00
         0.00000E+00
         0.00000E+00
         0.00000E+00
         0.00000E+00
         0.00000E+00
         0.00000E+00
         0.00000E+00
         0.00000E+00
         0.00000E+00
         0.00000E+00
         0.00000E+00
         0.00000E+00
         0.00000E+00
         0.00000E+00
         0.00000E+00
         0.00000E+00
         0.00000E+00
         0.00000E+00
         0.00000E+00
         0.00000E+00
         0.00000E+00
         0.00000E+00
         0.00000E+00
         0.00000E+00
         0.00000E+00
         0.00000E+00
         0.00000E+00
         0.00000E+00
         0.00000E+00
         0.00000E+00
         0.00000E+00
         0.00000E+00
         0.00000E+00
         0.00000E+00
         0.00000E+00
         0.00000E+00
         0.00000E+00
         0.00000E+00
         0.00000E+00
         0.00000E+00
         0.00000E+00
         0.00000E+00
         0.00000E+00
         0.00000E+00
         0.00000E+00
         0.00000E+00
         0.00000E+00
         0.00000E+00
         0.00000E+00
         0.00000E+00
         0.00000E+00
         0.00000E+00
         0.00000E+00
         0.00000E+00
         0.00000E+00
         0.00000E+00
         0.00000E+00
         0.00000E+00
         0.00000E+00
         0.00000E+00
         0.00000E+00
         0.00000E+00
         0.00000E+00
         0.00000E+00
         0.00000E+00
         0.00000E+00
         0.00000E+00
         0.00000E+00
         0.00000E+00
         0.00000E+00
         0.00000E+00
         0.00000E+00
         0.00000E+00
         0.00000E+00
         0.00000E+00
         0.00000E+00
         0.00000E+00
         0.00000E+00
         0.00000E+00
         0.00000E+00
         0.00000E+00
         0.00000E+00
         0.00000E+00
         0.00000E+00
         0.00000E+00
         0.00000E+00
         0.00000E+00
         0.00000E+00
         0.00000E+00
         0.00000E+00
         0.00000E+00
         0.00000E+00
         0.00000E+00
         0.00000E+00
         0.00000E+00
         0.00000E+00
         0.00000E+00
         0.00000E+00
         0.00000E+00
         0.00000E+00
         0.00000E+00
         0.00000E+00
         0.00000E+00
         0.00000E+00
         0.00000E+00
         0.00000E+00
         0.00000E+00
         0.00000E+00
         0.00000E+00
         0.00000E+00
         0.00000E+00
         0.00000E+00
         0.00000E+00
         0.00000E+00
         0.00000E+00
         0.00000E+00
         0.00000E+00
         0.00000E+00
         0.00000E+00
         0.00000E+00
         0.00000E+00
         0.00000E+00
         0.00000E+00
         0.00000E+00
         0.00000E+00
         0.00000E+00
         0.00000E+00
         0.00000E+00
         0.00000E+00
         0.00000E+00
         0.00000E+00
         0.00000E+00
         0.00000E+00
         0.00000E+00
         0.00000E+00
         0.00000E+00
         0.00000E+00
         0.00000E+00
         0.00000E+00
         0.00000E+00
         0.00000E+00
         0.00000E+00
         0.00000E+00
         0.00000E+00
         0.00000E+00
         0.00000E+00
         0.00000E+00
         0.00000E+00
         0.00000E+00
         0.00000E+00
         0.00000E+00
         0.00000E+00
         0.00000E+00
         0.00000E+00
         0.00000E+00
         0.00000E+00
         0.00000E+00
         0.00000E+00
         0.00000E+00
         0.00000E+00
         0.00000E+00
         0.00000E+00
         0.00000E+00
         0.00000E+00
         0.00000E+00
         0.00000E+00
         0.00000E+00
         0.00000E+00
         0.00000E+00
         0.00000E+00
         0.00000E+00
         0.00000E+00
         0.00000E+00
         0.00000E+00
         0.00000E+00
         0.00000E+00
         0.00000E+00
         0.00000E+00
         0.00000E+00
         0.00000E+00
         0.00000E+00
         0.00000E+00
         0.00000E+00
         0.00000E+00
         0.00000E+00
         0.00000E+00
         0.00000E+00
         0.00000E+00
         0.00000E+00
         0.00000E+00
         0.00000E+00
         0.00000E+00
         0.00000E+00
         0.00000E+00
         0.00000E+00
         0.00000E+00
         0.00000E+00
         0.00000E+00
         0.00000E+00
         0.00000E+00
         0.00000E+00
         0.00000E+00
         0.00000E+00
         0.00000E+00
         0.00000E+00
         0.00000E+00
         0.00000E+00
         0.00000E+00
         0.00000E+00
         0.00000E+00
         0.00000E+00
         0.00000E+00
         0.00000E+00
         0.00000E+00
         0.00000E+00
         0.00000E+00
         0.00000E+00
         0.00000E+00
         0.00000E+00
         0.00000E+00
         0.00000E+00
         0.00000E+00
         0.00000E+00
         0.00000E+00
         0.00000E+00
         0.00000E+00
         0.00000E+00
         0.00000E+00
         0.00000E+00
         0.00000E+00
         0.00000E+00
         0.00000E+00
         0.00000E+00
         0.00000E+00
         0.00000E+00
         0.00000E+00
         0.00000E+00
         0.00000E+00
         0.00000E+00
         0.00000E+00
         0.00000E+00
         0.00000E+00
         0.00000E+00
         0.00000E+00
         0.00000E+00
         0.00000E+00
         0.00000E+00
         0.00000E+00
         0.00000E+00
         0.00000E+00
         0.00000E+00
         0.00000E+00
         0.00000E+00
         0.00000E+00
         0.00000E+00
         0.00000E+00
         0.00000E+00
         0.00000E+00
         0.00000E+00
         0.00000E+00
         0.00000E+00
         0.00000E+00
         0.00000E+00
         0.00000E+00
         0.00000E+00
         0.00000E+00
         0.00000E+00
         0.00000E+00
         0.00000E+00
         0.00000E+00
         0.00000E+00
         0.00000E+00
         0.00000E+00
         0.00000E+00
         0.00000E+00
         0.00000E+00
         0.00000E+00
         0.00000E+00
         0.00000E+00
         0.00000E+00
         0.00000E+00
         0.00000E+00
         0.00000E+00
         0.00000E+00
         0.00000E+00
         0.00000E+00
         0.00000E+00
         0.00000E+00
         0.00000E+00
         0.00000E+00
         0.00000E+00
         0.00000E+00
         0.00000E+00
         0.00000E+00
         0.00000E+00
         0.00000E+00
         0.00000E+00
         0.00000E+00
         0.00000E+00
         0.00000E+00
         0.00000E+00
         0.00000E+00
         0.00000E+00
         0.00000E+00
         0.00000E+00
         0.00000E+00
         0.00000E+00
         0.00000E+00
         0.00000E+00
         0.00000E+00
         0.00000E+00
         0.00000E+00
         0.00000E+00
         0.00000E+00
         0.00000E+00
         0.00000E+00
         0.00000E+00
         0.00000E+00
         0.00000E+00
         0.00000E+00
         0.00000E+00
         0.00000E+00
         0.00000E+00
         0.00000E+00
         0.00000E+00
         0.00000E+00
         0.00000E+00
         0.00000E+00
         0.00000E+00
         0.00000E+00
         0.00000E+00
         0.00000E+00
         0.00000E+00
         0.00000E+00
         0.00000E+00
         0.00000E+00
         0.00000E+00
         0.00000E+00
         0.00000E+00
         0.00000E+00
         0.00000E+00
         0.00000E+00
         0.00000E+00
         0.00000E+00
         0.00000E+00
         0.00000E+00
         0.00000E+00
         0.00000E+00
         0.00000E+00
         0.00000E+00
         0.00000E+00
         0.00000E+00
         0.00000E+00
         0.00000E+00
         0.00000E+00
         0.00000E+00
         0.00000E+00
         0.00000E+00
         0.00000E+00
         0.00000E+00
         0.00000E+00
         0.00000E+00
         0.00000E+00
         0.00000E+00
         0.00000E+00
         0.00000E+00
         0.00000E+00
         0.00000E+00
         0.00000E+00
         0.00000E+00
         0.00000E+00
         0.00000E+00
         0.00000E+00
         0.00000E+00
         0.00000E+00
         0.00000E+00
         0.00000E+00
         0.00000E+00
         0.00000E+00
         0.00000E+00
         0.00000E+00
         0.00000E+00
         0.00000E+00
         0.00000E+00
         0.00000E+00
         0.00000E+00
         0.00000E+00
         0.00000E+00
         0.00000E+00
         0.00000E+00
         0.00000E+00
         0.00000E+00
         0.00000E+00
         0.00000E+00
         0.00000E+00
         0.00000E+00
         0.00000E+00
         0.00000E+00
         0.00000E+00
         0.00000E+00
         0.00000E+00
         0.00000E+00
         0.00000E+00
         0.00000E+00
         0.00000E+00
         0.00000E+00
         0.00000E+00
         0.00000E+00
         0.00000E+00
         0.00000E+00
         0.00000E+00
         0.00000E+00
         0.00000E+00
         0.00000E+00
         0.00000E+00
         0.00000E+00
         0.00000E+00
         0.00000E+00
         0.00000E+00
         0.00000E+00
         0.00000E+00
         0.00000E+00
         0.00000E+00
         0.00000E+00
         0.00000E+00
         0.00000E+00
         0.00000E+00
         0.00000E+00
         0.00000E+00
         0.00000E+00
         0.00000E+00
         0.00000E+00
         0.00000E+00
         0.00000E+00
         0.00000E+00
         0.00000E+00
         0.00000E+00
         0.00000E+00
         0.00000E+00
         0.00000E+00
         0.00000E+00
         0.00000E+00
         0.00000E+00
         0.00000E+00
         0.00000E+00
         0.00000E+00
         0.00000E+00
         0.00000E+00
         0.00000E+00
         0.00000E+00
         0.00000E+00
         0.00000E+00
         0.00000E+00
         0.00000E+00
         0.00000E+00
         0.00000E+00
         0.00000E+00
         0.00000E+00
         0.00000E+00
         0.00000E+00
         0.00000E+00
         0.00000E+00
         0.00000E+00
         0.00000E+00
         0.00000E+00
         0.00000E+00
         0.00000E+00
         0.00000E+00
         0.00000E+00
         0.00000E+00
         0.00000E+00
         0.00000E+00
         0.00000E+00
         0.00000E+00
         0.00000E+00
         0.00000E+00
         0.00000E+00
         0.00000E+00
         0.00000E+00
         0.00000E+00
         0.00000E+00
         0.00000E+00
         0.00000E+00
         0.00000E+00
         0.00000E+00
         0.00000E+00
         0.00000E+00
         0.00000E+00
         0.00000E+00
         0.00000E+00
         0.00000E+00
         0.00000E+00
         0.00000E+00
         0.00000E+00
         0.00000E+00
         0.00000E+00
         0.00000E+00
         0.00000E+00
         0.00000E+00
         0.00000E+00
         0.00000E+00
         0.00000E+00
         0.00000E+00
         0.00000E+00
         0.00000E+00
         0.00000E+00
         0.00000E+00
         0.00000E+00
         0.00000E+00
         0.00000E+00
         0.00000E+00
         0.00000E+00
         0.00000E+00
         0.00000E+00
         0.00000E+00
         0.00000E+00
         0.00000E+00
         0.00000E+00
         0.00000E+00
         0.00000E+00
         0.00000E+00
         0.00000E+00
         0.00000E+00
         0.00000E+00
         0.00000E+00
         0.00000E+00
         0.00000E+00
         0.00000E+00
         0.00000E+00
         0.00000E+00
         0.00000E+00
         0.00000E+00
         0.00000E+00
         0.00000E+00
         0.00000E+00
         0.00000E+00
         0.00000E+00
         0.00000E+00
         0.00000E+00
         0.00000E+00
         0.00000E+00
         0.00000E+00
         0.00000E+00
         0.00000E+00
         0.00000E+00
         0.00000E+00
         0.00000E+00
         0.00000E+00
         0.00000E+00
         0.00000E+00
         0.00000E+00
         0.00000E+00
         0.00000E+00
         0.00000E+00
         0.00000E+00
         0.00000E+00
         0.00000E+00
         0.00000E+00
         0.00000E+00
         0.00000E+00
         0.00000E+00
         0.00000E+00
         0.00000E+00
         0.00000E+00
         0.00000E+00
         0.00000E+00
         0.00000E+00
         0.00000E+00
         0.00000E+00
         0.00000E+00
         0.00000E+00
         0.00000E+00
         0.00000E+00
         0.00000E+00
         0.00000E+00
         0.00000E+00
         0.00000E+00
         0.00000E+00
         0.00000E+00
         0.00000E+00
         0.00000E+00
         0.00000E+00
         0.00000E+00
         0.00000E+00
         0.00000E+00
         0.00000E+00
         0.00000E+00
         0.00000E+00
         0.00000E+00
         0.00000E+00
         0.00000E+00
         0.00000E+00
         0.00000E+00
         0.00000E+00
         0.00000E+00
         0.00000E+00
         0.00000E+00
         0.00000E+00
         0.00000E+00
         0.00000E+00
         0.00000E+00
         0.00000E+00
         0.00000E+00
         0.00000E+00
         0.00000E+00
         0.00000E+00
         0.00000E+00
         0.00000E+00
         0.00000E+00
         0.00000E+00
         0.00000E+00
         0.00000E+00
         0.00000E+00
         0.00000E+00
         0.00000E+00
         0.00000E+00
         0.00000E+00
         0.00000E+00
         0.00000E+00
         0.00000E+00
         0.00000E+00
         0.00000E+00
         0.00000E+00
         0.00000E+00
         0.00000E+00
         0.00000E+00
         0.00000E+00
         0.00000E+00
         0.00000E+00
         0.00000E+00
         0.00000E+00
         0.00000E+00
         0.00000E+00
         0.00000E+00
         0.00000E+00
         0.00000E+00
         0.00000E+00
         0.00000E+00
         0.00000E+00
         0.00000E+00
         0.00000E+00
         0.00000E+00
         0.00000E+00
         0.00000E+00
         0.00000E+00
         0.00000E+00
         0.00000E+00
         0.00000E+00
         0.00000E+00
         0.00000E+00
         0.00000E+00
         0.00000E+00
         0.00000E+00
         0.00000E+00
         0.00000E+00
         0.00000E+00
         0.00000E+00
         0.00000E+00
         0.00000E+00
         0.00000E+00
         0.00000E+00
         0.00000E+00
         0.00000E+00
         0.00000E+00
         0.00000E+00
         0.00000E+00
         0.00000E+00
         0.00000E+00
         0.00000E+00
         0.00000E+00
         0.00000E+00
         0.00000E+00
         0.00000E+00
         0.00000E+00
         0.00000E+00
         0.00000E+00
         0.00000E+00
         0.00000E+00
         0.00000E+00
         0.00000E+00
         0.00000E+00
         0.00000E+00
         0.00000E+00
         0.00000E+00
         0.00000E+00
         0.00000E+00
         0.00000E+00
         0.00000E+00
         0.00000E+00
         0.00000E+00
         0.00000E+00
         0.00000E+00
         0.00000E+00
         0.00000E+00
         0.00000E+00
         0.00000E+00
         0.00000E+00
         0.00000E+00
         0.00000E+00
         0.00000E+00
         0.00000E+00
         0.00000E+00
         0.00000E+00
         0.00000E+00
         0.00000E+00
         0.00000E+00
         0.00000E+00
         0.00000E+00
         0.00000E+00
         0.00000E+00
         0.00000E+00
         0.00000E+00
         0.00000E+00
         0.00000E+00
         0.00000E+00
         0.00000E+00
         0.00000E+00
         0.00000E+00
         0.00000E+00
         0.00000E+00
         0.00000E+00
         0.00000E+00
         0.00000E+00
         0.00000E+00
         0.00000E+00
         0.00000E+00
         0.00000E+00
         0.00000E+00
         0.00000E+00
         0.00000E+00
         0.00000E+00
         0.00000E+00
         0.00000E+00
         0.00000E+00
         0.00000E+00
         0.00000E+00
         0.00000E+00
         0.00000E+00
         0.00000E+00
         0.00000E+00
         0.00000E+00
         0.00000E+00
         0.00000E+00
         0.00000E+00
         0.00000E+00
         0.00000E+00
         0.00000E+00
         0.00000E+00
         0.00000E+00
         0.00000E+00
         0.00000E+00
         0.00000E+00
         0.00000E+00
         0.00000E+00
         0.00000E+00
         0.00000E+00
         0.00000E+00
         0.00000E+00
         0.00000E+00
         0.00000E+00
         0.00000E+00
         0.00000E+00
         0.00000E+00
         0.00000E+00
         0.00000E+00
         0.00000E+00
         0.00000E+00
         0.00000E+00
         0.00000E+00
         0.00000E+00
         0.00000E+00
         0.00000E+00
         0.00000E+00
         0.00000E+00
         0.00000E+00
         0.00000E+00
         0.00000E+00
         0.00000E+00
         0.00000E+00
         0.00000E+00
         0.00000E+00
         0.00000E+00
         0.00000E+00
         0.00000E+00
         0.00000E+00
         0.00000E+00
         0.00000E+00
         0.00000E+00
         0.00000E+00
         0.00000E+00
         0.00000E+00
         0.00000E+00
         0.00000E+00
         0.00000E+00
         0.00000E+00
         0.00000E+00
         0.00000E+00
         0.00000E+00
         0.00000E+00
         0.00000E+00
         0.00000E+00
         0.00000E+00
         0.00000E+00
         0.00000E+00
         0.00000E+00
         0.00000E+00
         0.00000E+00
         0.00000E+00
         0.00000E+00
         0.00000E+00
         0.00000E+00
         0.00000E+00
         0.00000E+00
         0.00000E+00
         0.00000E+00
         0.00000E+00
         0.00000E+00
         0.00000E+00
         0.00000E+00
         0.00000E+00
         0.00000E+00
         0.00000E+00
         0.00000E+00
         0.00000E+00
         0.00000E+00
         0.00000E+00
         0.00000E+00
         0.00000E+00
         0.00000E+00
         0.00000E+00
         0.00000E+00
         0.00000E+00
         0.00000E+00
         0.00000E+00
         0.00000E+00
         0.00000E+00
         0.00000E+00
         0.00000E+00
         0.00000E+00
         0.00000E+00
         0.00000E+00
         0.00000E+00
         0.00000E+00
         0.00000E+00
         0.00000E+00
         0.00000E+00
         0.00000E+00
         0.00000E+00
         0.00000E+00
         0.00000E+00
         0.00000E+00
         0.00000E+00
         0.00000E+00
         0.00000E+00
         0.00000E+00
         0.00000E+00
         0.00000E+00
         0.00000E+00
         0.00000E+00
         0.00000E+00
         0.00000E+00
         0.00000E+00
         0.00000E+00
         0.00000E+00
         0.00000E+00
         0.00000E+00
         0.00000E+00
         0.00000E+00
         0.00000E+00
         0.00000E+00
         0.00000E+00
         0.00000E+00
         0.00000E+00
         0.00000E+00
         0.00000E+00
         0.00000E+00
         0.00000E+00
         0.00000E+00
         0.00000E+00
         0.00000E+00
         0.00000E+00
         0.00000E+00
         0.00000E+00
         0.00000E+00
         0.00000E+00
         0.00000E+00
         0.00000E+00
         0.00000E+00
         0.00000E+00
         0.00000E+00
         0.00000E+00
         0.00000E+00
         0.00000E+00
         0.00000E+00
         0.00000E+00
         0.00000E+00
         0.00000E+00
         0.00000E+00
         0.00000E+00
         0.00000E+00
         0.00000E+00
         0.00000E+00
         0.00000E+00
         0.00000E+00
         0.00000E+00
         0.00000E+00
         0.00000E+00
         0.00000E+00
         0.00000E+00
         0.00000E+00
         0.00000E+00
         0.00000E+00
         0.00000E+00
         0.00000E+00
         0.00000E+00
         0.00000E+00
         0.00000E+00
         0.00000E+00
         0.00000E+00
         0.00000E+00
         0.00000E+00
         0.00000E+00
         0.00000E+00
         0.00000E+00
         0.00000E+00
         0.00000E+00
         0.00000E+00
         0.00000E+00
         0.00000E+00
         0.00000E+00
         0.00000E+00
         0.00000E+00
         0.00000E+00
         0.00000E+00
         0.00000E+00
         0.00000E+00
         0.00000E+00
         0.00000E+00
         0.00000E+00
         0.00000E+00
         0.00000E+00
         0.00000E+00
         0.00000E+00
         0.00000E+00
         0.00000E+00
         0.00000E+00
         0.00000E+00
         0.00000E+00
         0.00000E+00
         0.00000E+00
         0.00000E+00
         0.00000E+00
         0.00000E+00
         0.00000E+00
         0.00000E+00
         0.00000E+00
         0.00000E+00
         0.00000E+00
         0.00000E+00
         0.00000E+00
         0.00000E+00
         0.00000E+00
         0.00000E+00
         0.00000E+00
         0.00000E+00
         0.00000E+00
         0.00000E+00
         0.00000E+00
         0.00000E+00
         0.00000E+00
         0.00000E+00
         0.00000E+00
         0.00000E+00
         0.00000E+00
         0.00000E+00
         0.00000E+00
         0.00000E+00
         0.00000E+00
         0.00000E+00
         0.00000E+00
         0.00000E+00
         0.00000E+00
         0.00000E+00
         0.00000E+00
         0.00000E+00
         0.00000E+00
         0.00000E+00
         0.00000E+00
         0.00000E+00
         0.00000E+00
         0.00000E+00
         0.00000E+00
         0.00000E+00
         0.00000E+00
         0.00000E+00
         0.00000E+00
         0.00000E+00
         0.00000E+00
         0.00000E+00
         0.00000E+00
         0.00000E+00
         0.00000E+00
         0.00000E+00
         0.00000E+00
         0.00000E+00
         0.00000E+00
         0.00000E+00
         0.00000E+00
         0.00000E+00
         0.00000E+00
         0.00000E+00
         0.00000E+00
         0.00000E+00
         0.00000E+00
         0.00000E+00
         0.00000E+00
         0.00000E+00
         0.00000E+00
         0.00000E+00
         0.00000E+00
         0.00000E+00
         0.00000E+00
         0.00000E+00
         0.00000E+00
         0.00000E+00
         0.00000E+00
         0.00000E+00
         0.00000E+00
         0.00000E+00
         0.00000E+00
         0.00000E+00
         0.00000E+00
         0.00000E+00
         0.00000E+00
         0.00000E+00
         0.00000E+00
         0.00000E+00
         0.00000E+00
         0.00000E+00
         0.00000E+00
         0.00000E+00
         0.00000E+00
         0.00000E+00
         0.00000E+00
         0.00000E+00
         0.00000E+00
         0.00000E+00
         0.00000E+00
         0.00000E+00
         0.00000E+00
         0.00000E+00
         0.00000E+00
         0.00000E+00
         0.00000E+00
         0.00000E+00
         0.00000E+00
         0.00000E+00
         0.00000E+00
         0.00000E+00
         0.00000E+00
         0.00000E+00
         0.00000E+00
         0.00000E+00
         0.00000E+00
         0.00000E+00
         0.00000E+00
         0.00000E+00
         0.00000E+00
         0.00000E+00
         0.00000E+00
         0.00000E+00
         0.00000E+00
         0.00000E+00
         0.00000E+00
         0.00000E+00
         0.00000E+00
         0.00000E+00
         0.00000E+00
         0.00000E+00
         0.00000E+00
         0.00000E+00
         0.00000E+00
         0.00000E+00
         0.00000E+00
         0.00000E+00
         0.00000E+00
         0.00000E+00
         0.00000E+00
         0.00000E+00
         0.00000E+00
         0.00000E+00
         0.00000E+00
         0.00000E+00
         0.00000E+00
         0.00000E+00
         0.00000E+00
         0.00000E+00
         0.00000E+00
         0.00000E+00
         0.00000E+00
         0.00000E+00
         0.00000E+00
         0.00000E+00
         0.00000E+00
         0.00000E+00
         0.00000E+00
         0.00000E+00
         0.00000E+00
         0.00000E+00
         0.00000E+00
         0.00000E+00
         0.00000E+00
         0.00000E+00
         0.00000E+00
         0.00000E+00
         0.00000E+00
         0.00000E+00
         0.00000E+00
         0.00000E+00
         0.00000E+00
         0.00000E+00
         0.00000E+00
         0.00000E+00
         0.00000E+00
         0.00000E+00
         0.00000E+00
         0.00000E+00
         0.00000E+00
         0.00000E+00
         0.00000E+00
         0.00000E+00
         0.00000E+00
         0.00000E+00
         0.00000E+00
         0.00000E+00
         0.00000E+00
         0.00000E+00
         0.00000E+00
         0.00000E+00
         0.00000E+00
         0.00000E+00
         0.00000E+00
         0.00000E+00
         0.00000E+00
         0.00000E+00
         0.00000E+00
         0.00000E+00
         0.00000E+00
         0.00000E+00
         0.00000E+00
         0.00000E+00
         0.00000E+00
         0.00000E+00
         0.00000E+00
         0.00000E+00
         0.00000E+00
         0.00000E+00
         0.00000E+00
         0.00000E+00
         0.00000E+00
         0.00000E+00
         0.00000E+00
         0.00000E+00
         0.00000E+00
         0.00000E+00
         0.00000E+00
         0.00000E+00
         0.00000E+00
         0.00000E+00
         0.00000E+00
         0.00000E+00
         0.00000E+00
         0.00000E+00
         0.00000E+00
         0.00000E+00
         0.00000E+00
         0.00000E+00
         0.00000E+00
         0.00000E+00
         0.00000E+00
         0.00000E+00
         0.00000E+00
         0.00000E+00
         0.00000E+00
         0.00000E+00
         0.00000E+00
         0.00000E+00
         0.00000E+00
         0.00000E+00
         0.00000E+00
         0.00000E+00
         0.00000E+00
         0.00000E+00
         0.00000E+00
         0.00000E+00
         0.00000E+00
         0.00000E+00
         0.00000E+00
         0.00000E+00
         0.00000E+00
         0.00000E+00
         0.00000E+00
         0.00000E+00
         0.00000E+00
         0.00000E+00
         0.00000E+00
         0.00000E+00
         0.00000E+00
         0.00000E+00
         0.00000E+00
         0.00000E+00
         0.00000E+00
         0.00000E+00
         0.00000E+00
         0.00000E+00
         0.00000E+00
         0.00000E+00
         0.00000E+00
         0.00000E+00
         0.00000E+00
         0.00000E+00
         0.00000E+00
         0.00000E+00
         0.00000E+00
         0.00000E+00
         0.00000E+00
         0.00000E+00
         0.00000E+00
         0.00000E+00
         0.00000E+00
         0.00000E+00
         0.00000E+00
         0.00000E+00
         0.00000E+00
         0.00000E+00
         0.00000E+00
         0.00000E+00
         0.00000E+00
         0.00000E+00
         0.00000E+00
         0.00000E+00
         0.00000E+00
         0.00000E+00
         0.00000E+00
         0.00000E+00
         0.00000E+00
         0.00000E+00
         0.00000E+00
         0.00000E+00
         0.00000E+00
         0.00000E+00
         0.00000E+00
         0.00000E+00
         0.00000E+00
         0.00000E+00
         0.00000E+00
         0.00000E+00
         0.00000E+00
         0.00000E+00
         0.00000E+00
         0.00000E+00
         0.00000E+00
         0.00000E+00
         0.00000E+00
         0.00000E+00
         0.00000E+00
         0.00000E+00
         0.00000E+00
         0.00000E+00
         0.00000E+00
         0.00000E+00
         0.00000E+00
         0.00000E+00
         0.00000E+00
         0.00000E+00
         0.00000E+00
         0.00000E+00
         0.00000E+00
         0.00000E+00
         0.00000E+00
         0.00000E+00
         0.00000E+00
         0.00000E+00
         0.00000E+00
         0.00000E+00
         0.00000E+00
         0.00000E+00
         0.00000E+00
         0.00000E+00
         0.00000E+00
         0.00000E+00
  
SCALARS                         fint_x  double 1
LOOKUP_TABLE default
         0.00000E+00
         0.00000E+00
         0.00000E+00
         0.00000E+00
         0.00000E+00
         0.00000E+00
         0.00000E+00
         0.00000E+00
         0.00000E+00
         0.00000E+00
         0.00000E+00
         0.00000E+00
         0.00000E+00
         0.00000E+00
         0.00000E+00
         0.00000E+00
         0.00000E+00
         0.00000E+00
         0.00000E+00
         0.00000E+00
         0.00000E+00
         0.00000E+00
         0.00000E+00
         0.00000E+00
         0.00000E+00
         0.00000E+00
         0.00000E+00
         0.00000E+00
         0.00000E+00
         0.00000E+00
         0.00000E+00
         0.00000E+00
         0.00000E+00
         0.00000E+00
         0.00000E+00
         0.00000E+00
         0.00000E+00
         0.00000E+00
         0.00000E+00
         0.00000E+00
         0.00000E+00
         0.00000E+00
         0.00000E+00
         0.00000E+00
         0.00000E+00
         0.00000E+00
         0.00000E+00
         0.00000E+00
         0.00000E+00
         0.00000E+00
         0.00000E+00
         0.00000E+00
         0.00000E+00
         0.00000E+00
         0.00000E+00
         0.00000E+00
         0.00000E+00
         0.00000E+00
         0.00000E+00
         0.00000E+00
         0.00000E+00
         0.00000E+00
         0.00000E+00
         0.00000E+00
         0.00000E+00
         0.00000E+00
         0.00000E+00
         0.00000E+00
         0.00000E+00
         0.00000E+00
         0.00000E+00
         0.00000E+00
         0.00000E+00
         0.00000E+00
         0.00000E+00
         0.00000E+00
         0.00000E+00
         0.00000E+00
         0.00000E+00
         0.00000E+00
         0.00000E+00
         0.00000E+00
         0.00000E+00
         0.00000E+00
         0.00000E+00
         0.00000E+00
         0.00000E+00
         0.00000E+00
         0.00000E+00
         0.00000E+00
         0.00000E+00
         0.00000E+00
         0.00000E+00
         0.00000E+00
         0.00000E+00
         0.00000E+00
         0.00000E+00
         0.00000E+00
         0.00000E+00
         0.00000E+00
         0.00000E+00
         0.00000E+00
         0.00000E+00
         0.00000E+00
         0.00000E+00
         0.00000E+00
         0.00000E+00
         0.00000E+00
         0.00000E+00
         0.00000E+00
         0.00000E+00
         0.00000E+00
         0.00000E+00
         0.00000E+00
         0.00000E+00
         0.00000E+00
         0.00000E+00
         0.00000E+00
         0.00000E+00
         0.00000E+00
         0.00000E+00
         0.00000E+00
         0.00000E+00
         0.00000E+00
         0.00000E+00
         0.00000E+00
         0.00000E+00
         0.00000E+00
         0.00000E+00
         0.00000E+00
         0.00000E+00
         0.00000E+00
         0.00000E+00
         0.00000E+00
         0.00000E+00
         0.00000E+00
         0.00000E+00
         0.00000E+00
         0.00000E+00
         0.00000E+00
         0.00000E+00
         0.00000E+00
         0.00000E+00
         0.00000E+00
         0.00000E+00
         0.00000E+00
         0.00000E+00
         0.00000E+00
         0.00000E+00
         0.00000E+00
         0.00000E+00
         0.00000E+00
         0.00000E+00
         0.00000E+00
         0.00000E+00
         0.00000E+00
         0.00000E+00
         0.00000E+00
         0.00000E+00
         0.00000E+00
         0.00000E+00
         0.00000E+00
         0.00000E+00
         0.00000E+00
         0.00000E+00
         0.00000E+00
         0.00000E+00
         0.00000E+00
         0.00000E+00
         0.00000E+00
         0.00000E+00
         0.00000E+00
         0.00000E+00
         0.00000E+00
         0.00000E+00
         0.00000E+00
         0.00000E+00
         0.00000E+00
         0.00000E+00
         0.00000E+00
         0.00000E+00
         0.00000E+00
         0.00000E+00
         0.00000E+00
         0.00000E+00
         0.00000E+00
         0.00000E+00
         0.00000E+00
         0.00000E+00
         0.00000E+00
         0.00000E+00
         0.00000E+00
         0.00000E+00
         0.00000E+00
         0.00000E+00
         0.00000E+00
         0.00000E+00
         0.00000E+00
         0.00000E+00
         0.00000E+00
         0.00000E+00
         0.00000E+00
         0.00000E+00
         0.00000E+00
         0.00000E+00
         0.00000E+00
         0.00000E+00
         0.00000E+00
         0.00000E+00
         0.00000E+00
         0.00000E+00
         0.00000E+00
         0.00000E+00
         0.00000E+00
         0.00000E+00
         0.00000E+00
         0.00000E+00
         0.00000E+00
         0.00000E+00
         0.00000E+00
         0.00000E+00
         0.00000E+00
         0.00000E+00
         0.00000E+00
         0.00000E+00
         0.00000E+00
         0.00000E+00
         0.00000E+00
         0.00000E+00
         0.00000E+00
         0.00000E+00
         0.00000E+00
         0.00000E+00
         0.00000E+00
         0.00000E+00
         0.00000E+00
         0.00000E+00
         0.00000E+00
         0.00000E+00
         0.00000E+00
         0.00000E+00
         0.00000E+00
         0.00000E+00
         0.00000E+00
         0.00000E+00
         0.00000E+00
         0.00000E+00
         0.00000E+00
         0.00000E+00
         0.00000E+00
         0.00000E+00
         0.00000E+00
         0.00000E+00
         0.00000E+00
         0.00000E+00
         0.00000E+00
         0.00000E+00
         0.00000E+00
         0.00000E+00
         0.00000E+00
         0.00000E+00
         0.00000E+00
         0.00000E+00
         0.00000E+00
         0.00000E+00
         0.00000E+00
         0.00000E+00
         0.00000E+00
         0.00000E+00
         0.00000E+00
         0.00000E+00
         0.00000E+00
         0.00000E+00
         0.00000E+00
         0.00000E+00
         0.00000E+00
         0.00000E+00
         0.00000E+00
         0.00000E+00
         0.00000E+00
         0.00000E+00
         0.00000E+00
         0.00000E+00
         0.00000E+00
         0.00000E+00
         0.00000E+00
         0.00000E+00
         0.00000E+00
         0.00000E+00
         0.00000E+00
         0.00000E+00
         0.00000E+00
         0.00000E+00
         0.00000E+00
         0.00000E+00
         0.00000E+00
         0.00000E+00
         0.00000E+00
         0.00000E+00
         0.00000E+00
         0.00000E+00
         0.00000E+00
         0.00000E+00
         0.00000E+00
         0.00000E+00
         0.00000E+00
         0.00000E+00
         0.00000E+00
         0.00000E+00
         0.00000E+00
         0.00000E+00
         0.00000E+00
         0.00000E+00
         0.00000E+00
         0.00000E+00
         0.00000E+00
         0.00000E+00
         0.00000E+00
         0.00000E+00
         0.00000E+00
         0.00000E+00
         0.00000E+00
         0.00000E+00
         0.00000E+00
         0.00000E+00
         0.00000E+00
         0.00000E+00
         0.00000E+00
         0.00000E+00
         0.00000E+00
         0.00000E+00
         0.00000E+00
         0.00000E+00
         0.00000E+00
         0.00000E+00
         0.00000E+00
         0.00000E+00
         0.00000E+00
         0.00000E+00
         0.00000E+00
         0.00000E+00
         0.00000E+00
         0.00000E+00
         0.00000E+00
         0.00000E+00
         0.00000E+00
         0.00000E+00
         0.00000E+00
         0.00000E+00
         0.00000E+00
         0.00000E+00
         0.00000E+00
         0.00000E+00
         0.00000E+00
         0.00000E+00
         0.00000E+00
         0.00000E+00
         0.00000E+00
         0.00000E+00
         0.00000E+00
         0.00000E+00
         0.00000E+00
         0.00000E+00
         0.00000E+00
         0.00000E+00
         0.00000E+00
         0.00000E+00
         0.00000E+00
         0.00000E+00
         0.00000E+00
         0.00000E+00
         0.00000E+00
         0.00000E+00
         0.00000E+00
         0.00000E+00
         0.00000E+00
         0.00000E+00
         0.00000E+00
         0.00000E+00
         0.00000E+00
         0.00000E+00
         0.00000E+00
         0.00000E+00
         0.00000E+00
         0.00000E+00
         0.00000E+00
         0.00000E+00
         0.00000E+00
         0.00000E+00
         0.00000E+00
         0.00000E+00
         0.00000E+00
         0.00000E+00
         0.00000E+00
         0.00000E+00
         0.00000E+00
         0.00000E+00
         0.00000E+00
         0.00000E+00
         0.00000E+00
         0.00000E+00
         0.00000E+00
         0.00000E+00
         0.00000E+00
         0.00000E+00
         0.00000E+00
         0.00000E+00
         0.00000E+00
         0.00000E+00
         0.00000E+00
         0.00000E+00
         0.00000E+00
         0.00000E+00
         0.00000E+00
         0.00000E+00
         0.00000E+00
         0.00000E+00
         0.00000E+00
         0.00000E+00
         0.00000E+00
         0.00000E+00
         0.00000E+00
         0.00000E+00
         0.00000E+00
         0.00000E+00
         0.00000E+00
         0.00000E+00
         0.00000E+00
         0.00000E+00
         0.00000E+00
         0.00000E+00
         0.00000E+00
         0.00000E+00
         0.00000E+00
         0.00000E+00
         0.00000E+00
         0.00000E+00
         0.00000E+00
         0.00000E+00
         0.00000E+00
         0.00000E+00
         0.00000E+00
         0.00000E+00
         0.00000E+00
         0.00000E+00
         0.00000E+00
         0.00000E+00
         0.00000E+00
         0.00000E+00
         0.00000E+00
         0.00000E+00
         0.00000E+00
         0.00000E+00
         0.00000E+00
         0.00000E+00
         0.00000E+00
         0.00000E+00
         0.00000E+00
         0.00000E+00
         0.00000E+00
         0.00000E+00
         0.00000E+00
         0.00000E+00
         0.00000E+00
         0.00000E+00
         0.00000E+00
         0.00000E+00
         0.00000E+00
         0.00000E+00
         0.00000E+00
         0.00000E+00
         0.00000E+00
         0.00000E+00
         0.00000E+00
         0.00000E+00
         0.00000E+00
         0.00000E+00
         0.00000E+00
         0.00000E+00
         0.00000E+00
         0.00000E+00
         0.00000E+00
         0.00000E+00
         0.00000E+00
         0.00000E+00
         0.00000E+00
         0.00000E+00
         0.00000E+00
         0.00000E+00
         0.00000E+00
         0.00000E+00
         0.00000E+00
         0.00000E+00
         0.00000E+00
         0.00000E+00
         0.00000E+00
         0.00000E+00
         0.00000E+00
         0.00000E+00
         0.00000E+00
         0.00000E+00
         0.00000E+00
         0.00000E+00
         0.00000E+00
         0.00000E+00
         0.00000E+00
         0.00000E+00
         0.00000E+00
         0.00000E+00
         0.00000E+00
         0.00000E+00
         0.00000E+00
         0.00000E+00
         0.00000E+00
         0.00000E+00
         0.00000E+00
         0.00000E+00
         0.00000E+00
         0.00000E+00
         0.00000E+00
         0.00000E+00
         0.00000E+00
         0.00000E+00
         0.00000E+00
         0.00000E+00
         0.00000E+00
         0.00000E+00
         0.00000E+00
         0.00000E+00
         0.00000E+00
         0.00000E+00
         0.00000E+00
         0.00000E+00
         0.00000E+00
         0.00000E+00
         0.00000E+00
         0.00000E+00
         0.00000E+00
         0.00000E+00
         0.00000E+00
         0.00000E+00
         0.00000E+00
         0.00000E+00
         0.00000E+00
         0.00000E+00
         0.00000E+00
         0.00000E+00
         0.00000E+00
         0.00000E+00
         0.00000E+00
         0.00000E+00
         0.00000E+00
         0.00000E+00
         0.00000E+00
         0.00000E+00
         0.00000E+00
         0.00000E+00
         0.00000E+00
         0.00000E+00
         0.00000E+00
         0.00000E+00
         0.00000E+00
         0.00000E+00
         0.00000E+00
         0.00000E+00
         0.00000E+00
         0.00000E+00
         0.00000E+00
         0.00000E+00
         0.00000E+00
         0.00000E+00
         0.00000E+00
         0.00000E+00
         0.00000E+00
         0.00000E+00
         0.00000E+00
         0.00000E+00
         0.00000E+00
         0.00000E+00
         0.00000E+00
         0.00000E+00
         0.00000E+00
         0.00000E+00
         0.00000E+00
         0.00000E+00
         0.00000E+00
         0.00000E+00
         0.00000E+00
         0.00000E+00
         0.00000E+00
         0.00000E+00
         0.00000E+00
         0.00000E+00
         0.00000E+00
         0.00000E+00
         0.00000E+00
         0.00000E+00
         0.00000E+00
         0.00000E+00
         0.00000E+00
         0.00000E+00
         0.00000E+00
         0.00000E+00
         0.00000E+00
         0.00000E+00
         0.00000E+00
         0.00000E+00
         0.00000E+00
         0.00000E+00
         0.00000E+00
         0.00000E+00
         0.00000E+00
         0.00000E+00
         0.00000E+00
         0.00000E+00
         0.00000E+00
         0.00000E+00
         0.00000E+00
         0.00000E+00
         0.00000E+00
         0.00000E+00
         0.00000E+00
         0.00000E+00
         0.00000E+00
         0.00000E+00
         0.00000E+00
         0.00000E+00
         0.00000E+00
         0.00000E+00
         0.00000E+00
         0.00000E+00
         0.00000E+00
         0.00000E+00
         0.00000E+00
         0.00000E+00
         0.00000E+00
         0.00000E+00
         0.00000E+00
         0.00000E+00
         0.00000E+00
         0.00000E+00
         0.00000E+00
         0.00000E+00
         0.00000E+00
         0.00000E+00
         0.00000E+00
         0.00000E+00
         0.00000E+00
         0.00000E+00
         0.00000E+00
         0.00000E+00
         0.00000E+00
         0.00000E+00
         0.00000E+00
         0.00000E+00
         0.00000E+00
         0.00000E+00
         0.00000E+00
         0.00000E+00
         0.00000E+00
         0.00000E+00
         0.00000E+00
         0.00000E+00
         0.00000E+00
         0.00000E+00
         0.00000E+00
         0.00000E+00
         0.00000E+00
         0.00000E+00
         0.00000E+00
         0.00000E+00
         0.00000E+00
         0.00000E+00
         0.00000E+00
         0.00000E+00
         0.00000E+00
         0.00000E+00
         0.00000E+00
         0.00000E+00
         0.00000E+00
         0.00000E+00
         0.00000E+00
         0.00000E+00
         0.00000E+00
         0.00000E+00
         0.00000E+00
         0.00000E+00
         0.00000E+00
         0.00000E+00
         0.00000E+00
         0.00000E+00
         0.00000E+00
         0.00000E+00
         0.00000E+00
         0.00000E+00
         0.00000E+00
         0.00000E+00
         0.00000E+00
         0.00000E+00
         0.00000E+00
         0.00000E+00
         0.00000E+00
         0.00000E+00
         0.00000E+00
         0.00000E+00
         0.00000E+00
         0.00000E+00
         0.00000E+00
         0.00000E+00
         0.00000E+00
         0.00000E+00
         0.00000E+00
         0.00000E+00
         0.00000E+00
         0.00000E+00
         0.00000E+00
         0.00000E+00
         0.00000E+00
         0.00000E+00
         0.00000E+00
         0.00000E+00
         0.00000E+00
         0.00000E+00
         0.00000E+00
         0.00000E+00
         0.00000E+00
         0.00000E+00
         0.00000E+00
         0.00000E+00
         0.00000E+00
         0.00000E+00
         0.00000E+00
         0.00000E+00
         0.00000E+00
         0.00000E+00
         0.00000E+00
         0.00000E+00
         0.00000E+00
         0.00000E+00
         0.00000E+00
         0.00000E+00
         0.00000E+00
         0.00000E+00
         0.00000E+00
         0.00000E+00
         0.00000E+00
         0.00000E+00
         0.00000E+00
         0.00000E+00
         0.00000E+00
         0.00000E+00
         0.00000E+00
         0.00000E+00
         0.00000E+00
         0.00000E+00
         0.00000E+00
         0.00000E+00
         0.00000E+00
         0.00000E+00
         0.00000E+00
         0.00000E+00
         0.00000E+00
         0.00000E+00
         0.00000E+00
         0.00000E+00
         0.00000E+00
         0.00000E+00
         0.00000E+00
         0.00000E+00
         0.00000E+00
         0.00000E+00
         0.00000E+00
         0.00000E+00
         0.00000E+00
         0.00000E+00
         0.00000E+00
         0.00000E+00
         0.00000E+00
         0.00000E+00
         0.00000E+00
         0.00000E+00
         0.00000E+00
         0.00000E+00
         0.00000E+00
         0.00000E+00
         0.00000E+00
         0.00000E+00
         0.00000E+00
         0.00000E+00
         0.00000E+00
         0.00000E+00
         0.00000E+00
         0.00000E+00
         0.00000E+00
         0.00000E+00
         0.00000E+00
         0.00000E+00
         0.00000E+00
         0.00000E+00
         0.00000E+00
         0.00000E+00
         0.00000E+00
         0.00000E+00
         0.00000E+00
         0.00000E+00
         0.00000E+00
         0.00000E+00
         0.00000E+00
         0.00000E+00
         0.00000E+00
         0.00000E+00
         0.00000E+00
         0.00000E+00
         0.00000E+00
         0.00000E+00
         0.00000E+00
         0.00000E+00
         0.00000E+00
         0.00000E+00
         0.00000E+00
         0.00000E+00
         0.00000E+00
         0.00000E+00
         0.00000E+00
         0.00000E+00
         0.00000E+00
         0.00000E+00
         0.00000E+00
         0.00000E+00
         0.00000E+00
         0.00000E+00
         0.00000E+00
         0.00000E+00
         0.00000E+00
         0.00000E+00
         0.00000E+00
         0.00000E+00
         0.00000E+00
         0.00000E+00
         0.00000E+00
         0.00000E+00
         0.00000E+00
         0.00000E+00
         0.00000E+00
         0.00000E+00
         0.00000E+00
         0.00000E+00
         0.00000E+00
         0.00000E+00
         0.00000E+00
         0.00000E+00
         0.00000E+00
         0.00000E+00
         0.00000E+00
         0.00000E+00
         0.00000E+00
         0.00000E+00
         0.00000E+00
         0.00000E+00
         0.00000E+00
         0.00000E+00
         0.00000E+00
         0.00000E+00
         0.00000E+00
         0.00000E+00
         0.00000E+00
         0.00000E+00
         0.00000E+00
         0.00000E+00
         0.00000E+00
         0.00000E+00
         0.00000E+00
         0.00000E+00
         0.00000E+00
         0.00000E+00
         0.00000E+00
         0.00000E+00
         0.00000E+00
         0.00000E+00
         0.00000E+00
         0.00000E+00
         0.00000E+00
         0.00000E+00
         0.00000E+00
         0.00000E+00
         0.00000E+00
         0.00000E+00
         0.00000E+00
         0.00000E+00
         0.00000E+00
         0.00000E+00
         0.00000E+00
         0.00000E+00
         0.00000E+00
         0.00000E+00
         0.00000E+00
         0.00000E+00
         0.00000E+00
         0.00000E+00
         0.00000E+00
         0.00000E+00
         0.00000E+00
         0.00000E+00
         0.00000E+00
         0.00000E+00
         0.00000E+00
         0.00000E+00
         0.00000E+00
         0.00000E+00
         0.00000E+00
         0.00000E+00
         0.00000E+00
         0.00000E+00
         0.00000E+00
         0.00000E+00
         0.00000E+00
         0.00000E+00
         0.00000E+00
         0.00000E+00
         0.00000E+00
         0.00000E+00
         0.00000E+00
         0.00000E+00
         0.00000E+00
         0.00000E+00
         0.00000E+00
         0.00000E+00
         0.00000E+00
         0.00000E+00
         0.00000E+00
         0.00000E+00
         0.00000E+00
         0.00000E+00
         0.00000E+00
         0.00000E+00
         0.00000E+00
         0.00000E+00
         0.00000E+00
         0.00000E+00
         0.00000E+00
         0.00000E+00
         0.00000E+00
         0.00000E+00
         0.00000E+00
         0.00000E+00
         0.00000E+00
         0.00000E+00
         0.00000E+00
         0.00000E+00
         0.00000E+00
         0.00000E+00
         0.00000E+00
         0.00000E+00
         0.00000E+00
         0.00000E+00
         0.00000E+00
         0.00000E+00
         0.00000E+00
         0.00000E+00
         0.00000E+00
         0.00000E+00
         0.00000E+00
         0.00000E+00
         0.00000E+00
         0.00000E+00
         0.00000E+00
         0.00000E+00
         0.00000E+00
         0.00000E+00
         0.00000E+00
         0.00000E+00
         0.00000E+00
         0.00000E+00
         0.00000E+00
         0.00000E+00
         0.00000E+00
         0.00000E+00
         0.00000E+00
         0.00000E+00
         0.00000E+00
         0.00000E+00
         0.00000E+00
         0.00000E+00
         0.00000E+00
         0.00000E+00
         0.00000E+00
         0.00000E+00
         0.00000E+00
         0.00000E+00
         0.00000E+00
         0.00000E+00
         0.00000E+00
         0.00000E+00
         0.00000E+00
         0.00000E+00
         0.00000E+00
         0.00000E+00
         0.00000E+00
         0.00000E+00
         0.00000E+00
         0.00000E+00
         0.00000E+00
         0.00000E+00
         0.00000E+00
         0.00000E+00
         0.00000E+00
         0.00000E+00
         0.00000E+00
         0.00000E+00
         0.00000E+00
         0.00000E+00
         0.00000E+00
         0.00000E+00
         0.00000E+00
         0.00000E+00
         0.00000E+00
         0.00000E+00
         0.00000E+00
         0.00000E+00
         0.00000E+00
         0.00000E+00
         0.00000E+00
         0.00000E+00
         0.00000E+00
         0.00000E+00
         0.00000E+00
         0.00000E+00
         0.00000E+00
         0.00000E+00
         0.00000E+00
         0.00000E+00
         0.00000E+00
         0.00000E+00
         0.00000E+00
         0.00000E+00
         0.00000E+00
         0.00000E+00
         0.00000E+00
         0.00000E+00
         0.00000E+00
         0.00000E+00
         0.00000E+00
         0.00000E+00
         0.00000E+00
         0.00000E+00
         0.00000E+00
         0.00000E+00
         0.00000E+00
         0.00000E+00
         0.00000E+00
         0.00000E+00
         0.00000E+00
         0.00000E+00
         0.00000E+00
         0.00000E+00
         0.00000E+00
         0.00000E+00
         0.00000E+00
         0.00000E+00
         0.00000E+00
         0.00000E+00
         0.00000E+00
         0.00000E+00
         0.00000E+00
         0.00000E+00
         0.00000E+00
         0.00000E+00
         0.00000E+00
         0.00000E+00
         0.00000E+00
         0.00000E+00
         0.00000E+00
         0.00000E+00
         0.00000E+00
         0.00000E+00
         0.00000E+00
         0.00000E+00
         0.00000E+00
         0.00000E+00
         0.00000E+00
         0.00000E+00
         0.00000E+00
         0.00000E+00
         0.00000E+00
         0.00000E+00
         0.00000E+00
         0.00000E+00
         0.00000E+00
         0.00000E+00
         0.00000E+00
         0.00000E+00
         0.00000E+00
         0.00000E+00
         0.00000E+00
         0.00000E+00
         0.00000E+00
         0.00000E+00
         0.00000E+00
         0.00000E+00
         0.00000E+00
         0.00000E+00
         0.00000E+00
         0.00000E+00
         0.00000E+00
         0.00000E+00
         0.00000E+00
         0.00000E+00
         0.00000E+00
         0.00000E+00
         0.00000E+00
         0.00000E+00
         0.00000E+00
         0.00000E+00
         0.00000E+00
         0.00000E+00
         0.00000E+00
         0.00000E+00
         0.00000E+00
         0.00000E+00
         0.00000E+00
         0.00000E+00
         0.00000E+00
         0.00000E+00
         0.00000E+00
         0.00000E+00
         0.00000E+00
         0.00000E+00
         0.00000E+00
         0.00000E+00
         0.00000E+00
         0.00000E+00
         0.00000E+00
         0.00000E+00
         0.00000E+00
         0.00000E+00
         0.00000E+00
         0.00000E+00
         0.00000E+00
         0.00000E+00
         0.00000E+00
         0.00000E+00
         0.00000E+00
         0.00000E+00
         0.00000E+00
         0.00000E+00
         0.00000E+00
         0.00000E+00
         0.00000E+00
         0.00000E+00
         0.00000E+00
         0.00000E+00
         0.00000E+00
         0.00000E+00
         0.00000E+00
         0.00000E+00
         0.00000E+00
         0.00000E+00
         0.00000E+00
         0.00000E+00
         0.00000E+00
         0.00000E+00
         0.00000E+00
         0.00000E+00
         0.00000E+00
         0.00000E+00
         0.00000E+00
         0.00000E+00
         0.00000E+00
         0.00000E+00
         0.00000E+00
         0.00000E+00
         0.00000E+00
         0.00000E+00
         0.00000E+00
         0.00000E+00
         0.00000E+00
         0.00000E+00
         0.00000E+00
         0.00000E+00
         0.00000E+00
         0.00000E+00
         0.00000E+00
         0.00000E+00
         0.00000E+00
         0.00000E+00
         0.00000E+00
         0.00000E+00
         0.00000E+00
         0.00000E+00
         0.00000E+00
         0.00000E+00
         0.00000E+00
         0.00000E+00
         0.00000E+00
         0.00000E+00
         0.00000E+00
         0.00000E+00
         0.00000E+00
         0.00000E+00
         0.00000E+00
         0.00000E+00
         0.00000E+00
         0.00000E+00
         0.00000E+00
         0.00000E+00
         0.00000E+00
         0.00000E+00
         0.00000E+00
         0.00000E+00
         0.00000E+00
         0.00000E+00
         0.00000E+00
         0.00000E+00
         0.00000E+00
         0.00000E+00
         0.00000E+00
         0.00000E+00
         0.00000E+00
         0.00000E+00
         0.00000E+00
         0.00000E+00
         0.00000E+00
         0.00000E+00
         0.00000E+00
         0.00000E+00
         0.00000E+00
         0.00000E+00
         0.00000E+00
         0.00000E+00
         0.00000E+00
         0.00000E+00
         0.00000E+00
         0.00000E+00
         0.00000E+00
         0.00000E+00
         0.00000E+00
         0.00000E+00
         0.00000E+00
         0.00000E+00
         0.00000E+00
         0.00000E+00
         0.00000E+00
         0.00000E+00
         0.00000E+00
         0.00000E+00
         0.00000E+00
         0.00000E+00
         0.00000E+00
         0.00000E+00
         0.00000E+00
         0.00000E+00
         0.00000E+00
         0.00000E+00
         0.00000E+00
         0.00000E+00
         0.00000E+00
         0.00000E+00
         0.00000E+00
         0.00000E+00
         0.00000E+00
         0.00000E+00
         0.00000E+00
         0.00000E+00
         0.00000E+00
         0.00000E+00
         0.00000E+00
         0.00000E+00
         0.00000E+00
         0.00000E+00
         0.00000E+00
         0.00000E+00
         0.00000E+00
         0.00000E+00
         0.00000E+00
         0.00000E+00
         0.00000E+00
         0.00000E+00
         0.00000E+00
         0.00000E+00
         0.00000E+00
         0.00000E+00
         0.00000E+00
         0.00000E+00
         0.00000E+00
         0.00000E+00
         0.00000E+00
         0.00000E+00
         0.00000E+00
         0.00000E+00
         0.00000E+00
         0.00000E+00
         0.00000E+00
         0.00000E+00
         0.00000E+00
         0.00000E+00
         0.00000E+00
         0.00000E+00
         0.00000E+00
         0.00000E+00
         0.00000E+00
         0.00000E+00
         0.00000E+00
         0.00000E+00
         0.00000E+00
         0.00000E+00
         0.00000E+00
         0.00000E+00
         0.00000E+00
         0.00000E+00
         0.00000E+00
         0.00000E+00
         0.00000E+00
         0.00000E+00
         0.00000E+00
         0.00000E+00
         0.00000E+00
         0.00000E+00
         0.00000E+00
         0.00000E+00
         0.00000E+00
         0.00000E+00
         0.00000E+00
         0.00000E+00
         0.00000E+00
         0.00000E+00
         0.00000E+00
         0.00000E+00
         0.00000E+00
         0.00000E+00
         0.00000E+00
         0.00000E+00
         0.00000E+00
         0.00000E+00
         0.00000E+00
         0.00000E+00
         0.00000E+00
         0.00000E+00
         0.00000E+00
         0.00000E+00
         0.00000E+00
         0.00000E+00
         0.00000E+00
         0.00000E+00
         0.00000E+00
         0.00000E+00
         0.00000E+00
         0.00000E+00
         0.00000E+00
         0.00000E+00
         0.00000E+00
         0.00000E+00
         0.00000E+00
         0.00000E+00
         0.00000E+00
         0.00000E+00
         0.00000E+00
         0.00000E+00
         0.00000E+00
         0.00000E+00
         0.00000E+00
         0.00000E+00
         0.00000E+00
         0.00000E+00
         0.00000E+00
         0.00000E+00
         0.00000E+00
         0.00000E+00
         0.00000E+00
         0.00000E+00
         0.00000E+00
         0.00000E+00
         0.00000E+00
         0.00000E+00
         0.00000E+00
         0.00000E+00
         0.00000E+00
         0.00000E+00
         0.00000E+00
         0.00000E+00
         0.00000E+00
         0.00000E+00
         0.00000E+00
         0.00000E+00
         0.00000E+00
         0.00000E+00
         0.00000E+00
         0.00000E+00
         0.00000E+00
         0.00000E+00
         0.00000E+00
         0.00000E+00
         0.00000E+00
         0.00000E+00
         0.00000E+00
         0.00000E+00
         0.00000E+00
         0.00000E+00
         0.00000E+00
         0.00000E+00
         0.00000E+00
         0.00000E+00
         0.00000E+00
         0.00000E+00
         0.00000E+00
         0.00000E+00
         0.00000E+00
         0.00000E+00
         0.00000E+00
         0.00000E+00
         0.00000E+00
         0.00000E+00
         0.00000E+00
         0.00000E+00
         0.00000E+00
         0.00000E+00
         0.00000E+00
         0.00000E+00
         0.00000E+00
         0.00000E+00
         0.00000E+00
         0.00000E+00
         0.00000E+00
         0.00000E+00
         0.00000E+00
         0.00000E+00
         0.00000E+00
         0.00000E+00
         0.00000E+00
         0.00000E+00
         0.00000E+00
         0.00000E+00
         0.00000E+00
         0.00000E+00
         0.00000E+00
         0.00000E+00
         0.00000E+00
         0.00000E+00
         0.00000E+00
         0.00000E+00
         0.00000E+00
         0.00000E+00
         0.00000E+00
         0.00000E+00
         0.00000E+00
         0.00000E+00
         0.00000E+00
         0.00000E+00
         0.00000E+00
         0.00000E+00
         0.00000E+00
         0.00000E+00
         0.00000E+00
         0.00000E+00
         0.00000E+00
         0.00000E+00
         0.00000E+00
         0.00000E+00
         0.00000E+00
         0.00000E+00
         0.00000E+00
         0.00000E+00
         0.00000E+00
         0.00000E+00
         0.00000E+00
         0.00000E+00
         0.00000E+00
         0.00000E+00
         0.00000E+00
         0.00000E+00
         0.00000E+00
         0.00000E+00
         0.00000E+00
         0.00000E+00
         0.00000E+00
         0.00000E+00
         0.00000E+00
         0.00000E+00
         0.00000E+00
         0.00000E+00
         0.00000E+00
         0.00000E+00
         0.00000E+00
         0.00000E+00
         0.00000E+00
         0.00000E+00
         0.00000E+00
         0.00000E+00
         0.00000E+00
         0.00000E+00
         0.00000E+00
         0.00000E+00
         0.00000E+00
         0.00000E+00
         0.00000E+00
         0.00000E+00
         0.00000E+00
         0.00000E+00
         0.00000E+00
         0.00000E+00
         0.00000E+00
         0.00000E+00
         0.00000E+00
         0.00000E+00
         0.00000E+00
         0.00000E+00
         0.00000E+00
         0.00000E+00
         0.00000E+00
         0.00000E+00
         0.00000E+00
         0.00000E+00
         0.00000E+00
         0.00000E+00
         0.00000E+00
         0.00000E+00
         0.00000E+00
         0.00000E+00
         0.00000E+00
         0.00000E+00
         0.00000E+00
         0.00000E+00
         0.00000E+00
         0.00000E+00
         0.00000E+00
         0.00000E+00
         0.00000E+00
         0.00000E+00
         0.00000E+00
         0.00000E+00
         0.00000E+00
         0.00000E+00
         0.00000E+00
         0.00000E+00
         0.00000E+00
         0.00000E+00
         0.00000E+00
         0.00000E+00
         0.00000E+00
         0.00000E+00
         0.00000E+00
         0.00000E+00
         0.00000E+00
         0.00000E+00
         0.00000E+00
         0.00000E+00
         0.00000E+00
         0.00000E+00
         0.00000E+00
         0.00000E+00
         0.00000E+00
         0.00000E+00
         0.00000E+00
         0.00000E+00
         0.00000E+00
         0.00000E+00
         0.00000E+00
         0.00000E+00
         0.00000E+00
         0.00000E+00
         0.00000E+00
         0.00000E+00
         0.00000E+00
         0.00000E+00
         0.00000E+00
         0.00000E+00
         0.00000E+00
         0.00000E+00
         0.00000E+00
         0.00000E+00
         0.00000E+00
         0.00000E+00
         0.00000E+00
         0.00000E+00
         0.00000E+00
         0.00000E+00
         0.00000E+00
         0.00000E+00
         0.00000E+00
         0.00000E+00
         0.00000E+00
         0.00000E+00
         0.00000E+00
         0.00000E+00
         0.00000E+00
         0.00000E+00
         0.00000E+00
         0.00000E+00
         0.00000E+00
         0.00000E+00
         0.00000E+00
         0.00000E+00
         0.00000E+00
         0.00000E+00
         0.00000E+00
         0.00000E+00
         0.00000E+00
         0.00000E+00
         0.00000E+00
         0.00000E+00
         0.00000E+00
         0.00000E+00
         0.00000E+00
         0.00000E+00
         0.00000E+00
         0.00000E+00
         0.00000E+00
         0.00000E+00
         0.00000E+00
         0.00000E+00
         0.00000E+00
         0.00000E+00
         0.00000E+00
         0.00000E+00
         0.00000E+00
         0.00000E+00
         0.00000E+00
         0.00000E+00
         0.00000E+00
         0.00000E+00
         0.00000E+00
         0.00000E+00
         0.00000E+00
         0.00000E+00
         0.00000E+00
         0.00000E+00
         0.00000E+00
         0.00000E+00
         0.00000E+00
         0.00000E+00
         0.00000E+00
         0.00000E+00
         0.00000E+00
         0.00000E+00
         0.00000E+00
         0.00000E+00
         0.00000E+00
         0.00000E+00
         0.00000E+00
         0.00000E+00
         0.00000E+00
         0.00000E+00
         0.00000E+00
         0.00000E+00
         0.00000E+00
         0.00000E+00
         0.00000E+00
         0.00000E+00
         0.00000E+00
         0.00000E+00
         0.00000E+00
         0.00000E+00
         0.00000E+00
         0.00000E+00
         0.00000E+00
         0.00000E+00
         0.00000E+00
         0.00000E+00
         0.00000E+00
         0.00000E+00
         0.00000E+00
         0.00000E+00
         0.00000E+00
         0.00000E+00
         0.00000E+00
         0.00000E+00
         0.00000E+00
         0.00000E+00
         0.00000E+00
         0.00000E+00
         0.00000E+00
         0.00000E+00
         0.00000E+00
         0.00000E+00
         0.00000E+00
         0.00000E+00
         0.00000E+00
         0.00000E+00
         0.00000E+00
         0.00000E+00
         0.00000E+00
         0.00000E+00
         0.00000E+00
         0.00000E+00
         0.00000E+00
         0.00000E+00
         0.00000E+00
         0.00000E+00
         0.00000E+00
         0.00000E+00
         0.00000E+00
         0.00000E+00
         0.00000E+00
         0.00000E+00
         0.00000E+00
         0.00000E+00
         0.00000E+00
         0.00000E+00
         0.00000E+00
         0.00000E+00
         0.00000E+00
         0.00000E+00
         0.00000E+00
         0.00000E+00
         0.00000E+00
         0.00000E+00
         0.00000E+00
         0.00000E+00
         0.00000E+00
         0.00000E+00
         0.00000E+00
         0.00000E+00
         0.00000E+00
         0.00000E+00
         0.00000E+00
         0.00000E+00
         0.00000E+00
         0.00000E+00
         0.00000E+00
         0.00000E+00
         0.00000E+00
         0.00000E+00
         0.00000E+00
         0.00000E+00
         0.00000E+00
         0.00000E+00
         0.00000E+00
         0.00000E+00
         0.00000E+00
         0.00000E+00
         0.00000E+00
         0.00000E+00
         0.00000E+00
         0.00000E+00
         0.00000E+00
         0.00000E+00
         0.00000E+00
         0.00000E+00
         0.00000E+00
         0.00000E+00
         0.00000E+00
         0.00000E+00
         0.00000E+00
         0.00000E+00
         0.00000E+00
         0.00000E+00
         0.00000E+00
         0.00000E+00
         0.00000E+00
         0.00000E+00
         0.00000E+00
         0.00000E+00
         0.00000E+00
         0.00000E+00
         0.00000E+00
         0.00000E+00
         0.00000E+00
         0.00000E+00
         0.00000E+00
         0.00000E+00
         0.00000E+00
         0.00000E+00
         0.00000E+00
         0.00000E+00
         0.00000E+00
         0.00000E+00
         0.00000E+00
         0.00000E+00
         0.00000E+00
         0.00000E+00
         0.00000E+00
         0.00000E+00
         0.00000E+00
         0.00000E+00
         0.00000E+00
         0.00000E+00
         0.00000E+00
         0.00000E+00
         0.00000E+00
         0.00000E+00
         0.00000E+00
         0.00000E+00
         0.00000E+00
         0.00000E+00
         0.00000E+00
         0.00000E+00
         0.00000E+00
         0.00000E+00
         0.00000E+00
         0.00000E+00
         0.00000E+00
         0.00000E+00
         0.00000E+00
         0.00000E+00
         0.00000E+00
         0.00000E+00
         0.00000E+00
         0.00000E+00
         0.00000E+00
         0.00000E+00
         0.00000E+00
         0.00000E+00
         0.00000E+00
         0.00000E+00
         0.00000E+00
         0.00000E+00
         0.00000E+00
         0.00000E+00
         0.00000E+00
         0.00000E+00
         0.00000E+00
         0.00000E+00
         0.00000E+00
         0.00000E+00
         0.00000E+00
         0.00000E+00
         0.00000E+00
         0.00000E+00
         0.00000E+00
         0.00000E+00
         0.00000E+00
         0.00000E+00
         0.00000E+00
         0.00000E+00
         0.00000E+00
         0.00000E+00
         0.00000E+00
         0.00000E+00
         0.00000E+00
         0.00000E+00
         0.00000E+00
         0.00000E+00
         0.00000E+00
         0.00000E+00
         0.00000E+00
         0.00000E+00
         0.00000E+00
         0.00000E+00
         0.00000E+00
         0.00000E+00
         0.00000E+00
         0.00000E+00
         0.00000E+00
         0.00000E+00
         0.00000E+00
         0.00000E+00
         0.00000E+00
         0.00000E+00
         0.00000E+00
         0.00000E+00
         0.00000E+00
         0.00000E+00
         0.00000E+00
         0.00000E+00
         0.00000E+00
         0.00000E+00
         0.00000E+00
         0.00000E+00
         0.00000E+00
         0.00000E+00
         0.00000E+00
         0.00000E+00
         0.00000E+00
         0.00000E+00
         0.00000E+00
         0.00000E+00
         0.00000E+00
         0.00000E+00
         0.00000E+00
         0.00000E+00
         0.00000E+00
         0.00000E+00
         0.00000E+00
         0.00000E+00
         0.00000E+00
         0.00000E+00
         0.00000E+00
         0.00000E+00
         0.00000E+00
         0.00000E+00
         0.00000E+00
         0.00000E+00
         0.00000E+00
         0.00000E+00
         0.00000E+00
         0.00000E+00
         0.00000E+00
         0.00000E+00
         0.00000E+00
         0.00000E+00
         0.00000E+00
         0.00000E+00
         0.00000E+00
         0.00000E+00
         0.00000E+00
         0.00000E+00
         0.00000E+00
         0.00000E+00
         0.00000E+00
         0.00000E+00
         0.00000E+00
         0.00000E+00
         0.00000E+00
         0.00000E+00
         0.00000E+00
         0.00000E+00
         0.00000E+00
         0.00000E+00
         0.00000E+00
         0.00000E+00
         0.00000E+00
         0.00000E+00
         0.00000E+00
         0.00000E+00
         0.00000E+00
         0.00000E+00
         0.00000E+00
         0.00000E+00
         0.00000E+00
         0.00000E+00
         0.00000E+00
         0.00000E+00
         0.00000E+00
         0.00000E+00
         0.00000E+00
         0.00000E+00
         0.00000E+00
         0.00000E+00
         0.00000E+00
         0.00000E+00
         0.00000E+00
         0.00000E+00
         0.00000E+00
         0.00000E+00
         0.00000E+00
         0.00000E+00
         0.00000E+00
         0.00000E+00
         0.00000E+00
         0.00000E+00
         0.00000E+00
         0.00000E+00
         0.00000E+00
         0.00000E+00
         0.00000E+00
         0.00000E+00
         0.00000E+00
         0.00000E+00
         0.00000E+00
         0.00000E+00
         0.00000E+00
  
SCALARS                         fint_y  double 1
LOOKUP_TABLE default
         0.00000E+00
         0.00000E+00
         0.00000E+00
         0.00000E+00
         0.00000E+00
         0.00000E+00
         0.00000E+00
         0.00000E+00
         0.00000E+00
         0.00000E+00
         0.00000E+00
         0.00000E+00
         0.00000E+00
         0.00000E+00
         0.00000E+00
         0.00000E+00
         0.00000E+00
         0.00000E+00
         0.00000E+00
         0.00000E+00
         0.00000E+00
         0.00000E+00
         0.00000E+00
         0.00000E+00
         0.00000E+00
         0.00000E+00
         0.00000E+00
         0.00000E+00
         0.00000E+00
         0.00000E+00
         0.00000E+00
         0.00000E+00
         0.00000E+00
         0.00000E+00
         0.00000E+00
         0.00000E+00
         0.00000E+00
         0.00000E+00
         0.00000E+00
         0.00000E+00
         0.00000E+00
         0.00000E+00
         0.00000E+00
         0.00000E+00
         0.00000E+00
         0.00000E+00
         0.00000E+00
         0.00000E+00
         0.00000E+00
         0.00000E+00
         0.00000E+00
         0.00000E+00
         0.00000E+00
         0.00000E+00
         0.00000E+00
         0.00000E+00
         0.00000E+00
         0.00000E+00
         0.00000E+00
         0.00000E+00
         0.00000E+00
         0.00000E+00
         0.00000E+00
         0.00000E+00
         0.00000E+00
         0.00000E+00
         0.00000E+00
         0.00000E+00
         0.00000E+00
         0.00000E+00
         0.00000E+00
         0.00000E+00
         0.00000E+00
         0.00000E+00
         0.00000E+00
         0.00000E+00
         0.00000E+00
         0.00000E+00
         0.00000E+00
         0.00000E+00
         0.00000E+00
         0.00000E+00
         0.00000E+00
         0.00000E+00
         0.00000E+00
         0.00000E+00
         0.00000E+00
         0.00000E+00
         0.00000E+00
         0.00000E+00
         0.00000E+00
         0.00000E+00
         0.00000E+00
         0.00000E+00
         0.00000E+00
         0.00000E+00
         0.00000E+00
         0.00000E+00
         0.00000E+00
         0.00000E+00
         0.00000E+00
         0.00000E+00
         0.00000E+00
         0.00000E+00
         0.00000E+00
         0.00000E+00
         0.00000E+00
         0.00000E+00
         0.00000E+00
         0.00000E+00
         0.00000E+00
         0.00000E+00
         0.00000E+00
         0.00000E+00
         0.00000E+00
         0.00000E+00
         0.00000E+00
         0.00000E+00
         0.00000E+00
         0.00000E+00
         0.00000E+00
         0.00000E+00
         0.00000E+00
         0.00000E+00
         0.00000E+00
         0.00000E+00
         0.00000E+00
         0.00000E+00
         0.00000E+00
         0.00000E+00
         0.00000E+00
         0.00000E+00
         0.00000E+00
         0.00000E+00
         0.00000E+00
         0.00000E+00
         0.00000E+00
         0.00000E+00
         0.00000E+00
         0.00000E+00
         0.00000E+00
         0.00000E+00
         0.00000E+00
         0.00000E+00
         0.00000E+00
         0.00000E+00
         0.00000E+00
         0.00000E+00
         0.00000E+00
         0.00000E+00
         0.00000E+00
         0.00000E+00
         0.00000E+00
         0.00000E+00
         0.00000E+00
         0.00000E+00
         0.00000E+00
         0.00000E+00
         0.00000E+00
         0.00000E+00
         0.00000E+00
         0.00000E+00
         0.00000E+00
         0.00000E+00
         0.00000E+00
         0.00000E+00
         0.00000E+00
         0.00000E+00
         0.00000E+00
         0.00000E+00
         0.00000E+00
         0.00000E+00
         0.00000E+00
         0.00000E+00
         0.00000E+00
         0.00000E+00
         0.00000E+00
         0.00000E+00
         0.00000E+00
         0.00000E+00
         0.00000E+00
         0.00000E+00
         0.00000E+00
         0.00000E+00
         0.00000E+00
         0.00000E+00
         0.00000E+00
         0.00000E+00
         0.00000E+00
         0.00000E+00
         0.00000E+00
         0.00000E+00
         0.00000E+00
         0.00000E+00
         0.00000E+00
         0.00000E+00
         0.00000E+00
         0.00000E+00
         0.00000E+00
         0.00000E+00
         0.00000E+00
         0.00000E+00
         0.00000E+00
         0.00000E+00
         0.00000E+00
         0.00000E+00
         0.00000E+00
         0.00000E+00
         0.00000E+00
         0.00000E+00
         0.00000E+00
         0.00000E+00
         0.00000E+00
         0.00000E+00
         0.00000E+00
         0.00000E+00
         0.00000E+00
         0.00000E+00
         0.00000E+00
         0.00000E+00
         0.00000E+00
         0.00000E+00
         0.00000E+00
         0.00000E+00
         0.00000E+00
         0.00000E+00
         0.00000E+00
         0.00000E+00
         0.00000E+00
         0.00000E+00
         0.00000E+00
         0.00000E+00
         0.00000E+00
         0.00000E+00
         0.00000E+00
         0.00000E+00
         0.00000E+00
         0.00000E+00
         0.00000E+00
         0.00000E+00
         0.00000E+00
         0.00000E+00
         0.00000E+00
         0.00000E+00
         0.00000E+00
         0.00000E+00
         0.00000E+00
         0.00000E+00
         0.00000E+00
         0.00000E+00
         0.00000E+00
         0.00000E+00
         0.00000E+00
         0.00000E+00
         0.00000E+00
         0.00000E+00
         0.00000E+00
         0.00000E+00
         0.00000E+00
         0.00000E+00
         0.00000E+00
         0.00000E+00
         0.00000E+00
         0.00000E+00
         0.00000E+00
         0.00000E+00
         0.00000E+00
         0.00000E+00
         0.00000E+00
         0.00000E+00
         0.00000E+00
         0.00000E+00
         0.00000E+00
         0.00000E+00
         0.00000E+00
         0.00000E+00
         0.00000E+00
         0.00000E+00
         0.00000E+00
         0.00000E+00
         0.00000E+00
         0.00000E+00
         0.00000E+00
         0.00000E+00
         0.00000E+00
         0.00000E+00
         0.00000E+00
         0.00000E+00
         0.00000E+00
         0.00000E+00
         0.00000E+00
         0.00000E+00
         0.00000E+00
         0.00000E+00
         0.00000E+00
         0.00000E+00
         0.00000E+00
         0.00000E+00
         0.00000E+00
         0.00000E+00
         0.00000E+00
         0.00000E+00
         0.00000E+00
         0.00000E+00
         0.00000E+00
         0.00000E+00
         0.00000E+00
         0.00000E+00
         0.00000E+00
         0.00000E+00
         0.00000E+00
         0.00000E+00
         0.00000E+00
         0.00000E+00
         0.00000E+00
         0.00000E+00
         0.00000E+00
         0.00000E+00
         0.00000E+00
         0.00000E+00
         0.00000E+00
         0.00000E+00
         0.00000E+00
         0.00000E+00
         0.00000E+00
         0.00000E+00
         0.00000E+00
         0.00000E+00
         0.00000E+00
         0.00000E+00
         0.00000E+00
         0.00000E+00
         0.00000E+00
         0.00000E+00
         0.00000E+00
         0.00000E+00
         0.00000E+00
         0.00000E+00
         0.00000E+00
         0.00000E+00
         0.00000E+00
         0.00000E+00
         0.00000E+00
         0.00000E+00
         0.00000E+00
         0.00000E+00
         0.00000E+00
         0.00000E+00
         0.00000E+00
         0.00000E+00
         0.00000E+00
         0.00000E+00
         0.00000E+00
         0.00000E+00
         0.00000E+00
         0.00000E+00
         0.00000E+00
         0.00000E+00
         0.00000E+00
         0.00000E+00
         0.00000E+00
         0.00000E+00
         0.00000E+00
         0.00000E+00
         0.00000E+00
         0.00000E+00
         0.00000E+00
         0.00000E+00
         0.00000E+00
         0.00000E+00
         0.00000E+00
         0.00000E+00
         0.00000E+00
         0.00000E+00
         0.00000E+00
         0.00000E+00
         0.00000E+00
         0.00000E+00
         0.00000E+00
         0.00000E+00
         0.00000E+00
         0.00000E+00
         0.00000E+00
         0.00000E+00
         0.00000E+00
         0.00000E+00
         0.00000E+00
         0.00000E+00
         0.00000E+00
         0.00000E+00
         0.00000E+00
         0.00000E+00
         0.00000E+00
         0.00000E+00
         0.00000E+00
         0.00000E+00
         0.00000E+00
         0.00000E+00
         0.00000E+00
         0.00000E+00
         0.00000E+00
         0.00000E+00
         0.00000E+00
         0.00000E+00
         0.00000E+00
         0.00000E+00
         0.00000E+00
         0.00000E+00
         0.00000E+00
         0.00000E+00
         0.00000E+00
         0.00000E+00
         0.00000E+00
         0.00000E+00
         0.00000E+00
         0.00000E+00
         0.00000E+00
         0.00000E+00
         0.00000E+00
         0.00000E+00
         0.00000E+00
         0.00000E+00
         0.00000E+00
         0.00000E+00
         0.00000E+00
         0.00000E+00
         0.00000E+00
         0.00000E+00
         0.00000E+00
         0.00000E+00
         0.00000E+00
         0.00000E+00
         0.00000E+00
         0.00000E+00
         0.00000E+00
         0.00000E+00
         0.00000E+00
         0.00000E+00
         0.00000E+00
         0.00000E+00
         0.00000E+00
         0.00000E+00
         0.00000E+00
         0.00000E+00
         0.00000E+00
         0.00000E+00
         0.00000E+00
         0.00000E+00
         0.00000E+00
         0.00000E+00
         0.00000E+00
         0.00000E+00
         0.00000E+00
         0.00000E+00
         0.00000E+00
         0.00000E+00
         0.00000E+00
         0.00000E+00
         0.00000E+00
         0.00000E+00
         0.00000E+00
         0.00000E+00
         0.00000E+00
         0.00000E+00
         0.00000E+00
         0.00000E+00
         0.00000E+00
         0.00000E+00
         0.00000E+00
         0.00000E+00
         0.00000E+00
         0.00000E+00
         0.00000E+00
         0.00000E+00
         0.00000E+00
         0.00000E+00
         0.00000E+00
         0.00000E+00
         0.00000E+00
         0.00000E+00
         0.00000E+00
         0.00000E+00
         0.00000E+00
         0.00000E+00
         0.00000E+00
         0.00000E+00
         0.00000E+00
         0.00000E+00
         0.00000E+00
         0.00000E+00
         0.00000E+00
         0.00000E+00
         0.00000E+00
         0.00000E+00
         0.00000E+00
         0.00000E+00
         0.00000E+00
         0.00000E+00
         0.00000E+00
         0.00000E+00
         0.00000E+00
         0.00000E+00
         0.00000E+00
         0.00000E+00
         0.00000E+00
         0.00000E+00
         0.00000E+00
         0.00000E+00
         0.00000E+00
         0.00000E+00
         0.00000E+00
         0.00000E+00
         0.00000E+00
         0.00000E+00
         0.00000E+00
         0.00000E+00
         0.00000E+00
         0.00000E+00
         0.00000E+00
         0.00000E+00
         0.00000E+00
         0.00000E+00
         0.00000E+00
         0.00000E+00
         0.00000E+00
         0.00000E+00
         0.00000E+00
         0.00000E+00
         0.00000E+00
         0.00000E+00
         0.00000E+00
         0.00000E+00
         0.00000E+00
         0.00000E+00
         0.00000E+00
         0.00000E+00
         0.00000E+00
         0.00000E+00
         0.00000E+00
         0.00000E+00
         0.00000E+00
         0.00000E+00
         0.00000E+00
         0.00000E+00
         0.00000E+00
         0.00000E+00
         0.00000E+00
         0.00000E+00
         0.00000E+00
         0.00000E+00
         0.00000E+00
         0.00000E+00
         0.00000E+00
         0.00000E+00
         0.00000E+00
         0.00000E+00
         0.00000E+00
         0.00000E+00
         0.00000E+00
         0.00000E+00
         0.00000E+00
         0.00000E+00
         0.00000E+00
         0.00000E+00
         0.00000E+00
         0.00000E+00
         0.00000E+00
         0.00000E+00
         0.00000E+00
         0.00000E+00
         0.00000E+00
         0.00000E+00
         0.00000E+00
         0.00000E+00
         0.00000E+00
         0.00000E+00
         0.00000E+00
         0.00000E+00
         0.00000E+00
         0.00000E+00
         0.00000E+00
         0.00000E+00
         0.00000E+00
         0.00000E+00
         0.00000E+00
         0.00000E+00
         0.00000E+00
         0.00000E+00
         0.00000E+00
         0.00000E+00
         0.00000E+00
         0.00000E+00
         0.00000E+00
         0.00000E+00
         0.00000E+00
         0.00000E+00
         0.00000E+00
         0.00000E+00
         0.00000E+00
         0.00000E+00
         0.00000E+00
         0.00000E+00
         0.00000E+00
         0.00000E+00
         0.00000E+00
         0.00000E+00
         0.00000E+00
         0.00000E+00
         0.00000E+00
         0.00000E+00
         0.00000E+00
         0.00000E+00
         0.00000E+00
         0.00000E+00
         0.00000E+00
         0.00000E+00
         0.00000E+00
         0.00000E+00
         0.00000E+00
         0.00000E+00
         0.00000E+00
         0.00000E+00
         0.00000E+00
         0.00000E+00
         0.00000E+00
         0.00000E+00
         0.00000E+00
         0.00000E+00
         0.00000E+00
         0.00000E+00
         0.00000E+00
         0.00000E+00
         0.00000E+00
         0.00000E+00
         0.00000E+00
         0.00000E+00
         0.00000E+00
         0.00000E+00
         0.00000E+00
         0.00000E+00
         0.00000E+00
         0.00000E+00
         0.00000E+00
         0.00000E+00
         0.00000E+00
         0.00000E+00
         0.00000E+00
         0.00000E+00
         0.00000E+00
         0.00000E+00
         0.00000E+00
         0.00000E+00
         0.00000E+00
         0.00000E+00
         0.00000E+00
         0.00000E+00
         0.00000E+00
         0.00000E+00
         0.00000E+00
         0.00000E+00
         0.00000E+00
         0.00000E+00
         0.00000E+00
         0.00000E+00
         0.00000E+00
         0.00000E+00
         0.00000E+00
         0.00000E+00
         0.00000E+00
         0.00000E+00
         0.00000E+00
         0.00000E+00
         0.00000E+00
         0.00000E+00
         0.00000E+00
         0.00000E+00
         0.00000E+00
         0.00000E+00
         0.00000E+00
         0.00000E+00
         0.00000E+00
         0.00000E+00
         0.00000E+00
         0.00000E+00
         0.00000E+00
         0.00000E+00
         0.00000E+00
         0.00000E+00
         0.00000E+00
         0.00000E+00
         0.00000E+00
         0.00000E+00
         0.00000E+00
         0.00000E+00
         0.00000E+00
         0.00000E+00
         0.00000E+00
         0.00000E+00
         0.00000E+00
         0.00000E+00
         0.00000E+00
         0.00000E+00
         0.00000E+00
         0.00000E+00
         0.00000E+00
         0.00000E+00
         0.00000E+00
         0.00000E+00
         0.00000E+00
         0.00000E+00
         0.00000E+00
         0.00000E+00
         0.00000E+00
         0.00000E+00
         0.00000E+00
         0.00000E+00
         0.00000E+00
         0.00000E+00
         0.00000E+00
         0.00000E+00
         0.00000E+00
         0.00000E+00
         0.00000E+00
         0.00000E+00
         0.00000E+00
         0.00000E+00
         0.00000E+00
         0.00000E+00
         0.00000E+00
         0.00000E+00
         0.00000E+00
         0.00000E+00
         0.00000E+00
         0.00000E+00
         0.00000E+00
         0.00000E+00
         0.00000E+00
         0.00000E+00
         0.00000E+00
         0.00000E+00
         0.00000E+00
         0.00000E+00
         0.00000E+00
         0.00000E+00
         0.00000E+00
         0.00000E+00
         0.00000E+00
         0.00000E+00
         0.00000E+00
         0.00000E+00
         0.00000E+00
         0.00000E+00
         0.00000E+00
         0.00000E+00
         0.00000E+00
         0.00000E+00
         0.00000E+00
         0.00000E+00
         0.00000E+00
         0.00000E+00
         0.00000E+00
         0.00000E+00
         0.00000E+00
         0.00000E+00
         0.00000E+00
         0.00000E+00
         0.00000E+00
         0.00000E+00
         0.00000E+00
         0.00000E+00
         0.00000E+00
         0.00000E+00
         0.00000E+00
         0.00000E+00
         0.00000E+00
         0.00000E+00
         0.00000E+00
         0.00000E+00
         0.00000E+00
         0.00000E+00
         0.00000E+00
         0.00000E+00
         0.00000E+00
         0.00000E+00
         0.00000E+00
         0.00000E+00
         0.00000E+00
         0.00000E+00
         0.00000E+00
         0.00000E+00
         0.00000E+00
         0.00000E+00
         0.00000E+00
         0.00000E+00
         0.00000E+00
         0.00000E+00
         0.00000E+00
         0.00000E+00
         0.00000E+00
         0.00000E+00
         0.00000E+00
         0.00000E+00
         0.00000E+00
         0.00000E+00
         0.00000E+00
         0.00000E+00
         0.00000E+00
         0.00000E+00
         0.00000E+00
         0.00000E+00
         0.00000E+00
         0.00000E+00
         0.00000E+00
         0.00000E+00
         0.00000E+00
         0.00000E+00
         0.00000E+00
         0.00000E+00
         0.00000E+00
         0.00000E+00
         0.00000E+00
         0.00000E+00
         0.00000E+00
         0.00000E+00
         0.00000E+00
         0.00000E+00
         0.00000E+00
         0.00000E+00
         0.00000E+00
         0.00000E+00
         0.00000E+00
         0.00000E+00
         0.00000E+00
         0.00000E+00
         0.00000E+00
         0.00000E+00
         0.00000E+00
         0.00000E+00
         0.00000E+00
         0.00000E+00
         0.00000E+00
         0.00000E+00
         0.00000E+00
         0.00000E+00
         0.00000E+00
         0.00000E+00
         0.00000E+00
         0.00000E+00
         0.00000E+00
         0.00000E+00
         0.00000E+00
         0.00000E+00
         0.00000E+00
         0.00000E+00
         0.00000E+00
         0.00000E+00
         0.00000E+00
         0.00000E+00
         0.00000E+00
         0.00000E+00
         0.00000E+00
         0.00000E+00
         0.00000E+00
         0.00000E+00
         0.00000E+00
         0.00000E+00
         0.00000E+00
         0.00000E+00
         0.00000E+00
         0.00000E+00
         0.00000E+00
         0.00000E+00
         0.00000E+00
         0.00000E+00
         0.00000E+00
         0.00000E+00
         0.00000E+00
         0.00000E+00
         0.00000E+00
         0.00000E+00
         0.00000E+00
         0.00000E+00
         0.00000E+00
         0.00000E+00
         0.00000E+00
         0.00000E+00
         0.00000E+00
         0.00000E+00
         0.00000E+00
         0.00000E+00
         0.00000E+00
         0.00000E+00
         0.00000E+00
         0.00000E+00
         0.00000E+00
         0.00000E+00
         0.00000E+00
         0.00000E+00
         0.00000E+00
         0.00000E+00
         0.00000E+00
         0.00000E+00
         0.00000E+00
         0.00000E+00
         0.00000E+00
         0.00000E+00
         0.00000E+00
         0.00000E+00
         0.00000E+00
         0.00000E+00
         0.00000E+00
         0.00000E+00
         0.00000E+00
         0.00000E+00
         0.00000E+00
         0.00000E+00
         0.00000E+00
         0.00000E+00
         0.00000E+00
         0.00000E+00
         0.00000E+00
         0.00000E+00
         0.00000E+00
         0.00000E+00
         0.00000E+00
         0.00000E+00
         0.00000E+00
         0.00000E+00
         0.00000E+00
         0.00000E+00
         0.00000E+00
         0.00000E+00
         0.00000E+00
         0.00000E+00
         0.00000E+00
         0.00000E+00
         0.00000E+00
         0.00000E+00
         0.00000E+00
         0.00000E+00
         0.00000E+00
         0.00000E+00
         0.00000E+00
         0.00000E+00
         0.00000E+00
         0.00000E+00
         0.00000E+00
         0.00000E+00
         0.00000E+00
         0.00000E+00
         0.00000E+00
         0.00000E+00
         0.00000E+00
         0.00000E+00
         0.00000E+00
         0.00000E+00
         0.00000E+00
         0.00000E+00
         0.00000E+00
         0.00000E+00
         0.00000E+00
         0.00000E+00
         0.00000E+00
         0.00000E+00
         0.00000E+00
         0.00000E+00
         0.00000E+00
         0.00000E+00
         0.00000E+00
         0.00000E+00
         0.00000E+00
         0.00000E+00
         0.00000E+00
         0.00000E+00
         0.00000E+00
         0.00000E+00
         0.00000E+00
         0.00000E+00
         0.00000E+00
         0.00000E+00
         0.00000E+00
         0.00000E+00
         0.00000E+00
         0.00000E+00
         0.00000E+00
         0.00000E+00
         0.00000E+00
         0.00000E+00
         0.00000E+00
         0.00000E+00
         0.00000E+00
         0.00000E+00
         0.00000E+00
         0.00000E+00
         0.00000E+00
         0.00000E+00
         0.00000E+00
         0.00000E+00
         0.00000E+00
         0.00000E+00
         0.00000E+00
         0.00000E+00
         0.00000E+00
         0.00000E+00
         0.00000E+00
         0.00000E+00
         0.00000E+00
         0.00000E+00
         0.00000E+00
         0.00000E+00
         0.00000E+00
         0.00000E+00
         0.00000E+00
         0.00000E+00
         0.00000E+00
         0.00000E+00
         0.00000E+00
         0.00000E+00
         0.00000E+00
         0.00000E+00
         0.00000E+00
         0.00000E+00
         0.00000E+00
         0.00000E+00
         0.00000E+00
         0.00000E+00
         0.00000E+00
         0.00000E+00
         0.00000E+00
         0.00000E+00
         0.00000E+00
         0.00000E+00
         0.00000E+00
         0.00000E+00
         0.00000E+00
         0.00000E+00
         0.00000E+00
         0.00000E+00
         0.00000E+00
         0.00000E+00
         0.00000E+00
         0.00000E+00
         0.00000E+00
         0.00000E+00
         0.00000E+00
         0.00000E+00
         0.00000E+00
         0.00000E+00
         0.00000E+00
         0.00000E+00
         0.00000E+00
         0.00000E+00
         0.00000E+00
         0.00000E+00
         0.00000E+00
         0.00000E+00
         0.00000E+00
         0.00000E+00
         0.00000E+00
         0.00000E+00
         0.00000E+00
         0.00000E+00
         0.00000E+00
         0.00000E+00
         0.00000E+00
         0.00000E+00
         0.00000E+00
         0.00000E+00
         0.00000E+00
         0.00000E+00
         0.00000E+00
         0.00000E+00
         0.00000E+00
         0.00000E+00
         0.00000E+00
         0.00000E+00
         0.00000E+00
         0.00000E+00
         0.00000E+00
         0.00000E+00
         0.00000E+00
         0.00000E+00
         0.00000E+00
         0.00000E+00
         0.00000E+00
         0.00000E+00
         0.00000E+00
         0.00000E+00
         0.00000E+00
         0.00000E+00
         0.00000E+00
         0.00000E+00
         0.00000E+00
         0.00000E+00
         0.00000E+00
         0.00000E+00
         0.00000E+00
         0.00000E+00
         0.00000E+00
         0.00000E+00
         0.00000E+00
         0.00000E+00
         0.00000E+00
         0.00000E+00
         0.00000E+00
         0.00000E+00
         0.00000E+00
         0.00000E+00
         0.00000E+00
         0.00000E+00
         0.00000E+00
         0.00000E+00
         0.00000E+00
         0.00000E+00
         0.00000E+00
         0.00000E+00
         0.00000E+00
         0.00000E+00
         0.00000E+00
         0.00000E+00
         0.00000E+00
         0.00000E+00
         0.00000E+00
         0.00000E+00
         0.00000E+00
         0.00000E+00
         0.00000E+00
         0.00000E+00
         0.00000E+00
         0.00000E+00
         0.00000E+00
         0.00000E+00
         0.00000E+00
         0.00000E+00
         0.00000E+00
         0.00000E+00
         0.00000E+00
         0.00000E+00
         0.00000E+00
         0.00000E+00
         0.00000E+00
         0.00000E+00
         0.00000E+00
         0.00000E+00
         0.00000E+00
         0.00000E+00
         0.00000E+00
         0.00000E+00
         0.00000E+00
         0.00000E+00
         0.00000E+00
         0.00000E+00
         0.00000E+00
         0.00000E+00
         0.00000E+00
         0.00000E+00
         0.00000E+00
         0.00000E+00
         0.00000E+00
         0.00000E+00
         0.00000E+00
         0.00000E+00
         0.00000E+00
         0.00000E+00
         0.00000E+00
         0.00000E+00
         0.00000E+00
         0.00000E+00
         0.00000E+00
         0.00000E+00
         0.00000E+00
         0.00000E+00
         0.00000E+00
         0.00000E+00
         0.00000E+00
         0.00000E+00
         0.00000E+00
         0.00000E+00
         0.00000E+00
         0.00000E+00
         0.00000E+00
         0.00000E+00
         0.00000E+00
         0.00000E+00
         0.00000E+00
         0.00000E+00
         0.00000E+00
         0.00000E+00
         0.00000E+00
         0.00000E+00
         0.00000E+00
         0.00000E+00
         0.00000E+00
         0.00000E+00
         0.00000E+00
         0.00000E+00
         0.00000E+00
         0.00000E+00
         0.00000E+00
         0.00000E+00
         0.00000E+00
         0.00000E+00
         0.00000E+00
         0.00000E+00
         0.00000E+00
         0.00000E+00
         0.00000E+00
         0.00000E+00
         0.00000E+00
         0.00000E+00
         0.00000E+00
         0.00000E+00
         0.00000E+00
         0.00000E+00
         0.00000E+00
         0.00000E+00
         0.00000E+00
         0.00000E+00
         0.00000E+00
         0.00000E+00
         0.00000E+00
         0.00000E+00
         0.00000E+00
         0.00000E+00
         0.00000E+00
         0.00000E+00
         0.00000E+00
         0.00000E+00
         0.00000E+00
         0.00000E+00
         0.00000E+00
         0.00000E+00
         0.00000E+00
         0.00000E+00
         0.00000E+00
         0.00000E+00
         0.00000E+00
         0.00000E+00
         0.00000E+00
         0.00000E+00
         0.00000E+00
         0.00000E+00
         0.00000E+00
         0.00000E+00
         0.00000E+00
         0.00000E+00
         0.00000E+00
         0.00000E+00
         0.00000E+00
         0.00000E+00
         0.00000E+00
         0.00000E+00
         0.00000E+00
         0.00000E+00
         0.00000E+00
         0.00000E+00
         0.00000E+00
         0.00000E+00
         0.00000E+00
         0.00000E+00
         0.00000E+00
         0.00000E+00
         0.00000E+00
         0.00000E+00
         0.00000E+00
         0.00000E+00
         0.00000E+00
         0.00000E+00
         0.00000E+00
         0.00000E+00
         0.00000E+00
         0.00000E+00
         0.00000E+00
         0.00000E+00
         0.00000E+00
         0.00000E+00
         0.00000E+00
         0.00000E+00
         0.00000E+00
         0.00000E+00
         0.00000E+00
         0.00000E+00
         0.00000E+00
         0.00000E+00
         0.00000E+00
         0.00000E+00
         0.00000E+00
         0.00000E+00
         0.00000E+00
         0.00000E+00
         0.00000E+00
         0.00000E+00
         0.00000E+00
         0.00000E+00
         0.00000E+00
         0.00000E+00
         0.00000E+00
         0.00000E+00
         0.00000E+00
         0.00000E+00
         0.00000E+00
         0.00000E+00
         0.00000E+00
         0.00000E+00
         0.00000E+00
         0.00000E+00
         0.00000E+00
         0.00000E+00
         0.00000E+00
         0.00000E+00
         0.00000E+00
         0.00000E+00
         0.00000E+00
         0.00000E+00
         0.00000E+00
         0.00000E+00
         0.00000E+00
         0.00000E+00
         0.00000E+00
         0.00000E+00
         0.00000E+00
         0.00000E+00
         0.00000E+00
         0.00000E+00
         0.00000E+00
         0.00000E+00
         0.00000E+00
         0.00000E+00
         0.00000E+00
         0.00000E+00
         0.00000E+00
         0.00000E+00
         0.00000E+00
         0.00000E+00
         0.00000E+00
         0.00000E+00
         0.00000E+00
         0.00000E+00
         0.00000E+00
         0.00000E+00
         0.00000E+00
         0.00000E+00
         0.00000E+00
         0.00000E+00
         0.00000E+00
         0.00000E+00
         0.00000E+00
         0.00000E+00
         0.00000E+00
         0.00000E+00
         0.00000E+00
         0.00000E+00
         0.00000E+00
         0.00000E+00
         0.00000E+00
         0.00000E+00
         0.00000E+00
         0.00000E+00
         0.00000E+00
         0.00000E+00
         0.00000E+00
         0.00000E+00
         0.00000E+00
         0.00000E+00
         0.00000E+00
         0.00000E+00
         0.00000E+00
         0.00000E+00
         0.00000E+00
         0.00000E+00
         0.00000E+00
         0.00000E+00
         0.00000E+00
         0.00000E+00
         0.00000E+00
         0.00000E+00
         0.00000E+00
         0.00000E+00
         0.00000E+00
         0.00000E+00
         0.00000E+00
         0.00000E+00
         0.00000E+00
         0.00000E+00
         0.00000E+00
         0.00000E+00
         0.00000E+00
         0.00000E+00
         0.00000E+00
         0.00000E+00
         0.00000E+00
         0.00000E+00
         0.00000E+00
         0.00000E+00
         0.00000E+00
         0.00000E+00
         0.00000E+00
         0.00000E+00
         0.00000E+00
         0.00000E+00
         0.00000E+00
         0.00000E+00
         0.00000E+00
         0.00000E+00
         0.00000E+00
         0.00000E+00
         0.00000E+00
         0.00000E+00
         0.00000E+00
         0.00000E+00
         0.00000E+00
         0.00000E+00
         0.00000E+00
         0.00000E+00
         0.00000E+00
         0.00000E+00
         0.00000E+00
         0.00000E+00
         0.00000E+00
         0.00000E+00
         0.00000E+00
         0.00000E+00
         0.00000E+00
         0.00000E+00
         0.00000E+00
         0.00000E+00
         0.00000E+00
         0.00000E+00
         0.00000E+00
         0.00000E+00
         0.00000E+00
         0.00000E+00
         0.00000E+00
         0.00000E+00
         0.00000E+00
         0.00000E+00
         0.00000E+00
         0.00000E+00
         0.00000E+00
         0.00000E+00
         0.00000E+00
         0.00000E+00
         0.00000E+00
         0.00000E+00
         0.00000E+00
         0.00000E+00
         0.00000E+00
         0.00000E+00
         0.00000E+00
         0.00000E+00
         0.00000E+00
         0.00000E+00
         0.00000E+00
         0.00000E+00
         0.00000E+00
         0.00000E+00
         0.00000E+00
         0.00000E+00
         0.00000E+00
         0.00000E+00
         0.00000E+00
         0.00000E+00
         0.00000E+00
         0.00000E+00
         0.00000E+00
         0.00000E+00
         0.00000E+00
         0.00000E+00
         0.00000E+00
         0.00000E+00
         0.00000E+00
         0.00000E+00
         0.00000E+00
         0.00000E+00
         0.00000E+00
         0.00000E+00
         0.00000E+00
         0.00000E+00
         0.00000E+00
         0.00000E+00
         0.00000E+00
         0.00000E+00
         0.00000E+00
         0.00000E+00
         0.00000E+00
         0.00000E+00
         0.00000E+00
         0.00000E+00
         0.00000E+00
         0.00000E+00
         0.00000E+00
         0.00000E+00
         0.00000E+00
         0.00000E+00
         0.00000E+00
         0.00000E+00
         0.00000E+00
         0.00000E+00
         0.00000E+00
         0.00000E+00
         0.00000E+00
         0.00000E+00
         0.00000E+00
         0.00000E+00
         0.00000E+00
         0.00000E+00
         0.00000E+00
         0.00000E+00
         0.00000E+00
         0.00000E+00
         0.00000E+00
         0.00000E+00
         0.00000E+00
         0.00000E+00
         0.00000E+00
         0.00000E+00
         0.00000E+00
         0.00000E+00
         0.00000E+00
         0.00000E+00
         0.00000E+00
         0.00000E+00
         0.00000E+00
         0.00000E+00
         0.00000E+00
         0.00000E+00
         0.00000E+00
         0.00000E+00
         0.00000E+00
         0.00000E+00
         0.00000E+00
         0.00000E+00
         0.00000E+00
         0.00000E+00
         0.00000E+00
         0.00000E+00
         0.00000E+00
         0.00000E+00
         0.00000E+00
         0.00000E+00
         0.00000E+00
         0.00000E+00
         0.00000E+00
         0.00000E+00
         0.00000E+00
         0.00000E+00
         0.00000E+00
         0.00000E+00
         0.00000E+00
         0.00000E+00
         0.00000E+00
         0.00000E+00
         0.00000E+00
         0.00000E+00
         0.00000E+00
         0.00000E+00
         0.00000E+00
         0.00000E+00
         0.00000E+00
         0.00000E+00
         0.00000E+00
         0.00000E+00
         0.00000E+00
         0.00000E+00
         0.00000E+00
         0.00000E+00
         0.00000E+00
         0.00000E+00
         0.00000E+00
         0.00000E+00
         0.00000E+00
         0.00000E+00
         0.00000E+00
         0.00000E+00
         0.00000E+00
         0.00000E+00
         0.00000E+00
         0.00000E+00
         0.00000E+00
         0.00000E+00
         0.00000E+00
         0.00000E+00
         0.00000E+00
         0.00000E+00
         0.00000E+00
         0.00000E+00
         0.00000E+00
         0.00000E+00
         0.00000E+00
         0.00000E+00
         0.00000E+00
         0.00000E+00
         0.00000E+00
         0.00000E+00
         0.00000E+00
         0.00000E+00
         0.00000E+00
         0.00000E+00
         0.00000E+00
         0.00000E+00
         0.00000E+00
         0.00000E+00
         0.00000E+00
         0.00000E+00
         0.00000E+00
         0.00000E+00
         0.00000E+00
         0.00000E+00
         0.00000E+00
         0.00000E+00
         0.00000E+00
         0.00000E+00
         0.00000E+00
         0.00000E+00
         0.00000E+00
         0.00000E+00
         0.00000E+00
         0.00000E+00
         0.00000E+00
         0.00000E+00
         0.00000E+00
         0.00000E+00
         0.00000E+00
         0.00000E+00
         0.00000E+00
         0.00000E+00
         0.00000E+00
         0.00000E+00
         0.00000E+00
         0.00000E+00
         0.00000E+00
         0.00000E+00
         0.00000E+00
         0.00000E+00
         0.00000E+00
         0.00000E+00
         0.00000E+00
         0.00000E+00
         0.00000E+00
         0.00000E+00
         0.00000E+00
         0.00000E+00
         0.00000E+00
         0.00000E+00
         0.00000E+00
         0.00000E+00
         0.00000E+00
         0.00000E+00
         0.00000E+00
         0.00000E+00
         0.00000E+00
         0.00000E+00
         0.00000E+00
         0.00000E+00
         0.00000E+00
         0.00000E+00
         0.00000E+00
         0.00000E+00
         0.00000E+00
         0.00000E+00
         0.00000E+00
         0.00000E+00
         0.00000E+00
         0.00000E+00
         0.00000E+00
         0.00000E+00
         0.00000E+00
         0.00000E+00
         0.00000E+00
         0.00000E+00
         0.00000E+00
         0.00000E+00
         0.00000E+00
         0.00000E+00
         0.00000E+00
         0.00000E+00
         0.00000E+00
         0.00000E+00
         0.00000E+00
         0.00000E+00
         0.00000E+00
         0.00000E+00
         0.00000E+00
         0.00000E+00
         0.00000E+00
         0.00000E+00
         0.00000E+00
         0.00000E+00
         0.00000E+00
         0.00000E+00
         0.00000E+00
         0.00000E+00
         0.00000E+00
         0.00000E+00
         0.00000E+00
         0.00000E+00
         0.00000E+00
         0.00000E+00
         0.00000E+00
         0.00000E+00
         0.00000E+00
         0.00000E+00
         0.00000E+00
         0.00000E+00
         0.00000E+00
         0.00000E+00
         0.00000E+00
         0.00000E+00
         0.00000E+00
         0.00000E+00
         0.00000E+00
         0.00000E+00
         0.00000E+00
         0.00000E+00
         0.00000E+00
         0.00000E+00
         0.00000E+00
         0.00000E+00
         0.00000E+00
         0.00000E+00
         0.00000E+00
         0.00000E+00
         0.00000E+00
         0.00000E+00
         0.00000E+00
         0.00000E+00
         0.00000E+00
         0.00000E+00
         0.00000E+00
         0.00000E+00
         0.00000E+00
         0.00000E+00
         0.00000E+00
         0.00000E+00
         0.00000E+00
         0.00000E+00
         0.00000E+00
         0.00000E+00
         0.00000E+00
         0.00000E+00
         0.00000E+00
         0.00000E+00
         0.00000E+00
         0.00000E+00
         0.00000E+00
         0.00000E+00
         0.00000E+00
         0.00000E+00
         0.00000E+00
         0.00000E+00
         0.00000E+00
         0.00000E+00
         0.00000E+00
         0.00000E+00
         0.00000E+00
         0.00000E+00
         0.00000E+00
         0.00000E+00
         0.00000E+00
         0.00000E+00
         0.00000E+00
         0.00000E+00
         0.00000E+00
         0.00000E+00
         0.00000E+00
         0.00000E+00
         0.00000E+00
         0.00000E+00
         0.00000E+00
         0.00000E+00
         0.00000E+00
         0.00000E+00
         0.00000E+00
         0.00000E+00
         0.00000E+00
         0.00000E+00
         0.00000E+00
         0.00000E+00
         0.00000E+00
         0.00000E+00
         0.00000E+00
         0.00000E+00
         0.00000E+00
         0.00000E+00
         0.00000E+00
         0.00000E+00
         0.00000E+00
         0.00000E+00
         0.00000E+00
         0.00000E+00
         0.00000E+00
         0.00000E+00
         0.00000E+00
         0.00000E+00
         0.00000E+00
         0.00000E+00
         0.00000E+00
         0.00000E+00
         0.00000E+00
         0.00000E+00
         0.00000E+00
         0.00000E+00
         0.00000E+00
         0.00000E+00
         0.00000E+00
         0.00000E+00
         0.00000E+00
         0.00000E+00
         0.00000E+00
         0.00000E+00
         0.00000E+00
         0.00000E+00
         0.00000E+00
         0.00000E+00
         0.00000E+00
         0.00000E+00
         0.00000E+00
         0.00000E+00
         0.00000E+00
         0.00000E+00
         0.00000E+00
         0.00000E+00
         0.00000E+00
         0.00000E+00
         0.00000E+00
         0.00000E+00
         0.00000E+00
         0.00000E+00
         0.00000E+00
         0.00000E+00
         0.00000E+00
         0.00000E+00
         0.00000E+00
         0.00000E+00
         0.00000E+00
         0.00000E+00
         0.00000E+00
         0.00000E+00
         0.00000E+00
         0.00000E+00
         0.00000E+00
         0.00000E+00
         0.00000E+00
         0.00000E+00
         0.00000E+00
         0.00000E+00
         0.00000E+00
         0.00000E+00
         0.00000E+00
         0.00000E+00
         0.00000E+00
         0.00000E+00
         0.00000E+00
         0.00000E+00
         0.00000E+00
         0.00000E+00
         0.00000E+00
         0.00000E+00
         0.00000E+00
         0.00000E+00
         0.00000E+00
         0.00000E+00
         0.00000E+00
         0.00000E+00
         0.00000E+00
         0.00000E+00
         0.00000E+00
         0.00000E+00
         0.00000E+00
         0.00000E+00
         0.00000E+00
         0.00000E+00
         0.00000E+00
         0.00000E+00
         0.00000E+00
         0.00000E+00
         0.00000E+00
         0.00000E+00
         0.00000E+00
         0.00000E+00
         0.00000E+00
         0.00000E+00
         0.00000E+00
         0.00000E+00
         0.00000E+00
         0.00000E+00
         0.00000E+00
         0.00000E+00
         0.00000E+00
         0.00000E+00
         0.00000E+00
         0.00000E+00
         0.00000E+00
         0.00000E+00
         0.00000E+00
         0.00000E+00
         0.00000E+00
         0.00000E+00
         0.00000E+00
         0.00000E+00
         0.00000E+00
         0.00000E+00
         0.00000E+00
         0.00000E+00
         0.00000E+00
         0.00000E+00
         0.00000E+00
         0.00000E+00
         0.00000E+00
         0.00000E+00
         0.00000E+00
         0.00000E+00
         0.00000E+00
         0.00000E+00
         0.00000E+00
         0.00000E+00
         0.00000E+00
         0.00000E+00
         0.00000E+00
         0.00000E+00
         0.00000E+00
         0.00000E+00
         0.00000E+00
         0.00000E+00
         0.00000E+00
         0.00000E+00
         0.00000E+00
         0.00000E+00
         0.00000E+00
         0.00000E+00
         0.00000E+00
         0.00000E+00
         0.00000E+00
         0.00000E+00
         0.00000E+00
         0.00000E+00
         0.00000E+00
         0.00000E+00
         0.00000E+00
         0.00000E+00
         0.00000E+00
         0.00000E+00
         0.00000E+00
         0.00000E+00
         0.00000E+00
         0.00000E+00
         0.00000E+00
         0.00000E+00
         0.00000E+00
         0.00000E+00
  
SCALARS                         fint_z  double 1
LOOKUP_TABLE default
         0.00000E+00
         0.00000E+00
         0.00000E+00
         0.00000E+00
         0.00000E+00
         0.00000E+00
         0.00000E+00
         0.00000E+00
         0.00000E+00
         0.00000E+00
         0.00000E+00
         0.00000E+00
         0.00000E+00
         0.00000E+00
         0.00000E+00
         0.00000E+00
         0.00000E+00
         0.00000E+00
         0.00000E+00
         0.00000E+00
         0.00000E+00
         0.00000E+00
         0.00000E+00
         0.00000E+00
         0.00000E+00
         0.00000E+00
         0.00000E+00
         0.00000E+00
         0.00000E+00
         0.00000E+00
         0.00000E+00
         0.00000E+00
         0.00000E+00
         0.00000E+00
         0.00000E+00
         0.00000E+00
         0.00000E+00
         0.00000E+00
         0.00000E+00
         0.00000E+00
         0.00000E+00
         0.00000E+00
         0.00000E+00
         0.00000E+00
         0.00000E+00
         0.00000E+00
         0.00000E+00
         0.00000E+00
         0.00000E+00
         0.00000E+00
         0.00000E+00
         0.00000E+00
         0.00000E+00
         0.00000E+00
         0.00000E+00
         0.00000E+00
         0.00000E+00
         0.00000E+00
         0.00000E+00
         0.00000E+00
         0.00000E+00
         0.00000E+00
         0.00000E+00
         0.00000E+00
         0.00000E+00
         0.00000E+00
         0.00000E+00
         0.00000E+00
         0.00000E+00
         0.00000E+00
         0.00000E+00
         0.00000E+00
         0.00000E+00
         0.00000E+00
         0.00000E+00
         0.00000E+00
         0.00000E+00
         0.00000E+00
         0.00000E+00
         0.00000E+00
         0.00000E+00
         0.00000E+00
         0.00000E+00
         0.00000E+00
         0.00000E+00
         0.00000E+00
         0.00000E+00
         0.00000E+00
         0.00000E+00
         0.00000E+00
         0.00000E+00
         0.00000E+00
         0.00000E+00
         0.00000E+00
         0.00000E+00
         0.00000E+00
         0.00000E+00
         0.00000E+00
         0.00000E+00
         0.00000E+00
         0.00000E+00
         0.00000E+00
         0.00000E+00
         0.00000E+00
         0.00000E+00
         0.00000E+00
         0.00000E+00
         0.00000E+00
         0.00000E+00
         0.00000E+00
         0.00000E+00
         0.00000E+00
         0.00000E+00
         0.00000E+00
         0.00000E+00
         0.00000E+00
         0.00000E+00
         0.00000E+00
         0.00000E+00
         0.00000E+00
         0.00000E+00
         0.00000E+00
         0.00000E+00
         0.00000E+00
         0.00000E+00
         0.00000E+00
         0.00000E+00
         0.00000E+00
         0.00000E+00
         0.00000E+00
         0.00000E+00
         0.00000E+00
         0.00000E+00
         0.00000E+00
         0.00000E+00
         0.00000E+00
         0.00000E+00
         0.00000E+00
         0.00000E+00
         0.00000E+00
         0.00000E+00
         0.00000E+00
         0.00000E+00
         0.00000E+00
         0.00000E+00
         0.00000E+00
         0.00000E+00
         0.00000E+00
         0.00000E+00
         0.00000E+00
         0.00000E+00
         0.00000E+00
         0.00000E+00
         0.00000E+00
         0.00000E+00
         0.00000E+00
         0.00000E+00
         0.00000E+00
         0.00000E+00
         0.00000E+00
         0.00000E+00
         0.00000E+00
         0.00000E+00
         0.00000E+00
         0.00000E+00
         0.00000E+00
         0.00000E+00
         0.00000E+00
         0.00000E+00
         0.00000E+00
         0.00000E+00
         0.00000E+00
         0.00000E+00
         0.00000E+00
         0.00000E+00
         0.00000E+00
         0.00000E+00
         0.00000E+00
         0.00000E+00
         0.00000E+00
         0.00000E+00
         0.00000E+00
         0.00000E+00
         0.00000E+00
         0.00000E+00
         0.00000E+00
         0.00000E+00
         0.00000E+00
         0.00000E+00
         0.00000E+00
         0.00000E+00
         0.00000E+00
         0.00000E+00
         0.00000E+00
         0.00000E+00
         0.00000E+00
         0.00000E+00
         0.00000E+00
         0.00000E+00
         0.00000E+00
         0.00000E+00
         0.00000E+00
         0.00000E+00
         0.00000E+00
         0.00000E+00
         0.00000E+00
         0.00000E+00
         0.00000E+00
         0.00000E+00
         0.00000E+00
         0.00000E+00
         0.00000E+00
         0.00000E+00
         0.00000E+00
         0.00000E+00
         0.00000E+00
         0.00000E+00
         0.00000E+00
         0.00000E+00
         0.00000E+00
         0.00000E+00
         0.00000E+00
         0.00000E+00
         0.00000E+00
         0.00000E+00
         0.00000E+00
         0.00000E+00
         0.00000E+00
         0.00000E+00
         0.00000E+00
         0.00000E+00
         0.00000E+00
         0.00000E+00
         0.00000E+00
         0.00000E+00
         0.00000E+00
         0.00000E+00
         0.00000E+00
         0.00000E+00
         0.00000E+00
         0.00000E+00
         0.00000E+00
         0.00000E+00
         0.00000E+00
         0.00000E+00
         0.00000E+00
         0.00000E+00
         0.00000E+00
         0.00000E+00
         0.00000E+00
         0.00000E+00
         0.00000E+00
         0.00000E+00
         0.00000E+00
         0.00000E+00
         0.00000E+00
         0.00000E+00
         0.00000E+00
         0.00000E+00
         0.00000E+00
         0.00000E+00
         0.00000E+00
         0.00000E+00
         0.00000E+00
         0.00000E+00
         0.00000E+00
         0.00000E+00
         0.00000E+00
         0.00000E+00
         0.00000E+00
         0.00000E+00
         0.00000E+00
         0.00000E+00
         0.00000E+00
         0.00000E+00
         0.00000E+00
         0.00000E+00
         0.00000E+00
         0.00000E+00
         0.00000E+00
         0.00000E+00
         0.00000E+00
         0.00000E+00
         0.00000E+00
         0.00000E+00
         0.00000E+00
         0.00000E+00
         0.00000E+00
         0.00000E+00
         0.00000E+00
         0.00000E+00
         0.00000E+00
         0.00000E+00
         0.00000E+00
         0.00000E+00
         0.00000E+00
         0.00000E+00
         0.00000E+00
         0.00000E+00
         0.00000E+00
         0.00000E+00
         0.00000E+00
         0.00000E+00
         0.00000E+00
         0.00000E+00
         0.00000E+00
         0.00000E+00
         0.00000E+00
         0.00000E+00
         0.00000E+00
         0.00000E+00
         0.00000E+00
         0.00000E+00
         0.00000E+00
         0.00000E+00
         0.00000E+00
         0.00000E+00
         0.00000E+00
         0.00000E+00
         0.00000E+00
         0.00000E+00
         0.00000E+00
         0.00000E+00
         0.00000E+00
         0.00000E+00
         0.00000E+00
         0.00000E+00
         0.00000E+00
         0.00000E+00
         0.00000E+00
         0.00000E+00
         0.00000E+00
         0.00000E+00
         0.00000E+00
         0.00000E+00
         0.00000E+00
         0.00000E+00
         0.00000E+00
         0.00000E+00
         0.00000E+00
         0.00000E+00
         0.00000E+00
         0.00000E+00
         0.00000E+00
         0.00000E+00
         0.00000E+00
         0.00000E+00
         0.00000E+00
         0.00000E+00
         0.00000E+00
         0.00000E+00
         0.00000E+00
         0.00000E+00
         0.00000E+00
         0.00000E+00
         0.00000E+00
         0.00000E+00
         0.00000E+00
         0.00000E+00
         0.00000E+00
         0.00000E+00
         0.00000E+00
         0.00000E+00
         0.00000E+00
         0.00000E+00
         0.00000E+00
         0.00000E+00
         0.00000E+00
         0.00000E+00
         0.00000E+00
         0.00000E+00
         0.00000E+00
         0.00000E+00
         0.00000E+00
         0.00000E+00
         0.00000E+00
         0.00000E+00
         0.00000E+00
         0.00000E+00
         0.00000E+00
         0.00000E+00
         0.00000E+00
         0.00000E+00
         0.00000E+00
         0.00000E+00
         0.00000E+00
         0.00000E+00
         0.00000E+00
         0.00000E+00
         0.00000E+00
         0.00000E+00
         0.00000E+00
         0.00000E+00
         0.00000E+00
         0.00000E+00
         0.00000E+00
         0.00000E+00
         0.00000E+00
         0.00000E+00
         0.00000E+00
         0.00000E+00
         0.00000E+00
         0.00000E+00
         0.00000E+00
         0.00000E+00
         0.00000E+00
         0.00000E+00
         0.00000E+00
         0.00000E+00
         0.00000E+00
         0.00000E+00
         0.00000E+00
         0.00000E+00
         0.00000E+00
         0.00000E+00
         0.00000E+00
         0.00000E+00
         0.00000E+00
         0.00000E+00
         0.00000E+00
         0.00000E+00
         0.00000E+00
         0.00000E+00
         0.00000E+00
         0.00000E+00
         0.00000E+00
         0.00000E+00
         0.00000E+00
         0.00000E+00
         0.00000E+00
         0.00000E+00
         0.00000E+00
         0.00000E+00
         0.00000E+00
         0.00000E+00
         0.00000E+00
         0.00000E+00
         0.00000E+00
         0.00000E+00
         0.00000E+00
         0.00000E+00
         0.00000E+00
         0.00000E+00
         0.00000E+00
         0.00000E+00
         0.00000E+00
         0.00000E+00
         0.00000E+00
         0.00000E+00
         0.00000E+00
         0.00000E+00
         0.00000E+00
         0.00000E+00
         0.00000E+00
         0.00000E+00
         0.00000E+00
         0.00000E+00
         0.00000E+00
         0.00000E+00
         0.00000E+00
         0.00000E+00
         0.00000E+00
         0.00000E+00
         0.00000E+00
         0.00000E+00
         0.00000E+00
         0.00000E+00
         0.00000E+00
         0.00000E+00
         0.00000E+00
         0.00000E+00
         0.00000E+00
         0.00000E+00
         0.00000E+00
         0.00000E+00
         0.00000E+00
         0.00000E+00
         0.00000E+00
         0.00000E+00
         0.00000E+00
         0.00000E+00
         0.00000E+00
         0.00000E+00
         0.00000E+00
         0.00000E+00
         0.00000E+00
         0.00000E+00
         0.00000E+00
         0.00000E+00
         0.00000E+00
         0.00000E+00
         0.00000E+00
         0.00000E+00
         0.00000E+00
         0.00000E+00
         0.00000E+00
         0.00000E+00
         0.00000E+00
         0.00000E+00
         0.00000E+00
         0.00000E+00
         0.00000E+00
         0.00000E+00
         0.00000E+00
         0.00000E+00
         0.00000E+00
         0.00000E+00
         0.00000E+00
         0.00000E+00
         0.00000E+00
         0.00000E+00
         0.00000E+00
         0.00000E+00
         0.00000E+00
         0.00000E+00
         0.00000E+00
         0.00000E+00
         0.00000E+00
         0.00000E+00
         0.00000E+00
         0.00000E+00
         0.00000E+00
         0.00000E+00
         0.00000E+00
         0.00000E+00
         0.00000E+00
         0.00000E+00
         0.00000E+00
         0.00000E+00
         0.00000E+00
         0.00000E+00
         0.00000E+00
         0.00000E+00
         0.00000E+00
         0.00000E+00
         0.00000E+00
         0.00000E+00
         0.00000E+00
         0.00000E+00
         0.00000E+00
         0.00000E+00
         0.00000E+00
         0.00000E+00
         0.00000E+00
         0.00000E+00
         0.00000E+00
         0.00000E+00
         0.00000E+00
         0.00000E+00
         0.00000E+00
         0.00000E+00
         0.00000E+00
         0.00000E+00
         0.00000E+00
         0.00000E+00
         0.00000E+00
         0.00000E+00
         0.00000E+00
         0.00000E+00
         0.00000E+00
         0.00000E+00
         0.00000E+00
         0.00000E+00
         0.00000E+00
         0.00000E+00
         0.00000E+00
         0.00000E+00
         0.00000E+00
         0.00000E+00
         0.00000E+00
         0.00000E+00
         0.00000E+00
         0.00000E+00
         0.00000E+00
         0.00000E+00
         0.00000E+00
         0.00000E+00
         0.00000E+00
         0.00000E+00
         0.00000E+00
         0.00000E+00
         0.00000E+00
         0.00000E+00
         0.00000E+00
         0.00000E+00
         0.00000E+00
         0.00000E+00
         0.00000E+00
         0.00000E+00
         0.00000E+00
         0.00000E+00
         0.00000E+00
         0.00000E+00
         0.00000E+00
         0.00000E+00
         0.00000E+00
         0.00000E+00
         0.00000E+00
         0.00000E+00
         0.00000E+00
         0.00000E+00
         0.00000E+00
         0.00000E+00
         0.00000E+00
         0.00000E+00
         0.00000E+00
         0.00000E+00
         0.00000E+00
         0.00000E+00
         0.00000E+00
         0.00000E+00
         0.00000E+00
         0.00000E+00
         0.00000E+00
         0.00000E+00
         0.00000E+00
         0.00000E+00
         0.00000E+00
         0.00000E+00
         0.00000E+00
         0.00000E+00
         0.00000E+00
         0.00000E+00
         0.00000E+00
         0.00000E+00
         0.00000E+00
         0.00000E+00
         0.00000E+00
         0.00000E+00
         0.00000E+00
         0.00000E+00
         0.00000E+00
         0.00000E+00
         0.00000E+00
         0.00000E+00
         0.00000E+00
         0.00000E+00
         0.00000E+00
         0.00000E+00
         0.00000E+00
         0.00000E+00
         0.00000E+00
         0.00000E+00
         0.00000E+00
         0.00000E+00
         0.00000E+00
         0.00000E+00
         0.00000E+00
         0.00000E+00
         0.00000E+00
         0.00000E+00
         0.00000E+00
         0.00000E+00
         0.00000E+00
         0.00000E+00
         0.00000E+00
         0.00000E+00
         0.00000E+00
         0.00000E+00
         0.00000E+00
         0.00000E+00
         0.00000E+00
         0.00000E+00
         0.00000E+00
         0.00000E+00
         0.00000E+00
         0.00000E+00
         0.00000E+00
         0.00000E+00
         0.00000E+00
         0.00000E+00
         0.00000E+00
         0.00000E+00
         0.00000E+00
         0.00000E+00
         0.00000E+00
         0.00000E+00
         0.00000E+00
         0.00000E+00
         0.00000E+00
         0.00000E+00
         0.00000E+00
         0.00000E+00
         0.00000E+00
         0.00000E+00
         0.00000E+00
         0.00000E+00
         0.00000E+00
         0.00000E+00
         0.00000E+00
         0.00000E+00
         0.00000E+00
         0.00000E+00
         0.00000E+00
         0.00000E+00
         0.00000E+00
         0.00000E+00
         0.00000E+00
         0.00000E+00
         0.00000E+00
         0.00000E+00
         0.00000E+00
         0.00000E+00
         0.00000E+00
         0.00000E+00
         0.00000E+00
         0.00000E+00
         0.00000E+00
         0.00000E+00
         0.00000E+00
         0.00000E+00
         0.00000E+00
         0.00000E+00
         0.00000E+00
         0.00000E+00
         0.00000E+00
         0.00000E+00
         0.00000E+00
         0.00000E+00
         0.00000E+00
         0.00000E+00
         0.00000E+00
         0.00000E+00
         0.00000E+00
         0.00000E+00
         0.00000E+00
         0.00000E+00
         0.00000E+00
         0.00000E+00
         0.00000E+00
         0.00000E+00
         0.00000E+00
         0.00000E+00
         0.00000E+00
         0.00000E+00
         0.00000E+00
         0.00000E+00
         0.00000E+00
         0.00000E+00
         0.00000E+00
         0.00000E+00
         0.00000E+00
         0.00000E+00
         0.00000E+00
         0.00000E+00
         0.00000E+00
         0.00000E+00
         0.00000E+00
         0.00000E+00
         0.00000E+00
         0.00000E+00
         0.00000E+00
         0.00000E+00
         0.00000E+00
         0.00000E+00
         0.00000E+00
         0.00000E+00
         0.00000E+00
         0.00000E+00
         0.00000E+00
         0.00000E+00
         0.00000E+00
         0.00000E+00
         0.00000E+00
         0.00000E+00
         0.00000E+00
         0.00000E+00
         0.00000E+00
         0.00000E+00
         0.00000E+00
         0.00000E+00
         0.00000E+00
         0.00000E+00
         0.00000E+00
         0.00000E+00
         0.00000E+00
         0.00000E+00
         0.00000E+00
         0.00000E+00
         0.00000E+00
         0.00000E+00
         0.00000E+00
         0.00000E+00
         0.00000E+00
         0.00000E+00
         0.00000E+00
         0.00000E+00
         0.00000E+00
         0.00000E+00
         0.00000E+00
         0.00000E+00
         0.00000E+00
         0.00000E+00
         0.00000E+00
         0.00000E+00
         0.00000E+00
         0.00000E+00
         0.00000E+00
         0.00000E+00
         0.00000E+00
         0.00000E+00
         0.00000E+00
         0.00000E+00
         0.00000E+00
         0.00000E+00
         0.00000E+00
         0.00000E+00
         0.00000E+00
         0.00000E+00
         0.00000E+00
         0.00000E+00
         0.00000E+00
         0.00000E+00
         0.00000E+00
         0.00000E+00
         0.00000E+00
         0.00000E+00
         0.00000E+00
         0.00000E+00
         0.00000E+00
         0.00000E+00
         0.00000E+00
         0.00000E+00
         0.00000E+00
         0.00000E+00
         0.00000E+00
         0.00000E+00
         0.00000E+00
         0.00000E+00
         0.00000E+00
         0.00000E+00
         0.00000E+00
         0.00000E+00
         0.00000E+00
         0.00000E+00
         0.00000E+00
         0.00000E+00
         0.00000E+00
         0.00000E+00
         0.00000E+00
         0.00000E+00
         0.00000E+00
         0.00000E+00
         0.00000E+00
         0.00000E+00
         0.00000E+00
         0.00000E+00
         0.00000E+00
         0.00000E+00
         0.00000E+00
         0.00000E+00
         0.00000E+00
         0.00000E+00
         0.00000E+00
         0.00000E+00
         0.00000E+00
         0.00000E+00
         0.00000E+00
         0.00000E+00
         0.00000E+00
         0.00000E+00
         0.00000E+00
         0.00000E+00
         0.00000E+00
         0.00000E+00
         0.00000E+00
         0.00000E+00
         0.00000E+00
         0.00000E+00
         0.00000E+00
         0.00000E+00
         0.00000E+00
         0.00000E+00
         0.00000E+00
         0.00000E+00
         0.00000E+00
         0.00000E+00
         0.00000E+00
         0.00000E+00
         0.00000E+00
         0.00000E+00
         0.00000E+00
         0.00000E+00
         0.00000E+00
         0.00000E+00
         0.00000E+00
         0.00000E+00
         0.00000E+00
         0.00000E+00
         0.00000E+00
         0.00000E+00
         0.00000E+00
         0.00000E+00
         0.00000E+00
         0.00000E+00
         0.00000E+00
         0.00000E+00
         0.00000E+00
         0.00000E+00
         0.00000E+00
         0.00000E+00
         0.00000E+00
         0.00000E+00
         0.00000E+00
         0.00000E+00
         0.00000E+00
         0.00000E+00
         0.00000E+00
         0.00000E+00
         0.00000E+00
         0.00000E+00
         0.00000E+00
         0.00000E+00
         0.00000E+00
         0.00000E+00
         0.00000E+00
         0.00000E+00
         0.00000E+00
         0.00000E+00
         0.00000E+00
         0.00000E+00
         0.00000E+00
         0.00000E+00
         0.00000E+00
         0.00000E+00
         0.00000E+00
         0.00000E+00
         0.00000E+00
         0.00000E+00
         0.00000E+00
         0.00000E+00
         0.00000E+00
         0.00000E+00
         0.00000E+00
         0.00000E+00
         0.00000E+00
         0.00000E+00
         0.00000E+00
         0.00000E+00
         0.00000E+00
         0.00000E+00
         0.00000E+00
         0.00000E+00
         0.00000E+00
         0.00000E+00
         0.00000E+00
         0.00000E+00
         0.00000E+00
         0.00000E+00
         0.00000E+00
         0.00000E+00
         0.00000E+00
         0.00000E+00
         0.00000E+00
         0.00000E+00
         0.00000E+00
         0.00000E+00
         0.00000E+00
         0.00000E+00
         0.00000E+00
         0.00000E+00
         0.00000E+00
         0.00000E+00
         0.00000E+00
         0.00000E+00
         0.00000E+00
         0.00000E+00
         0.00000E+00
         0.00000E+00
         0.00000E+00
         0.00000E+00
         0.00000E+00
         0.00000E+00
         0.00000E+00
         0.00000E+00
         0.00000E+00
         0.00000E+00
         0.00000E+00
         0.00000E+00
         0.00000E+00
         0.00000E+00
         0.00000E+00
         0.00000E+00
         0.00000E+00
         0.00000E+00
         0.00000E+00
         0.00000E+00
         0.00000E+00
         0.00000E+00
         0.00000E+00
         0.00000E+00
         0.00000E+00
         0.00000E+00
         0.00000E+00
         0.00000E+00
         0.00000E+00
         0.00000E+00
         0.00000E+00
         0.00000E+00
         0.00000E+00
         0.00000E+00
         0.00000E+00
         0.00000E+00
         0.00000E+00
         0.00000E+00
         0.00000E+00
         0.00000E+00
         0.00000E+00
         0.00000E+00
         0.00000E+00
         0.00000E+00
         0.00000E+00
         0.00000E+00
         0.00000E+00
         0.00000E+00
         0.00000E+00
         0.00000E+00
         0.00000E+00
         0.00000E+00
         0.00000E+00
         0.00000E+00
         0.00000E+00
         0.00000E+00
         0.00000E+00
         0.00000E+00
         0.00000E+00
         0.00000E+00
         0.00000E+00
         0.00000E+00
         0.00000E+00
         0.00000E+00
         0.00000E+00
         0.00000E+00
         0.00000E+00
         0.00000E+00
         0.00000E+00
         0.00000E+00
         0.00000E+00
         0.00000E+00
         0.00000E+00
         0.00000E+00
         0.00000E+00
         0.00000E+00
         0.00000E+00
         0.00000E+00
         0.00000E+00
         0.00000E+00
         0.00000E+00
         0.00000E+00
         0.00000E+00
         0.00000E+00
         0.00000E+00
         0.00000E+00
         0.00000E+00
         0.00000E+00
         0.00000E+00
         0.00000E+00
         0.00000E+00
         0.00000E+00
         0.00000E+00
         0.00000E+00
         0.00000E+00
         0.00000E+00
         0.00000E+00
         0.00000E+00
         0.00000E+00
         0.00000E+00
         0.00000E+00
         0.00000E+00
         0.00000E+00
         0.00000E+00
         0.00000E+00
         0.00000E+00
         0.00000E+00
         0.00000E+00
         0.00000E+00
         0.00000E+00
         0.00000E+00
         0.00000E+00
         0.00000E+00
         0.00000E+00
         0.00000E+00
         0.00000E+00
         0.00000E+00
         0.00000E+00
         0.00000E+00
         0.00000E+00
         0.00000E+00
         0.00000E+00
         0.00000E+00
         0.00000E+00
         0.00000E+00
         0.00000E+00
         0.00000E+00
         0.00000E+00
         0.00000E+00
         0.00000E+00
         0.00000E+00
         0.00000E+00
         0.00000E+00
         0.00000E+00
         0.00000E+00
         0.00000E+00
         0.00000E+00
         0.00000E+00
         0.00000E+00
         0.00000E+00
         0.00000E+00
         0.00000E+00
         0.00000E+00
         0.00000E+00
         0.00000E+00
         0.00000E+00
         0.00000E+00
         0.00000E+00
         0.00000E+00
         0.00000E+00
         0.00000E+00
         0.00000E+00
         0.00000E+00
         0.00000E+00
         0.00000E+00
         0.00000E+00
         0.00000E+00
         0.00000E+00
         0.00000E+00
         0.00000E+00
         0.00000E+00
         0.00000E+00
         0.00000E+00
         0.00000E+00
         0.00000E+00
         0.00000E+00
         0.00000E+00
         0.00000E+00
         0.00000E+00
         0.00000E+00
         0.00000E+00
         0.00000E+00
         0.00000E+00
         0.00000E+00
         0.00000E+00
         0.00000E+00
         0.00000E+00
         0.00000E+00
         0.00000E+00
         0.00000E+00
         0.00000E+00
         0.00000E+00
         0.00000E+00
         0.00000E+00
         0.00000E+00
         0.00000E+00
         0.00000E+00
         0.00000E+00
         0.00000E+00
         0.00000E+00
         0.00000E+00
         0.00000E+00
         0.00000E+00
         0.00000E+00
         0.00000E+00
         0.00000E+00
         0.00000E+00
         0.00000E+00
         0.00000E+00
         0.00000E+00
         0.00000E+00
         0.00000E+00
         0.00000E+00
         0.00000E+00
         0.00000E+00
         0.00000E+00
         0.00000E+00
         0.00000E+00
         0.00000E+00
         0.00000E+00
         0.00000E+00
         0.00000E+00
         0.00000E+00
         0.00000E+00
         0.00000E+00
         0.00000E+00
         0.00000E+00
         0.00000E+00
         0.00000E+00
         0.00000E+00
         0.00000E+00
         0.00000E+00
         0.00000E+00
         0.00000E+00
         0.00000E+00
         0.00000E+00
         0.00000E+00
         0.00000E+00
         0.00000E+00
         0.00000E+00
         0.00000E+00
         0.00000E+00
         0.00000E+00
         0.00000E+00
         0.00000E+00
         0.00000E+00
         0.00000E+00
         0.00000E+00
         0.00000E+00
         0.00000E+00
         0.00000E+00
         0.00000E+00
         0.00000E+00
         0.00000E+00
         0.00000E+00
         0.00000E+00
         0.00000E+00
         0.00000E+00
         0.00000E+00
         0.00000E+00
         0.00000E+00
         0.00000E+00
         0.00000E+00
         0.00000E+00
         0.00000E+00
         0.00000E+00
         0.00000E+00
         0.00000E+00
         0.00000E+00
         0.00000E+00
         0.00000E+00
         0.00000E+00
         0.00000E+00
         0.00000E+00
         0.00000E+00
         0.00000E+00
         0.00000E+00
         0.00000E+00
         0.00000E+00
         0.00000E+00
         0.00000E+00
         0.00000E+00
         0.00000E+00
         0.00000E+00
         0.00000E+00
         0.00000E+00
         0.00000E+00
         0.00000E+00
         0.00000E+00
         0.00000E+00
         0.00000E+00
         0.00000E+00
         0.00000E+00
         0.00000E+00
         0.00000E+00
         0.00000E+00
         0.00000E+00
         0.00000E+00
         0.00000E+00
         0.00000E+00
         0.00000E+00
         0.00000E+00
         0.00000E+00
         0.00000E+00
         0.00000E+00
         0.00000E+00
         0.00000E+00
         0.00000E+00
         0.00000E+00
         0.00000E+00
         0.00000E+00
         0.00000E+00
         0.00000E+00
         0.00000E+00
         0.00000E+00
         0.00000E+00
         0.00000E+00
         0.00000E+00
         0.00000E+00
         0.00000E+00
         0.00000E+00
         0.00000E+00
         0.00000E+00
         0.00000E+00
         0.00000E+00
         0.00000E+00
         0.00000E+00
         0.00000E+00
         0.00000E+00
         0.00000E+00
         0.00000E+00
         0.00000E+00
         0.00000E+00
         0.00000E+00
         0.00000E+00
         0.00000E+00
         0.00000E+00
         0.00000E+00
         0.00000E+00
         0.00000E+00
         0.00000E+00
         0.00000E+00
         0.00000E+00
         0.00000E+00
         0.00000E+00
         0.00000E+00
         0.00000E+00
         0.00000E+00
         0.00000E+00
         0.00000E+00
         0.00000E+00
         0.00000E+00
         0.00000E+00
         0.00000E+00
         0.00000E+00
         0.00000E+00
         0.00000E+00
         0.00000E+00
         0.00000E+00
         0.00000E+00
         0.00000E+00
         0.00000E+00
         0.00000E+00
         0.00000E+00
         0.00000E+00
         0.00000E+00
         0.00000E+00
         0.00000E+00
         0.00000E+00
         0.00000E+00
         0.00000E+00
         0.00000E+00
         0.00000E+00
         0.00000E+00
         0.00000E+00
         0.00000E+00
         0.00000E+00
         0.00000E+00
         0.00000E+00
         0.00000E+00
         0.00000E+00
         0.00000E+00
         0.00000E+00
         0.00000E+00
         0.00000E+00
         0.00000E+00
         0.00000E+00
         0.00000E+00
         0.00000E+00
         0.00000E+00
         0.00000E+00
         0.00000E+00
         0.00000E+00
         0.00000E+00
         0.00000E+00
         0.00000E+00
         0.00000E+00
         0.00000E+00
         0.00000E+00
         0.00000E+00
         0.00000E+00
         0.00000E+00
         0.00000E+00
         0.00000E+00
         0.00000E+00
         0.00000E+00
         0.00000E+00
         0.00000E+00
         0.00000E+00
         0.00000E+00
         0.00000E+00
         0.00000E+00
         0.00000E+00
         0.00000E+00
         0.00000E+00
         0.00000E+00
         0.00000E+00
         0.00000E+00
         0.00000E+00
         0.00000E+00
         0.00000E+00
         0.00000E+00
         0.00000E+00
         0.00000E+00
         0.00000E+00
         0.00000E+00
         0.00000E+00
         0.00000E+00
         0.00000E+00
         0.00000E+00
         0.00000E+00
         0.00000E+00
         0.00000E+00
         0.00000E+00
         0.00000E+00
         0.00000E+00
         0.00000E+00
         0.00000E+00
         0.00000E+00
         0.00000E+00
         0.00000E+00
         0.00000E+00
         0.00000E+00
         0.00000E+00
         0.00000E+00
         0.00000E+00
         0.00000E+00
         0.00000E+00
         0.00000E+00
         0.00000E+00
         0.00000E+00
         0.00000E+00
         0.00000E+00
         0.00000E+00
         0.00000E+00
         0.00000E+00
         0.00000E+00
         0.00000E+00
         0.00000E+00
         0.00000E+00
         0.00000E+00
         0.00000E+00
         0.00000E+00
         0.00000E+00
         0.00000E+00
         0.00000E+00
         0.00000E+00
         0.00000E+00
         0.00000E+00
         0.00000E+00
         0.00000E+00
         0.00000E+00
         0.00000E+00
         0.00000E+00
         0.00000E+00
         0.00000E+00
         0.00000E+00
         0.00000E+00
         0.00000E+00
         0.00000E+00
         0.00000E+00
         0.00000E+00
         0.00000E+00
         0.00000E+00
         0.00000E+00
         0.00000E+00
         0.00000E+00
         0.00000E+00
         0.00000E+00
         0.00000E+00
         0.00000E+00
         0.00000E+00
         0.00000E+00
         0.00000E+00
         0.00000E+00
         0.00000E+00
         0.00000E+00
         0.00000E+00
         0.00000E+00
         0.00000E+00
         0.00000E+00
         0.00000E+00
         0.00000E+00
         0.00000E+00
         0.00000E+00
         0.00000E+00
         0.00000E+00
         0.00000E+00
         0.00000E+00
         0.00000E+00
         0.00000E+00
         0.00000E+00
         0.00000E+00
         0.00000E+00
         0.00000E+00
         0.00000E+00
         0.00000E+00
         0.00000E+00
         0.00000E+00
         0.00000E+00
         0.00000E+00
         0.00000E+00
         0.00000E+00
         0.00000E+00
         0.00000E+00
         0.00000E+00
         0.00000E+00
         0.00000E+00
         0.00000E+00
         0.00000E+00
         0.00000E+00
         0.00000E+00
         0.00000E+00
         0.00000E+00
         0.00000E+00
         0.00000E+00
         0.00000E+00
         0.00000E+00
         0.00000E+00
         0.00000E+00
         0.00000E+00
         0.00000E+00
         0.00000E+00
         0.00000E+00
         0.00000E+00
         0.00000E+00
         0.00000E+00
         0.00000E+00
         0.00000E+00
         0.00000E+00
         0.00000E+00
         0.00000E+00
         0.00000E+00
         0.00000E+00
         0.00000E+00
         0.00000E+00
         0.00000E+00
         0.00000E+00
         0.00000E+00
         0.00000E+00
         0.00000E+00
         0.00000E+00
         0.00000E+00
         0.00000E+00
         0.00000E+00
         0.00000E+00
         0.00000E+00
         0.00000E+00
         0.00000E+00
         0.00000E+00
         0.00000E+00
         0.00000E+00
         0.00000E+00
         0.00000E+00
         0.00000E+00
         0.00000E+00
         0.00000E+00
         0.00000E+00
         0.00000E+00
         0.00000E+00
         0.00000E+00
         0.00000E+00
         0.00000E+00
         0.00000E+00
         0.00000E+00
         0.00000E+00
         0.00000E+00
         0.00000E+00
         0.00000E+00
         0.00000E+00
         0.00000E+00
         0.00000E+00
         0.00000E+00
         0.00000E+00
         0.00000E+00
         0.00000E+00
         0.00000E+00
         0.00000E+00
         0.00000E+00
         0.00000E+00
         0.00000E+00
         0.00000E+00
         0.00000E+00
         0.00000E+00
         0.00000E+00
         0.00000E+00
         0.00000E+00
         0.00000E+00
         0.00000E+00
         0.00000E+00
         0.00000E+00
         0.00000E+00
         0.00000E+00
         0.00000E+00
         0.00000E+00
         0.00000E+00
         0.00000E+00
         0.00000E+00
         0.00000E+00
         0.00000E+00
         0.00000E+00
         0.00000E+00
         0.00000E+00
         0.00000E+00
         0.00000E+00
         0.00000E+00
         0.00000E+00
         0.00000E+00
         0.00000E+00
         0.00000E+00
         0.00000E+00
         0.00000E+00
         0.00000E+00
         0.00000E+00
         0.00000E+00
         0.00000E+00
         0.00000E+00
         0.00000E+00
         0.00000E+00
         0.00000E+00
         0.00000E+00
         0.00000E+00
         0.00000E+00
         0.00000E+00
         0.00000E+00
         0.00000E+00
         0.00000E+00
         0.00000E+00
         0.00000E+00
         0.00000E+00
         0.00000E+00
         0.00000E+00
         0.00000E+00
         0.00000E+00
         0.00000E+00
         0.00000E+00
         0.00000E+00
         0.00000E+00
         0.00000E+00
         0.00000E+00
         0.00000E+00
         0.00000E+00
         0.00000E+00
         0.00000E+00
         0.00000E+00
         0.00000E+00
         0.00000E+00
         0.00000E+00
         0.00000E+00
         0.00000E+00
         0.00000E+00
         0.00000E+00
         0.00000E+00
         0.00000E+00
         0.00000E+00
         0.00000E+00
         0.00000E+00
         0.00000E+00
         0.00000E+00
         0.00000E+00
         0.00000E+00
         0.00000E+00
         0.00000E+00
         0.00000E+00
         0.00000E+00
         0.00000E+00
         0.00000E+00
         0.00000E+00
         0.00000E+00
         0.00000E+00
         0.00000E+00
         0.00000E+00
         0.00000E+00
         0.00000E+00
         0.00000E+00
         0.00000E+00
         0.00000E+00
         0.00000E+00
         0.00000E+00
         0.00000E+00
         0.00000E+00
         0.00000E+00
         0.00000E+00
         0.00000E+00
         0.00000E+00
         0.00000E+00
         0.00000E+00
         0.00000E+00
         0.00000E+00
         0.00000E+00
         0.00000E+00
         0.00000E+00
         0.00000E+00
         0.00000E+00
         0.00000E+00
         0.00000E+00
         0.00000E+00
         0.00000E+00
         0.00000E+00
         0.00000E+00
         0.00000E+00
         0.00000E+00
         0.00000E+00
         0.00000E+00
         0.00000E+00
         0.00000E+00
         0.00000E+00
         0.00000E+00
         0.00000E+00
         0.00000E+00
         0.00000E+00
         0.00000E+00
         0.00000E+00
         0.00000E+00
         0.00000E+00
         0.00000E+00
         0.00000E+00
         0.00000E+00
         0.00000E+00
         0.00000E+00
         0.00000E+00
         0.00000E+00
         0.00000E+00
         0.00000E+00
         0.00000E+00
         0.00000E+00
         0.00000E+00
         0.00000E+00
         0.00000E+00
         0.00000E+00
         0.00000E+00
         0.00000E+00
         0.00000E+00
         0.00000E+00
         0.00000E+00
         0.00000E+00
         0.00000E+00
         0.00000E+00
         0.00000E+00
         0.00000E+00
         0.00000E+00
         0.00000E+00
         0.00000E+00
         0.00000E+00
         0.00000E+00
         0.00000E+00
         0.00000E+00
         0.00000E+00
         0.00000E+00
         0.00000E+00
         0.00000E+00
         0.00000E+00
         0.00000E+00
         0.00000E+00
         0.00000E+00
         0.00000E+00
         0.00000E+00
         0.00000E+00
         0.00000E+00
         0.00000E+00
         0.00000E+00
         0.00000E+00
         0.00000E+00
         0.00000E+00
         0.00000E+00
         0.00000E+00
         0.00000E+00
         0.00000E+00
         0.00000E+00
         0.00000E+00
         0.00000E+00
         0.00000E+00
         0.00000E+00
         0.00000E+00
         0.00000E+00
         0.00000E+00
         0.00000E+00
         0.00000E+00
         0.00000E+00
         0.00000E+00
         0.00000E+00
         0.00000E+00
         0.00000E+00
         0.00000E+00
         0.00000E+00
         0.00000E+00
         0.00000E+00
         0.00000E+00
         0.00000E+00
         0.00000E+00
         0.00000E+00
         0.00000E+00
         0.00000E+00
         0.00000E+00
         0.00000E+00
         0.00000E+00
         0.00000E+00
         0.00000E+00
         0.00000E+00
         0.00000E+00
         0.00000E+00
         0.00000E+00
         0.00000E+00
         0.00000E+00
         0.00000E+00
         0.00000E+00
         0.00000E+00
         0.00000E+00
         0.00000E+00
         0.00000E+00
         0.00000E+00
         0.00000E+00
         0.00000E+00
         0.00000E+00
         0.00000E+00
         0.00000E+00
         0.00000E+00
         0.00000E+00
         0.00000E+00
         0.00000E+00
         0.00000E+00
         0.00000E+00
         0.00000E+00
         0.00000E+00
         0.00000E+00
         0.00000E+00
         0.00000E+00
         0.00000E+00
         0.00000E+00
         0.00000E+00
         0.00000E+00
         0.00000E+00
         0.00000E+00
         0.00000E+00
         0.00000E+00
         0.00000E+00
         0.00000E+00
         0.00000E+00
         0.00000E+00
         0.00000E+00
         0.00000E+00
         0.00000E+00
         0.00000E+00
         0.00000E+00
         0.00000E+00
         0.00000E+00
         0.00000E+00
         0.00000E+00
         0.00000E+00
         0.00000E+00
         0.00000E+00
         0.00000E+00
         0.00000E+00
         0.00000E+00
         0.00000E+00
         0.00000E+00
         0.00000E+00
         0.00000E+00
         0.00000E+00
         0.00000E+00
         0.00000E+00
         0.00000E+00
         0.00000E+00
         0.00000E+00
         0.00000E+00
         0.00000E+00
         0.00000E+00
         0.00000E+00
         0.00000E+00
         0.00000E+00
         0.00000E+00
         0.00000E+00
         0.00000E+00
         0.00000E+00
         0.00000E+00
         0.00000E+00
         0.00000E+00
         0.00000E+00
         0.00000E+00
         0.00000E+00
         0.00000E+00
         0.00000E+00
         0.00000E+00
         0.00000E+00
         0.00000E+00
         0.00000E+00
         0.00000E+00
         0.00000E+00
         0.00000E+00
         0.00000E+00
         0.00000E+00
         0.00000E+00
         0.00000E+00
         0.00000E+00
         0.00000E+00
         0.00000E+00
         0.00000E+00
         0.00000E+00
         0.00000E+00
         0.00000E+00
         0.00000E+00
         0.00000E+00
         0.00000E+00
         0.00000E+00
         0.00000E+00
         0.00000E+00
         0.00000E+00
         0.00000E+00
         0.00000E+00
         0.00000E+00
         0.00000E+00
         0.00000E+00
         0.00000E+00
         0.00000E+00
         0.00000E+00
         0.00000E+00
         0.00000E+00
         0.00000E+00
         0.00000E+00
         0.00000E+00
         0.00000E+00
         0.00000E+00
         0.00000E+00
         0.00000E+00
         0.00000E+00
         0.00000E+00
         0.00000E+00
         0.00000E+00
         0.00000E+00
         0.00000E+00
         0.00000E+00
         0.00000E+00
         0.00000E+00
         0.00000E+00
         0.00000E+00
         0.00000E+00
         0.00000E+00
         0.00000E+00
         0.00000E+00
         0.00000E+00
         0.00000E+00
         0.00000E+00
         0.00000E+00
         0.00000E+00
         0.00000E+00
         0.00000E+00
         0.00000E+00
         0.00000E+00
         0.00000E+00
         0.00000E+00
         0.00000E+00
         0.00000E+00
         0.00000E+00
         0.00000E+00
         0.00000E+00
         0.00000E+00
         0.00000E+00
         0.00000E+00
         0.00000E+00
         0.00000E+00
         0.00000E+00
         0.00000E+00
         0.00000E+00
         0.00000E+00
         0.00000E+00
         0.00000E+00
         0.00000E+00
         0.00000E+00
         0.00000E+00
         0.00000E+00
         0.00000E+00
         0.00000E+00
         0.00000E+00
  
SCALARS        characteristic_distance  double 1
LOOKUP_TABLE default
         0.00000E+00
         0.00000E+00
         0.00000E+00
         0.00000E+00
         0.00000E+00
         0.00000E+00
         0.00000E+00
         0.00000E+00
         0.00000E+00
         0.00000E+00
         0.00000E+00
         0.00000E+00
         0.00000E+00
         0.00000E+00
         0.00000E+00
         0.00000E+00
         0.00000E+00
         0.00000E+00
         0.00000E+00
         0.00000E+00
         0.00000E+00
         0.00000E+00
         0.00000E+00
         0.00000E+00
         0.00000E+00
         0.00000E+00
         0.00000E+00
         0.00000E+00
         0.00000E+00
         0.00000E+00
         0.00000E+00
         0.00000E+00
         0.00000E+00
         0.00000E+00
         0.00000E+00
         0.00000E+00
         0.00000E+00
         0.00000E+00
         0.00000E+00
         0.00000E+00
         0.00000E+00
         0.00000E+00
         0.00000E+00
         0.00000E+00
         0.00000E+00
         0.00000E+00
         0.00000E+00
         0.00000E+00
         0.00000E+00
         0.00000E+00
         0.00000E+00
         0.00000E+00
         0.00000E+00
         0.00000E+00
         0.00000E+00
         0.00000E+00
         0.00000E+00
         0.00000E+00
         0.00000E+00
         0.00000E+00
         0.00000E+00
         0.00000E+00
         0.00000E+00
         0.00000E+00
         0.00000E+00
         0.00000E+00
         0.00000E+00
         0.00000E+00
         0.00000E+00
         0.00000E+00
         0.00000E+00
         0.00000E+00
         0.00000E+00
         0.00000E+00
         0.00000E+00
         0.00000E+00
         0.00000E+00
         0.00000E+00
         0.00000E+00
         0.00000E+00
         0.00000E+00
         0.00000E+00
         0.00000E+00
         0.00000E+00
         0.00000E+00
         0.00000E+00
         0.00000E+00
         0.00000E+00
         0.00000E+00
         0.00000E+00
         0.00000E+00
         0.00000E+00
         0.00000E+00
         0.00000E+00
         0.00000E+00
         0.00000E+00
         0.00000E+00
         0.00000E+00
         0.00000E+00
         0.00000E+00
         0.00000E+00
         0.00000E+00
         0.00000E+00
         0.00000E+00
         0.00000E+00
         0.00000E+00
         0.00000E+00
         0.00000E+00
         0.00000E+00
         0.00000E+00
         0.00000E+00
         0.00000E+00
         0.00000E+00
         0.00000E+00
         0.00000E+00
         0.00000E+00
         0.00000E+00
         0.00000E+00
         0.00000E+00
         0.00000E+00
         0.00000E+00
         0.00000E+00
         0.00000E+00
         0.00000E+00
         0.00000E+00
         0.00000E+00
         0.00000E+00
         0.00000E+00
         0.00000E+00
         0.00000E+00
         0.00000E+00
         0.00000E+00
         0.00000E+00
         0.00000E+00
         0.00000E+00
         0.00000E+00
         0.00000E+00
         0.00000E+00
         0.00000E+00
         0.00000E+00
         0.00000E+00
         0.00000E+00
         0.00000E+00
         0.00000E+00
         0.00000E+00
         0.00000E+00
         0.00000E+00
         0.00000E+00
         0.00000E+00
         0.00000E+00
         0.00000E+00
         0.00000E+00
         0.00000E+00
         0.00000E+00
         0.00000E+00
         0.00000E+00
         0.00000E+00
         0.00000E+00
         0.00000E+00
         0.00000E+00
         0.00000E+00
         0.00000E+00
         0.00000E+00
         0.00000E+00
         0.00000E+00
         0.00000E+00
         0.00000E+00
         0.00000E+00
         0.00000E+00
         0.00000E+00
         0.00000E+00
         0.00000E+00
         0.00000E+00
         0.00000E+00
         0.00000E+00
         0.00000E+00
         0.00000E+00
         0.00000E+00
         0.00000E+00
         0.00000E+00
         0.00000E+00
         0.00000E+00
         0.00000E+00
         0.00000E+00
         0.00000E+00
         0.00000E+00
         0.00000E+00
         0.00000E+00
         0.00000E+00
         0.00000E+00
         0.00000E+00
         0.00000E+00
         0.00000E+00
         0.00000E+00
         0.00000E+00
         0.00000E+00
         0.00000E+00
         0.00000E+00
         0.00000E+00
         0.00000E+00
         0.00000E+00
         0.00000E+00
         0.00000E+00
         0.00000E+00
         0.00000E+00
         0.00000E+00
         0.00000E+00
         0.00000E+00
         0.00000E+00
         0.00000E+00
         0.00000E+00
         0.00000E+00
         0.00000E+00
         0.00000E+00
         0.00000E+00
         0.00000E+00
         0.00000E+00
         0.00000E+00
         0.00000E+00
         0.00000E+00
         0.00000E+00
         0.00000E+00
         0.00000E+00
         0.00000E+00
         0.00000E+00
         0.00000E+00
         0.00000E+00
         0.00000E+00
         0.00000E+00
         0.00000E+00
         0.00000E+00
         0.00000E+00
         0.00000E+00
         0.00000E+00
         0.00000E+00
         0.00000E+00
         0.00000E+00
         0.00000E+00
         0.00000E+00
         0.00000E+00
         0.00000E+00
         0.00000E+00
         0.00000E+00
         0.00000E+00
         0.00000E+00
         0.00000E+00
         0.00000E+00
         0.00000E+00
         0.00000E+00
         0.00000E+00
         0.00000E+00
         0.00000E+00
         0.00000E+00
         0.00000E+00
         0.00000E+00
         0.00000E+00
         0.00000E+00
         0.00000E+00
         0.00000E+00
         0.00000E+00
         0.00000E+00
         0.00000E+00
         0.00000E+00
         0.00000E+00
         0.00000E+00
         0.00000E+00
         0.00000E+00
         0.00000E+00
         0.00000E+00
         0.00000E+00
         0.00000E+00
         0.00000E+00
         0.00000E+00
         0.00000E+00
         0.00000E+00
         0.00000E+00
         0.00000E+00
         0.00000E+00
         0.00000E+00
         0.00000E+00
         0.00000E+00
         0.00000E+00
         0.00000E+00
         0.00000E+00
         0.00000E+00
         0.00000E+00
         0.00000E+00
         0.00000E+00
         0.00000E+00
         0.00000E+00
         0.00000E+00
         0.00000E+00
         0.00000E+00
         0.00000E+00
         0.00000E+00
         0.00000E+00
         0.00000E+00
         0.00000E+00
         0.00000E+00
         0.00000E+00
         0.00000E+00
         0.00000E+00
         0.00000E+00
         0.00000E+00
         0.00000E+00
         0.00000E+00
         0.00000E+00
         0.00000E+00
         0.00000E+00
         0.00000E+00
         0.00000E+00
         0.00000E+00
         0.00000E+00
         0.00000E+00
         0.00000E+00
         0.00000E+00
         0.00000E+00
         0.00000E+00
         0.00000E+00
         0.00000E+00
         0.00000E+00
         0.00000E+00
         0.00000E+00
         0.00000E+00
         0.00000E+00
         0.00000E+00
         0.00000E+00
         0.00000E+00
         0.00000E+00
         0.00000E+00
         0.00000E+00
         0.00000E+00
         0.00000E+00
         0.00000E+00
         0.00000E+00
         0.00000E+00
         0.00000E+00
         0.00000E+00
         0.00000E+00
         0.00000E+00
         0.00000E+00
         0.00000E+00
         0.00000E+00
         0.00000E+00
         0.00000E+00
         0.00000E+00
         0.00000E+00
         0.00000E+00
         0.00000E+00
         0.00000E+00
         0.00000E+00
         0.00000E+00
         0.00000E+00
         0.00000E+00
         0.00000E+00
         0.00000E+00
         0.00000E+00
         0.00000E+00
         0.00000E+00
         0.00000E+00
         0.00000E+00
         0.00000E+00
         0.00000E+00
         0.00000E+00
         0.00000E+00
         0.00000E+00
         0.00000E+00
         0.00000E+00
         0.00000E+00
         0.00000E+00
         0.00000E+00
         0.00000E+00
         0.00000E+00
         0.00000E+00
         0.00000E+00
         0.00000E+00
         0.00000E+00
         0.00000E+00
         0.00000E+00
         0.00000E+00
         0.00000E+00
         0.00000E+00
         0.00000E+00
         0.00000E+00
         0.00000E+00
         0.00000E+00
         0.00000E+00
         0.00000E+00
         0.00000E+00
         0.00000E+00
         0.00000E+00
         0.00000E+00
         0.00000E+00
         0.00000E+00
         0.00000E+00
         0.00000E+00
         0.00000E+00
         0.00000E+00
         0.00000E+00
         0.00000E+00
         0.00000E+00
         0.00000E+00
         0.00000E+00
         0.00000E+00
         0.00000E+00
         0.00000E+00
         0.00000E+00
         0.00000E+00
         0.00000E+00
         0.00000E+00
         0.00000E+00
         0.00000E+00
         0.00000E+00
         0.00000E+00
         0.00000E+00
         0.00000E+00
         0.00000E+00
         0.00000E+00
         0.00000E+00
         0.00000E+00
         0.00000E+00
         0.00000E+00
         0.00000E+00
         0.00000E+00
         0.00000E+00
         0.00000E+00
         0.00000E+00
         0.00000E+00
         0.00000E+00
         0.00000E+00
         0.00000E+00
         0.00000E+00
         0.00000E+00
         0.00000E+00
         0.00000E+00
         0.00000E+00
         0.00000E+00
         0.00000E+00
         0.00000E+00
         0.00000E+00
         0.00000E+00
         0.00000E+00
         0.00000E+00
         0.00000E+00
         0.00000E+00
         0.00000E+00
         0.00000E+00
         0.00000E+00
         0.00000E+00
         0.00000E+00
         0.00000E+00
         0.00000E+00
         0.00000E+00
         0.00000E+00
         0.00000E+00
         0.00000E+00
         0.00000E+00
         0.00000E+00
         0.00000E+00
         0.00000E+00
         0.00000E+00
         0.00000E+00
         0.00000E+00
         0.00000E+00
         0.00000E+00
         0.00000E+00
         0.00000E+00
         0.00000E+00
         0.00000E+00
         0.00000E+00
         0.00000E+00
         0.00000E+00
         0.00000E+00
         0.00000E+00
         0.00000E+00
         0.00000E+00
         0.00000E+00
         0.00000E+00
         0.00000E+00
         0.00000E+00
         0.00000E+00
         0.00000E+00
         0.00000E+00
         0.00000E+00
         0.00000E+00
         0.00000E+00
         0.00000E+00
         0.00000E+00
         0.00000E+00
         0.00000E+00
         0.00000E+00
         0.00000E+00
         0.00000E+00
         0.00000E+00
         0.00000E+00
         0.00000E+00
         0.00000E+00
         0.00000E+00
         0.00000E+00
         0.00000E+00
         0.00000E+00
         0.00000E+00
         0.00000E+00
         0.00000E+00
         0.00000E+00
         0.00000E+00
         0.00000E+00
         0.00000E+00
         0.00000E+00
         0.00000E+00
         0.00000E+00
         0.00000E+00
         0.00000E+00
         0.00000E+00
         0.00000E+00
         0.00000E+00
         0.00000E+00
         0.00000E+00
         0.00000E+00
         0.00000E+00
         0.00000E+00
         0.00000E+00
         0.00000E+00
         0.00000E+00
         0.00000E+00
         0.00000E+00
         0.00000E+00
         0.00000E+00
         0.00000E+00
         0.00000E+00
         0.00000E+00
         0.00000E+00
         0.00000E+00
         0.00000E+00
         0.00000E+00
         0.00000E+00
         0.00000E+00
         0.00000E+00
         0.00000E+00
         0.00000E+00
         0.00000E+00
         0.00000E+00
         0.00000E+00
         0.00000E+00
         0.00000E+00
         0.00000E+00
         0.00000E+00
         0.00000E+00
         0.00000E+00
         0.00000E+00
         0.00000E+00
         0.00000E+00
         0.00000E+00
         0.00000E+00
         0.00000E+00
         0.00000E+00
         0.00000E+00
         0.00000E+00
         0.00000E+00
         0.00000E+00
         0.00000E+00
         0.00000E+00
         0.00000E+00
         0.00000E+00
         0.00000E+00
         0.00000E+00
         0.00000E+00
         0.00000E+00
         0.00000E+00
         0.00000E+00
         0.00000E+00
         0.00000E+00
         0.00000E+00
         0.00000E+00
         0.00000E+00
         0.00000E+00
         0.00000E+00
         0.00000E+00
         0.00000E+00
         0.00000E+00
         0.00000E+00
         0.00000E+00
         0.00000E+00
         0.00000E+00
         0.00000E+00
         0.00000E+00
         0.00000E+00
         0.00000E+00
         0.00000E+00
         0.00000E+00
         0.00000E+00
         0.00000E+00
         0.00000E+00
         0.00000E+00
         0.00000E+00
         0.00000E+00
         0.00000E+00
         0.00000E+00
         0.00000E+00
         0.00000E+00
         0.00000E+00
         0.00000E+00
         0.00000E+00
         0.00000E+00
         0.00000E+00
         0.00000E+00
         0.00000E+00
         0.00000E+00
         0.00000E+00
         0.00000E+00
         0.00000E+00
         0.00000E+00
         0.00000E+00
         0.00000E+00
         0.00000E+00
         0.00000E+00
         0.00000E+00
         0.00000E+00
         0.00000E+00
         0.00000E+00
         0.00000E+00
         0.00000E+00
         0.00000E+00
         0.00000E+00
         0.00000E+00
         0.00000E+00
         0.00000E+00
         0.00000E+00
         0.00000E+00
         0.00000E+00
         0.00000E+00
         0.00000E+00
         0.00000E+00
         0.00000E+00
         0.00000E+00
         0.00000E+00
         0.00000E+00
         0.00000E+00
         0.00000E+00
         0.00000E+00
         0.00000E+00
         0.00000E+00
         0.00000E+00
         0.00000E+00
         0.00000E+00
         0.00000E+00
         0.00000E+00
         0.00000E+00
         0.00000E+00
         0.00000E+00
         0.00000E+00
         0.00000E+00
         0.00000E+00
         0.00000E+00
         0.00000E+00
         0.00000E+00
         0.00000E+00
         0.00000E+00
         0.00000E+00
         0.00000E+00
         0.00000E+00
         0.00000E+00
         0.00000E+00
         0.00000E+00
         0.00000E+00
         0.00000E+00
         0.00000E+00
         0.00000E+00
         0.00000E+00
         0.00000E+00
         0.00000E+00
         0.00000E+00
         0.00000E+00
         0.00000E+00
         0.00000E+00
         0.00000E+00
         0.00000E+00
         0.00000E+00
         0.00000E+00
         0.00000E+00
         0.00000E+00
         0.00000E+00
         0.00000E+00
         0.00000E+00
         0.00000E+00
         0.00000E+00
         0.00000E+00
         0.00000E+00
         0.00000E+00
         0.00000E+00
         0.00000E+00
         0.00000E+00
         0.00000E+00
         0.00000E+00
         0.00000E+00
         0.00000E+00
         0.00000E+00
         0.00000E+00
         0.00000E+00
         0.00000E+00
         0.00000E+00
         0.00000E+00
         0.00000E+00
         0.00000E+00
         0.00000E+00
         0.00000E+00
         0.00000E+00
         0.00000E+00
         0.00000E+00
         0.00000E+00
         0.00000E+00
         0.00000E+00
         0.00000E+00
         0.00000E+00
         0.00000E+00
         0.00000E+00
         0.00000E+00
         0.00000E+00
         0.00000E+00
         0.00000E+00
         0.00000E+00
         0.00000E+00
         0.00000E+00
         0.00000E+00
         0.00000E+00
         0.00000E+00
         0.00000E+00
         0.00000E+00
         0.00000E+00
         0.00000E+00
         0.00000E+00
         0.00000E+00
         0.00000E+00
         0.00000E+00
         0.00000E+00
         0.00000E+00
         0.00000E+00
         0.00000E+00
         0.00000E+00
         0.00000E+00
         0.00000E+00
         0.00000E+00
         0.00000E+00
         0.00000E+00
         0.00000E+00
         0.00000E+00
         0.00000E+00
         0.00000E+00
         0.00000E+00
         0.00000E+00
         0.00000E+00
         0.00000E+00
         0.00000E+00
         0.00000E+00
         0.00000E+00
         0.00000E+00
         0.00000E+00
         0.00000E+00
         0.00000E+00
         0.00000E+00
         0.00000E+00
         0.00000E+00
         0.00000E+00
         0.00000E+00
         0.00000E+00
         0.00000E+00
         0.00000E+00
         0.00000E+00
         0.00000E+00
         0.00000E+00
         0.00000E+00
         0.00000E+00
         0.00000E+00
         0.00000E+00
         0.00000E+00
         0.00000E+00
         0.00000E+00
         0.00000E+00
         0.00000E+00
         0.00000E+00
         0.00000E+00
         0.00000E+00
         0.00000E+00
         0.00000E+00
         0.00000E+00
         0.00000E+00
         0.00000E+00
         0.00000E+00
         0.00000E+00
         0.00000E+00
         0.00000E+00
         0.00000E+00
         0.00000E+00
         0.00000E+00
         0.00000E+00
         0.00000E+00
         0.00000E+00
         0.00000E+00
         0.00000E+00
         0.00000E+00
         0.00000E+00
         0.00000E+00
         0.00000E+00
         0.00000E+00
         0.00000E+00
         0.00000E+00
         0.00000E+00
         0.00000E+00
         0.00000E+00
         0.00000E+00
         0.00000E+00
         0.00000E+00
         0.00000E+00
         0.00000E+00
         0.00000E+00
         0.00000E+00
         0.00000E+00
         0.00000E+00
         0.00000E+00
         0.00000E+00
         0.00000E+00
         0.00000E+00
         0.00000E+00
         0.00000E+00
         0.00000E+00
         0.00000E+00
         0.00000E+00
         0.00000E+00
         0.00000E+00
         0.00000E+00
         0.00000E+00
         0.00000E+00
         0.00000E+00
         0.00000E+00
         0.00000E+00
         0.00000E+00
         0.00000E+00
         0.00000E+00
         0.00000E+00
         0.00000E+00
         0.00000E+00
         0.00000E+00
         0.00000E+00
         0.00000E+00
         0.00000E+00
         0.00000E+00
         0.00000E+00
         0.00000E+00
         0.00000E+00
         0.00000E+00
         0.00000E+00
         0.00000E+00
         0.00000E+00
         0.00000E+00
         0.00000E+00
         0.00000E+00
         0.00000E+00
         0.00000E+00
         0.00000E+00
         0.00000E+00
         0.00000E+00
         0.00000E+00
         0.00000E+00
         0.00000E+00
         0.00000E+00
         0.00000E+00
         0.00000E+00
         0.00000E+00
         0.00000E+00
         0.00000E+00
         0.00000E+00
         0.00000E+00
         0.00000E+00
         0.00000E+00
         0.00000E+00
         0.00000E+00
         0.00000E+00
         0.00000E+00
         0.00000E+00
         0.00000E+00
         0.00000E+00
         0.00000E+00
         0.00000E+00
         0.00000E+00
         0.00000E+00
         0.00000E+00
         0.00000E+00
         0.00000E+00
         0.00000E+00
         0.00000E+00
         0.00000E+00
         0.00000E+00
         0.00000E+00
         0.00000E+00
         0.00000E+00
         0.00000E+00
         0.00000E+00
         0.00000E+00
         0.00000E+00
         0.00000E+00
         0.00000E+00
         0.00000E+00
         0.00000E+00
         0.00000E+00
         0.00000E+00
         0.00000E+00
         0.00000E+00
         0.00000E+00
         0.00000E+00
         0.00000E+00
         0.00000E+00
         0.00000E+00
         0.00000E+00
         0.00000E+00
         0.00000E+00
         0.00000E+00
         0.00000E+00
         0.00000E+00
         0.00000E+00
         0.00000E+00
         0.00000E+00
         0.00000E+00
         0.00000E+00
         0.00000E+00
         0.00000E+00
         0.00000E+00
         0.00000E+00
         0.00000E+00
         0.00000E+00
         0.00000E+00
         0.00000E+00
         0.00000E+00
         0.00000E+00
         0.00000E+00
         0.00000E+00
         0.00000E+00
         0.00000E+00
         0.00000E+00
         0.00000E+00
         0.00000E+00
         0.00000E+00
         0.00000E+00
         0.00000E+00
         0.00000E+00
         0.00000E+00
         0.00000E+00
         0.00000E+00
         0.00000E+00
         0.00000E+00
         0.00000E+00
         0.00000E+00
         0.00000E+00
         0.00000E+00
         0.00000E+00
         0.00000E+00
         0.00000E+00
         0.00000E+00
         0.00000E+00
         0.00000E+00
         0.00000E+00
         0.00000E+00
         0.00000E+00
         0.00000E+00
         0.00000E+00
         0.00000E+00
         0.00000E+00
         0.00000E+00
         0.00000E+00
         0.00000E+00
         0.00000E+00
         0.00000E+00
         0.00000E+00
         0.00000E+00
         0.00000E+00
         0.00000E+00
         0.00000E+00
         0.00000E+00
         0.00000E+00
         0.00000E+00
         0.00000E+00
         0.00000E+00
         0.00000E+00
         0.00000E+00
         0.00000E+00
         0.00000E+00
         0.00000E+00
         0.00000E+00
         0.00000E+00
         0.00000E+00
         0.00000E+00
         0.00000E+00
         0.00000E+00
         0.00000E+00
         0.00000E+00
         0.00000E+00
         0.00000E+00
         0.00000E+00
         0.00000E+00
         0.00000E+00
         0.00000E+00
         0.00000E+00
         0.00000E+00
         0.00000E+00
         0.00000E+00
         0.00000E+00
         0.00000E+00
         0.00000E+00
         0.00000E+00
         0.00000E+00
         0.00000E+00
         0.00000E+00
         0.00000E+00
         0.00000E+00
         0.00000E+00
         0.00000E+00
         0.00000E+00
         0.00000E+00
         0.00000E+00
         0.00000E+00
         0.00000E+00
         0.00000E+00
         0.00000E+00
         0.00000E+00
         0.00000E+00
         0.00000E+00
         0.00000E+00
         0.00000E+00
         0.00000E+00
         0.00000E+00
         0.00000E+00
         0.00000E+00
         0.00000E+00
         0.00000E+00
         0.00000E+00
         0.00000E+00
         0.00000E+00
         0.00000E+00
         0.00000E+00
         0.00000E+00
         0.00000E+00
         0.00000E+00
         0.00000E+00
         0.00000E+00
         0.00000E+00
         0.00000E+00
         0.00000E+00
         0.00000E+00
         0.00000E+00
         0.00000E+00
         0.00000E+00
         0.00000E+00
         0.00000E+00
         0.00000E+00
         0.00000E+00
         0.00000E+00
         0.00000E+00
         0.00000E+00
         0.00000E+00
         0.00000E+00
         0.00000E+00
         0.00000E+00
         0.00000E+00
         0.00000E+00
         0.00000E+00
         0.00000E+00
         0.00000E+00
         0.00000E+00
         0.00000E+00
         0.00000E+00
         0.00000E+00
         0.00000E+00
         0.00000E+00
         0.00000E+00
         0.00000E+00
         0.00000E+00
         0.00000E+00
         0.00000E+00
         0.00000E+00
         0.00000E+00
         0.00000E+00
         0.00000E+00
         0.00000E+00
         0.00000E+00
         0.00000E+00
         0.00000E+00
         0.00000E+00
         0.00000E+00
         0.00000E+00
         0.00000E+00
         0.00000E+00
         0.00000E+00
         0.00000E+00
         0.00000E+00
         0.00000E+00
         0.00000E+00
         0.00000E+00
         0.00000E+00
         0.00000E+00
         0.00000E+00
         0.00000E+00
         0.00000E+00
         0.00000E+00
         0.00000E+00
         0.00000E+00
         0.00000E+00
         0.00000E+00
         0.00000E+00
         0.00000E+00
         0.00000E+00
         0.00000E+00
         0.00000E+00
         0.00000E+00
         0.00000E+00
         0.00000E+00
         0.00000E+00
         0.00000E+00
         0.00000E+00
         0.00000E+00
         0.00000E+00
         0.00000E+00
         0.00000E+00
         0.00000E+00
         0.00000E+00
         0.00000E+00
         0.00000E+00
         0.00000E+00
         0.00000E+00
         0.00000E+00
         0.00000E+00
         0.00000E+00
         0.00000E+00
         0.00000E+00
         0.00000E+00
         0.00000E+00
         0.00000E+00
         0.00000E+00
         0.00000E+00
         0.00000E+00
         0.00000E+00
         0.00000E+00
         0.00000E+00
         0.00000E+00
         0.00000E+00
         0.00000E+00
         0.00000E+00
         0.00000E+00
         0.00000E+00
         0.00000E+00
         0.00000E+00
         0.00000E+00
         0.00000E+00
         0.00000E+00
         0.00000E+00
         0.00000E+00
         0.00000E+00
         0.00000E+00
         0.00000E+00
         0.00000E+00
         0.00000E+00
         0.00000E+00
         0.00000E+00
         0.00000E+00
         0.00000E+00
         0.00000E+00
         0.00000E+00
         0.00000E+00
         0.00000E+00
         0.00000E+00
         0.00000E+00
         0.00000E+00
         0.00000E+00
         0.00000E+00
         0.00000E+00
         0.00000E+00
         0.00000E+00
         0.00000E+00
         0.00000E+00
         0.00000E+00
         0.00000E+00
         0.00000E+00
         0.00000E+00
         0.00000E+00
         0.00000E+00
         0.00000E+00
         0.00000E+00
         0.00000E+00
         0.00000E+00
         0.00000E+00
         0.00000E+00
         0.00000E+00
         0.00000E+00
         0.00000E+00
         0.00000E+00
         0.00000E+00
         0.00000E+00
         0.00000E+00
         0.00000E+00
         0.00000E+00
         0.00000E+00
         0.00000E+00
         0.00000E+00
         0.00000E+00
         0.00000E+00
         0.00000E+00
         0.00000E+00
         0.00000E+00
         0.00000E+00
         0.00000E+00
         0.00000E+00
         0.00000E+00
         0.00000E+00
         0.00000E+00
         0.00000E+00
         0.00000E+00
         0.00000E+00
         0.00000E+00
         0.00000E+00
         0.00000E+00
         0.00000E+00
         0.00000E+00
         0.00000E+00
         0.00000E+00
         0.00000E+00
         0.00000E+00
         0.00000E+00
         0.00000E+00
         0.00000E+00
         0.00000E+00
         0.00000E+00
         0.00000E+00
         0.00000E+00
         0.00000E+00
         0.00000E+00
         0.00000E+00
         0.00000E+00
         0.00000E+00
         0.00000E+00
         0.00000E+00
         0.00000E+00
         0.00000E+00
         0.00000E+00
         0.00000E+00
         0.00000E+00
         0.00000E+00
         0.00000E+00
         0.00000E+00
         0.00000E+00
         0.00000E+00
         0.00000E+00
         0.00000E+00
         0.00000E+00
         0.00000E+00
         0.00000E+00
         0.00000E+00
         0.00000E+00
         0.00000E+00
         0.00000E+00
         0.00000E+00
         0.00000E+00
         0.00000E+00
         0.00000E+00
         0.00000E+00
         0.00000E+00
         0.00000E+00
         0.00000E+00
         0.00000E+00
         0.00000E+00
         0.00000E+00
         0.00000E+00
         0.00000E+00
         0.00000E+00
         0.00000E+00
         0.00000E+00
         0.00000E+00
         0.00000E+00
         0.00000E+00
         0.00000E+00
         0.00000E+00
         0.00000E+00
         0.00000E+00
         0.00000E+00
         0.00000E+00
         0.00000E+00
         0.00000E+00
         0.00000E+00
         0.00000E+00
         0.00000E+00
         0.00000E+00
         0.00000E+00
         0.00000E+00
         0.00000E+00
         0.00000E+00
         0.00000E+00
         0.00000E+00
         0.00000E+00
         0.00000E+00
         0.00000E+00
         0.00000E+00
         0.00000E+00
         0.00000E+00
         0.00000E+00
         0.00000E+00
         0.00000E+00
         0.00000E+00
         0.00000E+00
         0.00000E+00
         0.00000E+00
         0.00000E+00
         0.00000E+00
         0.00000E+00
         0.00000E+00
         0.00000E+00
         0.00000E+00
         0.00000E+00
         0.00000E+00
         0.00000E+00
         0.00000E+00
         0.00000E+00
         0.00000E+00
         0.00000E+00
         0.00000E+00
         0.00000E+00
         0.00000E+00
         0.00000E+00
         0.00000E+00
         0.00000E+00
         0.00000E+00
         0.00000E+00
         0.00000E+00
         0.00000E+00
         0.00000E+00
         0.00000E+00
         0.00000E+00
         0.00000E+00
         0.00000E+00
         0.00000E+00
         0.00000E+00
         0.00000E+00
         0.00000E+00
         0.00000E+00
         0.00000E+00
         0.00000E+00
         0.00000E+00
         0.00000E+00
         0.00000E+00
         0.00000E+00
         0.00000E+00
         0.00000E+00
         0.00000E+00
         0.00000E+00
         0.00000E+00
         0.00000E+00
         0.00000E+00
         0.00000E+00
         0.00000E+00
         0.00000E+00
         0.00000E+00
         0.00000E+00
         0.00000E+00
         0.00000E+00
         0.00000E+00
         0.00000E+00
         0.00000E+00
         0.00000E+00
         0.00000E+00
         0.00000E+00
         0.00000E+00
         0.00000E+00
         0.00000E+00
         0.00000E+00
         0.00000E+00
         0.00000E+00
         0.00000E+00
         0.00000E+00
         0.00000E+00
         0.00000E+00
         0.00000E+00
         0.00000E+00
         0.00000E+00
         0.00000E+00
         0.00000E+00
         0.00000E+00
         0.00000E+00
         0.00000E+00
         0.00000E+00
         0.00000E+00
         0.00000E+00
         0.00000E+00
         0.00000E+00
         0.00000E+00
         0.00000E+00
         0.00000E+00
         0.00000E+00
         0.00000E+00
         0.00000E+00
         0.00000E+00
         0.00000E+00
         0.00000E+00
         0.00000E+00
         0.00000E+00
         0.00000E+00
         0.00000E+00
         0.00000E+00
         0.00000E+00
         0.00000E+00
         0.00000E+00
         0.00000E+00
         0.00000E+00
         0.00000E+00
         0.00000E+00
         0.00000E+00
         0.00000E+00
         0.00000E+00
         0.00000E+00
         0.00000E+00
         0.00000E+00
         0.00000E+00
         0.00000E+00
         0.00000E+00
         0.00000E+00
         0.00000E+00
         0.00000E+00
         0.00000E+00
         0.00000E+00
         0.00000E+00
         0.00000E+00
         0.00000E+00
         0.00000E+00
         0.00000E+00
         0.00000E+00
         0.00000E+00
         0.00000E+00
         0.00000E+00
         0.00000E+00
         0.00000E+00
         0.00000E+00
         0.00000E+00
         0.00000E+00
         0.00000E+00
         0.00000E+00
         0.00000E+00
         0.00000E+00
         0.00000E+00
         0.00000E+00
         0.00000E+00
         0.00000E+00
         0.00000E+00
         0.00000E+00
         0.00000E+00
         0.00000E+00
         0.00000E+00
         0.00000E+00
         0.00000E+00
         0.00000E+00
         0.00000E+00
         0.00000E+00
         0.00000E+00
         0.00000E+00
         0.00000E+00
         0.00000E+00
         0.00000E+00
         0.00000E+00
         0.00000E+00
         0.00000E+00
         0.00000E+00
         0.00000E+00
         0.00000E+00
         0.00000E+00
         0.00000E+00
         0.00000E+00
         0.00000E+00
         0.00000E+00
         0.00000E+00
         0.00000E+00
         0.00000E+00
         0.00000E+00
         0.00000E+00
         0.00000E+00
         0.00000E+00
         0.00000E+00
         0.00000E+00
         0.00000E+00
         0.00000E+00
         0.00000E+00
         0.00000E+00
         0.00000E+00
         0.00000E+00
         0.00000E+00
         0.00000E+00
         0.00000E+00
         0.00000E+00
         0.00000E+00
         0.00000E+00
         0.00000E+00
         0.00000E+00
         0.00000E+00
         0.00000E+00
         0.00000E+00
         0.00000E+00
         0.00000E+00
         0.00000E+00
         0.00000E+00
         0.00000E+00
         0.00000E+00
         0.00000E+00
         0.00000E+00
         0.00000E+00
         0.00000E+00
         0.00000E+00
         0.00000E+00
         0.00000E+00
         0.00000E+00
         0.00000E+00
         0.00000E+00
         0.00000E+00
         0.00000E+00
         0.00000E+00
         0.00000E+00
         0.00000E+00
         0.00000E+00
         0.00000E+00
         0.00000E+00
         0.00000E+00
         0.00000E+00
         0.00000E+00
         0.00000E+00
         0.00000E+00
         0.00000E+00
         0.00000E+00
         0.00000E+00
         0.00000E+00
         0.00000E+00
         0.00000E+00
         0.00000E+00
         0.00000E+00
         0.00000E+00
         0.00000E+00
         0.00000E+00
         0.00000E+00
         0.00000E+00
         0.00000E+00
         0.00000E+00
         0.00000E+00
         0.00000E+00
         0.00000E+00
         0.00000E+00
         0.00000E+00
         0.00000E+00
         0.00000E+00
         0.00000E+00
         0.00000E+00
         0.00000E+00
         0.00000E+00
         0.00000E+00
         0.00000E+00
         0.00000E+00
         0.00000E+00
         0.00000E+00
         0.00000E+00
         0.00000E+00
         0.00000E+00
         0.00000E+00
         0.00000E+00
         0.00000E+00
         0.00000E+00
         0.00000E+00
         0.00000E+00
         0.00000E+00
         0.00000E+00
         0.00000E+00
         0.00000E+00
         0.00000E+00
         0.00000E+00
         0.00000E+00
         0.00000E+00
         0.00000E+00
         0.00000E+00
         0.00000E+00
         0.00000E+00
         0.00000E+00
         0.00000E+00
         0.00000E+00
         0.00000E+00
         0.00000E+00
         0.00000E+00
         0.00000E+00
         0.00000E+00
         0.00000E+00
         0.00000E+00
         0.00000E+00
         0.00000E+00
         0.00000E+00
         0.00000E+00
         0.00000E+00
         0.00000E+00
         0.00000E+00
         0.00000E+00
         0.00000E+00
         0.00000E+00
         0.00000E+00
         0.00000E+00
         0.00000E+00
         0.00000E+00
         0.00000E+00
         0.00000E+00
         0.00000E+00
         0.00000E+00
         0.00000E+00
         0.00000E+00
         0.00000E+00
         0.00000E+00
         0.00000E+00
         0.00000E+00
         0.00000E+00
         0.00000E+00
         0.00000E+00
         0.00000E+00
         0.00000E+00
         0.00000E+00
         0.00000E+00
         0.00000E+00
         0.00000E+00
         0.00000E+00
         0.00000E+00
         0.00000E+00
         0.00000E+00
         0.00000E+00
         0.00000E+00
         0.00000E+00
         0.00000E+00
         0.00000E+00
         0.00000E+00
         0.00000E+00
         0.00000E+00
         0.00000E+00
         0.00000E+00
         0.00000E+00
         0.00000E+00
         0.00000E+00
         0.00000E+00
         0.00000E+00
         0.00000E+00
         0.00000E+00
         0.00000E+00
         0.00000E+00
         0.00000E+00
         0.00000E+00
         0.00000E+00
         0.00000E+00
         0.00000E+00
         0.00000E+00
         0.00000E+00
         0.00000E+00
         0.00000E+00
         0.00000E+00
         0.00000E+00
         0.00000E+00
         0.00000E+00
         0.00000E+00
         0.00000E+00
         0.00000E+00
         0.00000E+00
         0.00000E+00
         0.00000E+00
         0.00000E+00
         0.00000E+00
         0.00000E+00
         0.00000E+00
         0.00000E+00
         0.00000E+00
         0.00000E+00
         0.00000E+00
         0.00000E+00
         0.00000E+00
         0.00000E+00
         0.00000E+00
         0.00000E+00
         0.00000E+00
         0.00000E+00
         0.00000E+00
         0.00000E+00
         0.00000E+00
         0.00000E+00
         0.00000E+00
         0.00000E+00
         0.00000E+00
         0.00000E+00
         0.00000E+00
         0.00000E+00
         0.00000E+00
         0.00000E+00
         0.00000E+00
         0.00000E+00
         0.00000E+00
         0.00000E+00
         0.00000E+00
         0.00000E+00
         0.00000E+00
         0.00000E+00
         0.00000E+00
         0.00000E+00
         0.00000E+00
         0.00000E+00
         0.00000E+00
         0.00000E+00
         0.00000E+00
         0.00000E+00
         0.00000E+00
         0.00000E+00
         0.00000E+00
         0.00000E+00
         0.00000E+00
         0.00000E+00
         0.00000E+00
         0.00000E+00
         0.00000E+00
         0.00000E+00
         0.00000E+00
         0.00000E+00
         0.00000E+00
         0.00000E+00
         0.00000E+00
         0.00000E+00
         0.00000E+00
         0.00000E+00
         0.00000E+00
         0.00000E+00
         0.00000E+00
         0.00000E+00
         0.00000E+00
         0.00000E+00
         0.00000E+00
         0.00000E+00
         0.00000E+00
         0.00000E+00
         0.00000E+00
         0.00000E+00
         0.00000E+00
         0.00000E+00
         0.00000E+00
         0.00000E+00
         0.00000E+00
         0.00000E+00
         0.00000E+00
         0.00000E+00
         0.00000E+00
         0.00000E+00
         0.00000E+00
         0.00000E+00
         0.00000E+00
         0.00000E+00
         0.00000E+00
         0.00000E+00
         0.00000E+00
         0.00000E+00
         0.00000E+00
         0.00000E+00
         0.00000E+00
         0.00000E+00
         0.00000E+00
         0.00000E+00
         0.00000E+00
         0.00000E+00
         0.00000E+00
         0.00000E+00
         0.00000E+00
         0.00000E+00
         0.00000E+00
         0.00000E+00
         0.00000E+00
         0.00000E+00
         0.00000E+00
         0.00000E+00
         0.00000E+00
         0.00000E+00
         0.00000E+00
         0.00000E+00
         0.00000E+00
         0.00000E+00
         0.00000E+00
         0.00000E+00
         0.00000E+00
         0.00000E+00
         0.00000E+00
         0.00000E+00
         0.00000E+00
         0.00000E+00
         0.00000E+00
         0.00000E+00
         0.00000E+00
         0.00000E+00
         0.00000E+00
         0.00000E+00
         0.00000E+00
         0.00000E+00
         0.00000E+00
         0.00000E+00
         0.00000E+00
         0.00000E+00
         0.00000E+00
         0.00000E+00
         0.00000E+00
         0.00000E+00
         0.00000E+00
         0.00000E+00
         0.00000E+00
         0.00000E+00
         0.00000E+00
         0.00000E+00
         0.00000E+00
         0.00000E+00
         0.00000E+00
         0.00000E+00
         0.00000E+00
         0.00000E+00
         0.00000E+00
         0.00000E+00
         0.00000E+00
         0.00000E+00
         0.00000E+00
         0.00000E+00
         0.00000E+00
         0.00000E+00
         0.00000E+00
         0.00000E+00
         0.00000E+00
         0.00000E+00
         0.00000E+00
         0.00000E+00
         0.00000E+00
         0.00000E+00
         0.00000E+00
         0.00000E+00
         0.00000E+00
         0.00000E+00
         0.00000E+00
         0.00000E+00
         0.00000E+00
         0.00000E+00
         0.00000E+00
         0.00000E+00
         0.00000E+00
         0.00000E+00
         0.00000E+00
         0.00000E+00
         0.00000E+00
         0.00000E+00
         0.00000E+00
         0.00000E+00
         0.00000E+00
         0.00000E+00
         0.00000E+00
         0.00000E+00
         0.00000E+00
         0.00000E+00
         0.00000E+00
         0.00000E+00
         0.00000E+00
         0.00000E+00
         0.00000E+00
         0.00000E+00
         0.00000E+00
         0.00000E+00
         0.00000E+00
         0.00000E+00
         0.00000E+00
         0.00000E+00
         0.00000E+00
         0.00000E+00
         0.00000E+00
         0.00000E+00
         0.00000E+00
         0.00000E+00
         0.00000E+00
         0.00000E+00
         0.00000E+00
         0.00000E+00
         0.00000E+00
         0.00000E+00
         0.00000E+00
         0.00000E+00
         0.00000E+00
         0.00000E+00
         0.00000E+00
         0.00000E+00
         0.00000E+00
         0.00000E+00
         0.00000E+00
         0.00000E+00
         0.00000E+00
         0.00000E+00
         0.00000E+00
         0.00000E+00
         0.00000E+00
         0.00000E+00
         0.00000E+00
         0.00000E+00
         0.00000E+00
         0.00000E+00
         0.00000E+00
         0.00000E+00
         0.00000E+00
         0.00000E+00
         0.00000E+00
         0.00000E+00
         0.00000E+00
         0.00000E+00
         0.00000E+00
         0.00000E+00
         0.00000E+00
         0.00000E+00
         0.00000E+00
         0.00000E+00
         0.00000E+00
         0.00000E+00
         0.00000E+00
         0.00000E+00
         0.00000E+00
         0.00000E+00
         0.00000E+00
         0.00000E+00
         0.00000E+00
         0.00000E+00
         0.00000E+00
         0.00000E+00
         0.00000E+00
         0.00000E+00
         0.00000E+00
         0.00000E+00
         0.00000E+00
         0.00000E+00
         0.00000E+00
         0.00000E+00
         0.00000E+00
         0.00000E+00
         0.00000E+00
         0.00000E+00
         0.00000E+00
         0.00000E+00
         0.00000E+00
         0.00000E+00
         0.00000E+00
         0.00000E+00
         0.00000E+00
         0.00000E+00
         0.00000E+00
         0.00000E+00
         0.00000E+00
         0.00000E+00
         0.00000E+00
  
SCALARS                   max_wave_vel  double 1
LOOKUP_TABLE default
         0.00000E+00
         0.00000E+00
         0.00000E+00
         0.00000E+00
         0.00000E+00
         0.00000E+00
         0.00000E+00
         0.00000E+00
         0.00000E+00
         0.00000E+00
         0.00000E+00
         0.00000E+00
         0.00000E+00
         0.00000E+00
         0.00000E+00
         0.00000E+00
         0.00000E+00
         0.00000E+00
         0.00000E+00
         0.00000E+00
         0.00000E+00
         0.00000E+00
         0.00000E+00
         0.00000E+00
         0.00000E+00
         0.00000E+00
         0.00000E+00
         0.00000E+00
         0.00000E+00
         0.00000E+00
         0.00000E+00
         0.00000E+00
         0.00000E+00
         0.00000E+00
         0.00000E+00
         0.00000E+00
         0.00000E+00
         0.00000E+00
         0.00000E+00
         0.00000E+00
         0.00000E+00
         0.00000E+00
         0.00000E+00
         0.00000E+00
         0.00000E+00
         0.00000E+00
         0.00000E+00
         0.00000E+00
         0.00000E+00
         0.00000E+00
         0.00000E+00
         0.00000E+00
         0.00000E+00
         0.00000E+00
         0.00000E+00
         0.00000E+00
         0.00000E+00
         0.00000E+00
         0.00000E+00
         0.00000E+00
         0.00000E+00
         0.00000E+00
         0.00000E+00
         0.00000E+00
         0.00000E+00
         0.00000E+00
         0.00000E+00
         0.00000E+00
         0.00000E+00
         0.00000E+00
         0.00000E+00
         0.00000E+00
         0.00000E+00
         0.00000E+00
         0.00000E+00
         0.00000E+00
         0.00000E+00
         0.00000E+00
         0.00000E+00
         0.00000E+00
         0.00000E+00
         0.00000E+00
         0.00000E+00
         0.00000E+00
         0.00000E+00
         0.00000E+00
         0.00000E+00
         0.00000E+00
         0.00000E+00
         0.00000E+00
         0.00000E+00
         0.00000E+00
         0.00000E+00
         0.00000E+00
         0.00000E+00
         0.00000E+00
         0.00000E+00
         0.00000E+00
         0.00000E+00
         0.00000E+00
         0.00000E+00
         0.00000E+00
         0.00000E+00
         0.00000E+00
         0.00000E+00
         0.00000E+00
         0.00000E+00
         0.00000E+00
         0.00000E+00
         0.00000E+00
         0.00000E+00
         0.00000E+00
         0.00000E+00
         0.00000E+00
         0.00000E+00
         0.00000E+00
         0.00000E+00
         0.00000E+00
         0.00000E+00
         0.00000E+00
         0.00000E+00
         0.00000E+00
         0.00000E+00
         0.00000E+00
         0.00000E+00
         0.00000E+00
         0.00000E+00
         0.00000E+00
         0.00000E+00
         0.00000E+00
         0.00000E+00
         0.00000E+00
         0.00000E+00
         0.00000E+00
         0.00000E+00
         0.00000E+00
         0.00000E+00
         0.00000E+00
         0.00000E+00
         0.00000E+00
         0.00000E+00
         0.00000E+00
         0.00000E+00
         0.00000E+00
         0.00000E+00
         0.00000E+00
         0.00000E+00
         0.00000E+00
         0.00000E+00
         0.00000E+00
         0.00000E+00
         0.00000E+00
         0.00000E+00
         0.00000E+00
         0.00000E+00
         0.00000E+00
         0.00000E+00
         0.00000E+00
         0.00000E+00
         0.00000E+00
         0.00000E+00
         0.00000E+00
         0.00000E+00
         0.00000E+00
         0.00000E+00
         0.00000E+00
         0.00000E+00
         0.00000E+00
         0.00000E+00
         0.00000E+00
         0.00000E+00
         0.00000E+00
         0.00000E+00
         0.00000E+00
         0.00000E+00
         0.00000E+00
         0.00000E+00
         0.00000E+00
         0.00000E+00
         0.00000E+00
         0.00000E+00
         0.00000E+00
         0.00000E+00
         0.00000E+00
         0.00000E+00
         0.00000E+00
         0.00000E+00
         0.00000E+00
         0.00000E+00
         0.00000E+00
         0.00000E+00
         0.00000E+00
         0.00000E+00
         0.00000E+00
         0.00000E+00
         0.00000E+00
         0.00000E+00
         0.00000E+00
         0.00000E+00
         0.00000E+00
         0.00000E+00
         0.00000E+00
         0.00000E+00
         0.00000E+00
         0.00000E+00
         0.00000E+00
         0.00000E+00
         0.00000E+00
         0.00000E+00
         0.00000E+00
         0.00000E+00
         0.00000E+00
         0.00000E+00
         0.00000E+00
         0.00000E+00
         0.00000E+00
         0.00000E+00
         0.00000E+00
         0.00000E+00
         0.00000E+00
         0.00000E+00
         0.00000E+00
         0.00000E+00
         0.00000E+00
         0.00000E+00
         0.00000E+00
         0.00000E+00
         0.00000E+00
         0.00000E+00
         0.00000E+00
         0.00000E+00
         0.00000E+00
         0.00000E+00
         0.00000E+00
         0.00000E+00
         0.00000E+00
         0.00000E+00
         0.00000E+00
         0.00000E+00
         0.00000E+00
         0.00000E+00
         0.00000E+00
         0.00000E+00
         0.00000E+00
         0.00000E+00
         0.00000E+00
         0.00000E+00
         0.00000E+00
         0.00000E+00
         0.00000E+00
         0.00000E+00
         0.00000E+00
         0.00000E+00
         0.00000E+00
         0.00000E+00
         0.00000E+00
         0.00000E+00
         0.00000E+00
         0.00000E+00
         0.00000E+00
         0.00000E+00
         0.00000E+00
         0.00000E+00
         0.00000E+00
         0.00000E+00
         0.00000E+00
         0.00000E+00
         0.00000E+00
         0.00000E+00
         0.00000E+00
         0.00000E+00
         0.00000E+00
         0.00000E+00
         0.00000E+00
         0.00000E+00
         0.00000E+00
         0.00000E+00
         0.00000E+00
         0.00000E+00
         0.00000E+00
         0.00000E+00
         0.00000E+00
         0.00000E+00
         0.00000E+00
         0.00000E+00
         0.00000E+00
         0.00000E+00
         0.00000E+00
         0.00000E+00
         0.00000E+00
         0.00000E+00
         0.00000E+00
         0.00000E+00
         0.00000E+00
         0.00000E+00
         0.00000E+00
         0.00000E+00
         0.00000E+00
         0.00000E+00
         0.00000E+00
         0.00000E+00
         0.00000E+00
         0.00000E+00
         0.00000E+00
         0.00000E+00
         0.00000E+00
         0.00000E+00
         0.00000E+00
         0.00000E+00
         0.00000E+00
         0.00000E+00
         0.00000E+00
         0.00000E+00
         0.00000E+00
         0.00000E+00
         0.00000E+00
         0.00000E+00
         0.00000E+00
         0.00000E+00
         0.00000E+00
         0.00000E+00
         0.00000E+00
         0.00000E+00
         0.00000E+00
         0.00000E+00
         0.00000E+00
         0.00000E+00
         0.00000E+00
         0.00000E+00
         0.00000E+00
         0.00000E+00
         0.00000E+00
         0.00000E+00
         0.00000E+00
         0.00000E+00
         0.00000E+00
         0.00000E+00
         0.00000E+00
         0.00000E+00
         0.00000E+00
         0.00000E+00
         0.00000E+00
         0.00000E+00
         0.00000E+00
         0.00000E+00
         0.00000E+00
         0.00000E+00
         0.00000E+00
         0.00000E+00
         0.00000E+00
         0.00000E+00
         0.00000E+00
         0.00000E+00
         0.00000E+00
         0.00000E+00
         0.00000E+00
         0.00000E+00
         0.00000E+00
         0.00000E+00
         0.00000E+00
         0.00000E+00
         0.00000E+00
         0.00000E+00
         0.00000E+00
         0.00000E+00
         0.00000E+00
         0.00000E+00
         0.00000E+00
         0.00000E+00
         0.00000E+00
         0.00000E+00
         0.00000E+00
         0.00000E+00
         0.00000E+00
         0.00000E+00
         0.00000E+00
         0.00000E+00
         0.00000E+00
         0.00000E+00
         0.00000E+00
         0.00000E+00
         0.00000E+00
         0.00000E+00
         0.00000E+00
         0.00000E+00
         0.00000E+00
         0.00000E+00
         0.00000E+00
         0.00000E+00
         0.00000E+00
         0.00000E+00
         0.00000E+00
         0.00000E+00
         0.00000E+00
         0.00000E+00
         0.00000E+00
         0.00000E+00
         0.00000E+00
         0.00000E+00
         0.00000E+00
         0.00000E+00
         0.00000E+00
         0.00000E+00
         0.00000E+00
         0.00000E+00
         0.00000E+00
         0.00000E+00
         0.00000E+00
         0.00000E+00
         0.00000E+00
         0.00000E+00
         0.00000E+00
         0.00000E+00
         0.00000E+00
         0.00000E+00
         0.00000E+00
         0.00000E+00
         0.00000E+00
         0.00000E+00
         0.00000E+00
         0.00000E+00
         0.00000E+00
         0.00000E+00
         0.00000E+00
         0.00000E+00
         0.00000E+00
         0.00000E+00
         0.00000E+00
         0.00000E+00
         0.00000E+00
         0.00000E+00
         0.00000E+00
         0.00000E+00
         0.00000E+00
         0.00000E+00
         0.00000E+00
         0.00000E+00
         0.00000E+00
         0.00000E+00
         0.00000E+00
         0.00000E+00
         0.00000E+00
         0.00000E+00
         0.00000E+00
         0.00000E+00
         0.00000E+00
         0.00000E+00
         0.00000E+00
         0.00000E+00
         0.00000E+00
         0.00000E+00
         0.00000E+00
         0.00000E+00
         0.00000E+00
         0.00000E+00
         0.00000E+00
         0.00000E+00
         0.00000E+00
         0.00000E+00
         0.00000E+00
         0.00000E+00
         0.00000E+00
         0.00000E+00
         0.00000E+00
         0.00000E+00
         0.00000E+00
         0.00000E+00
         0.00000E+00
         0.00000E+00
         0.00000E+00
         0.00000E+00
         0.00000E+00
         0.00000E+00
         0.00000E+00
         0.00000E+00
         0.00000E+00
         0.00000E+00
         0.00000E+00
         0.00000E+00
         0.00000E+00
         0.00000E+00
         0.00000E+00
         0.00000E+00
         0.00000E+00
         0.00000E+00
         0.00000E+00
         0.00000E+00
         0.00000E+00
         0.00000E+00
         0.00000E+00
         0.00000E+00
         0.00000E+00
         0.00000E+00
         0.00000E+00
         0.00000E+00
         0.00000E+00
         0.00000E+00
         0.00000E+00
         0.00000E+00
         0.00000E+00
         0.00000E+00
         0.00000E+00
         0.00000E+00
         0.00000E+00
         0.00000E+00
         0.00000E+00
         0.00000E+00
         0.00000E+00
         0.00000E+00
         0.00000E+00
         0.00000E+00
         0.00000E+00
         0.00000E+00
         0.00000E+00
         0.00000E+00
         0.00000E+00
         0.00000E+00
         0.00000E+00
         0.00000E+00
         0.00000E+00
         0.00000E+00
         0.00000E+00
         0.00000E+00
         0.00000E+00
         0.00000E+00
         0.00000E+00
         0.00000E+00
         0.00000E+00
         0.00000E+00
         0.00000E+00
         0.00000E+00
         0.00000E+00
         0.00000E+00
         0.00000E+00
         0.00000E+00
         0.00000E+00
         0.00000E+00
         0.00000E+00
         0.00000E+00
         0.00000E+00
         0.00000E+00
         0.00000E+00
         0.00000E+00
         0.00000E+00
         0.00000E+00
         0.00000E+00
         0.00000E+00
         0.00000E+00
         0.00000E+00
         0.00000E+00
         0.00000E+00
         0.00000E+00
         0.00000E+00
         0.00000E+00
         0.00000E+00
         0.00000E+00
         0.00000E+00
         0.00000E+00
         0.00000E+00
         0.00000E+00
         0.00000E+00
         0.00000E+00
         0.00000E+00
         0.00000E+00
         0.00000E+00
         0.00000E+00
         0.00000E+00
         0.00000E+00
         0.00000E+00
         0.00000E+00
         0.00000E+00
         0.00000E+00
         0.00000E+00
         0.00000E+00
         0.00000E+00
         0.00000E+00
         0.00000E+00
         0.00000E+00
         0.00000E+00
         0.00000E+00
         0.00000E+00
         0.00000E+00
         0.00000E+00
         0.00000E+00
         0.00000E+00
         0.00000E+00
         0.00000E+00
         0.00000E+00
         0.00000E+00
         0.00000E+00
         0.00000E+00
         0.00000E+00
         0.00000E+00
         0.00000E+00
         0.00000E+00
         0.00000E+00
         0.00000E+00
         0.00000E+00
         0.00000E+00
         0.00000E+00
         0.00000E+00
         0.00000E+00
         0.00000E+00
         0.00000E+00
         0.00000E+00
         0.00000E+00
         0.00000E+00
         0.00000E+00
         0.00000E+00
         0.00000E+00
         0.00000E+00
         0.00000E+00
         0.00000E+00
         0.00000E+00
         0.00000E+00
         0.00000E+00
         0.00000E+00
         0.00000E+00
         0.00000E+00
         0.00000E+00
         0.00000E+00
         0.00000E+00
         0.00000E+00
         0.00000E+00
         0.00000E+00
         0.00000E+00
         0.00000E+00
         0.00000E+00
         0.00000E+00
         0.00000E+00
         0.00000E+00
         0.00000E+00
         0.00000E+00
         0.00000E+00
         0.00000E+00
         0.00000E+00
         0.00000E+00
         0.00000E+00
         0.00000E+00
         0.00000E+00
         0.00000E+00
         0.00000E+00
         0.00000E+00
         0.00000E+00
         0.00000E+00
         0.00000E+00
         0.00000E+00
         0.00000E+00
         0.00000E+00
         0.00000E+00
         0.00000E+00
         0.00000E+00
         0.00000E+00
         0.00000E+00
         0.00000E+00
         0.00000E+00
         0.00000E+00
         0.00000E+00
         0.00000E+00
         0.00000E+00
         0.00000E+00
         0.00000E+00
         0.00000E+00
         0.00000E+00
         0.00000E+00
         0.00000E+00
         0.00000E+00
         0.00000E+00
         0.00000E+00
         0.00000E+00
         0.00000E+00
         0.00000E+00
         0.00000E+00
         0.00000E+00
         0.00000E+00
         0.00000E+00
         0.00000E+00
         0.00000E+00
         0.00000E+00
         0.00000E+00
         0.00000E+00
         0.00000E+00
         0.00000E+00
         0.00000E+00
         0.00000E+00
         0.00000E+00
         0.00000E+00
         0.00000E+00
         0.00000E+00
         0.00000E+00
         0.00000E+00
         0.00000E+00
         0.00000E+00
         0.00000E+00
         0.00000E+00
         0.00000E+00
         0.00000E+00
         0.00000E+00
         0.00000E+00
         0.00000E+00
         0.00000E+00
         0.00000E+00
         0.00000E+00
         0.00000E+00
         0.00000E+00
         0.00000E+00
         0.00000E+00
         0.00000E+00
         0.00000E+00
         0.00000E+00
         0.00000E+00
         0.00000E+00
         0.00000E+00
         0.00000E+00
         0.00000E+00
         0.00000E+00
         0.00000E+00
         0.00000E+00
         0.00000E+00
         0.00000E+00
         0.00000E+00
         0.00000E+00
         0.00000E+00
         0.00000E+00
         0.00000E+00
         0.00000E+00
         0.00000E+00
         0.00000E+00
         0.00000E+00
         0.00000E+00
         0.00000E+00
         0.00000E+00
         0.00000E+00
         0.00000E+00
         0.00000E+00
         0.00000E+00
         0.00000E+00
         0.00000E+00
         0.00000E+00
         0.00000E+00
         0.00000E+00
         0.00000E+00
         0.00000E+00
         0.00000E+00
         0.00000E+00
         0.00000E+00
         0.00000E+00
         0.00000E+00
         0.00000E+00
         0.00000E+00
         0.00000E+00
         0.00000E+00
         0.00000E+00
         0.00000E+00
         0.00000E+00
         0.00000E+00
         0.00000E+00
         0.00000E+00
         0.00000E+00
         0.00000E+00
         0.00000E+00
         0.00000E+00
         0.00000E+00
         0.00000E+00
         0.00000E+00
         0.00000E+00
         0.00000E+00
         0.00000E+00
         0.00000E+00
         0.00000E+00
         0.00000E+00
         0.00000E+00
         0.00000E+00
         0.00000E+00
         0.00000E+00
         0.00000E+00
         0.00000E+00
         0.00000E+00
         0.00000E+00
         0.00000E+00
         0.00000E+00
         0.00000E+00
         0.00000E+00
         0.00000E+00
         0.00000E+00
         0.00000E+00
         0.00000E+00
         0.00000E+00
         0.00000E+00
         0.00000E+00
         0.00000E+00
         0.00000E+00
         0.00000E+00
         0.00000E+00
         0.00000E+00
         0.00000E+00
         0.00000E+00
         0.00000E+00
         0.00000E+00
         0.00000E+00
         0.00000E+00
         0.00000E+00
         0.00000E+00
         0.00000E+00
         0.00000E+00
         0.00000E+00
         0.00000E+00
         0.00000E+00
         0.00000E+00
         0.00000E+00
         0.00000E+00
         0.00000E+00
         0.00000E+00
         0.00000E+00
         0.00000E+00
         0.00000E+00
         0.00000E+00
         0.00000E+00
         0.00000E+00
         0.00000E+00
         0.00000E+00
         0.00000E+00
         0.00000E+00
         0.00000E+00
         0.00000E+00
         0.00000E+00
         0.00000E+00
         0.00000E+00
         0.00000E+00
         0.00000E+00
         0.00000E+00
         0.00000E+00
         0.00000E+00
         0.00000E+00
         0.00000E+00
         0.00000E+00
         0.00000E+00
         0.00000E+00
         0.00000E+00
         0.00000E+00
         0.00000E+00
         0.00000E+00
         0.00000E+00
         0.00000E+00
         0.00000E+00
         0.00000E+00
         0.00000E+00
         0.00000E+00
         0.00000E+00
         0.00000E+00
         0.00000E+00
         0.00000E+00
         0.00000E+00
         0.00000E+00
         0.00000E+00
         0.00000E+00
         0.00000E+00
         0.00000E+00
         0.00000E+00
         0.00000E+00
         0.00000E+00
         0.00000E+00
         0.00000E+00
         0.00000E+00
         0.00000E+00
         0.00000E+00
         0.00000E+00
         0.00000E+00
         0.00000E+00
         0.00000E+00
         0.00000E+00
         0.00000E+00
         0.00000E+00
         0.00000E+00
         0.00000E+00
         0.00000E+00
         0.00000E+00
         0.00000E+00
         0.00000E+00
         0.00000E+00
         0.00000E+00
         0.00000E+00
         0.00000E+00
         0.00000E+00
         0.00000E+00
         0.00000E+00
         0.00000E+00
         0.00000E+00
         0.00000E+00
         0.00000E+00
         0.00000E+00
         0.00000E+00
         0.00000E+00
         0.00000E+00
         0.00000E+00
         0.00000E+00
         0.00000E+00
         0.00000E+00
         0.00000E+00
         0.00000E+00
         0.00000E+00
         0.00000E+00
         0.00000E+00
         0.00000E+00
         0.00000E+00
         0.00000E+00
         0.00000E+00
         0.00000E+00
         0.00000E+00
         0.00000E+00
         0.00000E+00
         0.00000E+00
         0.00000E+00
         0.00000E+00
         0.00000E+00
         0.00000E+00
         0.00000E+00
         0.00000E+00
         0.00000E+00
         0.00000E+00
         0.00000E+00
         0.00000E+00
         0.00000E+00
         0.00000E+00
         0.00000E+00
         0.00000E+00
         0.00000E+00
         0.00000E+00
         0.00000E+00
         0.00000E+00
         0.00000E+00
         0.00000E+00
         0.00000E+00
         0.00000E+00
         0.00000E+00
         0.00000E+00
         0.00000E+00
         0.00000E+00
         0.00000E+00
         0.00000E+00
         0.00000E+00
         0.00000E+00
         0.00000E+00
         0.00000E+00
         0.00000E+00
         0.00000E+00
         0.00000E+00
         0.00000E+00
         0.00000E+00
         0.00000E+00
         0.00000E+00
         0.00000E+00
         0.00000E+00
         0.00000E+00
         0.00000E+00
         0.00000E+00
         0.00000E+00
         0.00000E+00
         0.00000E+00
         0.00000E+00
         0.00000E+00
         0.00000E+00
         0.00000E+00
         0.00000E+00
         0.00000E+00
         0.00000E+00
         0.00000E+00
         0.00000E+00
         0.00000E+00
         0.00000E+00
         0.00000E+00
         0.00000E+00
         0.00000E+00
         0.00000E+00
         0.00000E+00
         0.00000E+00
         0.00000E+00
         0.00000E+00
         0.00000E+00
         0.00000E+00
         0.00000E+00
         0.00000E+00
         0.00000E+00
         0.00000E+00
         0.00000E+00
         0.00000E+00
         0.00000E+00
         0.00000E+00
         0.00000E+00
         0.00000E+00
         0.00000E+00
         0.00000E+00
         0.00000E+00
         0.00000E+00
         0.00000E+00
         0.00000E+00
         0.00000E+00
         0.00000E+00
         0.00000E+00
         0.00000E+00
         0.00000E+00
         0.00000E+00
         0.00000E+00
         0.00000E+00
         0.00000E+00
         0.00000E+00
         0.00000E+00
         0.00000E+00
         0.00000E+00
         0.00000E+00
         0.00000E+00
         0.00000E+00
         0.00000E+00
         0.00000E+00
         0.00000E+00
         0.00000E+00
         0.00000E+00
         0.00000E+00
         0.00000E+00
         0.00000E+00
         0.00000E+00
         0.00000E+00
         0.00000E+00
         0.00000E+00
         0.00000E+00
         0.00000E+00
         0.00000E+00
         0.00000E+00
         0.00000E+00
         0.00000E+00
         0.00000E+00
         0.00000E+00
         0.00000E+00
         0.00000E+00
         0.00000E+00
         0.00000E+00
         0.00000E+00
         0.00000E+00
         0.00000E+00
         0.00000E+00
         0.00000E+00
         0.00000E+00
         0.00000E+00
         0.00000E+00
         0.00000E+00
         0.00000E+00
         0.00000E+00
         0.00000E+00
         0.00000E+00
         0.00000E+00
         0.00000E+00
         0.00000E+00
         0.00000E+00
         0.00000E+00
         0.00000E+00
         0.00000E+00
         0.00000E+00
         0.00000E+00
         0.00000E+00
         0.00000E+00
         0.00000E+00
         0.00000E+00
         0.00000E+00
         0.00000E+00
         0.00000E+00
         0.00000E+00
         0.00000E+00
         0.00000E+00
         0.00000E+00
         0.00000E+00
         0.00000E+00
         0.00000E+00
         0.00000E+00
         0.00000E+00
         0.00000E+00
         0.00000E+00
         0.00000E+00
         0.00000E+00
         0.00000E+00
         0.00000E+00
         0.00000E+00
         0.00000E+00
         0.00000E+00
         0.00000E+00
         0.00000E+00
         0.00000E+00
         0.00000E+00
         0.00000E+00
         0.00000E+00
         0.00000E+00
         0.00000E+00
         0.00000E+00
         0.00000E+00
         0.00000E+00
         0.00000E+00
         0.00000E+00
         0.00000E+00
         0.00000E+00
         0.00000E+00
         0.00000E+00
         0.00000E+00
         0.00000E+00
         0.00000E+00
         0.00000E+00
         0.00000E+00
         0.00000E+00
         0.00000E+00
         0.00000E+00
         0.00000E+00
         0.00000E+00
         0.00000E+00
         0.00000E+00
         0.00000E+00
         0.00000E+00
         0.00000E+00
         0.00000E+00
         0.00000E+00
         0.00000E+00
         0.00000E+00
         0.00000E+00
         0.00000E+00
         0.00000E+00
         0.00000E+00
         0.00000E+00
         0.00000E+00
         0.00000E+00
         0.00000E+00
         0.00000E+00
         0.00000E+00
         0.00000E+00
         0.00000E+00
         0.00000E+00
         0.00000E+00
         0.00000E+00
         0.00000E+00
         0.00000E+00
         0.00000E+00
         0.00000E+00
         0.00000E+00
         0.00000E+00
         0.00000E+00
         0.00000E+00
         0.00000E+00
         0.00000E+00
         0.00000E+00
         0.00000E+00
         0.00000E+00
         0.00000E+00
         0.00000E+00
         0.00000E+00
         0.00000E+00
         0.00000E+00
         0.00000E+00
         0.00000E+00
         0.00000E+00
         0.00000E+00
         0.00000E+00
         0.00000E+00
         0.00000E+00
         0.00000E+00
         0.00000E+00
         0.00000E+00
         0.00000E+00
         0.00000E+00
         0.00000E+00
         0.00000E+00
         0.00000E+00
         0.00000E+00
         0.00000E+00
         0.00000E+00
         0.00000E+00
         0.00000E+00
         0.00000E+00
         0.00000E+00
         0.00000E+00
         0.00000E+00
         0.00000E+00
         0.00000E+00
         0.00000E+00
         0.00000E+00
         0.00000E+00
         0.00000E+00
         0.00000E+00
         0.00000E+00
         0.00000E+00
         0.00000E+00
         0.00000E+00
         0.00000E+00
         0.00000E+00
         0.00000E+00
         0.00000E+00
         0.00000E+00
         0.00000E+00
         0.00000E+00
         0.00000E+00
         0.00000E+00
         0.00000E+00
         0.00000E+00
         0.00000E+00
         0.00000E+00
         0.00000E+00
         0.00000E+00
         0.00000E+00
         0.00000E+00
         0.00000E+00
         0.00000E+00
         0.00000E+00
         0.00000E+00
         0.00000E+00
         0.00000E+00
         0.00000E+00
         0.00000E+00
         0.00000E+00
         0.00000E+00
         0.00000E+00
         0.00000E+00
         0.00000E+00
         0.00000E+00
         0.00000E+00
         0.00000E+00
         0.00000E+00
         0.00000E+00
         0.00000E+00
         0.00000E+00
         0.00000E+00
         0.00000E+00
         0.00000E+00
         0.00000E+00
         0.00000E+00
         0.00000E+00
         0.00000E+00
         0.00000E+00
         0.00000E+00
         0.00000E+00
         0.00000E+00
         0.00000E+00
         0.00000E+00
         0.00000E+00
         0.00000E+00
         0.00000E+00
         0.00000E+00
         0.00000E+00
         0.00000E+00
         0.00000E+00
         0.00000E+00
         0.00000E+00
         0.00000E+00
         0.00000E+00
         0.00000E+00
         0.00000E+00
         0.00000E+00
         0.00000E+00
         0.00000E+00
         0.00000E+00
         0.00000E+00
         0.00000E+00
         0.00000E+00
         0.00000E+00
         0.00000E+00
         0.00000E+00
         0.00000E+00
         0.00000E+00
         0.00000E+00
         0.00000E+00
         0.00000E+00
         0.00000E+00
         0.00000E+00
         0.00000E+00
         0.00000E+00
         0.00000E+00
         0.00000E+00
         0.00000E+00
         0.00000E+00
         0.00000E+00
         0.00000E+00
         0.00000E+00
         0.00000E+00
         0.00000E+00
         0.00000E+00
         0.00000E+00
         0.00000E+00
         0.00000E+00
         0.00000E+00
         0.00000E+00
         0.00000E+00
         0.00000E+00
         0.00000E+00
         0.00000E+00
         0.00000E+00
         0.00000E+00
         0.00000E+00
         0.00000E+00
         0.00000E+00
         0.00000E+00
         0.00000E+00
         0.00000E+00
         0.00000E+00
         0.00000E+00
         0.00000E+00
         0.00000E+00
         0.00000E+00
         0.00000E+00
         0.00000E+00
         0.00000E+00
         0.00000E+00
         0.00000E+00
         0.00000E+00
         0.00000E+00
         0.00000E+00
         0.00000E+00
         0.00000E+00
         0.00000E+00
         0.00000E+00
         0.00000E+00
         0.00000E+00
         0.00000E+00
         0.00000E+00
         0.00000E+00
         0.00000E+00
         0.00000E+00
         0.00000E+00
         0.00000E+00
         0.00000E+00
         0.00000E+00
         0.00000E+00
         0.00000E+00
         0.00000E+00
         0.00000E+00
         0.00000E+00
         0.00000E+00
         0.00000E+00
         0.00000E+00
         0.00000E+00
         0.00000E+00
         0.00000E+00
         0.00000E+00
         0.00000E+00
         0.00000E+00
         0.00000E+00
         0.00000E+00
         0.00000E+00
         0.00000E+00
         0.00000E+00
         0.00000E+00
         0.00000E+00
         0.00000E+00
         0.00000E+00
         0.00000E+00
         0.00000E+00
         0.00000E+00
         0.00000E+00
         0.00000E+00
         0.00000E+00
         0.00000E+00
         0.00000E+00
         0.00000E+00
         0.00000E+00
         0.00000E+00
         0.00000E+00
         0.00000E+00
         0.00000E+00
         0.00000E+00
         0.00000E+00
         0.00000E+00
         0.00000E+00
         0.00000E+00
         0.00000E+00
         0.00000E+00
         0.00000E+00
         0.00000E+00
         0.00000E+00
         0.00000E+00
         0.00000E+00
         0.00000E+00
         0.00000E+00
         0.00000E+00
         0.00000E+00
         0.00000E+00
         0.00000E+00
         0.00000E+00
         0.00000E+00
         0.00000E+00
         0.00000E+00
         0.00000E+00
         0.00000E+00
         0.00000E+00
         0.00000E+00
         0.00000E+00
         0.00000E+00
         0.00000E+00
         0.00000E+00
         0.00000E+00
         0.00000E+00
         0.00000E+00
         0.00000E+00
         0.00000E+00
         0.00000E+00
         0.00000E+00
         0.00000E+00
         0.00000E+00
         0.00000E+00
         0.00000E+00
         0.00000E+00
         0.00000E+00
         0.00000E+00
         0.00000E+00
         0.00000E+00
         0.00000E+00
         0.00000E+00
         0.00000E+00
         0.00000E+00
         0.00000E+00
         0.00000E+00
         0.00000E+00
         0.00000E+00
         0.00000E+00
         0.00000E+00
         0.00000E+00
         0.00000E+00
         0.00000E+00
         0.00000E+00
         0.00000E+00
         0.00000E+00
         0.00000E+00
         0.00000E+00
         0.00000E+00
         0.00000E+00
         0.00000E+00
         0.00000E+00
         0.00000E+00
         0.00000E+00
         0.00000E+00
         0.00000E+00
         0.00000E+00
         0.00000E+00
         0.00000E+00
         0.00000E+00
         0.00000E+00
         0.00000E+00
         0.00000E+00
         0.00000E+00
         0.00000E+00
         0.00000E+00
         0.00000E+00
         0.00000E+00
         0.00000E+00
         0.00000E+00
         0.00000E+00
         0.00000E+00
         0.00000E+00
         0.00000E+00
         0.00000E+00
         0.00000E+00
         0.00000E+00
         0.00000E+00
         0.00000E+00
         0.00000E+00
         0.00000E+00
         0.00000E+00
         0.00000E+00
         0.00000E+00
         0.00000E+00
         0.00000E+00
         0.00000E+00
         0.00000E+00
         0.00000E+00
         0.00000E+00
         0.00000E+00
         0.00000E+00
         0.00000E+00
         0.00000E+00
         0.00000E+00
         0.00000E+00
         0.00000E+00
         0.00000E+00
         0.00000E+00
         0.00000E+00
         0.00000E+00
         0.00000E+00
         0.00000E+00
         0.00000E+00
         0.00000E+00
         0.00000E+00
         0.00000E+00
         0.00000E+00
         0.00000E+00
         0.00000E+00
         0.00000E+00
         0.00000E+00
         0.00000E+00
         0.00000E+00
         0.00000E+00
         0.00000E+00
         0.00000E+00
         0.00000E+00
         0.00000E+00
         0.00000E+00
         0.00000E+00
         0.00000E+00
         0.00000E+00
         0.00000E+00
         0.00000E+00
         0.00000E+00
         0.00000E+00
         0.00000E+00
         0.00000E+00
         0.00000E+00
         0.00000E+00
         0.00000E+00
         0.00000E+00
         0.00000E+00
         0.00000E+00
         0.00000E+00
         0.00000E+00
         0.00000E+00
         0.00000E+00
         0.00000E+00
         0.00000E+00
         0.00000E+00
         0.00000E+00
         0.00000E+00
         0.00000E+00
         0.00000E+00
         0.00000E+00
         0.00000E+00
         0.00000E+00
         0.00000E+00
         0.00000E+00
         0.00000E+00
         0.00000E+00
         0.00000E+00
         0.00000E+00
         0.00000E+00
         0.00000E+00
         0.00000E+00
         0.00000E+00
         0.00000E+00
         0.00000E+00
         0.00000E+00
         0.00000E+00
         0.00000E+00
         0.00000E+00
         0.00000E+00
         0.00000E+00
         0.00000E+00
         0.00000E+00
         0.00000E+00
         0.00000E+00
         0.00000E+00
         0.00000E+00
         0.00000E+00
         0.00000E+00
         0.00000E+00
         0.00000E+00
         0.00000E+00
         0.00000E+00
         0.00000E+00
         0.00000E+00
         0.00000E+00
         0.00000E+00
         0.00000E+00
         0.00000E+00
         0.00000E+00
         0.00000E+00
         0.00000E+00
         0.00000E+00
         0.00000E+00
         0.00000E+00
         0.00000E+00
         0.00000E+00
         0.00000E+00
         0.00000E+00
         0.00000E+00
         0.00000E+00
         0.00000E+00
         0.00000E+00
         0.00000E+00
         0.00000E+00
         0.00000E+00
         0.00000E+00
         0.00000E+00
         0.00000E+00
         0.00000E+00
         0.00000E+00
         0.00000E+00
         0.00000E+00
         0.00000E+00
         0.00000E+00
         0.00000E+00
         0.00000E+00
         0.00000E+00
         0.00000E+00
         0.00000E+00
         0.00000E+00
         0.00000E+00
         0.00000E+00
         0.00000E+00
         0.00000E+00
         0.00000E+00
         0.00000E+00
         0.00000E+00
         0.00000E+00
         0.00000E+00
         0.00000E+00
         0.00000E+00
         0.00000E+00
         0.00000E+00
         0.00000E+00
         0.00000E+00
         0.00000E+00
         0.00000E+00
         0.00000E+00
         0.00000E+00
         0.00000E+00
         0.00000E+00
         0.00000E+00
         0.00000E+00
         0.00000E+00
         0.00000E+00
         0.00000E+00
         0.00000E+00
         0.00000E+00
         0.00000E+00
         0.00000E+00
         0.00000E+00
         0.00000E+00
         0.00000E+00
         0.00000E+00
         0.00000E+00
         0.00000E+00
         0.00000E+00
         0.00000E+00
         0.00000E+00
         0.00000E+00
         0.00000E+00
         0.00000E+00
         0.00000E+00
         0.00000E+00
         0.00000E+00
         0.00000E+00
         0.00000E+00
         0.00000E+00
         0.00000E+00
         0.00000E+00
         0.00000E+00
         0.00000E+00
         0.00000E+00
         0.00000E+00
         0.00000E+00
         0.00000E+00
         0.00000E+00
         0.00000E+00
         0.00000E+00
         0.00000E+00
         0.00000E+00
         0.00000E+00
         0.00000E+00
         0.00000E+00
         0.00000E+00
         0.00000E+00
         0.00000E+00
         0.00000E+00
         0.00000E+00
         0.00000E+00
         0.00000E+00
         0.00000E+00
         0.00000E+00
         0.00000E+00
         0.00000E+00
         0.00000E+00
         0.00000E+00
         0.00000E+00
         0.00000E+00
         0.00000E+00
         0.00000E+00
         0.00000E+00
         0.00000E+00
         0.00000E+00
         0.00000E+00
         0.00000E+00
         0.00000E+00
         0.00000E+00
         0.00000E+00
         0.00000E+00
         0.00000E+00
         0.00000E+00
         0.00000E+00
         0.00000E+00
         0.00000E+00
         0.00000E+00
         0.00000E+00
         0.00000E+00
         0.00000E+00
         0.00000E+00
         0.00000E+00
         0.00000E+00
         0.00000E+00
         0.00000E+00
         0.00000E+00
         0.00000E+00
         0.00000E+00
         0.00000E+00
         0.00000E+00
         0.00000E+00
         0.00000E+00
         0.00000E+00
         0.00000E+00
         0.00000E+00
         0.00000E+00
         0.00000E+00
         0.00000E+00
         0.00000E+00
         0.00000E+00
         0.00000E+00
         0.00000E+00
         0.00000E+00
         0.00000E+00
         0.00000E+00
         0.00000E+00
         0.00000E+00
         0.00000E+00
         0.00000E+00
         0.00000E+00
         0.00000E+00
         0.00000E+00
         0.00000E+00
         0.00000E+00
         0.00000E+00
         0.00000E+00
         0.00000E+00
         0.00000E+00
         0.00000E+00
         0.00000E+00
         0.00000E+00
         0.00000E+00
         0.00000E+00
         0.00000E+00
         0.00000E+00
         0.00000E+00
         0.00000E+00
         0.00000E+00
         0.00000E+00
         0.00000E+00
         0.00000E+00
         0.00000E+00
         0.00000E+00
         0.00000E+00
         0.00000E+00
         0.00000E+00
         0.00000E+00
         0.00000E+00
         0.00000E+00
         0.00000E+00
         0.00000E+00
         0.00000E+00
         0.00000E+00
         0.00000E+00
         0.00000E+00
         0.00000E+00
         0.00000E+00
         0.00000E+00
         0.00000E+00
         0.00000E+00
         0.00000E+00
         0.00000E+00
         0.00000E+00
         0.00000E+00
         0.00000E+00
         0.00000E+00
         0.00000E+00
         0.00000E+00
         0.00000E+00
         0.00000E+00
         0.00000E+00
         0.00000E+00
         0.00000E+00
         0.00000E+00
         0.00000E+00
         0.00000E+00
         0.00000E+00
         0.00000E+00
         0.00000E+00
         0.00000E+00
         0.00000E+00
         0.00000E+00
         0.00000E+00
         0.00000E+00
         0.00000E+00
         0.00000E+00
         0.00000E+00
         0.00000E+00
         0.00000E+00
         0.00000E+00
         0.00000E+00
         0.00000E+00
         0.00000E+00
         0.00000E+00
         0.00000E+00
         0.00000E+00
         0.00000E+00
         0.00000E+00
         0.00000E+00
         0.00000E+00
         0.00000E+00
         0.00000E+00
         0.00000E+00
         0.00000E+00
         0.00000E+00
         0.00000E+00
         0.00000E+00
         0.00000E+00
         0.00000E+00
         0.00000E+00
         0.00000E+00
         0.00000E+00
         0.00000E+00
         0.00000E+00
         0.00000E+00
         0.00000E+00
         0.00000E+00
         0.00000E+00
         0.00000E+00
         0.00000E+00
         0.00000E+00
         0.00000E+00
         0.00000E+00
         0.00000E+00
         0.00000E+00
         0.00000E+00
         0.00000E+00
         0.00000E+00
         0.00000E+00
         0.00000E+00
         0.00000E+00
         0.00000E+00
         0.00000E+00
         0.00000E+00
         0.00000E+00
         0.00000E+00
         0.00000E+00
         0.00000E+00
         0.00000E+00
         0.00000E+00
         0.00000E+00
         0.00000E+00
         0.00000E+00
         0.00000E+00
         0.00000E+00
         0.00000E+00
         0.00000E+00
         0.00000E+00
         0.00000E+00
         0.00000E+00
         0.00000E+00
         0.00000E+00
         0.00000E+00
         0.00000E+00
         0.00000E+00
         0.00000E+00
         0.00000E+00
         0.00000E+00
         0.00000E+00
         0.00000E+00
         0.00000E+00
         0.00000E+00
         0.00000E+00
         0.00000E+00
         0.00000E+00
         0.00000E+00
         0.00000E+00
         0.00000E+00
         0.00000E+00
         0.00000E+00
         0.00000E+00
         0.00000E+00
         0.00000E+00
         0.00000E+00
         0.00000E+00
         0.00000E+00
         0.00000E+00
         0.00000E+00
         0.00000E+00
         0.00000E+00
         0.00000E+00
         0.00000E+00
         0.00000E+00
         0.00000E+00
         0.00000E+00
         0.00000E+00
         0.00000E+00
         0.00000E+00
         0.00000E+00
         0.00000E+00
         0.00000E+00
         0.00000E+00
         0.00000E+00
         0.00000E+00
         0.00000E+00
         0.00000E+00
         0.00000E+00
         0.00000E+00
         0.00000E+00
         0.00000E+00
         0.00000E+00
         0.00000E+00
         0.00000E+00
         0.00000E+00
         0.00000E+00
         0.00000E+00
         0.00000E+00
         0.00000E+00
         0.00000E+00
         0.00000E+00
         0.00000E+00
         0.00000E+00
         0.00000E+00
         0.00000E+00
         0.00000E+00
         0.00000E+00
         0.00000E+00
         0.00000E+00
         0.00000E+00
         0.00000E+00
         0.00000E+00
         0.00000E+00
         0.00000E+00
         0.00000E+00
         0.00000E+00
         0.00000E+00
         0.00000E+00
         0.00000E+00
         0.00000E+00
         0.00000E+00
         0.00000E+00
         0.00000E+00
         0.00000E+00
         0.00000E+00
         0.00000E+00
         0.00000E+00
         0.00000E+00
         0.00000E+00
         0.00000E+00
         0.00000E+00
         0.00000E+00
         0.00000E+00
         0.00000E+00
         0.00000E+00
         0.00000E+00
         0.00000E+00
         0.00000E+00
  
SCALARS                      eps_shear  double 1
LOOKUP_TABLE default
         0.00000E+00
         0.00000E+00
         0.00000E+00
         0.00000E+00
         0.00000E+00
         0.00000E+00
         0.00000E+00
         0.00000E+00
         0.00000E+00
         0.00000E+00
         0.00000E+00
         0.00000E+00
         0.00000E+00
         0.00000E+00
         0.00000E+00
         0.00000E+00
         0.00000E+00
         0.00000E+00
         0.00000E+00
         0.00000E+00
         0.00000E+00
         0.00000E+00
         0.00000E+00
         0.00000E+00
         0.00000E+00
         0.00000E+00
         0.00000E+00
         0.00000E+00
         0.00000E+00
         0.00000E+00
         0.00000E+00
         0.00000E+00
         0.00000E+00
         0.00000E+00
         0.00000E+00
         0.00000E+00
         0.00000E+00
         0.00000E+00
         0.00000E+00
         0.00000E+00
         0.00000E+00
         0.00000E+00
         0.00000E+00
         0.00000E+00
         0.00000E+00
         0.00000E+00
         0.00000E+00
         0.00000E+00
         0.00000E+00
         0.00000E+00
         0.00000E+00
         0.00000E+00
         0.00000E+00
         0.00000E+00
         0.00000E+00
         0.00000E+00
         0.00000E+00
         0.00000E+00
         0.00000E+00
         0.00000E+00
         0.00000E+00
         0.00000E+00
         0.00000E+00
         0.00000E+00
         0.00000E+00
         0.00000E+00
         0.00000E+00
         0.00000E+00
         0.00000E+00
         0.00000E+00
         0.00000E+00
         0.00000E+00
         0.00000E+00
         0.00000E+00
         0.00000E+00
         0.00000E+00
         0.00000E+00
         0.00000E+00
         0.00000E+00
         0.00000E+00
         0.00000E+00
         0.00000E+00
         0.00000E+00
         0.00000E+00
         0.00000E+00
         0.00000E+00
         0.00000E+00
         0.00000E+00
         0.00000E+00
         0.00000E+00
         0.00000E+00
         0.00000E+00
         0.00000E+00
         0.00000E+00
         0.00000E+00
         0.00000E+00
         0.00000E+00
         0.00000E+00
         0.00000E+00
         0.00000E+00
         0.00000E+00
         0.00000E+00
         0.00000E+00
         0.00000E+00
         0.00000E+00
         0.00000E+00
         0.00000E+00
         0.00000E+00
         0.00000E+00
         0.00000E+00
         0.00000E+00
         0.00000E+00
         0.00000E+00
         0.00000E+00
         0.00000E+00
         0.00000E+00
         0.00000E+00
         0.00000E+00
         0.00000E+00
         0.00000E+00
         0.00000E+00
         0.00000E+00
         0.00000E+00
         0.00000E+00
         0.00000E+00
         0.00000E+00
         0.00000E+00
         0.00000E+00
         0.00000E+00
         0.00000E+00
         0.00000E+00
         0.00000E+00
         0.00000E+00
         0.00000E+00
         0.00000E+00
         0.00000E+00
         0.00000E+00
         0.00000E+00
         0.00000E+00
         0.00000E+00
         0.00000E+00
         0.00000E+00
         0.00000E+00
         0.00000E+00
         0.00000E+00
         0.00000E+00
         0.00000E+00
         0.00000E+00
         0.00000E+00
         0.00000E+00
         0.00000E+00
         0.00000E+00
         0.00000E+00
         0.00000E+00
         0.00000E+00
         0.00000E+00
         0.00000E+00
         0.00000E+00
         0.00000E+00
         0.00000E+00
         0.00000E+00
         0.00000E+00
         0.00000E+00
         0.00000E+00
         0.00000E+00
         0.00000E+00
         0.00000E+00
         0.00000E+00
         0.00000E+00
         0.00000E+00
         0.00000E+00
         0.00000E+00
         0.00000E+00
         0.00000E+00
         0.00000E+00
         0.00000E+00
         0.00000E+00
         0.00000E+00
         0.00000E+00
         0.00000E+00
         0.00000E+00
         0.00000E+00
         0.00000E+00
         0.00000E+00
         0.00000E+00
         0.00000E+00
         0.00000E+00
         0.00000E+00
         0.00000E+00
         0.00000E+00
         0.00000E+00
         0.00000E+00
         0.00000E+00
         0.00000E+00
         0.00000E+00
         0.00000E+00
         0.00000E+00
         0.00000E+00
         0.00000E+00
         0.00000E+00
         0.00000E+00
         0.00000E+00
         0.00000E+00
         0.00000E+00
         0.00000E+00
         0.00000E+00
         0.00000E+00
         0.00000E+00
         0.00000E+00
         0.00000E+00
         0.00000E+00
         0.00000E+00
         0.00000E+00
         0.00000E+00
         0.00000E+00
         0.00000E+00
         0.00000E+00
         0.00000E+00
         0.00000E+00
         0.00000E+00
         0.00000E+00
         0.00000E+00
         0.00000E+00
         0.00000E+00
         0.00000E+00
         0.00000E+00
         0.00000E+00
         0.00000E+00
         0.00000E+00
         0.00000E+00
         0.00000E+00
         0.00000E+00
         0.00000E+00
         0.00000E+00
         0.00000E+00
         0.00000E+00
         0.00000E+00
         0.00000E+00
         0.00000E+00
         0.00000E+00
         0.00000E+00
         0.00000E+00
         0.00000E+00
         0.00000E+00
         0.00000E+00
         0.00000E+00
         0.00000E+00
         0.00000E+00
         0.00000E+00
         0.00000E+00
         0.00000E+00
         0.00000E+00
         0.00000E+00
         0.00000E+00
         0.00000E+00
         0.00000E+00
         0.00000E+00
         0.00000E+00
         0.00000E+00
         0.00000E+00
         0.00000E+00
         0.00000E+00
         0.00000E+00
         0.00000E+00
         0.00000E+00
         0.00000E+00
         0.00000E+00
         0.00000E+00
         0.00000E+00
         0.00000E+00
         0.00000E+00
         0.00000E+00
         0.00000E+00
         0.00000E+00
         0.00000E+00
         0.00000E+00
         0.00000E+00
         0.00000E+00
         0.00000E+00
         0.00000E+00
         0.00000E+00
         0.00000E+00
         0.00000E+00
         0.00000E+00
         0.00000E+00
         0.00000E+00
         0.00000E+00
         0.00000E+00
         0.00000E+00
         0.00000E+00
         0.00000E+00
         0.00000E+00
         0.00000E+00
         0.00000E+00
         0.00000E+00
         0.00000E+00
         0.00000E+00
         0.00000E+00
         0.00000E+00
         0.00000E+00
         0.00000E+00
         0.00000E+00
         0.00000E+00
         0.00000E+00
         0.00000E+00
         0.00000E+00
         0.00000E+00
         0.00000E+00
         0.00000E+00
         0.00000E+00
         0.00000E+00
         0.00000E+00
         0.00000E+00
         0.00000E+00
         0.00000E+00
         0.00000E+00
         0.00000E+00
         0.00000E+00
         0.00000E+00
         0.00000E+00
         0.00000E+00
         0.00000E+00
         0.00000E+00
         0.00000E+00
         0.00000E+00
         0.00000E+00
         0.00000E+00
         0.00000E+00
         0.00000E+00
         0.00000E+00
         0.00000E+00
         0.00000E+00
         0.00000E+00
         0.00000E+00
         0.00000E+00
         0.00000E+00
         0.00000E+00
         0.00000E+00
         0.00000E+00
         0.00000E+00
         0.00000E+00
         0.00000E+00
         0.00000E+00
         0.00000E+00
         0.00000E+00
         0.00000E+00
         0.00000E+00
         0.00000E+00
         0.00000E+00
         0.00000E+00
         0.00000E+00
         0.00000E+00
         0.00000E+00
         0.00000E+00
         0.00000E+00
         0.00000E+00
         0.00000E+00
         0.00000E+00
         0.00000E+00
         0.00000E+00
         0.00000E+00
         0.00000E+00
         0.00000E+00
         0.00000E+00
         0.00000E+00
         0.00000E+00
         0.00000E+00
         0.00000E+00
         0.00000E+00
         0.00000E+00
         0.00000E+00
         0.00000E+00
         0.00000E+00
         0.00000E+00
         0.00000E+00
         0.00000E+00
         0.00000E+00
         0.00000E+00
         0.00000E+00
         0.00000E+00
         0.00000E+00
         0.00000E+00
         0.00000E+00
         0.00000E+00
         0.00000E+00
         0.00000E+00
         0.00000E+00
         0.00000E+00
         0.00000E+00
         0.00000E+00
         0.00000E+00
         0.00000E+00
         0.00000E+00
         0.00000E+00
         0.00000E+00
         0.00000E+00
         0.00000E+00
         0.00000E+00
         0.00000E+00
         0.00000E+00
         0.00000E+00
         0.00000E+00
         0.00000E+00
         0.00000E+00
         0.00000E+00
         0.00000E+00
         0.00000E+00
         0.00000E+00
         0.00000E+00
         0.00000E+00
         0.00000E+00
         0.00000E+00
         0.00000E+00
         0.00000E+00
         0.00000E+00
         0.00000E+00
         0.00000E+00
         0.00000E+00
         0.00000E+00
         0.00000E+00
         0.00000E+00
         0.00000E+00
         0.00000E+00
         0.00000E+00
         0.00000E+00
         0.00000E+00
         0.00000E+00
         0.00000E+00
         0.00000E+00
         0.00000E+00
         0.00000E+00
         0.00000E+00
         0.00000E+00
         0.00000E+00
         0.00000E+00
         0.00000E+00
         0.00000E+00
         0.00000E+00
         0.00000E+00
         0.00000E+00
         0.00000E+00
         0.00000E+00
         0.00000E+00
         0.00000E+00
         0.00000E+00
         0.00000E+00
         0.00000E+00
         0.00000E+00
         0.00000E+00
         0.00000E+00
         0.00000E+00
         0.00000E+00
         0.00000E+00
         0.00000E+00
         0.00000E+00
         0.00000E+00
         0.00000E+00
         0.00000E+00
         0.00000E+00
         0.00000E+00
         0.00000E+00
         0.00000E+00
         0.00000E+00
         0.00000E+00
         0.00000E+00
         0.00000E+00
         0.00000E+00
         0.00000E+00
         0.00000E+00
         0.00000E+00
         0.00000E+00
         0.00000E+00
         0.00000E+00
         0.00000E+00
         0.00000E+00
         0.00000E+00
         0.00000E+00
         0.00000E+00
         0.00000E+00
         0.00000E+00
         0.00000E+00
         0.00000E+00
         0.00000E+00
         0.00000E+00
         0.00000E+00
         0.00000E+00
         0.00000E+00
         0.00000E+00
         0.00000E+00
         0.00000E+00
         0.00000E+00
         0.00000E+00
         0.00000E+00
         0.00000E+00
         0.00000E+00
         0.00000E+00
         0.00000E+00
         0.00000E+00
         0.00000E+00
         0.00000E+00
         0.00000E+00
         0.00000E+00
         0.00000E+00
         0.00000E+00
         0.00000E+00
         0.00000E+00
         0.00000E+00
         0.00000E+00
         0.00000E+00
         0.00000E+00
         0.00000E+00
         0.00000E+00
         0.00000E+00
         0.00000E+00
         0.00000E+00
         0.00000E+00
         0.00000E+00
         0.00000E+00
         0.00000E+00
         0.00000E+00
         0.00000E+00
         0.00000E+00
         0.00000E+00
         0.00000E+00
         0.00000E+00
         0.00000E+00
         0.00000E+00
         0.00000E+00
         0.00000E+00
         0.00000E+00
         0.00000E+00
         0.00000E+00
         0.00000E+00
         0.00000E+00
         0.00000E+00
         0.00000E+00
         0.00000E+00
         0.00000E+00
         0.00000E+00
         0.00000E+00
         0.00000E+00
         0.00000E+00
         0.00000E+00
         0.00000E+00
         0.00000E+00
         0.00000E+00
         0.00000E+00
         0.00000E+00
         0.00000E+00
         0.00000E+00
         0.00000E+00
         0.00000E+00
         0.00000E+00
         0.00000E+00
         0.00000E+00
         0.00000E+00
         0.00000E+00
         0.00000E+00
         0.00000E+00
         0.00000E+00
         0.00000E+00
         0.00000E+00
         0.00000E+00
         0.00000E+00
         0.00000E+00
         0.00000E+00
         0.00000E+00
         0.00000E+00
         0.00000E+00
         0.00000E+00
         0.00000E+00
         0.00000E+00
         0.00000E+00
         0.00000E+00
         0.00000E+00
         0.00000E+00
         0.00000E+00
         0.00000E+00
         0.00000E+00
         0.00000E+00
         0.00000E+00
         0.00000E+00
         0.00000E+00
         0.00000E+00
         0.00000E+00
         0.00000E+00
         0.00000E+00
         0.00000E+00
         0.00000E+00
         0.00000E+00
         0.00000E+00
         0.00000E+00
         0.00000E+00
         0.00000E+00
         0.00000E+00
         0.00000E+00
         0.00000E+00
         0.00000E+00
         0.00000E+00
         0.00000E+00
         0.00000E+00
         0.00000E+00
         0.00000E+00
         0.00000E+00
         0.00000E+00
         0.00000E+00
         0.00000E+00
         0.00000E+00
         0.00000E+00
         0.00000E+00
         0.00000E+00
         0.00000E+00
         0.00000E+00
         0.00000E+00
         0.00000E+00
         0.00000E+00
         0.00000E+00
         0.00000E+00
         0.00000E+00
         0.00000E+00
         0.00000E+00
         0.00000E+00
         0.00000E+00
         0.00000E+00
         0.00000E+00
         0.00000E+00
         0.00000E+00
         0.00000E+00
         0.00000E+00
         0.00000E+00
         0.00000E+00
         0.00000E+00
         0.00000E+00
         0.00000E+00
         0.00000E+00
         0.00000E+00
         0.00000E+00
         0.00000E+00
         0.00000E+00
         0.00000E+00
         0.00000E+00
         0.00000E+00
         0.00000E+00
         0.00000E+00
         0.00000E+00
         0.00000E+00
         0.00000E+00
         0.00000E+00
         0.00000E+00
         0.00000E+00
         0.00000E+00
         0.00000E+00
         0.00000E+00
         0.00000E+00
         0.00000E+00
         0.00000E+00
         0.00000E+00
         0.00000E+00
         0.00000E+00
         0.00000E+00
         0.00000E+00
         0.00000E+00
         0.00000E+00
         0.00000E+00
         0.00000E+00
         0.00000E+00
         0.00000E+00
         0.00000E+00
         0.00000E+00
         0.00000E+00
         0.00000E+00
         0.00000E+00
         0.00000E+00
         0.00000E+00
         0.00000E+00
         0.00000E+00
         0.00000E+00
         0.00000E+00
         0.00000E+00
         0.00000E+00
         0.00000E+00
         0.00000E+00
         0.00000E+00
         0.00000E+00
         0.00000E+00
         0.00000E+00
         0.00000E+00
         0.00000E+00
         0.00000E+00
         0.00000E+00
         0.00000E+00
         0.00000E+00
         0.00000E+00
         0.00000E+00
         0.00000E+00
         0.00000E+00
         0.00000E+00
         0.00000E+00
         0.00000E+00
         0.00000E+00
         0.00000E+00
         0.00000E+00
         0.00000E+00
         0.00000E+00
         0.00000E+00
         0.00000E+00
         0.00000E+00
         0.00000E+00
         0.00000E+00
         0.00000E+00
         0.00000E+00
         0.00000E+00
         0.00000E+00
         0.00000E+00
         0.00000E+00
         0.00000E+00
         0.00000E+00
         0.00000E+00
         0.00000E+00
         0.00000E+00
         0.00000E+00
         0.00000E+00
         0.00000E+00
         0.00000E+00
         0.00000E+00
         0.00000E+00
         0.00000E+00
         0.00000E+00
         0.00000E+00
         0.00000E+00
         0.00000E+00
         0.00000E+00
         0.00000E+00
         0.00000E+00
         0.00000E+00
         0.00000E+00
         0.00000E+00
         0.00000E+00
         0.00000E+00
         0.00000E+00
         0.00000E+00
         0.00000E+00
         0.00000E+00
         0.00000E+00
         0.00000E+00
         0.00000E+00
         0.00000E+00
         0.00000E+00
         0.00000E+00
         0.00000E+00
         0.00000E+00
         0.00000E+00
         0.00000E+00
         0.00000E+00
         0.00000E+00
         0.00000E+00
         0.00000E+00
         0.00000E+00
         0.00000E+00
         0.00000E+00
         0.00000E+00
         0.00000E+00
         0.00000E+00
         0.00000E+00
         0.00000E+00
         0.00000E+00
         0.00000E+00
         0.00000E+00
         0.00000E+00
         0.00000E+00
         0.00000E+00
         0.00000E+00
         0.00000E+00
         0.00000E+00
         0.00000E+00
         0.00000E+00
         0.00000E+00
         0.00000E+00
         0.00000E+00
         0.00000E+00
         0.00000E+00
         0.00000E+00
         0.00000E+00
         0.00000E+00
         0.00000E+00
         0.00000E+00
         0.00000E+00
         0.00000E+00
         0.00000E+00
         0.00000E+00
         0.00000E+00
         0.00000E+00
         0.00000E+00
         0.00000E+00
         0.00000E+00
         0.00000E+00
         0.00000E+00
         0.00000E+00
         0.00000E+00
         0.00000E+00
         0.00000E+00
         0.00000E+00
         0.00000E+00
         0.00000E+00
         0.00000E+00
         0.00000E+00
         0.00000E+00
         0.00000E+00
         0.00000E+00
         0.00000E+00
         0.00000E+00
         0.00000E+00
         0.00000E+00
         0.00000E+00
         0.00000E+00
         0.00000E+00
         0.00000E+00
         0.00000E+00
         0.00000E+00
         0.00000E+00
         0.00000E+00
         0.00000E+00
         0.00000E+00
         0.00000E+00
         0.00000E+00
         0.00000E+00
         0.00000E+00
         0.00000E+00
         0.00000E+00
         0.00000E+00
         0.00000E+00
         0.00000E+00
         0.00000E+00
         0.00000E+00
         0.00000E+00
         0.00000E+00
         0.00000E+00
         0.00000E+00
         0.00000E+00
         0.00000E+00
         0.00000E+00
         0.00000E+00
         0.00000E+00
         0.00000E+00
         0.00000E+00
         0.00000E+00
         0.00000E+00
         0.00000E+00
         0.00000E+00
         0.00000E+00
         0.00000E+00
         0.00000E+00
         0.00000E+00
         0.00000E+00
         0.00000E+00
         0.00000E+00
         0.00000E+00
         0.00000E+00
         0.00000E+00
         0.00000E+00
         0.00000E+00
         0.00000E+00
         0.00000E+00
         0.00000E+00
         0.00000E+00
         0.00000E+00
         0.00000E+00
         0.00000E+00
         0.00000E+00
         0.00000E+00
         0.00000E+00
         0.00000E+00
         0.00000E+00
         0.00000E+00
         0.00000E+00
         0.00000E+00
         0.00000E+00
         0.00000E+00
         0.00000E+00
         0.00000E+00
         0.00000E+00
         0.00000E+00
         0.00000E+00
         0.00000E+00
         0.00000E+00
         0.00000E+00
         0.00000E+00
         0.00000E+00
         0.00000E+00
         0.00000E+00
         0.00000E+00
         0.00000E+00
         0.00000E+00
         0.00000E+00
         0.00000E+00
         0.00000E+00
         0.00000E+00
         0.00000E+00
         0.00000E+00
         0.00000E+00
         0.00000E+00
         0.00000E+00
         0.00000E+00
         0.00000E+00
         0.00000E+00
         0.00000E+00
         0.00000E+00
         0.00000E+00
         0.00000E+00
         0.00000E+00
         0.00000E+00
         0.00000E+00
         0.00000E+00
         0.00000E+00
         0.00000E+00
         0.00000E+00
         0.00000E+00
         0.00000E+00
         0.00000E+00
         0.00000E+00
         0.00000E+00
         0.00000E+00
         0.00000E+00
         0.00000E+00
         0.00000E+00
         0.00000E+00
         0.00000E+00
         0.00000E+00
         0.00000E+00
         0.00000E+00
         0.00000E+00
         0.00000E+00
         0.00000E+00
         0.00000E+00
         0.00000E+00
         0.00000E+00
         0.00000E+00
         0.00000E+00
         0.00000E+00
         0.00000E+00
         0.00000E+00
         0.00000E+00
         0.00000E+00
         0.00000E+00
         0.00000E+00
         0.00000E+00
         0.00000E+00
         0.00000E+00
         0.00000E+00
         0.00000E+00
         0.00000E+00
         0.00000E+00
         0.00000E+00
         0.00000E+00
         0.00000E+00
         0.00000E+00
         0.00000E+00
         0.00000E+00
         0.00000E+00
         0.00000E+00
         0.00000E+00
         0.00000E+00
         0.00000E+00
         0.00000E+00
         0.00000E+00
         0.00000E+00
         0.00000E+00
         0.00000E+00
         0.00000E+00
         0.00000E+00
         0.00000E+00
         0.00000E+00
         0.00000E+00
         0.00000E+00
         0.00000E+00
         0.00000E+00
         0.00000E+00
         0.00000E+00
         0.00000E+00
         0.00000E+00
         0.00000E+00
         0.00000E+00
         0.00000E+00
         0.00000E+00
         0.00000E+00
         0.00000E+00
         0.00000E+00
         0.00000E+00
         0.00000E+00
         0.00000E+00
         0.00000E+00
         0.00000E+00
         0.00000E+00
         0.00000E+00
         0.00000E+00
         0.00000E+00
         0.00000E+00
         0.00000E+00
         0.00000E+00
         0.00000E+00
         0.00000E+00
         0.00000E+00
         0.00000E+00
         0.00000E+00
         0.00000E+00
         0.00000E+00
         0.00000E+00
         0.00000E+00
         0.00000E+00
         0.00000E+00
         0.00000E+00
         0.00000E+00
         0.00000E+00
         0.00000E+00
         0.00000E+00
         0.00000E+00
         0.00000E+00
         0.00000E+00
         0.00000E+00
         0.00000E+00
         0.00000E+00
         0.00000E+00
         0.00000E+00
         0.00000E+00
         0.00000E+00
         0.00000E+00
         0.00000E+00
         0.00000E+00
         0.00000E+00
         0.00000E+00
         0.00000E+00
         0.00000E+00
         0.00000E+00
         0.00000E+00
         0.00000E+00
         0.00000E+00
         0.00000E+00
         0.00000E+00
         0.00000E+00
         0.00000E+00
         0.00000E+00
         0.00000E+00
         0.00000E+00
         0.00000E+00
         0.00000E+00
         0.00000E+00
         0.00000E+00
         0.00000E+00
         0.00000E+00
         0.00000E+00
         0.00000E+00
         0.00000E+00
         0.00000E+00
         0.00000E+00
         0.00000E+00
         0.00000E+00
         0.00000E+00
         0.00000E+00
         0.00000E+00
         0.00000E+00
         0.00000E+00
         0.00000E+00
         0.00000E+00
         0.00000E+00
         0.00000E+00
         0.00000E+00
         0.00000E+00
         0.00000E+00
         0.00000E+00
         0.00000E+00
         0.00000E+00
         0.00000E+00
         0.00000E+00
         0.00000E+00
         0.00000E+00
         0.00000E+00
         0.00000E+00
         0.00000E+00
         0.00000E+00
         0.00000E+00
         0.00000E+00
         0.00000E+00
         0.00000E+00
         0.00000E+00
         0.00000E+00
         0.00000E+00
         0.00000E+00
         0.00000E+00
         0.00000E+00
         0.00000E+00
         0.00000E+00
         0.00000E+00
         0.00000E+00
         0.00000E+00
         0.00000E+00
         0.00000E+00
         0.00000E+00
         0.00000E+00
         0.00000E+00
         0.00000E+00
         0.00000E+00
         0.00000E+00
         0.00000E+00
         0.00000E+00
         0.00000E+00
         0.00000E+00
         0.00000E+00
         0.00000E+00
         0.00000E+00
         0.00000E+00
         0.00000E+00
         0.00000E+00
         0.00000E+00
         0.00000E+00
         0.00000E+00
         0.00000E+00
         0.00000E+00
         0.00000E+00
         0.00000E+00
         0.00000E+00
         0.00000E+00
         0.00000E+00
         0.00000E+00
         0.00000E+00
         0.00000E+00
         0.00000E+00
         0.00000E+00
         0.00000E+00
         0.00000E+00
         0.00000E+00
         0.00000E+00
         0.00000E+00
         0.00000E+00
         0.00000E+00
         0.00000E+00
         0.00000E+00
         0.00000E+00
         0.00000E+00
         0.00000E+00
         0.00000E+00
         0.00000E+00
         0.00000E+00
         0.00000E+00
         0.00000E+00
         0.00000E+00
         0.00000E+00
         0.00000E+00
         0.00000E+00
         0.00000E+00
         0.00000E+00
         0.00000E+00
         0.00000E+00
         0.00000E+00
         0.00000E+00
         0.00000E+00
         0.00000E+00
         0.00000E+00
         0.00000E+00
         0.00000E+00
         0.00000E+00
         0.00000E+00
         0.00000E+00
         0.00000E+00
         0.00000E+00
         0.00000E+00
         0.00000E+00
         0.00000E+00
         0.00000E+00
         0.00000E+00
         0.00000E+00
         0.00000E+00
         0.00000E+00
         0.00000E+00
         0.00000E+00
         0.00000E+00
         0.00000E+00
         0.00000E+00
         0.00000E+00
         0.00000E+00
         0.00000E+00
         0.00000E+00
         0.00000E+00
         0.00000E+00
         0.00000E+00
         0.00000E+00
         0.00000E+00
         0.00000E+00
         0.00000E+00
         0.00000E+00
         0.00000E+00
         0.00000E+00
         0.00000E+00
         0.00000E+00
         0.00000E+00
         0.00000E+00
         0.00000E+00
         0.00000E+00
         0.00000E+00
         0.00000E+00
         0.00000E+00
         0.00000E+00
         0.00000E+00
         0.00000E+00
         0.00000E+00
         0.00000E+00
         0.00000E+00
         0.00000E+00
         0.00000E+00
         0.00000E+00
         0.00000E+00
         0.00000E+00
         0.00000E+00
         0.00000E+00
         0.00000E+00
         0.00000E+00
         0.00000E+00
         0.00000E+00
         0.00000E+00
         0.00000E+00
         0.00000E+00
         0.00000E+00
         0.00000E+00
         0.00000E+00
         0.00000E+00
         0.00000E+00
         0.00000E+00
         0.00000E+00
         0.00000E+00
         0.00000E+00
         0.00000E+00
         0.00000E+00
         0.00000E+00
         0.00000E+00
         0.00000E+00
         0.00000E+00
         0.00000E+00
         0.00000E+00
         0.00000E+00
         0.00000E+00
         0.00000E+00
         0.00000E+00
         0.00000E+00
         0.00000E+00
         0.00000E+00
         0.00000E+00
         0.00000E+00
         0.00000E+00
         0.00000E+00
         0.00000E+00
         0.00000E+00
         0.00000E+00
         0.00000E+00
         0.00000E+00
         0.00000E+00
         0.00000E+00
         0.00000E+00
         0.00000E+00
         0.00000E+00
         0.00000E+00
         0.00000E+00
         0.00000E+00
         0.00000E+00
         0.00000E+00
         0.00000E+00
         0.00000E+00
         0.00000E+00
         0.00000E+00
         0.00000E+00
         0.00000E+00
         0.00000E+00
         0.00000E+00
         0.00000E+00
         0.00000E+00
         0.00000E+00
         0.00000E+00
         0.00000E+00
         0.00000E+00
         0.00000E+00
         0.00000E+00
         0.00000E+00
         0.00000E+00
         0.00000E+00
         0.00000E+00
         0.00000E+00
         0.00000E+00
         0.00000E+00
         0.00000E+00
         0.00000E+00
         0.00000E+00
         0.00000E+00
         0.00000E+00
         0.00000E+00
         0.00000E+00
         0.00000E+00
         0.00000E+00
         0.00000E+00
         0.00000E+00
         0.00000E+00
         0.00000E+00
         0.00000E+00
         0.00000E+00
         0.00000E+00
         0.00000E+00
         0.00000E+00
         0.00000E+00
         0.00000E+00
         0.00000E+00
         0.00000E+00
         0.00000E+00
         0.00000E+00
         0.00000E+00
         0.00000E+00
         0.00000E+00
         0.00000E+00
         0.00000E+00
         0.00000E+00
         0.00000E+00
         0.00000E+00
         0.00000E+00
         0.00000E+00
         0.00000E+00
         0.00000E+00
         0.00000E+00
         0.00000E+00
         0.00000E+00
         0.00000E+00
         0.00000E+00
         0.00000E+00
         0.00000E+00
         0.00000E+00
         0.00000E+00
         0.00000E+00
         0.00000E+00
         0.00000E+00
         0.00000E+00
         0.00000E+00
         0.00000E+00
         0.00000E+00
         0.00000E+00
         0.00000E+00
         0.00000E+00
         0.00000E+00
         0.00000E+00
         0.00000E+00
         0.00000E+00
         0.00000E+00
         0.00000E+00
         0.00000E+00
         0.00000E+00
         0.00000E+00
         0.00000E+00
         0.00000E+00
         0.00000E+00
         0.00000E+00
         0.00000E+00
         0.00000E+00
         0.00000E+00
         0.00000E+00
         0.00000E+00
         0.00000E+00
         0.00000E+00
         0.00000E+00
         0.00000E+00
         0.00000E+00
         0.00000E+00
         0.00000E+00
         0.00000E+00
         0.00000E+00
         0.00000E+00
         0.00000E+00
         0.00000E+00
         0.00000E+00
         0.00000E+00
         0.00000E+00
         0.00000E+00
         0.00000E+00
         0.00000E+00
         0.00000E+00
         0.00000E+00
         0.00000E+00
         0.00000E+00
         0.00000E+00
         0.00000E+00
         0.00000E+00
         0.00000E+00
         0.00000E+00
         0.00000E+00
         0.00000E+00
         0.00000E+00
         0.00000E+00
         0.00000E+00
         0.00000E+00
         0.00000E+00
         0.00000E+00
         0.00000E+00
         0.00000E+00
         0.00000E+00
         0.00000E+00
         0.00000E+00
         0.00000E+00
         0.00000E+00
         0.00000E+00
         0.00000E+00
         0.00000E+00
         0.00000E+00
         0.00000E+00
         0.00000E+00
         0.00000E+00
         0.00000E+00
         0.00000E+00
         0.00000E+00
         0.00000E+00
         0.00000E+00
         0.00000E+00
         0.00000E+00
         0.00000E+00
         0.00000E+00
         0.00000E+00
         0.00000E+00
         0.00000E+00
         0.00000E+00
         0.00000E+00
         0.00000E+00
         0.00000E+00
         0.00000E+00
         0.00000E+00
         0.00000E+00
         0.00000E+00
         0.00000E+00
         0.00000E+00
         0.00000E+00
         0.00000E+00
         0.00000E+00
         0.00000E+00
         0.00000E+00
         0.00000E+00
         0.00000E+00
         0.00000E+00
         0.00000E+00
         0.00000E+00
         0.00000E+00
         0.00000E+00
         0.00000E+00
         0.00000E+00
         0.00000E+00
         0.00000E+00
         0.00000E+00
         0.00000E+00
         0.00000E+00
         0.00000E+00
         0.00000E+00
         0.00000E+00
         0.00000E+00
         0.00000E+00
         0.00000E+00
         0.00000E+00
         0.00000E+00
         0.00000E+00
         0.00000E+00
         0.00000E+00
         0.00000E+00
         0.00000E+00
         0.00000E+00
         0.00000E+00
         0.00000E+00
         0.00000E+00
         0.00000E+00
         0.00000E+00
         0.00000E+00
         0.00000E+00
         0.00000E+00
         0.00000E+00
         0.00000E+00
         0.00000E+00
         0.00000E+00
         0.00000E+00
         0.00000E+00
         0.00000E+00
         0.00000E+00
         0.00000E+00
         0.00000E+00
         0.00000E+00
         0.00000E+00
         0.00000E+00
         0.00000E+00
         0.00000E+00
         0.00000E+00
         0.00000E+00
         0.00000E+00
         0.00000E+00
         0.00000E+00
         0.00000E+00
         0.00000E+00
         0.00000E+00
         0.00000E+00
         0.00000E+00
         0.00000E+00
         0.00000E+00
         0.00000E+00
         0.00000E+00
         0.00000E+00
         0.00000E+00
         0.00000E+00
         0.00000E+00
         0.00000E+00
         0.00000E+00
         0.00000E+00
         0.00000E+00
         0.00000E+00
         0.00000E+00
         0.00000E+00
         0.00000E+00
         0.00000E+00
         0.00000E+00
         0.00000E+00
         0.00000E+00
         0.00000E+00
         0.00000E+00
         0.00000E+00
         0.00000E+00
         0.00000E+00
         0.00000E+00
         0.00000E+00
         0.00000E+00
         0.00000E+00
         0.00000E+00
         0.00000E+00
         0.00000E+00
         0.00000E+00
         0.00000E+00
         0.00000E+00
         0.00000E+00
         0.00000E+00
         0.00000E+00
         0.00000E+00
         0.00000E+00
         0.00000E+00
         0.00000E+00
         0.00000E+00
         0.00000E+00
         0.00000E+00
         0.00000E+00
         0.00000E+00
         0.00000E+00
         0.00000E+00
         0.00000E+00
         0.00000E+00
         0.00000E+00
         0.00000E+00
         0.00000E+00
         0.00000E+00
         0.00000E+00
         0.00000E+00
         0.00000E+00
         0.00000E+00
         0.00000E+00
         0.00000E+00
         0.00000E+00
         0.00000E+00
         0.00000E+00
         0.00000E+00
         0.00000E+00
         0.00000E+00
         0.00000E+00
         0.00000E+00
         0.00000E+00
         0.00000E+00
         0.00000E+00
         0.00000E+00
         0.00000E+00
         0.00000E+00
         0.00000E+00
         0.00000E+00
         0.00000E+00
         0.00000E+00
         0.00000E+00
         0.00000E+00
         0.00000E+00
         0.00000E+00
         0.00000E+00
         0.00000E+00
         0.00000E+00
         0.00000E+00
         0.00000E+00
         0.00000E+00
         0.00000E+00
         0.00000E+00
         0.00000E+00
         0.00000E+00
         0.00000E+00
         0.00000E+00
         0.00000E+00
         0.00000E+00
         0.00000E+00
         0.00000E+00
         0.00000E+00
         0.00000E+00
         0.00000E+00
         0.00000E+00
         0.00000E+00
         0.00000E+00
         0.00000E+00
         0.00000E+00
         0.00000E+00
         0.00000E+00
         0.00000E+00
         0.00000E+00
         0.00000E+00
         0.00000E+00
         0.00000E+00
         0.00000E+00
         0.00000E+00
         0.00000E+00
         0.00000E+00
         0.00000E+00
         0.00000E+00
         0.00000E+00
         0.00000E+00
         0.00000E+00
         0.00000E+00
         0.00000E+00
         0.00000E+00
         0.00000E+00
         0.00000E+00
         0.00000E+00
         0.00000E+00
         0.00000E+00
         0.00000E+00
         0.00000E+00
         0.00000E+00
         0.00000E+00
         0.00000E+00
         0.00000E+00
         0.00000E+00
         0.00000E+00
         0.00000E+00
         0.00000E+00
         0.00000E+00
         0.00000E+00
         0.00000E+00
         0.00000E+00
         0.00000E+00
         0.00000E+00
         0.00000E+00
         0.00000E+00
         0.00000E+00
         0.00000E+00
         0.00000E+00
         0.00000E+00
         0.00000E+00
         0.00000E+00
         0.00000E+00
         0.00000E+00
         0.00000E+00
         0.00000E+00
         0.00000E+00
         0.00000E+00
         0.00000E+00
         0.00000E+00
         0.00000E+00
         0.00000E+00
         0.00000E+00
         0.00000E+00
         0.00000E+00
         0.00000E+00
         0.00000E+00
         0.00000E+00
         0.00000E+00
         0.00000E+00
         0.00000E+00
         0.00000E+00
         0.00000E+00
         0.00000E+00
         0.00000E+00
         0.00000E+00
         0.00000E+00
         0.00000E+00
         0.00000E+00
         0.00000E+00
         0.00000E+00
         0.00000E+00
         0.00000E+00
         0.00000E+00
         0.00000E+00
         0.00000E+00
         0.00000E+00
         0.00000E+00
         0.00000E+00
         0.00000E+00
         0.00000E+00
         0.00000E+00
         0.00000E+00
         0.00000E+00
         0.00000E+00
         0.00000E+00
         0.00000E+00
         0.00000E+00
         0.00000E+00
         0.00000E+00
         0.00000E+00
         0.00000E+00
         0.00000E+00
         0.00000E+00
         0.00000E+00
         0.00000E+00
         0.00000E+00
         0.00000E+00
         0.00000E+00
         0.00000E+00
         0.00000E+00
         0.00000E+00
         0.00000E+00
         0.00000E+00
         0.00000E+00
         0.00000E+00
         0.00000E+00
         0.00000E+00
         0.00000E+00
         0.00000E+00
         0.00000E+00
         0.00000E+00
         0.00000E+00
         0.00000E+00
         0.00000E+00
         0.00000E+00
         0.00000E+00
         0.00000E+00
         0.00000E+00
         0.00000E+00
         0.00000E+00
         0.00000E+00
         0.00000E+00
         0.00000E+00
         0.00000E+00
         0.00000E+00
         0.00000E+00
         0.00000E+00
         0.00000E+00
         0.00000E+00
         0.00000E+00
         0.00000E+00
         0.00000E+00
         0.00000E+00
         0.00000E+00
         0.00000E+00
         0.00000E+00
         0.00000E+00
         0.00000E+00
         0.00000E+00
         0.00000E+00
         0.00000E+00
         0.00000E+00
         0.00000E+00
         0.00000E+00
         0.00000E+00
         0.00000E+00
         0.00000E+00
         0.00000E+00
         0.00000E+00
         0.00000E+00
         0.00000E+00
         0.00000E+00
         0.00000E+00
         0.00000E+00
         0.00000E+00
         0.00000E+00
         0.00000E+00
         0.00000E+00
         0.00000E+00
         0.00000E+00
         0.00000E+00
         0.00000E+00
         0.00000E+00
         0.00000E+00
         0.00000E+00
         0.00000E+00
         0.00000E+00
         0.00000E+00
         0.00000E+00
         0.00000E+00
         0.00000E+00
         0.00000E+00
         0.00000E+00
         0.00000E+00
         0.00000E+00
         0.00000E+00
         0.00000E+00
         0.00000E+00
         0.00000E+00
         0.00000E+00
         0.00000E+00
         0.00000E+00
         0.00000E+00
         0.00000E+00
         0.00000E+00
         0.00000E+00
         0.00000E+00
         0.00000E+00
         0.00000E+00
         0.00000E+00
         0.00000E+00
         0.00000E+00
         0.00000E+00
         0.00000E+00
         0.00000E+00
         0.00000E+00
         0.00000E+00
         0.00000E+00
         0.00000E+00
         0.00000E+00
         0.00000E+00
         0.00000E+00
         0.00000E+00
         0.00000E+00
         0.00000E+00
         0.00000E+00
         0.00000E+00
         0.00000E+00
         0.00000E+00
         0.00000E+00
         0.00000E+00
         0.00000E+00
         0.00000E+00
         0.00000E+00
         0.00000E+00
         0.00000E+00
         0.00000E+00
         0.00000E+00
         0.00000E+00
         0.00000E+00
         0.00000E+00
         0.00000E+00
         0.00000E+00
         0.00000E+00
         0.00000E+00
         0.00000E+00
         0.00000E+00
         0.00000E+00
         0.00000E+00
         0.00000E+00
         0.00000E+00
         0.00000E+00
         0.00000E+00
         0.00000E+00
         0.00000E+00
         0.00000E+00
         0.00000E+00
         0.00000E+00
         0.00000E+00
         0.00000E+00
         0.00000E+00
         0.00000E+00
         0.00000E+00
         0.00000E+00
         0.00000E+00
         0.00000E+00
         0.00000E+00
         0.00000E+00
         0.00000E+00
         0.00000E+00
         0.00000E+00
         0.00000E+00
         0.00000E+00
         0.00000E+00
         0.00000E+00
         0.00000E+00
         0.00000E+00
         0.00000E+00
         0.00000E+00
         0.00000E+00
         0.00000E+00
         0.00000E+00
         0.00000E+00
         0.00000E+00
         0.00000E+00
         0.00000E+00
         0.00000E+00
         0.00000E+00
         0.00000E+00
         0.00000E+00
         0.00000E+00
         0.00000E+00
         0.00000E+00
         0.00000E+00
         0.00000E+00
         0.00000E+00
         0.00000E+00
         0.00000E+00
         0.00000E+00
         0.00000E+00
         0.00000E+00
         0.00000E+00
         0.00000E+00
         0.00000E+00
         0.00000E+00
         0.00000E+00
         0.00000E+00
         0.00000E+00
         0.00000E+00
         0.00000E+00
         0.00000E+00
         0.00000E+00
         0.00000E+00
         0.00000E+00
         0.00000E+00
         0.00000E+00
         0.00000E+00
         0.00000E+00
         0.00000E+00
         0.00000E+00
         0.00000E+00
         0.00000E+00
         0.00000E+00
         0.00000E+00
         0.00000E+00
         0.00000E+00
         0.00000E+00
         0.00000E+00
         0.00000E+00
         0.00000E+00
         0.00000E+00
         0.00000E+00
         0.00000E+00
         0.00000E+00
         0.00000E+00
         0.00000E+00
         0.00000E+00
         0.00000E+00
         0.00000E+00
         0.00000E+00
         0.00000E+00
         0.00000E+00
         0.00000E+00
         0.00000E+00
         0.00000E+00
         0.00000E+00
         0.00000E+00
         0.00000E+00
         0.00000E+00
         0.00000E+00
         0.00000E+00
         0.00000E+00
         0.00000E+00
         0.00000E+00
         0.00000E+00
         0.00000E+00
         0.00000E+00
         0.00000E+00
         0.00000E+00
         0.00000E+00
  
SCALARS                        eps_vol  double 1
LOOKUP_TABLE default
         0.00000E+00
         0.00000E+00
         0.00000E+00
         0.00000E+00
         0.00000E+00
         0.00000E+00
         0.00000E+00
         0.00000E+00
         0.00000E+00
         0.00000E+00
         0.00000E+00
         0.00000E+00
         0.00000E+00
         0.00000E+00
         0.00000E+00
         0.00000E+00
         0.00000E+00
         0.00000E+00
         0.00000E+00
         0.00000E+00
         0.00000E+00
         0.00000E+00
         0.00000E+00
         0.00000E+00
         0.00000E+00
         0.00000E+00
         0.00000E+00
         0.00000E+00
         0.00000E+00
         0.00000E+00
         0.00000E+00
         0.00000E+00
         0.00000E+00
         0.00000E+00
         0.00000E+00
         0.00000E+00
         0.00000E+00
         0.00000E+00
         0.00000E+00
         0.00000E+00
         0.00000E+00
         0.00000E+00
         0.00000E+00
         0.00000E+00
         0.00000E+00
         0.00000E+00
         0.00000E+00
         0.00000E+00
         0.00000E+00
         0.00000E+00
         0.00000E+00
         0.00000E+00
         0.00000E+00
         0.00000E+00
         0.00000E+00
         0.00000E+00
         0.00000E+00
         0.00000E+00
         0.00000E+00
         0.00000E+00
         0.00000E+00
         0.00000E+00
         0.00000E+00
         0.00000E+00
         0.00000E+00
         0.00000E+00
         0.00000E+00
         0.00000E+00
         0.00000E+00
         0.00000E+00
         0.00000E+00
         0.00000E+00
         0.00000E+00
         0.00000E+00
         0.00000E+00
         0.00000E+00
         0.00000E+00
         0.00000E+00
         0.00000E+00
         0.00000E+00
         0.00000E+00
         0.00000E+00
         0.00000E+00
         0.00000E+00
         0.00000E+00
         0.00000E+00
         0.00000E+00
         0.00000E+00
         0.00000E+00
         0.00000E+00
         0.00000E+00
         0.00000E+00
         0.00000E+00
         0.00000E+00
         0.00000E+00
         0.00000E+00
         0.00000E+00
         0.00000E+00
         0.00000E+00
         0.00000E+00
         0.00000E+00
         0.00000E+00
         0.00000E+00
         0.00000E+00
         0.00000E+00
         0.00000E+00
         0.00000E+00
         0.00000E+00
         0.00000E+00
         0.00000E+00
         0.00000E+00
         0.00000E+00
         0.00000E+00
         0.00000E+00
         0.00000E+00
         0.00000E+00
         0.00000E+00
         0.00000E+00
         0.00000E+00
         0.00000E+00
         0.00000E+00
         0.00000E+00
         0.00000E+00
         0.00000E+00
         0.00000E+00
         0.00000E+00
         0.00000E+00
         0.00000E+00
         0.00000E+00
         0.00000E+00
         0.00000E+00
         0.00000E+00
         0.00000E+00
         0.00000E+00
         0.00000E+00
         0.00000E+00
         0.00000E+00
         0.00000E+00
         0.00000E+00
         0.00000E+00
         0.00000E+00
         0.00000E+00
         0.00000E+00
         0.00000E+00
         0.00000E+00
         0.00000E+00
         0.00000E+00
         0.00000E+00
         0.00000E+00
         0.00000E+00
         0.00000E+00
         0.00000E+00
         0.00000E+00
         0.00000E+00
         0.00000E+00
         0.00000E+00
         0.00000E+00
         0.00000E+00
         0.00000E+00
         0.00000E+00
         0.00000E+00
         0.00000E+00
         0.00000E+00
         0.00000E+00
         0.00000E+00
         0.00000E+00
         0.00000E+00
         0.00000E+00
         0.00000E+00
         0.00000E+00
         0.00000E+00
         0.00000E+00
         0.00000E+00
         0.00000E+00
         0.00000E+00
         0.00000E+00
         0.00000E+00
         0.00000E+00
         0.00000E+00
         0.00000E+00
         0.00000E+00
         0.00000E+00
         0.00000E+00
         0.00000E+00
         0.00000E+00
         0.00000E+00
         0.00000E+00
         0.00000E+00
         0.00000E+00
         0.00000E+00
         0.00000E+00
         0.00000E+00
         0.00000E+00
         0.00000E+00
         0.00000E+00
         0.00000E+00
         0.00000E+00
         0.00000E+00
         0.00000E+00
         0.00000E+00
         0.00000E+00
         0.00000E+00
         0.00000E+00
         0.00000E+00
         0.00000E+00
         0.00000E+00
         0.00000E+00
         0.00000E+00
         0.00000E+00
         0.00000E+00
         0.00000E+00
         0.00000E+00
         0.00000E+00
         0.00000E+00
         0.00000E+00
         0.00000E+00
         0.00000E+00
         0.00000E+00
         0.00000E+00
         0.00000E+00
         0.00000E+00
         0.00000E+00
         0.00000E+00
         0.00000E+00
         0.00000E+00
         0.00000E+00
         0.00000E+00
         0.00000E+00
         0.00000E+00
         0.00000E+00
         0.00000E+00
         0.00000E+00
         0.00000E+00
         0.00000E+00
         0.00000E+00
         0.00000E+00
         0.00000E+00
         0.00000E+00
         0.00000E+00
         0.00000E+00
         0.00000E+00
         0.00000E+00
         0.00000E+00
         0.00000E+00
         0.00000E+00
         0.00000E+00
         0.00000E+00
         0.00000E+00
         0.00000E+00
         0.00000E+00
         0.00000E+00
         0.00000E+00
         0.00000E+00
         0.00000E+00
         0.00000E+00
         0.00000E+00
         0.00000E+00
         0.00000E+00
         0.00000E+00
         0.00000E+00
         0.00000E+00
         0.00000E+00
         0.00000E+00
         0.00000E+00
         0.00000E+00
         0.00000E+00
         0.00000E+00
         0.00000E+00
         0.00000E+00
         0.00000E+00
         0.00000E+00
         0.00000E+00
         0.00000E+00
         0.00000E+00
         0.00000E+00
         0.00000E+00
         0.00000E+00
         0.00000E+00
         0.00000E+00
         0.00000E+00
         0.00000E+00
         0.00000E+00
         0.00000E+00
         0.00000E+00
         0.00000E+00
         0.00000E+00
         0.00000E+00
         0.00000E+00
         0.00000E+00
         0.00000E+00
         0.00000E+00
         0.00000E+00
         0.00000E+00
         0.00000E+00
         0.00000E+00
         0.00000E+00
         0.00000E+00
         0.00000E+00
         0.00000E+00
         0.00000E+00
         0.00000E+00
         0.00000E+00
         0.00000E+00
         0.00000E+00
         0.00000E+00
         0.00000E+00
         0.00000E+00
         0.00000E+00
         0.00000E+00
         0.00000E+00
         0.00000E+00
         0.00000E+00
         0.00000E+00
         0.00000E+00
         0.00000E+00
         0.00000E+00
         0.00000E+00
         0.00000E+00
         0.00000E+00
         0.00000E+00
         0.00000E+00
         0.00000E+00
         0.00000E+00
         0.00000E+00
         0.00000E+00
         0.00000E+00
         0.00000E+00
         0.00000E+00
         0.00000E+00
         0.00000E+00
         0.00000E+00
         0.00000E+00
         0.00000E+00
         0.00000E+00
         0.00000E+00
         0.00000E+00
         0.00000E+00
         0.00000E+00
         0.00000E+00
         0.00000E+00
         0.00000E+00
         0.00000E+00
         0.00000E+00
         0.00000E+00
         0.00000E+00
         0.00000E+00
         0.00000E+00
         0.00000E+00
         0.00000E+00
         0.00000E+00
         0.00000E+00
         0.00000E+00
         0.00000E+00
         0.00000E+00
         0.00000E+00
         0.00000E+00
         0.00000E+00
         0.00000E+00
         0.00000E+00
         0.00000E+00
         0.00000E+00
         0.00000E+00
         0.00000E+00
         0.00000E+00
         0.00000E+00
         0.00000E+00
         0.00000E+00
         0.00000E+00
         0.00000E+00
         0.00000E+00
         0.00000E+00
         0.00000E+00
         0.00000E+00
         0.00000E+00
         0.00000E+00
         0.00000E+00
         0.00000E+00
         0.00000E+00
         0.00000E+00
         0.00000E+00
         0.00000E+00
         0.00000E+00
         0.00000E+00
         0.00000E+00
         0.00000E+00
         0.00000E+00
         0.00000E+00
         0.00000E+00
         0.00000E+00
         0.00000E+00
         0.00000E+00
         0.00000E+00
         0.00000E+00
         0.00000E+00
         0.00000E+00
         0.00000E+00
         0.00000E+00
         0.00000E+00
         0.00000E+00
         0.00000E+00
         0.00000E+00
         0.00000E+00
         0.00000E+00
         0.00000E+00
         0.00000E+00
         0.00000E+00
         0.00000E+00
         0.00000E+00
         0.00000E+00
         0.00000E+00
         0.00000E+00
         0.00000E+00
         0.00000E+00
         0.00000E+00
         0.00000E+00
         0.00000E+00
         0.00000E+00
         0.00000E+00
         0.00000E+00
         0.00000E+00
         0.00000E+00
         0.00000E+00
         0.00000E+00
         0.00000E+00
         0.00000E+00
         0.00000E+00
         0.00000E+00
         0.00000E+00
         0.00000E+00
         0.00000E+00
         0.00000E+00
         0.00000E+00
         0.00000E+00
         0.00000E+00
         0.00000E+00
         0.00000E+00
         0.00000E+00
         0.00000E+00
         0.00000E+00
         0.00000E+00
         0.00000E+00
         0.00000E+00
         0.00000E+00
         0.00000E+00
         0.00000E+00
         0.00000E+00
         0.00000E+00
         0.00000E+00
         0.00000E+00
         0.00000E+00
         0.00000E+00
         0.00000E+00
         0.00000E+00
         0.00000E+00
         0.00000E+00
         0.00000E+00
         0.00000E+00
         0.00000E+00
         0.00000E+00
         0.00000E+00
         0.00000E+00
         0.00000E+00
         0.00000E+00
         0.00000E+00
         0.00000E+00
         0.00000E+00
         0.00000E+00
         0.00000E+00
         0.00000E+00
         0.00000E+00
         0.00000E+00
         0.00000E+00
         0.00000E+00
         0.00000E+00
         0.00000E+00
         0.00000E+00
         0.00000E+00
         0.00000E+00
         0.00000E+00
         0.00000E+00
         0.00000E+00
         0.00000E+00
         0.00000E+00
         0.00000E+00
         0.00000E+00
         0.00000E+00
         0.00000E+00
         0.00000E+00
         0.00000E+00
         0.00000E+00
         0.00000E+00
         0.00000E+00
         0.00000E+00
         0.00000E+00
         0.00000E+00
         0.00000E+00
         0.00000E+00
         0.00000E+00
         0.00000E+00
         0.00000E+00
         0.00000E+00
         0.00000E+00
         0.00000E+00
         0.00000E+00
         0.00000E+00
         0.00000E+00
         0.00000E+00
         0.00000E+00
         0.00000E+00
         0.00000E+00
         0.00000E+00
         0.00000E+00
         0.00000E+00
         0.00000E+00
         0.00000E+00
         0.00000E+00
         0.00000E+00
         0.00000E+00
         0.00000E+00
         0.00000E+00
         0.00000E+00
         0.00000E+00
         0.00000E+00
         0.00000E+00
         0.00000E+00
         0.00000E+00
         0.00000E+00
         0.00000E+00
         0.00000E+00
         0.00000E+00
         0.00000E+00
         0.00000E+00
         0.00000E+00
         0.00000E+00
         0.00000E+00
         0.00000E+00
         0.00000E+00
         0.00000E+00
         0.00000E+00
         0.00000E+00
         0.00000E+00
         0.00000E+00
         0.00000E+00
         0.00000E+00
         0.00000E+00
         0.00000E+00
         0.00000E+00
         0.00000E+00
         0.00000E+00
         0.00000E+00
         0.00000E+00
         0.00000E+00
         0.00000E+00
         0.00000E+00
         0.00000E+00
         0.00000E+00
         0.00000E+00
         0.00000E+00
         0.00000E+00
         0.00000E+00
         0.00000E+00
         0.00000E+00
         0.00000E+00
         0.00000E+00
         0.00000E+00
         0.00000E+00
         0.00000E+00
         0.00000E+00
         0.00000E+00
         0.00000E+00
         0.00000E+00
         0.00000E+00
         0.00000E+00
         0.00000E+00
         0.00000E+00
         0.00000E+00
         0.00000E+00
         0.00000E+00
         0.00000E+00
         0.00000E+00
         0.00000E+00
         0.00000E+00
         0.00000E+00
         0.00000E+00
         0.00000E+00
         0.00000E+00
         0.00000E+00
         0.00000E+00
         0.00000E+00
         0.00000E+00
         0.00000E+00
         0.00000E+00
         0.00000E+00
         0.00000E+00
         0.00000E+00
         0.00000E+00
         0.00000E+00
         0.00000E+00
         0.00000E+00
         0.00000E+00
         0.00000E+00
         0.00000E+00
         0.00000E+00
         0.00000E+00
         0.00000E+00
         0.00000E+00
         0.00000E+00
         0.00000E+00
         0.00000E+00
         0.00000E+00
         0.00000E+00
         0.00000E+00
         0.00000E+00
         0.00000E+00
         0.00000E+00
         0.00000E+00
         0.00000E+00
         0.00000E+00
         0.00000E+00
         0.00000E+00
         0.00000E+00
         0.00000E+00
         0.00000E+00
         0.00000E+00
         0.00000E+00
         0.00000E+00
         0.00000E+00
         0.00000E+00
         0.00000E+00
         0.00000E+00
         0.00000E+00
         0.00000E+00
         0.00000E+00
         0.00000E+00
         0.00000E+00
         0.00000E+00
         0.00000E+00
         0.00000E+00
         0.00000E+00
         0.00000E+00
         0.00000E+00
         0.00000E+00
         0.00000E+00
         0.00000E+00
         0.00000E+00
         0.00000E+00
         0.00000E+00
         0.00000E+00
         0.00000E+00
         0.00000E+00
         0.00000E+00
         0.00000E+00
         0.00000E+00
         0.00000E+00
         0.00000E+00
         0.00000E+00
         0.00000E+00
         0.00000E+00
         0.00000E+00
         0.00000E+00
         0.00000E+00
         0.00000E+00
         0.00000E+00
         0.00000E+00
         0.00000E+00
         0.00000E+00
         0.00000E+00
         0.00000E+00
         0.00000E+00
         0.00000E+00
         0.00000E+00
         0.00000E+00
         0.00000E+00
         0.00000E+00
         0.00000E+00
         0.00000E+00
         0.00000E+00
         0.00000E+00
         0.00000E+00
         0.00000E+00
         0.00000E+00
         0.00000E+00
         0.00000E+00
         0.00000E+00
         0.00000E+00
         0.00000E+00
         0.00000E+00
         0.00000E+00
         0.00000E+00
         0.00000E+00
         0.00000E+00
         0.00000E+00
         0.00000E+00
         0.00000E+00
         0.00000E+00
         0.00000E+00
         0.00000E+00
         0.00000E+00
         0.00000E+00
         0.00000E+00
         0.00000E+00
         0.00000E+00
         0.00000E+00
         0.00000E+00
         0.00000E+00
         0.00000E+00
         0.00000E+00
         0.00000E+00
         0.00000E+00
         0.00000E+00
         0.00000E+00
         0.00000E+00
         0.00000E+00
         0.00000E+00
         0.00000E+00
         0.00000E+00
         0.00000E+00
         0.00000E+00
         0.00000E+00
         0.00000E+00
         0.00000E+00
         0.00000E+00
         0.00000E+00
         0.00000E+00
         0.00000E+00
         0.00000E+00
         0.00000E+00
         0.00000E+00
         0.00000E+00
         0.00000E+00
         0.00000E+00
         0.00000E+00
         0.00000E+00
         0.00000E+00
         0.00000E+00
         0.00000E+00
         0.00000E+00
         0.00000E+00
         0.00000E+00
         0.00000E+00
         0.00000E+00
         0.00000E+00
         0.00000E+00
         0.00000E+00
         0.00000E+00
         0.00000E+00
         0.00000E+00
         0.00000E+00
         0.00000E+00
         0.00000E+00
         0.00000E+00
         0.00000E+00
         0.00000E+00
         0.00000E+00
         0.00000E+00
         0.00000E+00
         0.00000E+00
         0.00000E+00
         0.00000E+00
         0.00000E+00
         0.00000E+00
         0.00000E+00
         0.00000E+00
         0.00000E+00
         0.00000E+00
         0.00000E+00
         0.00000E+00
         0.00000E+00
         0.00000E+00
         0.00000E+00
         0.00000E+00
         0.00000E+00
         0.00000E+00
         0.00000E+00
         0.00000E+00
         0.00000E+00
         0.00000E+00
         0.00000E+00
         0.00000E+00
         0.00000E+00
         0.00000E+00
         0.00000E+00
         0.00000E+00
         0.00000E+00
         0.00000E+00
         0.00000E+00
         0.00000E+00
         0.00000E+00
         0.00000E+00
         0.00000E+00
         0.00000E+00
         0.00000E+00
         0.00000E+00
         0.00000E+00
         0.00000E+00
         0.00000E+00
         0.00000E+00
         0.00000E+00
         0.00000E+00
         0.00000E+00
         0.00000E+00
         0.00000E+00
         0.00000E+00
         0.00000E+00
         0.00000E+00
         0.00000E+00
         0.00000E+00
         0.00000E+00
         0.00000E+00
         0.00000E+00
         0.00000E+00
         0.00000E+00
         0.00000E+00
         0.00000E+00
         0.00000E+00
         0.00000E+00
         0.00000E+00
         0.00000E+00
         0.00000E+00
         0.00000E+00
         0.00000E+00
         0.00000E+00
         0.00000E+00
         0.00000E+00
         0.00000E+00
         0.00000E+00
         0.00000E+00
         0.00000E+00
         0.00000E+00
         0.00000E+00
         0.00000E+00
         0.00000E+00
         0.00000E+00
         0.00000E+00
         0.00000E+00
         0.00000E+00
         0.00000E+00
         0.00000E+00
         0.00000E+00
         0.00000E+00
         0.00000E+00
         0.00000E+00
         0.00000E+00
         0.00000E+00
         0.00000E+00
         0.00000E+00
         0.00000E+00
         0.00000E+00
         0.00000E+00
         0.00000E+00
         0.00000E+00
         0.00000E+00
         0.00000E+00
         0.00000E+00
         0.00000E+00
         0.00000E+00
         0.00000E+00
         0.00000E+00
         0.00000E+00
         0.00000E+00
         0.00000E+00
         0.00000E+00
         0.00000E+00
         0.00000E+00
         0.00000E+00
         0.00000E+00
         0.00000E+00
         0.00000E+00
         0.00000E+00
         0.00000E+00
         0.00000E+00
         0.00000E+00
         0.00000E+00
         0.00000E+00
         0.00000E+00
         0.00000E+00
         0.00000E+00
         0.00000E+00
         0.00000E+00
         0.00000E+00
         0.00000E+00
         0.00000E+00
         0.00000E+00
         0.00000E+00
         0.00000E+00
         0.00000E+00
         0.00000E+00
         0.00000E+00
         0.00000E+00
         0.00000E+00
         0.00000E+00
         0.00000E+00
         0.00000E+00
         0.00000E+00
         0.00000E+00
         0.00000E+00
         0.00000E+00
         0.00000E+00
         0.00000E+00
         0.00000E+00
         0.00000E+00
         0.00000E+00
         0.00000E+00
         0.00000E+00
         0.00000E+00
         0.00000E+00
         0.00000E+00
         0.00000E+00
         0.00000E+00
         0.00000E+00
         0.00000E+00
         0.00000E+00
         0.00000E+00
         0.00000E+00
         0.00000E+00
         0.00000E+00
         0.00000E+00
         0.00000E+00
         0.00000E+00
         0.00000E+00
         0.00000E+00
         0.00000E+00
         0.00000E+00
         0.00000E+00
         0.00000E+00
         0.00000E+00
         0.00000E+00
         0.00000E+00
         0.00000E+00
         0.00000E+00
         0.00000E+00
         0.00000E+00
         0.00000E+00
         0.00000E+00
         0.00000E+00
         0.00000E+00
         0.00000E+00
         0.00000E+00
         0.00000E+00
         0.00000E+00
         0.00000E+00
         0.00000E+00
         0.00000E+00
         0.00000E+00
         0.00000E+00
         0.00000E+00
         0.00000E+00
         0.00000E+00
         0.00000E+00
         0.00000E+00
         0.00000E+00
         0.00000E+00
         0.00000E+00
         0.00000E+00
         0.00000E+00
         0.00000E+00
         0.00000E+00
         0.00000E+00
         0.00000E+00
         0.00000E+00
         0.00000E+00
         0.00000E+00
         0.00000E+00
         0.00000E+00
         0.00000E+00
         0.00000E+00
         0.00000E+00
         0.00000E+00
         0.00000E+00
         0.00000E+00
         0.00000E+00
         0.00000E+00
         0.00000E+00
         0.00000E+00
         0.00000E+00
         0.00000E+00
         0.00000E+00
         0.00000E+00
         0.00000E+00
         0.00000E+00
         0.00000E+00
         0.00000E+00
         0.00000E+00
         0.00000E+00
         0.00000E+00
         0.00000E+00
         0.00000E+00
         0.00000E+00
         0.00000E+00
         0.00000E+00
         0.00000E+00
         0.00000E+00
         0.00000E+00
         0.00000E+00
         0.00000E+00
         0.00000E+00
         0.00000E+00
         0.00000E+00
         0.00000E+00
         0.00000E+00
         0.00000E+00
         0.00000E+00
         0.00000E+00
         0.00000E+00
         0.00000E+00
         0.00000E+00
         0.00000E+00
         0.00000E+00
         0.00000E+00
         0.00000E+00
         0.00000E+00
         0.00000E+00
         0.00000E+00
         0.00000E+00
         0.00000E+00
         0.00000E+00
         0.00000E+00
         0.00000E+00
         0.00000E+00
         0.00000E+00
         0.00000E+00
         0.00000E+00
         0.00000E+00
         0.00000E+00
         0.00000E+00
         0.00000E+00
         0.00000E+00
         0.00000E+00
         0.00000E+00
         0.00000E+00
         0.00000E+00
         0.00000E+00
         0.00000E+00
         0.00000E+00
         0.00000E+00
         0.00000E+00
         0.00000E+00
         0.00000E+00
         0.00000E+00
         0.00000E+00
         0.00000E+00
         0.00000E+00
         0.00000E+00
         0.00000E+00
         0.00000E+00
         0.00000E+00
         0.00000E+00
         0.00000E+00
         0.00000E+00
         0.00000E+00
         0.00000E+00
         0.00000E+00
         0.00000E+00
         0.00000E+00
         0.00000E+00
         0.00000E+00
         0.00000E+00
         0.00000E+00
         0.00000E+00
         0.00000E+00
         0.00000E+00
         0.00000E+00
         0.00000E+00
         0.00000E+00
         0.00000E+00
         0.00000E+00
         0.00000E+00
         0.00000E+00
         0.00000E+00
         0.00000E+00
         0.00000E+00
         0.00000E+00
         0.00000E+00
         0.00000E+00
         0.00000E+00
         0.00000E+00
         0.00000E+00
         0.00000E+00
         0.00000E+00
         0.00000E+00
         0.00000E+00
         0.00000E+00
         0.00000E+00
         0.00000E+00
         0.00000E+00
         0.00000E+00
         0.00000E+00
         0.00000E+00
         0.00000E+00
         0.00000E+00
         0.00000E+00
         0.00000E+00
         0.00000E+00
         0.00000E+00
         0.00000E+00
         0.00000E+00
         0.00000E+00
         0.00000E+00
         0.00000E+00
         0.00000E+00
         0.00000E+00
         0.00000E+00
         0.00000E+00
         0.00000E+00
         0.00000E+00
         0.00000E+00
         0.00000E+00
         0.00000E+00
         0.00000E+00
         0.00000E+00
         0.00000E+00
         0.00000E+00
         0.00000E+00
         0.00000E+00
         0.00000E+00
         0.00000E+00
         0.00000E+00
         0.00000E+00
         0.00000E+00
         0.00000E+00
         0.00000E+00
         0.00000E+00
         0.00000E+00
         0.00000E+00
         0.00000E+00
         0.00000E+00
         0.00000E+00
         0.00000E+00
         0.00000E+00
         0.00000E+00
         0.00000E+00
         0.00000E+00
         0.00000E+00
         0.00000E+00
         0.00000E+00
         0.00000E+00
         0.00000E+00
         0.00000E+00
         0.00000E+00
         0.00000E+00
         0.00000E+00
         0.00000E+00
         0.00000E+00
         0.00000E+00
         0.00000E+00
         0.00000E+00
         0.00000E+00
         0.00000E+00
         0.00000E+00
         0.00000E+00
         0.00000E+00
         0.00000E+00
         0.00000E+00
         0.00000E+00
         0.00000E+00
         0.00000E+00
         0.00000E+00
         0.00000E+00
         0.00000E+00
         0.00000E+00
         0.00000E+00
         0.00000E+00
         0.00000E+00
         0.00000E+00
         0.00000E+00
         0.00000E+00
         0.00000E+00
         0.00000E+00
         0.00000E+00
         0.00000E+00
         0.00000E+00
         0.00000E+00
         0.00000E+00
         0.00000E+00
         0.00000E+00
         0.00000E+00
         0.00000E+00
         0.00000E+00
         0.00000E+00
         0.00000E+00
         0.00000E+00
         0.00000E+00
         0.00000E+00
         0.00000E+00
         0.00000E+00
         0.00000E+00
         0.00000E+00
         0.00000E+00
         0.00000E+00
         0.00000E+00
         0.00000E+00
         0.00000E+00
         0.00000E+00
         0.00000E+00
         0.00000E+00
         0.00000E+00
         0.00000E+00
         0.00000E+00
         0.00000E+00
         0.00000E+00
         0.00000E+00
         0.00000E+00
         0.00000E+00
         0.00000E+00
         0.00000E+00
         0.00000E+00
         0.00000E+00
         0.00000E+00
         0.00000E+00
         0.00000E+00
         0.00000E+00
         0.00000E+00
         0.00000E+00
         0.00000E+00
         0.00000E+00
         0.00000E+00
         0.00000E+00
         0.00000E+00
         0.00000E+00
         0.00000E+00
         0.00000E+00
         0.00000E+00
         0.00000E+00
         0.00000E+00
         0.00000E+00
         0.00000E+00
         0.00000E+00
         0.00000E+00
         0.00000E+00
         0.00000E+00
         0.00000E+00
         0.00000E+00
         0.00000E+00
         0.00000E+00
         0.00000E+00
         0.00000E+00
         0.00000E+00
         0.00000E+00
         0.00000E+00
         0.00000E+00
         0.00000E+00
         0.00000E+00
         0.00000E+00
         0.00000E+00
         0.00000E+00
         0.00000E+00
         0.00000E+00
         0.00000E+00
         0.00000E+00
         0.00000E+00
         0.00000E+00
         0.00000E+00
         0.00000E+00
         0.00000E+00
         0.00000E+00
         0.00000E+00
         0.00000E+00
         0.00000E+00
         0.00000E+00
         0.00000E+00
         0.00000E+00
         0.00000E+00
         0.00000E+00
         0.00000E+00
         0.00000E+00
         0.00000E+00
         0.00000E+00
         0.00000E+00
         0.00000E+00
         0.00000E+00
         0.00000E+00
         0.00000E+00
         0.00000E+00
         0.00000E+00
         0.00000E+00
         0.00000E+00
         0.00000E+00
         0.00000E+00
         0.00000E+00
         0.00000E+00
         0.00000E+00
         0.00000E+00
         0.00000E+00
         0.00000E+00
         0.00000E+00
         0.00000E+00
         0.00000E+00
         0.00000E+00
         0.00000E+00
         0.00000E+00
         0.00000E+00
         0.00000E+00
         0.00000E+00
         0.00000E+00
         0.00000E+00
         0.00000E+00
         0.00000E+00
         0.00000E+00
         0.00000E+00
         0.00000E+00
         0.00000E+00
         0.00000E+00
         0.00000E+00
         0.00000E+00
         0.00000E+00
         0.00000E+00
         0.00000E+00
         0.00000E+00
         0.00000E+00
         0.00000E+00
         0.00000E+00
         0.00000E+00
         0.00000E+00
         0.00000E+00
         0.00000E+00
         0.00000E+00
         0.00000E+00
         0.00000E+00
         0.00000E+00
         0.00000E+00
         0.00000E+00
         0.00000E+00
         0.00000E+00
         0.00000E+00
         0.00000E+00
         0.00000E+00
         0.00000E+00
         0.00000E+00
         0.00000E+00
         0.00000E+00
         0.00000E+00
         0.00000E+00
         0.00000E+00
         0.00000E+00
         0.00000E+00
         0.00000E+00
         0.00000E+00
         0.00000E+00
         0.00000E+00
         0.00000E+00
         0.00000E+00
         0.00000E+00
         0.00000E+00
         0.00000E+00
         0.00000E+00
         0.00000E+00
         0.00000E+00
         0.00000E+00
         0.00000E+00
         0.00000E+00
         0.00000E+00
         0.00000E+00
         0.00000E+00
         0.00000E+00
         0.00000E+00
         0.00000E+00
         0.00000E+00
         0.00000E+00
         0.00000E+00
         0.00000E+00
         0.00000E+00
         0.00000E+00
         0.00000E+00
         0.00000E+00
         0.00000E+00
         0.00000E+00
         0.00000E+00
         0.00000E+00
         0.00000E+00
         0.00000E+00
         0.00000E+00
         0.00000E+00
         0.00000E+00
         0.00000E+00
         0.00000E+00
         0.00000E+00
         0.00000E+00
         0.00000E+00
         0.00000E+00
         0.00000E+00
         0.00000E+00
         0.00000E+00
         0.00000E+00
         0.00000E+00
         0.00000E+00
         0.00000E+00
         0.00000E+00
         0.00000E+00
         0.00000E+00
         0.00000E+00
         0.00000E+00
         0.00000E+00
         0.00000E+00
         0.00000E+00
         0.00000E+00
         0.00000E+00
         0.00000E+00
         0.00000E+00
         0.00000E+00
         0.00000E+00
         0.00000E+00
         0.00000E+00
         0.00000E+00
         0.00000E+00
         0.00000E+00
         0.00000E+00
         0.00000E+00
         0.00000E+00
         0.00000E+00
         0.00000E+00
         0.00000E+00
         0.00000E+00
         0.00000E+00
         0.00000E+00
         0.00000E+00
         0.00000E+00
         0.00000E+00
         0.00000E+00
         0.00000E+00
         0.00000E+00
         0.00000E+00
         0.00000E+00
         0.00000E+00
         0.00000E+00
         0.00000E+00
         0.00000E+00
         0.00000E+00
         0.00000E+00
         0.00000E+00
         0.00000E+00
         0.00000E+00
         0.00000E+00
         0.00000E+00
         0.00000E+00
         0.00000E+00
         0.00000E+00
         0.00000E+00
         0.00000E+00
         0.00000E+00
         0.00000E+00
         0.00000E+00
         0.00000E+00
         0.00000E+00
         0.00000E+00
         0.00000E+00
         0.00000E+00
         0.00000E+00
         0.00000E+00
         0.00000E+00
         0.00000E+00
         0.00000E+00
         0.00000E+00
         0.00000E+00
         0.00000E+00
         0.00000E+00
         0.00000E+00
         0.00000E+00
         0.00000E+00
         0.00000E+00
         0.00000E+00
         0.00000E+00
         0.00000E+00
         0.00000E+00
         0.00000E+00
         0.00000E+00
         0.00000E+00
         0.00000E+00
         0.00000E+00
         0.00000E+00
         0.00000E+00
         0.00000E+00
         0.00000E+00
         0.00000E+00
         0.00000E+00
         0.00000E+00
         0.00000E+00
         0.00000E+00
         0.00000E+00
         0.00000E+00
         0.00000E+00
         0.00000E+00
         0.00000E+00
         0.00000E+00
         0.00000E+00
         0.00000E+00
         0.00000E+00
         0.00000E+00
         0.00000E+00
         0.00000E+00
         0.00000E+00
         0.00000E+00
         0.00000E+00
         0.00000E+00
         0.00000E+00
         0.00000E+00
         0.00000E+00
         0.00000E+00
         0.00000E+00
         0.00000E+00
         0.00000E+00
         0.00000E+00
         0.00000E+00
         0.00000E+00
         0.00000E+00
         0.00000E+00
         0.00000E+00
         0.00000E+00
         0.00000E+00
         0.00000E+00
         0.00000E+00
         0.00000E+00
         0.00000E+00
         0.00000E+00
         0.00000E+00
         0.00000E+00
         0.00000E+00
         0.00000E+00
         0.00000E+00
         0.00000E+00
         0.00000E+00
         0.00000E+00
         0.00000E+00
         0.00000E+00
         0.00000E+00
         0.00000E+00
         0.00000E+00
         0.00000E+00
         0.00000E+00
         0.00000E+00
         0.00000E+00
         0.00000E+00
         0.00000E+00
         0.00000E+00
         0.00000E+00
         0.00000E+00
         0.00000E+00
         0.00000E+00
         0.00000E+00
         0.00000E+00
         0.00000E+00
         0.00000E+00
         0.00000E+00
         0.00000E+00
         0.00000E+00
         0.00000E+00
         0.00000E+00
         0.00000E+00
         0.00000E+00
         0.00000E+00
         0.00000E+00
         0.00000E+00
         0.00000E+00
         0.00000E+00
         0.00000E+00
         0.00000E+00
         0.00000E+00
         0.00000E+00
         0.00000E+00
         0.00000E+00
         0.00000E+00
         0.00000E+00
         0.00000E+00
         0.00000E+00
         0.00000E+00
         0.00000E+00
         0.00000E+00
         0.00000E+00
         0.00000E+00
         0.00000E+00
         0.00000E+00
         0.00000E+00
         0.00000E+00
         0.00000E+00
         0.00000E+00
         0.00000E+00
         0.00000E+00
         0.00000E+00
         0.00000E+00
         0.00000E+00
         0.00000E+00
         0.00000E+00
         0.00000E+00
         0.00000E+00
         0.00000E+00
         0.00000E+00
         0.00000E+00
         0.00000E+00
         0.00000E+00
         0.00000E+00
         0.00000E+00
         0.00000E+00
         0.00000E+00
         0.00000E+00
         0.00000E+00
         0.00000E+00
         0.00000E+00
         0.00000E+00
         0.00000E+00
         0.00000E+00
         0.00000E+00
         0.00000E+00
         0.00000E+00
         0.00000E+00
         0.00000E+00
         0.00000E+00
         0.00000E+00
         0.00000E+00
         0.00000E+00
         0.00000E+00
         0.00000E+00
         0.00000E+00
         0.00000E+00
         0.00000E+00
         0.00000E+00
         0.00000E+00
         0.00000E+00
         0.00000E+00
         0.00000E+00
         0.00000E+00
         0.00000E+00
         0.00000E+00
         0.00000E+00
         0.00000E+00
         0.00000E+00
         0.00000E+00
         0.00000E+00
         0.00000E+00
         0.00000E+00
         0.00000E+00
         0.00000E+00
         0.00000E+00
         0.00000E+00
         0.00000E+00
         0.00000E+00
         0.00000E+00
         0.00000E+00
         0.00000E+00
         0.00000E+00
         0.00000E+00
         0.00000E+00
         0.00000E+00
         0.00000E+00
         0.00000E+00
         0.00000E+00
         0.00000E+00
         0.00000E+00
         0.00000E+00
         0.00000E+00
         0.00000E+00
         0.00000E+00
         0.00000E+00
         0.00000E+00
         0.00000E+00
         0.00000E+00
         0.00000E+00
         0.00000E+00
         0.00000E+00
         0.00000E+00
         0.00000E+00
         0.00000E+00
         0.00000E+00
         0.00000E+00
         0.00000E+00
         0.00000E+00
         0.00000E+00
         0.00000E+00
         0.00000E+00
         0.00000E+00
         0.00000E+00
         0.00000E+00
         0.00000E+00
         0.00000E+00
         0.00000E+00
         0.00000E+00
         0.00000E+00
         0.00000E+00
         0.00000E+00
         0.00000E+00
         0.00000E+00
         0.00000E+00
         0.00000E+00
         0.00000E+00
         0.00000E+00
         0.00000E+00
         0.00000E+00
         0.00000E+00
         0.00000E+00
         0.00000E+00
         0.00000E+00
         0.00000E+00
         0.00000E+00
         0.00000E+00
         0.00000E+00
         0.00000E+00
         0.00000E+00
         0.00000E+00
         0.00000E+00
         0.00000E+00
         0.00000E+00
         0.00000E+00
         0.00000E+00
         0.00000E+00
         0.00000E+00
         0.00000E+00
         0.00000E+00
         0.00000E+00
         0.00000E+00
         0.00000E+00
         0.00000E+00
         0.00000E+00
         0.00000E+00
         0.00000E+00
         0.00000E+00
         0.00000E+00
         0.00000E+00
         0.00000E+00
         0.00000E+00
         0.00000E+00
         0.00000E+00
         0.00000E+00
         0.00000E+00
         0.00000E+00
         0.00000E+00
         0.00000E+00
         0.00000E+00
         0.00000E+00
         0.00000E+00
         0.00000E+00
         0.00000E+00
         0.00000E+00
         0.00000E+00
         0.00000E+00
         0.00000E+00
         0.00000E+00
         0.00000E+00
         0.00000E+00
         0.00000E+00
         0.00000E+00
         0.00000E+00
         0.00000E+00
         0.00000E+00
         0.00000E+00
         0.00000E+00
         0.00000E+00
         0.00000E+00
         0.00000E+00
         0.00000E+00
         0.00000E+00
         0.00000E+00
         0.00000E+00
         0.00000E+00
         0.00000E+00
         0.00000E+00
         0.00000E+00
         0.00000E+00
         0.00000E+00
         0.00000E+00
         0.00000E+00
         0.00000E+00
         0.00000E+00
         0.00000E+00
         0.00000E+00
         0.00000E+00
         0.00000E+00
         0.00000E+00
         0.00000E+00
         0.00000E+00
         0.00000E+00
         0.00000E+00
         0.00000E+00
         0.00000E+00
         0.00000E+00
         0.00000E+00
         0.00000E+00
         0.00000E+00
         0.00000E+00
         0.00000E+00
         0.00000E+00
         0.00000E+00
         0.00000E+00
         0.00000E+00
         0.00000E+00
         0.00000E+00
         0.00000E+00
         0.00000E+00
         0.00000E+00
         0.00000E+00
         0.00000E+00
         0.00000E+00
         0.00000E+00
         0.00000E+00
         0.00000E+00
         0.00000E+00
         0.00000E+00
         0.00000E+00
         0.00000E+00
         0.00000E+00
         0.00000E+00
         0.00000E+00
         0.00000E+00
         0.00000E+00
         0.00000E+00
         0.00000E+00
         0.00000E+00
         0.00000E+00
         0.00000E+00
         0.00000E+00
         0.00000E+00
         0.00000E+00
         0.00000E+00
         0.00000E+00
         0.00000E+00
         0.00000E+00
         0.00000E+00
         0.00000E+00
         0.00000E+00
         0.00000E+00
         0.00000E+00
         0.00000E+00
         0.00000E+00
         0.00000E+00
         0.00000E+00
         0.00000E+00
         0.00000E+00
         0.00000E+00
         0.00000E+00
         0.00000E+00
         0.00000E+00
         0.00000E+00
         0.00000E+00
         0.00000E+00
         0.00000E+00
         0.00000E+00
         0.00000E+00
         0.00000E+00
         0.00000E+00
         0.00000E+00
         0.00000E+00
         0.00000E+00
         0.00000E+00
         0.00000E+00
         0.00000E+00
         0.00000E+00
         0.00000E+00
         0.00000E+00
         0.00000E+00
         0.00000E+00
         0.00000E+00
         0.00000E+00
         0.00000E+00
         0.00000E+00
         0.00000E+00
         0.00000E+00
         0.00000E+00
         0.00000E+00
         0.00000E+00
         0.00000E+00
         0.00000E+00
         0.00000E+00
         0.00000E+00
         0.00000E+00
         0.00000E+00
         0.00000E+00
         0.00000E+00
         0.00000E+00
         0.00000E+00
         0.00000E+00
         0.00000E+00
         0.00000E+00
         0.00000E+00
         0.00000E+00
         0.00000E+00
         0.00000E+00
         0.00000E+00
         0.00000E+00
         0.00000E+00
         0.00000E+00
         0.00000E+00
         0.00000E+00
         0.00000E+00
         0.00000E+00
         0.00000E+00
         0.00000E+00
         0.00000E+00
         0.00000E+00
         0.00000E+00
         0.00000E+00
         0.00000E+00
         0.00000E+00
         0.00000E+00
         0.00000E+00
         0.00000E+00
         0.00000E+00
         0.00000E+00
         0.00000E+00
         0.00000E+00
         0.00000E+00
         0.00000E+00
         0.00000E+00
         0.00000E+00
         0.00000E+00
         0.00000E+00
         0.00000E+00
         0.00000E+00
         0.00000E+00
         0.00000E+00
         0.00000E+00
         0.00000E+00
         0.00000E+00
         0.00000E+00
         0.00000E+00
         0.00000E+00
         0.00000E+00
         0.00000E+00
         0.00000E+00
         0.00000E+00
         0.00000E+00
         0.00000E+00
         0.00000E+00
         0.00000E+00
         0.00000E+00
         0.00000E+00
         0.00000E+00
         0.00000E+00
         0.00000E+00
         0.00000E+00
         0.00000E+00
         0.00000E+00
         0.00000E+00
         0.00000E+00
         0.00000E+00
         0.00000E+00
         0.00000E+00
         0.00000E+00
         0.00000E+00
         0.00000E+00
         0.00000E+00
         0.00000E+00
         0.00000E+00
         0.00000E+00
         0.00000E+00
         0.00000E+00
         0.00000E+00
         0.00000E+00
         0.00000E+00
         0.00000E+00
         0.00000E+00
         0.00000E+00
         0.00000E+00
         0.00000E+00
  
SCALARS                            eps  double 1
LOOKUP_TABLE default
         0.14048E+02
         0.13877E+02
         0.13985E+02
         0.14179E+02
         0.00000E+00
         0.00000E+00
         0.00000E+00
         0.00000E+00
         0.13872E+02
         0.13929E+02
         0.00000E+00
         0.00000E+00
         0.13630E+02
         0.13621E+02
         0.00000E+00
         0.00000E+00
         0.14151E+02
         0.13634E+02
         0.00000E+00
         0.00000E+00
         0.13444E+02
         0.13296E+02
         0.13532E+02
         0.00000E+00
         0.00000E+00
         0.00000E+00
         0.13302E+02
         0.13086E+02
         0.00000E+00
         0.00000E+00
         0.14141E+02
         0.13917E+02
         0.14359E+02
         0.00000E+00
         0.00000E+00
         0.00000E+00
         0.14012E+02
         0.13725E+02
         0.00000E+00
         0.00000E+00
         0.13898E+02
         0.13677E+02
         0.00000E+00
         0.00000E+00
         0.14085E+02
         0.14168E+02
         0.00000E+00
         0.00000E+00
         0.13499E+02
         0.00000E+00
         0.14152E+02
         0.00000E+00
         0.13239E+02
         0.00000E+00
         0.13172E+02
         0.00000E+00
         0.13173E+02
         0.13414E+02
         0.00000E+00
         0.00000E+00
         0.14137E+02
         0.14051E+02
         0.00000E+00
         0.00000E+00
         0.14191E+02
         0.00000E+00
         0.14088E+02
         0.00000E+00
         0.13820E+02
         0.13792E+02
         0.00000E+00
         0.00000E+00
         0.13730E+02
         0.00000E+00
         0.13010E+02
         0.00000E+00
         0.12972E+02
         0.00000E+00
         0.12991E+02
         0.00000E+00
         0.13097E+02
         0.13204E+02
         0.00000E+00
         0.00000E+00
         0.13422E+02
         0.00000E+00
         0.14081E+02
         0.00000E+00
         0.13979E+02
         0.00000E+00
         0.13896E+02
         0.13848E+02
         0.00000E+00
         0.00000E+00
         0.13905E+02
         0.00000E+00
         0.13945E+02
         0.00000E+00
         0.13909E+02
         0.00000E+00
         0.13897E+02
         0.13933E+02
         0.00000E+00
         0.00000E+00
         0.13698E+02
         0.13797E+02
         0.00000E+00
         0.00000E+00
         0.13681E+02
         0.00000E+00
         0.13795E+02
         0.00000E+00
         0.13684E+02
         0.00000E+00
         0.13438E+02
         0.00000E+00
         0.13201E+02
         0.00000E+00
         0.13059E+02
         0.00000E+00
         0.13044E+02
         0.00000E+00
         0.13048E+02
         0.00000E+00
         0.13203E+02
         0.00000E+00
         0.13494E+02
         0.00000E+00
         0.13812E+02
         0.00000E+00
         0.13997E+02
         0.00000E+00
         0.14180E+02
         0.00000E+00
         0.14300E+02
         0.00000E+00
         0.14297E+02
         0.00000E+00
         0.14000E+02
         0.00000E+00
         0.13793E+02
         0.00000E+00
         0.13725E+02
         0.00000E+00
         0.13836E+02
         0.00000E+00
         0.13893E+02
         0.00000E+00
         0.13795E+02
         0.00000E+00
         0.13795E+02
         0.00000E+00
         0.13869E+02
         0.00000E+00
         0.13965E+02
         0.00000E+00
         0.36623E+00
         0.37333E+00
         0.37234E+00
         0.36328E+00
         0.38066E+00
         0.37155E+00
         0.38287E+00
         0.37684E+00
         0.36467E+00
         0.37211E+00
         0.38964E+00
         0.39189E+00
         0.38625E+00
         0.38578E+00
         0.38951E+00
         0.36370E+00
         0.36533E+00
         0.36080E+00
         0.37412E+00
         0.37157E+00
         0.37531E+00
         0.37289E+00
         0.37740E+00
         0.37614E+00
         0.37179E+00
         0.37209E+00
         0.37963E+00
         0.37892E+00
         0.38476E+00
         0.37603E+00
         0.36450E+00
         0.37343E+00
         0.36456E+00
         0.37034E+00
         0.39336E+00
         0.38556E+00
         0.38203E+00
         0.38627E+00
         0.38678E+00
         0.39388E+00
         0.39933E+00
         0.38649E+00
         0.37518E+00
         0.37663E+00
         0.38238E+00
         0.39309E+00
         0.38388E+00
         0.37465E+00
         0.37526E+00
         0.38238E+00
         0.39008E+00
         0.37983E+00
         0.41393E+00
         0.40375E+00
         0.40553E+00
         0.40326E+00
         0.40402E+00
         0.40975E+00
         0.41547E+00
         0.41710E+00
         0.41620E+00
         0.41690E+00
         0.41933E+00
         0.40440E+00
         0.39873E+00
         0.39660E+00
         0.39333E+00
         0.39091E+00
         0.39112E+00
         0.39555E+00
         0.41057E+00
         0.40699E+00
         0.40161E+00
         0.40155E+00
         0.40247E+00
         0.40744E+00
         0.40013E+00
         0.39752E+00
         0.88706E-02
         0.40620E-02
         0.36529E-02
         0.15229E-02
         0.93359E-02
         0.54698E-02
         0.66901E-03
         0.86713E-02
         0.42448E-02
         0.79857E-02
         0.22774E-02
         0.20367E-01
         0.14669E-01
         0.57281E-02
         0.21490E-01
         0.55733E-02
         0.12782E-02
         0.00000E+00
         0.27248E-02
         0.50884E-04
         0.15308E-01
         0.14159E-01
         0.13703E-01
         0.12298E-02
         0.40285E-02
         0.00000E+00
         0.52252E-02
         0.00000E+00
         0.00000E+00
         0.46365E-02
         0.43005E-02
         0.82640E-03
         0.16829E-02
         0.10364E-02
         0.13017E-01
         0.64970E-02
         0.93523E-02
         0.16911E-01
         0.12251E-01
         0.11178E-01
         0.17252E-01
         0.15330E-01
         0.15454E-01
         0.11226E-01
         0.96791E-02
         0.14437E-01
         0.83481E-02
         0.66201E-02
         0.49029E-02
         0.63632E-02
         0.12446E-01
         0.75342E-02
         0.66145E-01
         0.67816E-01
         0.71055E-01
         0.70513E-01
         0.75413E-01
         0.81246E-01
         0.77811E-01
         0.68777E-01
         0.66929E-01
         0.71889E-01
         0.70381E-01
         0.69372E-01
         0.56713E-01
         0.53734E-01
         0.59387E-01
         0.63871E-01
         0.66420E-01
         0.72875E-01
         0.69958E-01
         0.71953E-01
         0.64421E-01
         0.60982E-01
         0.65278E-01
         0.63733E-01
         0.65690E-01
         0.65106E-01
         0.88797E-02
         0.40636E-02
         0.36568E-02
         0.15295E-02
         0.93302E-02
         0.54648E-02
         0.68043E-03
         0.86828E-02
         0.42576E-02
         0.80186E-02
         0.22773E-02
         0.20366E-01
         0.14676E-01
         0.57072E-02
         0.21516E-01
         0.55802E-02
         0.12904E-02
         0.00000E+00
         0.27282E-02
         0.43955E-04
         0.15310E-01
         0.14158E-01
         0.13702E-01
         0.12297E-02
         0.40594E-02
         0.00000E+00
         0.52279E-02
         0.00000E+00
         0.00000E+00
         0.46502E-02
         0.43076E-02
         0.82512E-03
         0.16747E-02
         0.10402E-02
         0.13024E-01
         0.64942E-02
         0.93495E-02
         0.16942E-01
         0.12286E-01
         0.11198E-01
         0.17265E-01
         0.15340E-01
         0.15457E-01
         0.11226E-01
         0.96764E-02
         0.14436E-01
         0.83482E-02
         0.66195E-02
         0.48913E-02
         0.63501E-02
         0.12437E-01
         0.75176E-02
         0.66120E-01
         0.67799E-01
         0.71054E-01
         0.70513E-01
         0.75400E-01
         0.81218E-01
         0.77777E-01
         0.68757E-01
         0.66911E-01
         0.71866E-01
         0.70368E-01
         0.69375E-01
         0.56707E-01
         0.53732E-01
         0.59395E-01
         0.63886E-01
         0.66438E-01
         0.72892E-01
         0.69953E-01
         0.71948E-01
         0.64414E-01
         0.60978E-01
         0.65254E-01
         0.63688E-01
         0.65651E-01
         0.65070E-01
         0.88889E-02
         0.40653E-02
         0.36607E-02
         0.15362E-02
         0.93244E-02
         0.54600E-02
         0.69192E-03
         0.86943E-02
         0.42704E-02
         0.80513E-02
         0.22773E-02
         0.20366E-01
         0.14683E-01
         0.56864E-02
         0.21541E-01
         0.55874E-02
         0.13029E-02
         0.00000E+00
         0.27316E-02
         0.37167E-04
         0.15312E-01
         0.14156E-01
         0.13701E-01
         0.12295E-02
         0.40900E-02
         0.00000E+00
         0.52306E-02
         0.00000E+00
         0.00000E+00
         0.46634E-02
         0.43149E-02
         0.82385E-03
         0.16666E-02
         0.10440E-02
         0.13032E-01
         0.64917E-02
         0.93464E-02
         0.16974E-01
         0.12321E-01
         0.11218E-01
         0.17279E-01
         0.15350E-01
         0.15459E-01
         0.11226E-01
         0.96744E-02
         0.14436E-01
         0.83484E-02
         0.66188E-02
         0.48800E-02
         0.63370E-02
         0.12429E-01
         0.75012E-02
         0.66094E-01
         0.67782E-01
         0.71054E-01
         0.70514E-01
         0.75387E-01
         0.81189E-01
         0.77743E-01
         0.68738E-01
         0.66893E-01
         0.71843E-01
         0.70356E-01
         0.69377E-01
         0.56702E-01
         0.53729E-01
         0.59402E-01
         0.63903E-01
         0.66457E-01
         0.72908E-01
         0.69949E-01
         0.71944E-01
         0.64407E-01
         0.60974E-01
         0.65231E-01
         0.63644E-01
         0.65612E-01
         0.65033E-01
         0.88981E-02
         0.40669E-02
         0.36646E-02
         0.15429E-02
         0.93187E-02
         0.54551E-02
         0.70350E-03
         0.87056E-02
         0.42832E-02
         0.80834E-02
         0.22773E-02
         0.20365E-01
         0.14690E-01
         0.56656E-02
         0.21567E-01
         0.55952E-02
         0.13159E-02
         0.00000E+00
         0.27354E-02
         0.30048E-04
         0.15314E-01
         0.14156E-01
         0.13701E-01
         0.12291E-02
         0.41200E-02
         0.00000E+00
         0.52329E-02
         0.00000E+00
         0.00000E+00
         0.46755E-02
         0.43225E-02
         0.82287E-03
         0.16585E-02
         0.10477E-02
         0.13039E-01
         0.64890E-02
         0.93434E-02
         0.17006E-01
         0.12356E-01
         0.11239E-01
         0.17294E-01
         0.15360E-01
         0.15463E-01
         0.11228E-01
         0.96729E-02
         0.14435E-01
         0.83493E-02
         0.66183E-02
         0.48686E-02
         0.63238E-02
         0.12420E-01
         0.74846E-02
         0.66069E-01
         0.67765E-01
         0.71054E-01
         0.70514E-01
         0.75374E-01
         0.81160E-01
         0.77709E-01
         0.68719E-01
         0.66875E-01
         0.71820E-01
         0.70343E-01
         0.69381E-01
         0.56698E-01
         0.53728E-01
         0.59411E-01
         0.63923E-01
         0.66477E-01
         0.72926E-01
         0.69946E-01
         0.71940E-01
         0.64399E-01
         0.60970E-01
         0.65207E-01
         0.63600E-01
         0.65573E-01
         0.64997E-01
         0.89072E-02
         0.40685E-02
         0.36684E-02
         0.15496E-02
         0.93131E-02
         0.54501E-02
         0.71498E-03
         0.87168E-02
         0.42959E-02
         0.81146E-02
         0.22774E-02
         0.20364E-01
         0.14698E-01
         0.56448E-02
         0.21593E-01
         0.56037E-02
         0.13294E-02
         0.00000E+00
         0.27392E-02
         0.22767E-04
         0.15317E-01
         0.14155E-01
         0.13702E-01
         0.12284E-02
         0.41493E-02
         0.00000E+00
         0.52350E-02
         0.00000E+00
         0.00000E+00
         0.46863E-02
         0.43303E-02
         0.82201E-03
         0.16503E-02
         0.10515E-02
         0.13046E-01
         0.64863E-02
         0.93407E-02
         0.17037E-01
         0.12392E-01
         0.11261E-01
         0.17310E-01
         0.15371E-01
         0.15467E-01
         0.11231E-01
         0.96723E-02
         0.14436E-01
         0.83507E-02
         0.66181E-02
         0.48573E-02
         0.63106E-02
         0.12411E-01
         0.74681E-02
         0.66044E-01
         0.67747E-01
         0.71053E-01
         0.70515E-01
         0.75360E-01
         0.81132E-01
         0.77675E-01
         0.68700E-01
         0.66857E-01
         0.71797E-01
         0.70331E-01
         0.69386E-01
         0.56695E-01
         0.53726E-01
         0.59420E-01
         0.63944E-01
         0.66501E-01
         0.72944E-01
         0.69942E-01
         0.71935E-01
         0.64392E-01
         0.60966E-01
         0.65183E-01
         0.63556E-01
         0.65534E-01
         0.64960E-01
         0.89158E-02
         0.40697E-02
         0.36722E-02
         0.15562E-02
         0.93074E-02
         0.54452E-02
         0.72618E-03
         0.87273E-02
         0.43086E-02
         0.81451E-02
         0.22780E-02
         0.20364E-01
         0.14705E-01
         0.56240E-02
         0.21618E-01
         0.56123E-02
         0.13429E-02
         0.00000E+00
         0.27431E-02
         0.15680E-04
         0.15320E-01
         0.14155E-01
         0.13704E-01
         0.12278E-02
         0.41779E-02
         0.00000E+00
         0.52369E-02
         0.00000E+00
         0.75448E-05
         0.46968E-02
         0.43380E-02
         0.82087E-03
         0.16421E-02
         0.10553E-02
         0.13053E-01
         0.64842E-02
         0.93382E-02
         0.17069E-01
         0.12429E-01
         0.11284E-01
         0.17326E-01
         0.15382E-01
         0.15471E-01
         0.11234E-01
         0.96727E-02
         0.14438E-01
         0.83523E-02
         0.66183E-02
         0.48466E-02
         0.62977E-02
         0.12403E-01
         0.74520E-02
         0.66018E-01
         0.67731E-01
         0.71053E-01
         0.70515E-01
         0.75347E-01
         0.81103E-01
         0.77640E-01
         0.68680E-01
         0.66840E-01
         0.71774E-01
         0.70320E-01
         0.69391E-01
         0.56693E-01
         0.53725E-01
         0.59429E-01
         0.63967E-01
         0.66525E-01
         0.72963E-01
         0.69938E-01
         0.71931E-01
         0.64385E-01
         0.60962E-01
         0.65160E-01
         0.63512E-01
         0.65496E-01
         0.64924E-01
         0.89237E-02
         0.40700E-02
         0.36757E-02
         0.15630E-02
         0.93020E-02
         0.54405E-02
         0.73697E-03
         0.87362E-02
         0.43216E-02
         0.81742E-02
         0.22794E-02
         0.20364E-01
         0.14713E-01
         0.56034E-02
         0.21644E-01
         0.56210E-02
         0.13562E-02
         0.00000E+00
         0.27470E-02
         0.86858E-05
         0.15323E-01
         0.14155E-01
         0.13706E-01
         0.12272E-02
         0.42057E-02
         0.00000E+00
         0.52391E-02
         0.00000E+00
         0.20315E-04
         0.47072E-02
         0.43451E-02
         0.81895E-03
         0.16339E-02
         0.10589E-02
         0.13061E-01
         0.64823E-02
         0.93360E-02
         0.17101E-01
         0.12466E-01
         0.11307E-01
         0.17342E-01
         0.15393E-01
         0.15476E-01
         0.11238E-01
         0.96736E-02
         0.14440E-01
         0.83548E-02
         0.66195E-02
         0.48374E-02
         0.62854E-02
         0.12395E-01
         0.74359E-02
         0.65993E-01
         0.67714E-01
         0.71052E-01
         0.70516E-01
         0.75334E-01
         0.81074E-01
         0.77606E-01
         0.68661E-01
         0.66822E-01
         0.71751E-01
         0.70307E-01
         0.69395E-01
         0.56691E-01
         0.53724E-01
         0.59439E-01
         0.63989E-01
         0.66549E-01
         0.72981E-01
         0.69933E-01
         0.71926E-01
         0.64378E-01
         0.60959E-01
         0.65136E-01
         0.63468E-01
         0.65457E-01
         0.64887E-01
         0.89313E-02
         0.40700E-02
         0.36792E-02
         0.15697E-02
         0.92968E-02
         0.54355E-02
         0.74742E-03
         0.87443E-02
         0.43348E-02
         0.82027E-02
         0.22813E-02
         0.20364E-01
         0.14721E-01
         0.55829E-02
         0.21670E-01
         0.56298E-02
         0.13694E-02
         0.00000E+00
         0.27509E-02
         0.19971E-05
         0.15326E-01
         0.14155E-01
         0.13707E-01
         0.12267E-02
         0.42330E-02
         0.00000E+00
         0.52414E-02
         0.00000E+00
         0.33477E-04
         0.47177E-02
         0.43520E-02
         0.81660E-03
         0.16256E-02
         0.10625E-02
         0.13069E-01
         0.64809E-02
         0.93344E-02
         0.17134E-01
         0.12503E-01
         0.11330E-01
         0.17359E-01
         0.15405E-01
         0.15481E-01
         0.11242E-01
         0.96747E-02
         0.14443E-01
         0.83577E-02
         0.66210E-02
         0.48288E-02
         0.62734E-02
         0.12388E-01
         0.74201E-02
         0.65968E-01
         0.67697E-01
         0.71051E-01
         0.70516E-01
         0.75321E-01
         0.81045E-01
         0.77572E-01
         0.68641E-01
         0.66804E-01
         0.71728E-01
         0.70295E-01
         0.69400E-01
         0.56688E-01
         0.53723E-01
         0.59449E-01
         0.64012E-01
         0.66573E-01
         0.72999E-01
         0.69928E-01
         0.71921E-01
         0.64372E-01
         0.60956E-01
         0.65112E-01
         0.63424E-01
         0.65418E-01
         0.64851E-01
         0.89389E-02
         0.40700E-02
         0.36827E-02
         0.15765E-02
         0.92914E-02
         0.54306E-02
         0.75788E-03
         0.87525E-02
         0.43480E-02
         0.82312E-02
         0.22830E-02
         0.20364E-01
         0.14729E-01
         0.55626E-02
         0.21697E-01
         0.56385E-02
         0.13826E-02
         0.00000E+00
         0.27548E-02
         0.00000E+00
         0.15329E-01
         0.14155E-01
         0.13709E-01
         0.12263E-02
         0.42603E-02
         0.00000E+00
         0.52438E-02
         0.00000E+00
         0.46747E-04
         0.47281E-02
         0.43589E-02
         0.81431E-03
         0.16175E-02
         0.10661E-02
         0.13077E-01
         0.64791E-02
         0.93326E-02
         0.17166E-01
         0.12540E-01
         0.11353E-01
         0.17375E-01
         0.15416E-01
         0.15486E-01
         0.11246E-01
         0.96762E-02
         0.14446E-01
         0.83603E-02
         0.66225E-02
         0.48204E-02
         0.62615E-02
         0.12380E-01
         0.74041E-02
         0.65942E-01
         0.67680E-01
         0.71050E-01
         0.70517E-01
         0.75308E-01
         0.81016E-01
         0.77537E-01
         0.68622E-01
         0.66786E-01
         0.71705E-01
         0.70283E-01
         0.69405E-01
         0.56686E-01
         0.53722E-01
         0.59458E-01
         0.64034E-01
         0.66597E-01
         0.73017E-01
         0.69923E-01
         0.71917E-01
         0.64366E-01
         0.60953E-01
         0.65089E-01
         0.63380E-01
         0.65380E-01
         0.64814E-01
         0.89463E-02
         0.40699E-02
         0.36861E-02
         0.15833E-02
         0.92861E-02
         0.54257E-02
         0.76839E-03
         0.87607E-02
         0.43612E-02
         0.82597E-02
         0.22850E-02
         0.20364E-01
         0.14737E-01
         0.55422E-02
         0.21723E-01
         0.56472E-02
         0.13958E-02
         0.00000E+00
         0.27586E-02
         0.00000E+00
         0.15333E-01
         0.14155E-01
         0.13711E-01
         0.12258E-02
         0.42876E-02
         0.00000E+00
         0.52462E-02
         0.00000E+00
         0.60119E-04
         0.47386E-02
         0.43657E-02
         0.81194E-03
         0.16093E-02
         0.10697E-02
         0.13085E-01
         0.64778E-02
         0.93310E-02
         0.17199E-01
         0.12577E-01
         0.11376E-01
         0.17392E-01
         0.15427E-01
         0.15491E-01
         0.11250E-01
         0.96775E-02
         0.14449E-01
         0.83632E-02
         0.66242E-02
         0.48118E-02
         0.62494E-02
         0.12373E-01
         0.73882E-02
         0.65917E-01
         0.67663E-01
         0.71049E-01
         0.70517E-01
         0.75295E-01
         0.80987E-01
         0.77502E-01
         0.68602E-01
         0.66769E-01
         0.71682E-01
         0.70271E-01
         0.69410E-01
         0.56684E-01
         0.53721E-01
         0.59468E-01
         0.64057E-01
         0.66622E-01
         0.73034E-01
         0.69918E-01
         0.71912E-01
         0.64360E-01
         0.60950E-01
         0.65065E-01
         0.63337E-01
         0.65341E-01
         0.64778E-01
         0.89538E-02
         0.40698E-02
         0.36896E-02
         0.15900E-02
         0.92809E-02
         0.54209E-02
         0.77903E-03
         0.87688E-02
         0.43744E-02
         0.82881E-02
         0.22871E-02
         0.20364E-01
         0.14746E-01
         0.55220E-02
         0.21749E-01
         0.56559E-02
         0.14091E-02
         0.00000E+00
         0.27625E-02
         0.00000E+00
         0.15336E-01
         0.14155E-01
         0.13713E-01
         0.12255E-02
         0.43148E-02
         0.00000E+00
         0.52487E-02
         0.00000E+00
         0.73599E-04
         0.47490E-02
         0.43726E-02
         0.80962E-03
         0.16012E-02
         0.10733E-02
         0.13093E-01
         0.64762E-02
         0.93293E-02
         0.17232E-01
         0.12615E-01
         0.11398E-01
         0.17408E-01
         0.15439E-01
         0.15496E-01
         0.11254E-01
         0.96787E-02
         0.14452E-01
         0.83661E-02
         0.66257E-02
         0.48034E-02
         0.62375E-02
         0.12366E-01
         0.73724E-02
         0.65892E-01
         0.67646E-01
         0.71048E-01
         0.70517E-01
         0.75282E-01
         0.80958E-01
         0.77468E-01
         0.68583E-01
         0.66751E-01
         0.71658E-01
         0.70259E-01
         0.69415E-01
         0.56681E-01
         0.53720E-01
         0.59477E-01
         0.64079E-01
         0.66646E-01
         0.73052E-01
         0.69913E-01
         0.71907E-01
         0.64354E-01
         0.60947E-01
         0.65041E-01
         0.63293E-01
         0.65303E-01
         0.64741E-01
         0.89613E-02
         0.40697E-02
         0.36930E-02
         0.15968E-02
         0.92756E-02
         0.54160E-02
         0.78957E-03
         0.87770E-02
         0.43877E-02
         0.83165E-02
         0.22892E-02
         0.20364E-01
         0.14754E-01
         0.55018E-02
         0.21775E-01
         0.56646E-02
         0.14223E-02
         0.00000E+00
         0.27664E-02
         0.00000E+00
         0.15339E-01
         0.14155E-01
         0.13715E-01
         0.12251E-02
         0.43419E-02
         0.00000E+00
         0.52511E-02
         0.00000E+00
         0.87042E-04
         0.47594E-02
         0.43795E-02
         0.80732E-03
         0.15931E-02
         0.10769E-02
         0.13101E-01
         0.64746E-02
         0.93275E-02
         0.17264E-01
         0.12652E-01
         0.11421E-01
         0.17424E-01
         0.15450E-01
         0.15501E-01
         0.11258E-01
         0.96800E-02
         0.14455E-01
         0.83688E-02
         0.66275E-02
         0.47950E-02
         0.62256E-02
         0.12358E-01
         0.73565E-02
         0.65866E-01
         0.67629E-01
         0.71047E-01
         0.70517E-01
         0.75269E-01
         0.80930E-01
         0.77433E-01
         0.68563E-01
         0.66734E-01
         0.71635E-01
         0.70247E-01
         0.69419E-01
         0.56679E-01
         0.53719E-01
         0.59487E-01
         0.64102E-01
         0.66670E-01
         0.73070E-01
         0.69908E-01
         0.71902E-01
         0.64348E-01
         0.60944E-01
         0.65017E-01
         0.63249E-01
         0.65264E-01
         0.64705E-01
         0.89687E-02
         0.40696E-02
         0.36965E-02
         0.16037E-02
         0.92703E-02
         0.54111E-02
         0.80013E-03
         0.87851E-02
         0.44009E-02
         0.83449E-02
         0.22915E-02
         0.20364E-01
         0.14762E-01
         0.54814E-02
         0.21801E-01
         0.56733E-02
         0.14356E-02
         0.00000E+00
         0.27703E-02
         0.00000E+00
         0.15342E-01
         0.14155E-01
         0.13717E-01
         0.12248E-02
         0.43690E-02
         0.00000E+00
         0.52535E-02
         0.00000E+00
         0.10078E-03
         0.47697E-02
         0.43863E-02
         0.80496E-03
         0.15850E-02
         0.10805E-02
         0.13109E-01
         0.64734E-02
         0.93259E-02
         0.17297E-01
         0.12689E-01
         0.11444E-01
         0.17441E-01
         0.15461E-01
         0.15506E-01
         0.11262E-01
         0.96816E-02
         0.14457E-01
         0.83717E-02
         0.66291E-02
         0.47866E-02
         0.62136E-02
         0.12350E-01
         0.73406E-02
         0.65841E-01
         0.67613E-01
         0.71046E-01
         0.70518E-01
         0.75256E-01
         0.80901E-01
         0.77398E-01
         0.68544E-01
         0.66716E-01
         0.71611E-01
         0.70235E-01
         0.69424E-01
         0.56677E-01
         0.53718E-01
         0.59496E-01
         0.64124E-01
         0.66694E-01
         0.73088E-01
         0.69903E-01
         0.71898E-01
         0.64342E-01
         0.60941E-01
         0.64993E-01
         0.63205E-01
         0.65226E-01
         0.64669E-01
         0.89762E-02
         0.40696E-02
         0.36999E-02
         0.16105E-02
         0.92652E-02
         0.54062E-02
         0.81082E-03
         0.87932E-02
         0.44142E-02
         0.83732E-02
         0.22938E-02
         0.20365E-01
         0.14770E-01
         0.54612E-02
         0.21827E-01
         0.56820E-02
         0.14489E-02
         0.00000E+00
         0.27742E-02
         0.00000E+00
         0.15345E-01
         0.14155E-01
         0.13718E-01
         0.12244E-02
         0.43961E-02
         0.00000E+00
         0.52558E-02
         0.00000E+00
         0.11465E-03
         0.47800E-02
         0.43932E-02
         0.80267E-03
         0.15770E-02
         0.10842E-02
         0.13117E-01
         0.64718E-02
         0.93241E-02
         0.17329E-01
         0.12727E-01
         0.11467E-01
         0.17457E-01
         0.15472E-01
         0.15510E-01
         0.11266E-01
         0.96829E-02
         0.14460E-01
         0.83747E-02
         0.66306E-02
         0.47781E-02
         0.62017E-02
         0.12343E-01
         0.73249E-02
         0.65815E-01
         0.67596E-01
         0.71045E-01
         0.70518E-01
         0.75243E-01
         0.80872E-01
         0.77363E-01
         0.68524E-01
         0.66698E-01
         0.71587E-01
         0.70223E-01
         0.69429E-01
         0.56674E-01
         0.53717E-01
         0.59506E-01
         0.64147E-01
         0.66718E-01
         0.73106E-01
         0.69898E-01
         0.71893E-01
         0.64336E-01
         0.60938E-01
         0.64969E-01
         0.63162E-01
         0.65188E-01
         0.64632E-01
         0.89836E-02
         0.40696E-02
         0.37034E-02
         0.16174E-02
         0.92599E-02
         0.54013E-02
         0.82143E-03
         0.88014E-02
         0.44275E-02
         0.84015E-02
         0.22962E-02
         0.20365E-01
         0.14778E-01
         0.54410E-02
         0.21854E-01
         0.56907E-02
         0.14623E-02
         0.00000E+00
         0.27781E-02
         0.00000E+00
         0.15349E-01
         0.14155E-01
         0.13720E-01
         0.12241E-02
         0.44232E-02
         0.00000E+00
         0.52582E-02
         0.00000E+00
         0.12864E-03
         0.47904E-02
         0.44000E-02
         0.80030E-03
         0.15690E-02
         0.10878E-02
         0.13125E-01
         0.64705E-02
         0.93225E-02
         0.17362E-01
         0.12764E-01
         0.11490E-01
         0.17474E-01
         0.15484E-01
         0.15515E-01
         0.11271E-01
         0.96842E-02
         0.14463E-01
         0.83773E-02
         0.66323E-02
         0.47696E-02
         0.61896E-02
         0.12336E-01
         0.73089E-02
         0.65790E-01
         0.67579E-01
         0.71044E-01
         0.70518E-01
         0.75230E-01
         0.80843E-01
         0.77328E-01
         0.68504E-01
         0.66681E-01
         0.71563E-01
         0.70211E-01
         0.69434E-01
         0.56672E-01
         0.53716E-01
         0.59516E-01
         0.64169E-01
         0.66743E-01
         0.73123E-01
         0.69894E-01
         0.71889E-01
         0.64330E-01
         0.60935E-01
         0.64945E-01
         0.63118E-01
         0.65149E-01
         0.64596E-01
         0.89909E-02
         0.40694E-02
         0.37068E-02
         0.16242E-02
         0.92545E-02
         0.53966E-02
         0.83205E-03
         0.88095E-02
         0.44408E-02
         0.84299E-02
         0.22986E-02
         0.20365E-01
         0.14786E-01
         0.54208E-02
         0.21880E-01
         0.56994E-02
         0.14757E-02
         0.00000E+00
         0.27819E-02
         0.00000E+00
         0.15352E-01
         0.14155E-01
         0.13722E-01
         0.12238E-02
         0.44503E-02
         0.00000E+00
         0.52606E-02
         0.00000E+00
         0.14274E-03
         0.48007E-02
         0.44068E-02
         0.79804E-03
         0.15611E-02
         0.10915E-02
         0.13133E-01
         0.64690E-02
         0.93208E-02
         0.17395E-01
         0.12801E-01
         0.11512E-01
         0.17490E-01
         0.15495E-01
         0.15520E-01
         0.11274E-01
         0.96857E-02
         0.14466E-01
         0.83802E-02
         0.66339E-02
         0.47613E-02
         0.61777E-02
         0.12328E-01
         0.72930E-02
         0.65764E-01
         0.67562E-01
         0.71043E-01
         0.70519E-01
         0.75217E-01
         0.80813E-01
         0.77293E-01
         0.68484E-01
         0.66663E-01
         0.71539E-01
         0.70199E-01
         0.69439E-01
         0.56670E-01
         0.53715E-01
         0.59525E-01
         0.64192E-01
         0.66767E-01
         0.73141E-01
         0.69889E-01
         0.71884E-01
         0.64324E-01
         0.60932E-01
         0.64921E-01
         0.63074E-01
         0.65111E-01
         0.64560E-01
         0.89983E-02
         0.40693E-02
         0.37102E-02
         0.16311E-02
         0.92495E-02
         0.53917E-02
         0.84281E-03
         0.88176E-02
         0.44542E-02
         0.84581E-02
         0.23012E-02
         0.20365E-01
         0.14795E-01
         0.54006E-02
         0.21906E-01
         0.57081E-02
         0.14891E-02
         0.00000E+00
         0.27858E-02
         0.00000E+00
         0.15355E-01
         0.14155E-01
         0.13724E-01
         0.12235E-02
         0.44772E-02
         0.00000E+00
         0.52628E-02
         0.00000E+00
         0.15678E-03
         0.48108E-02
         0.44137E-02
         0.79580E-03
         0.15533E-02
         0.10952E-02
         0.13142E-01
         0.64675E-02
         0.93190E-02
         0.17427E-01
         0.12839E-01
         0.11535E-01
         0.17506E-01
         0.15506E-01
         0.15525E-01
         0.11279E-01
         0.96870E-02
         0.14469E-01
         0.83832E-02
         0.66357E-02
         0.47530E-02
         0.61657E-02
         0.12321E-01
         0.72773E-02
         0.65739E-01
         0.67546E-01
         0.71042E-01
         0.70519E-01
         0.75204E-01
         0.80784E-01
         0.77257E-01
         0.68464E-01
         0.66646E-01
         0.71515E-01
         0.70187E-01
         0.69444E-01
         0.56668E-01
         0.53713E-01
         0.59535E-01
         0.64214E-01
         0.66791E-01
         0.73159E-01
         0.69884E-01
         0.71879E-01
         0.64318E-01
         0.60929E-01
         0.64897E-01
         0.63030E-01
         0.65073E-01
         0.64523E-01
         0.90057E-02
         0.40693E-02
         0.37137E-02
         0.16381E-02
         0.92442E-02
         0.53868E-02
         0.85346E-03
         0.88255E-02
         0.44676E-02
         0.84861E-02
         0.23038E-02
         0.20365E-01
         0.14803E-01
         0.53803E-02
         0.21932E-01
         0.57168E-02
         0.15025E-02
         0.00000E+00
         0.27898E-02
         0.00000E+00
         0.15358E-01
         0.14155E-01
         0.13726E-01
         0.12232E-02
         0.45042E-02
         0.00000E+00
         0.52642E-02
         0.00000E+00
         0.17108E-03
         0.48205E-02
         0.44206E-02
         0.79344E-03
         0.15454E-02
         0.10989E-02
         0.13150E-01
         0.64663E-02
         0.93174E-02
         0.17460E-01
         0.12876E-01
         0.11556E-01
         0.17521E-01
         0.15516E-01
         0.15529E-01
         0.11283E-01
         0.96884E-02
         0.14472E-01
         0.83859E-02
         0.66373E-02
         0.47445E-02
         0.61538E-02
         0.12314E-01
         0.72614E-02
         0.65714E-01
         0.67529E-01
         0.71040E-01
         0.70519E-01
         0.75191E-01
         0.80755E-01
         0.77222E-01
         0.68445E-01
         0.66628E-01
         0.71489E-01
         0.70175E-01
         0.69452E-01
         0.56667E-01
         0.53713E-01
         0.59544E-01
         0.64236E-01
         0.66815E-01
         0.73176E-01
         0.69879E-01
         0.71874E-01
         0.64312E-01
         0.60926E-01
         0.64873E-01
         0.62987E-01
         0.65034E-01
         0.64487E-01
         0.90130E-02
         0.40693E-02
         0.37171E-02
         0.16450E-02
         0.92389E-02
         0.53819E-02
         0.86416E-03
         0.88335E-02
         0.44811E-02
         0.85139E-02
         0.23064E-02
         0.20366E-01
         0.14811E-01
         0.53598E-02
         0.21958E-01
         0.57254E-02
         0.15160E-02
         0.00000E+00
         0.27937E-02
         0.00000E+00
         0.15362E-01
         0.14154E-01
         0.13728E-01
         0.12229E-02
         0.45309E-02
         0.00000E+00
         0.52651E-02
         0.00000E+00
         0.18550E-03
         0.48296E-02
         0.44274E-02
         0.79116E-03
         0.15375E-02
         0.11026E-02
         0.13158E-01
         0.64648E-02
         0.93158E-02
         0.17493E-01
         0.12913E-01
         0.11577E-01
         0.17536E-01
         0.15525E-01
         0.15533E-01
         0.11287E-01
         0.96900E-02
         0.14475E-01
         0.83889E-02
         0.66389E-02
         0.47362E-02
         0.61417E-02
         0.12306E-01
         0.72454E-02
         0.65688E-01
         0.67513E-01
         0.71039E-01
         0.70519E-01
         0.75178E-01
         0.80726E-01
         0.77187E-01
         0.68425E-01
         0.66610E-01
         0.71462E-01
         0.70163E-01
         0.69461E-01
         0.56667E-01
         0.53712E-01
         0.59554E-01
         0.64259E-01
         0.66840E-01
         0.73194E-01
         0.69874E-01
         0.71870E-01
         0.64306E-01
         0.60923E-01
         0.64848E-01
         0.62943E-01
         0.64996E-01
         0.64451E-01
         0.90204E-02
         0.40692E-02
         0.37207E-02
         0.16519E-02
         0.92339E-02
         0.53772E-02
         0.87495E-03
         0.88415E-02
         0.44946E-02
         0.85416E-02
         0.23092E-02
         0.20366E-01
         0.14819E-01
         0.53394E-02
         0.21984E-01
         0.57341E-02
         0.15295E-02
         0.00000E+00
         0.27976E-02
         0.00000E+00
         0.15365E-01
         0.14154E-01
         0.13729E-01
         0.12227E-02
         0.45577E-02
         0.00000E+00
         0.52659E-02
         0.00000E+00
         0.19993E-03
         0.48386E-02
         0.44343E-02
         0.78893E-03
         0.15299E-02
         0.11064E-02
         0.13166E-01
         0.64635E-02
         0.93139E-02
         0.17526E-01
         0.12950E-01
         0.11598E-01
         0.17549E-01
         0.15534E-01
         0.15536E-01
         0.11291E-01
         0.96912E-02
         0.14477E-01
         0.83918E-02
         0.66407E-02
         0.47279E-02
         0.61298E-02
         0.12299E-01
         0.72298E-02
         0.65663E-01
         0.67496E-01
         0.71038E-01
         0.70520E-01
         0.75165E-01
         0.80697E-01
         0.77151E-01
         0.68405E-01
         0.66592E-01
         0.71435E-01
         0.70152E-01
         0.69470E-01
         0.56668E-01
         0.53711E-01
         0.59563E-01
         0.64281E-01
         0.66864E-01
         0.73211E-01
         0.69870E-01
         0.71865E-01
         0.64300E-01
         0.60920E-01
         0.64824E-01
         0.62899E-01
         0.64958E-01
         0.64414E-01
         0.95954E-02
         0.49810E-02
         0.46606E-02
         0.27136E-02
         0.99986E-02
         0.62829E-02
         0.25049E-02
         0.95678E-02
         0.52928E-02
         0.93017E-02
         0.38770E-02
         0.21064E-01
         0.15510E-01
         0.64957E-02
         0.22716E-01
         0.64063E-02
         0.27981E-02
         0.10239E-02
         0.39226E-02
         0.18500E-02
         0.15946E-01
         0.14769E-01
         0.14300E-01
         0.25290E-02
         0.56018E-02
         0.98786E-03
         0.64204E-02
         0.13420E-02
         0.23502E-02
         0.59051E-02
         0.52077E-02
         0.21768E-02
         0.26119E-02
         0.23751E-02
         0.13931E-01
         0.73867E-02
         0.10072E-01
         0.18279E-01
         0.13782E-01
         0.12445E-01
         0.18258E-01
         0.16214E-01
         0.16153E-01
         0.11893E-01
         0.10396E-01
         0.15201E-01
         0.92176E-02
         0.74660E-02
         0.56592E-02
         0.70063E-02
         0.13019E-01
         0.80432E-02
         0.66662E-01
         0.68475E-01
         0.72060E-01
         0.71501E-01
         0.76183E-01
         0.81776E-01
         0.78229E-01
         0.69473E-01
         0.67671E-01
         0.72549E-01
         0.71234E-01
         0.70487E-01
         0.57524E-01
         0.54503E-01
         0.60376E-01
         0.65128E-01
         0.67728E-01
         0.74178E-01
         0.70903E-01
         0.72907E-01
         0.65222E-01
         0.61799E-01
         0.65728E-01
         0.63775E-01
         0.65830E-01
         0.65287E-01
         0.39733E-01
         0.38806E-01
         0.38099E-01
         0.34047E-01
         0.45162E-01
         0.40773E-01
         0.41015E-01
         0.44552E-01
         0.36427E-01
         0.44356E-01
         0.45518E-01
         0.60473E-01
         0.52278E-01
         0.47809E-01
         0.63468E-01
         0.36327E-01
         0.37288E-01
         0.31915E-01
         0.38903E-01
         0.40289E-01
         0.49114E-01
         0.49222E-01
         0.46392E-01
         0.36941E-01
         0.42959E-01
         0.35184E-01
         0.47645E-01
         0.45226E-01
         0.45683E-01
         0.44563E-01
         0.36068E-01
         0.36672E-01
         0.34284E-01
         0.35799E-01
         0.51190E-01
         0.44010E-01
         0.45595E-01
         0.58912E-01
         0.54709E-01
         0.53321E-01
         0.58028E-01
         0.54322E-01
         0.51956E-01
         0.43872E-01
         0.44389E-01
         0.51933E-01
         0.45212E-01
         0.41887E-01
         0.40253E-01
         0.42292E-01
         0.48908E-01
         0.42901E-01
         0.11507E+00
         0.11542E+00
         0.12009E+00
         0.11820E+00
         0.12435E+00
         0.13285E+00
         0.13093E+00
         0.12250E+00
         0.12095E+00
         0.12667E+00
         0.12381E+00
         0.11970E+00
         0.10205E+00
         0.96682E-01
         0.10197E+00
         0.10661E+00
         0.10948E+00
         0.11922E+00
         0.11913E+00
         0.12143E+00
         0.11067E+00
         0.10607E+00
         0.11129E+00
         0.10921E+00
         0.11055E+00
         0.10962E+00
  
SCALARS                            dam  double 1
LOOKUP_TABLE default
         0.00000E+00
         0.00000E+00
         0.00000E+00
         0.00000E+00
         0.00000E+00
         0.00000E+00
         0.00000E+00
         0.00000E+00
         0.00000E+00
         0.00000E+00
         0.00000E+00
         0.00000E+00
         0.00000E+00
         0.00000E+00
         0.00000E+00
         0.00000E+00
         0.00000E+00
         0.00000E+00
         0.00000E+00
         0.00000E+00
         0.00000E+00
         0.00000E+00
         0.00000E+00
         0.00000E+00
         0.00000E+00
         0.00000E+00
         0.00000E+00
         0.00000E+00
         0.00000E+00
         0.00000E+00
         0.00000E+00
         0.00000E+00
         0.00000E+00
         0.00000E+00
         0.00000E+00
         0.00000E+00
         0.00000E+00
         0.00000E+00
         0.00000E+00
         0.00000E+00
         0.00000E+00
         0.00000E+00
         0.00000E+00
         0.00000E+00
         0.00000E+00
         0.00000E+00
         0.00000E+00
         0.00000E+00
         0.00000E+00
         0.00000E+00
         0.00000E+00
         0.00000E+00
         0.00000E+00
         0.00000E+00
         0.00000E+00
         0.00000E+00
         0.00000E+00
         0.00000E+00
         0.00000E+00
         0.00000E+00
         0.00000E+00
         0.00000E+00
         0.00000E+00
         0.00000E+00
         0.00000E+00
         0.00000E+00
         0.00000E+00
         0.00000E+00
         0.00000E+00
         0.00000E+00
         0.00000E+00
         0.00000E+00
         0.00000E+00
         0.00000E+00
         0.00000E+00
         0.00000E+00
         0.00000E+00
         0.00000E+00
         0.00000E+00
         0.00000E+00
         0.00000E+00
         0.00000E+00
         0.00000E+00
         0.00000E+00
         0.00000E+00
         0.00000E+00
         0.00000E+00
         0.00000E+00
         0.00000E+00
         0.00000E+00
         0.00000E+00
         0.00000E+00
         0.00000E+00
         0.00000E+00
         0.00000E+00
         0.00000E+00
         0.00000E+00
         0.00000E+00
         0.00000E+00
         0.00000E+00
         0.00000E+00
         0.00000E+00
         0.00000E+00
         0.00000E+00
         0.00000E+00
         0.00000E+00
         0.00000E+00
         0.00000E+00
         0.00000E+00
         0.00000E+00
         0.00000E+00
         0.00000E+00
         0.00000E+00
         0.00000E+00
         0.00000E+00
         0.00000E+00
         0.00000E+00
         0.00000E+00
         0.00000E+00
         0.00000E+00
         0.00000E+00
         0.00000E+00
         0.00000E+00
         0.00000E+00
         0.00000E+00
         0.00000E+00
         0.00000E+00
         0.00000E+00
         0.00000E+00
         0.00000E+00
         0.00000E+00
         0.00000E+00
         0.00000E+00
         0.00000E+00
         0.00000E+00
         0.00000E+00
         0.00000E+00
         0.00000E+00
         0.00000E+00
         0.00000E+00
         0.00000E+00
         0.00000E+00
         0.00000E+00
         0.00000E+00
         0.00000E+00
         0.00000E+00
         0.00000E+00
         0.00000E+00
         0.00000E+00
         0.00000E+00
         0.00000E+00
         0.00000E+00
         0.00000E+00
         0.00000E+00
         0.00000E+00
         0.00000E+00
         0.00000E+00
         0.00000E+00
         0.00000E+00
         0.00000E+00
         0.00000E+00
         0.00000E+00
         0.00000E+00
         0.00000E+00
         0.00000E+00
         0.00000E+00
         0.00000E+00
         0.00000E+00
         0.00000E+00
         0.00000E+00
         0.00000E+00
         0.00000E+00
         0.00000E+00
         0.00000E+00
         0.00000E+00
         0.00000E+00
         0.00000E+00
         0.00000E+00
         0.00000E+00
         0.00000E+00
         0.00000E+00
         0.00000E+00
         0.00000E+00
         0.00000E+00
         0.00000E+00
         0.00000E+00
         0.00000E+00
         0.00000E+00
         0.00000E+00
         0.00000E+00
         0.00000E+00
         0.00000E+00
         0.00000E+00
         0.00000E+00
         0.00000E+00
         0.00000E+00
         0.00000E+00
         0.00000E+00
         0.00000E+00
         0.00000E+00
         0.00000E+00
         0.00000E+00
         0.00000E+00
         0.00000E+00
         0.00000E+00
         0.00000E+00
         0.00000E+00
         0.00000E+00
         0.00000E+00
         0.00000E+00
         0.00000E+00
         0.00000E+00
         0.00000E+00
         0.00000E+00
         0.00000E+00
         0.00000E+00
         0.00000E+00
         0.00000E+00
         0.00000E+00
         0.00000E+00
         0.00000E+00
         0.00000E+00
         0.00000E+00
         0.00000E+00
         0.00000E+00
         0.00000E+00
         0.00000E+00
         0.00000E+00
         0.00000E+00
         0.00000E+00
         0.00000E+00
         0.00000E+00
         0.00000E+00
         0.00000E+00
         0.00000E+00
         0.00000E+00
         0.00000E+00
         0.00000E+00
         0.00000E+00
         0.00000E+00
         0.00000E+00
         0.00000E+00
         0.00000E+00
         0.00000E+00
         0.00000E+00
         0.00000E+00
         0.00000E+00
         0.00000E+00
         0.00000E+00
         0.00000E+00
         0.00000E+00
         0.00000E+00
         0.00000E+00
         0.00000E+00
         0.00000E+00
         0.00000E+00
         0.00000E+00
         0.00000E+00
         0.00000E+00
         0.00000E+00
         0.00000E+00
         0.00000E+00
         0.00000E+00
         0.00000E+00
         0.00000E+00
         0.00000E+00
         0.00000E+00
         0.00000E+00
         0.00000E+00
         0.00000E+00
         0.00000E+00
         0.00000E+00
         0.00000E+00
         0.00000E+00
         0.00000E+00
         0.00000E+00
         0.00000E+00
         0.00000E+00
         0.00000E+00
         0.00000E+00
         0.00000E+00
         0.00000E+00
         0.00000E+00
         0.00000E+00
         0.00000E+00
         0.00000E+00
         0.00000E+00
         0.00000E+00
         0.00000E+00
         0.00000E+00
         0.00000E+00
         0.00000E+00
         0.00000E+00
         0.00000E+00
         0.00000E+00
         0.00000E+00
         0.00000E+00
         0.00000E+00
         0.00000E+00
         0.00000E+00
         0.00000E+00
         0.00000E+00
         0.00000E+00
         0.00000E+00
         0.00000E+00
         0.00000E+00
         0.00000E+00
         0.00000E+00
         0.00000E+00
         0.00000E+00
         0.00000E+00
         0.00000E+00
         0.00000E+00
         0.00000E+00
         0.00000E+00
         0.00000E+00
         0.00000E+00
         0.00000E+00
         0.00000E+00
         0.00000E+00
         0.00000E+00
         0.00000E+00
         0.00000E+00
         0.00000E+00
         0.00000E+00
         0.00000E+00
         0.00000E+00
         0.00000E+00
         0.00000E+00
         0.00000E+00
         0.00000E+00
         0.00000E+00
         0.00000E+00
         0.00000E+00
         0.00000E+00
         0.00000E+00
         0.00000E+00
         0.00000E+00
         0.00000E+00
         0.00000E+00
         0.00000E+00
         0.00000E+00
         0.00000E+00
         0.00000E+00
         0.00000E+00
         0.00000E+00
         0.00000E+00
         0.00000E+00
         0.00000E+00
         0.00000E+00
         0.00000E+00
         0.00000E+00
         0.00000E+00
         0.00000E+00
         0.00000E+00
         0.00000E+00
         0.00000E+00
         0.00000E+00
         0.00000E+00
         0.00000E+00
         0.00000E+00
         0.00000E+00
         0.00000E+00
         0.00000E+00
         0.00000E+00
         0.00000E+00
         0.00000E+00
         0.00000E+00
         0.00000E+00
         0.00000E+00
         0.00000E+00
         0.00000E+00
         0.00000E+00
         0.00000E+00
         0.00000E+00
         0.00000E+00
         0.00000E+00
         0.00000E+00
         0.00000E+00
         0.00000E+00
         0.00000E+00
         0.00000E+00
         0.00000E+00
         0.00000E+00
         0.00000E+00
         0.00000E+00
         0.00000E+00
         0.00000E+00
         0.00000E+00
         0.00000E+00
         0.00000E+00
         0.00000E+00
         0.00000E+00
         0.00000E+00
         0.00000E+00
         0.00000E+00
         0.00000E+00
         0.00000E+00
         0.00000E+00
         0.00000E+00
         0.00000E+00
         0.00000E+00
         0.00000E+00
         0.00000E+00
         0.00000E+00
         0.00000E+00
         0.00000E+00
         0.00000E+00
         0.00000E+00
         0.00000E+00
         0.00000E+00
         0.00000E+00
         0.00000E+00
         0.00000E+00
         0.00000E+00
         0.00000E+00
         0.00000E+00
         0.00000E+00
         0.00000E+00
         0.00000E+00
         0.00000E+00
         0.00000E+00
         0.00000E+00
         0.00000E+00
         0.00000E+00
         0.00000E+00
         0.00000E+00
         0.00000E+00
         0.00000E+00
         0.00000E+00
         0.00000E+00
         0.00000E+00
         0.00000E+00
         0.00000E+00
         0.00000E+00
         0.00000E+00
         0.00000E+00
         0.00000E+00
         0.00000E+00
         0.00000E+00
         0.00000E+00
         0.00000E+00
         0.00000E+00
         0.00000E+00
         0.00000E+00
         0.00000E+00
         0.00000E+00
         0.00000E+00
         0.00000E+00
         0.00000E+00
         0.00000E+00
         0.00000E+00
         0.00000E+00
         0.00000E+00
         0.00000E+00
         0.00000E+00
         0.00000E+00
         0.00000E+00
         0.00000E+00
         0.00000E+00
         0.00000E+00
         0.00000E+00
         0.00000E+00
         0.00000E+00
         0.00000E+00
         0.00000E+00
         0.00000E+00
         0.00000E+00
         0.00000E+00
         0.00000E+00
         0.00000E+00
         0.00000E+00
         0.00000E+00
         0.00000E+00
         0.00000E+00
         0.00000E+00
         0.00000E+00
         0.00000E+00
         0.00000E+00
         0.00000E+00
         0.00000E+00
         0.00000E+00
         0.00000E+00
         0.00000E+00
         0.00000E+00
         0.00000E+00
         0.00000E+00
         0.00000E+00
         0.00000E+00
         0.00000E+00
         0.00000E+00
         0.00000E+00
         0.00000E+00
         0.00000E+00
         0.00000E+00
         0.00000E+00
         0.00000E+00
         0.00000E+00
         0.00000E+00
         0.00000E+00
         0.00000E+00
         0.00000E+00
         0.00000E+00
         0.00000E+00
         0.00000E+00
         0.00000E+00
         0.00000E+00
         0.00000E+00
         0.00000E+00
         0.00000E+00
         0.00000E+00
         0.00000E+00
         0.00000E+00
         0.00000E+00
         0.00000E+00
         0.00000E+00
         0.00000E+00
         0.00000E+00
         0.00000E+00
         0.00000E+00
         0.00000E+00
         0.00000E+00
         0.00000E+00
         0.00000E+00
         0.00000E+00
         0.00000E+00
         0.00000E+00
         0.00000E+00
         0.00000E+00
         0.00000E+00
         0.00000E+00
         0.00000E+00
         0.00000E+00
         0.00000E+00
         0.00000E+00
         0.00000E+00
         0.00000E+00
         0.00000E+00
         0.00000E+00
         0.00000E+00
         0.00000E+00
         0.00000E+00
         0.00000E+00
         0.00000E+00
         0.00000E+00
         0.00000E+00
         0.00000E+00
         0.00000E+00
         0.00000E+00
         0.00000E+00
         0.00000E+00
         0.00000E+00
         0.00000E+00
         0.00000E+00
         0.00000E+00
         0.00000E+00
         0.00000E+00
         0.00000E+00
         0.00000E+00
         0.00000E+00
         0.00000E+00
         0.00000E+00
         0.00000E+00
         0.00000E+00
         0.00000E+00
         0.00000E+00
         0.00000E+00
         0.00000E+00
         0.00000E+00
         0.00000E+00
         0.00000E+00
         0.00000E+00
         0.00000E+00
         0.00000E+00
         0.00000E+00
         0.00000E+00
         0.00000E+00
         0.00000E+00
         0.00000E+00
         0.00000E+00
         0.00000E+00
         0.00000E+00
         0.00000E+00
         0.00000E+00
         0.00000E+00
         0.00000E+00
         0.00000E+00
         0.00000E+00
         0.00000E+00
         0.00000E+00
         0.00000E+00
         0.00000E+00
         0.00000E+00
         0.00000E+00
         0.00000E+00
         0.00000E+00
         0.00000E+00
         0.00000E+00
         0.00000E+00
         0.00000E+00
         0.00000E+00
         0.00000E+00
         0.00000E+00
         0.00000E+00
         0.00000E+00
         0.00000E+00
         0.00000E+00
         0.00000E+00
         0.00000E+00
         0.00000E+00
         0.00000E+00
         0.00000E+00
         0.00000E+00
         0.00000E+00
         0.00000E+00
         0.00000E+00
         0.00000E+00
         0.00000E+00
         0.00000E+00
         0.00000E+00
         0.00000E+00
         0.00000E+00
         0.00000E+00
         0.00000E+00
         0.00000E+00
         0.00000E+00
         0.00000E+00
         0.00000E+00
         0.00000E+00
         0.00000E+00
         0.00000E+00
         0.00000E+00
         0.00000E+00
         0.00000E+00
         0.00000E+00
         0.00000E+00
         0.00000E+00
         0.00000E+00
         0.00000E+00
         0.00000E+00
         0.00000E+00
         0.00000E+00
         0.00000E+00
         0.00000E+00
         0.00000E+00
         0.00000E+00
         0.00000E+00
         0.00000E+00
         0.00000E+00
         0.00000E+00
         0.00000E+00
         0.00000E+00
         0.00000E+00
         0.00000E+00
         0.00000E+00
         0.00000E+00
         0.00000E+00
         0.00000E+00
         0.00000E+00
         0.00000E+00
         0.00000E+00
         0.00000E+00
         0.00000E+00
         0.00000E+00
         0.00000E+00
         0.00000E+00
         0.00000E+00
         0.00000E+00
         0.00000E+00
         0.00000E+00
         0.00000E+00
         0.00000E+00
         0.00000E+00
         0.00000E+00
         0.00000E+00
         0.00000E+00
         0.00000E+00
         0.00000E+00
         0.00000E+00
         0.00000E+00
         0.00000E+00
         0.00000E+00
         0.00000E+00
         0.00000E+00
         0.00000E+00
         0.00000E+00
         0.00000E+00
         0.00000E+00
         0.00000E+00
         0.00000E+00
         0.00000E+00
         0.00000E+00
         0.00000E+00
         0.00000E+00
         0.00000E+00
         0.00000E+00
         0.00000E+00
         0.00000E+00
         0.00000E+00
         0.00000E+00
         0.00000E+00
         0.00000E+00
         0.00000E+00
         0.00000E+00
         0.00000E+00
         0.00000E+00
         0.00000E+00
         0.00000E+00
         0.00000E+00
         0.00000E+00
         0.00000E+00
         0.00000E+00
         0.00000E+00
         0.00000E+00
         0.00000E+00
         0.00000E+00
         0.00000E+00
         0.00000E+00
         0.00000E+00
         0.00000E+00
         0.00000E+00
         0.00000E+00
         0.00000E+00
         0.00000E+00
         0.00000E+00
         0.00000E+00
         0.00000E+00
         0.00000E+00
         0.00000E+00
         0.00000E+00
         0.00000E+00
         0.00000E+00
         0.00000E+00
         0.00000E+00
         0.00000E+00
         0.00000E+00
         0.00000E+00
         0.00000E+00
         0.00000E+00
         0.00000E+00
         0.00000E+00
         0.00000E+00
         0.00000E+00
         0.00000E+00
         0.00000E+00
         0.00000E+00
         0.00000E+00
         0.00000E+00
         0.00000E+00
         0.00000E+00
         0.00000E+00
         0.00000E+00
         0.00000E+00
         0.00000E+00
         0.00000E+00
         0.00000E+00
         0.00000E+00
         0.00000E+00
         0.00000E+00
         0.00000E+00
         0.00000E+00
         0.00000E+00
         0.00000E+00
         0.00000E+00
         0.00000E+00
         0.00000E+00
         0.00000E+00
         0.00000E+00
         0.00000E+00
         0.00000E+00
         0.00000E+00
         0.00000E+00
         0.00000E+00
         0.00000E+00
         0.00000E+00
         0.00000E+00
         0.00000E+00
         0.00000E+00
         0.00000E+00
         0.00000E+00
         0.00000E+00
         0.00000E+00
         0.00000E+00
         0.00000E+00
         0.00000E+00
         0.00000E+00
         0.00000E+00
         0.00000E+00
         0.00000E+00
         0.00000E+00
         0.00000E+00
         0.00000E+00
         0.00000E+00
         0.00000E+00
         0.00000E+00
         0.00000E+00
         0.00000E+00
         0.00000E+00
         0.00000E+00
         0.00000E+00
         0.00000E+00
         0.00000E+00
         0.00000E+00
         0.00000E+00
         0.00000E+00
         0.00000E+00
         0.00000E+00
         0.00000E+00
         0.00000E+00
         0.00000E+00
         0.00000E+00
         0.00000E+00
         0.00000E+00
         0.00000E+00
         0.00000E+00
         0.00000E+00
         0.00000E+00
         0.00000E+00
         0.00000E+00
         0.00000E+00
         0.00000E+00
         0.00000E+00
         0.00000E+00
         0.00000E+00
         0.00000E+00
         0.00000E+00
         0.00000E+00
         0.00000E+00
         0.00000E+00
         0.00000E+00
         0.00000E+00
         0.00000E+00
         0.00000E+00
         0.00000E+00
         0.00000E+00
         0.00000E+00
         0.00000E+00
         0.00000E+00
         0.00000E+00
         0.00000E+00
         0.00000E+00
         0.00000E+00
         0.00000E+00
         0.00000E+00
         0.00000E+00
         0.00000E+00
         0.00000E+00
         0.00000E+00
         0.00000E+00
         0.00000E+00
         0.00000E+00
         0.00000E+00
         0.00000E+00
         0.00000E+00
         0.00000E+00
         0.00000E+00
         0.00000E+00
         0.00000E+00
         0.00000E+00
         0.00000E+00
         0.00000E+00
         0.00000E+00
         0.00000E+00
         0.00000E+00
         0.00000E+00
         0.00000E+00
         0.00000E+00
         0.00000E+00
         0.00000E+00
         0.00000E+00
         0.00000E+00
         0.00000E+00
         0.00000E+00
         0.00000E+00
         0.00000E+00
         0.00000E+00
         0.00000E+00
         0.00000E+00
         0.00000E+00
         0.00000E+00
         0.00000E+00
         0.00000E+00
         0.00000E+00
         0.00000E+00
         0.00000E+00
         0.00000E+00
         0.00000E+00
         0.00000E+00
         0.00000E+00
         0.00000E+00
         0.00000E+00
         0.00000E+00
         0.00000E+00
         0.00000E+00
         0.00000E+00
         0.00000E+00
         0.00000E+00
         0.00000E+00
         0.00000E+00
         0.00000E+00
         0.00000E+00
         0.00000E+00
         0.00000E+00
         0.00000E+00
         0.00000E+00
         0.00000E+00
         0.00000E+00
         0.00000E+00
         0.00000E+00
         0.00000E+00
         0.00000E+00
         0.00000E+00
         0.00000E+00
         0.00000E+00
         0.00000E+00
         0.00000E+00
         0.00000E+00
         0.00000E+00
         0.00000E+00
         0.00000E+00
         0.00000E+00
         0.00000E+00
         0.00000E+00
         0.00000E+00
         0.00000E+00
         0.00000E+00
         0.00000E+00
         0.00000E+00
         0.00000E+00
         0.00000E+00
         0.00000E+00
         0.00000E+00
         0.00000E+00
         0.00000E+00
         0.00000E+00
         0.00000E+00
         0.00000E+00
         0.00000E+00
         0.00000E+00
         0.00000E+00
         0.00000E+00
         0.00000E+00
         0.00000E+00
         0.00000E+00
         0.00000E+00
         0.00000E+00
         0.00000E+00
         0.00000E+00
         0.00000E+00
         0.00000E+00
         0.00000E+00
         0.00000E+00
         0.00000E+00
         0.00000E+00
         0.00000E+00
         0.00000E+00
         0.00000E+00
         0.00000E+00
         0.00000E+00
         0.00000E+00
         0.00000E+00
         0.00000E+00
         0.00000E+00
         0.00000E+00
         0.00000E+00
         0.00000E+00
         0.00000E+00
         0.00000E+00
         0.00000E+00
         0.00000E+00
         0.00000E+00
         0.00000E+00
         0.00000E+00
         0.00000E+00
         0.00000E+00
         0.00000E+00
         0.00000E+00
         0.00000E+00
         0.00000E+00
         0.00000E+00
         0.00000E+00
         0.00000E+00
         0.00000E+00
         0.00000E+00
         0.00000E+00
         0.00000E+00
         0.00000E+00
         0.00000E+00
         0.00000E+00
         0.00000E+00
         0.00000E+00
         0.00000E+00
         0.00000E+00
         0.00000E+00
         0.00000E+00
         0.00000E+00
         0.00000E+00
         0.00000E+00
         0.00000E+00
         0.00000E+00
         0.00000E+00
         0.00000E+00
         0.00000E+00
         0.00000E+00
         0.00000E+00
         0.00000E+00
         0.00000E+00
         0.00000E+00
         0.00000E+00
         0.00000E+00
         0.00000E+00
         0.00000E+00
         0.00000E+00
         0.00000E+00
         0.00000E+00
         0.00000E+00
         0.00000E+00
         0.00000E+00
         0.00000E+00
         0.00000E+00
         0.00000E+00
         0.00000E+00
         0.00000E+00
         0.00000E+00
         0.00000E+00
         0.00000E+00
         0.00000E+00
         0.00000E+00
         0.00000E+00
         0.00000E+00
         0.00000E+00
         0.00000E+00
         0.00000E+00
         0.00000E+00
         0.00000E+00
         0.00000E+00
         0.00000E+00
         0.00000E+00
         0.00000E+00
         0.00000E+00
         0.00000E+00
         0.00000E+00
         0.00000E+00
         0.00000E+00
         0.00000E+00
         0.00000E+00
         0.00000E+00
         0.00000E+00
         0.00000E+00
         0.00000E+00
         0.00000E+00
         0.00000E+00
         0.00000E+00
         0.00000E+00
         0.00000E+00
         0.00000E+00
         0.00000E+00
         0.00000E+00
         0.00000E+00
         0.00000E+00
         0.00000E+00
         0.00000E+00
         0.00000E+00
         0.00000E+00
         0.00000E+00
         0.00000E+00
         0.00000E+00
         0.00000E+00
         0.00000E+00
         0.00000E+00
         0.00000E+00
         0.00000E+00
         0.00000E+00
         0.00000E+00
         0.00000E+00
         0.00000E+00
         0.00000E+00
         0.00000E+00
         0.00000E+00
         0.00000E+00
         0.00000E+00
         0.00000E+00
         0.00000E+00
         0.00000E+00
         0.00000E+00
         0.00000E+00
         0.00000E+00
         0.00000E+00
         0.00000E+00
         0.00000E+00
         0.00000E+00
         0.00000E+00
         0.00000E+00
         0.00000E+00
         0.00000E+00
         0.00000E+00
         0.00000E+00
         0.00000E+00
         0.00000E+00
         0.00000E+00
         0.00000E+00
         0.00000E+00
         0.00000E+00
         0.00000E+00
         0.00000E+00
         0.00000E+00
         0.00000E+00
         0.00000E+00
         0.00000E+00
         0.00000E+00
         0.00000E+00
         0.00000E+00
         0.00000E+00
         0.00000E+00
         0.00000E+00
         0.00000E+00
         0.00000E+00
         0.00000E+00
         0.00000E+00
         0.00000E+00
         0.00000E+00
         0.00000E+00
         0.00000E+00
         0.00000E+00
         0.00000E+00
         0.00000E+00
         0.00000E+00
         0.00000E+00
         0.00000E+00
         0.00000E+00
         0.00000E+00
         0.00000E+00
         0.00000E+00
         0.00000E+00
         0.00000E+00
         0.00000E+00
         0.00000E+00
         0.00000E+00
         0.00000E+00
         0.00000E+00
         0.00000E+00
         0.00000E+00
         0.00000E+00
         0.00000E+00
         0.00000E+00
         0.00000E+00
         0.00000E+00
         0.00000E+00
         0.00000E+00
         0.00000E+00
         0.00000E+00
         0.00000E+00
         0.00000E+00
         0.00000E+00
         0.00000E+00
         0.00000E+00
         0.00000E+00
         0.00000E+00
         0.00000E+00
         0.00000E+00
         0.00000E+00
         0.00000E+00
         0.00000E+00
         0.00000E+00
         0.00000E+00
         0.00000E+00
         0.00000E+00
         0.00000E+00
         0.00000E+00
         0.00000E+00
         0.00000E+00
         0.00000E+00
         0.00000E+00
         0.00000E+00
         0.00000E+00
         0.00000E+00
         0.00000E+00
         0.00000E+00
         0.00000E+00
         0.00000E+00
         0.00000E+00
         0.00000E+00
         0.00000E+00
         0.00000E+00
         0.00000E+00
         0.00000E+00
         0.00000E+00
         0.00000E+00
         0.00000E+00
         0.00000E+00
         0.00000E+00
         0.00000E+00
         0.00000E+00
         0.00000E+00
         0.00000E+00
         0.00000E+00
         0.00000E+00
         0.00000E+00
         0.00000E+00
         0.00000E+00
         0.00000E+00
         0.00000E+00
         0.00000E+00
         0.00000E+00
         0.00000E+00
         0.00000E+00
         0.00000E+00
         0.00000E+00
         0.00000E+00
         0.00000E+00
         0.00000E+00
         0.00000E+00
         0.00000E+00
         0.00000E+00
         0.00000E+00
         0.00000E+00
         0.00000E+00
         0.00000E+00
         0.00000E+00
         0.00000E+00
         0.00000E+00
         0.00000E+00
         0.00000E+00
         0.00000E+00
         0.00000E+00
         0.00000E+00
         0.00000E+00
         0.00000E+00
         0.00000E+00
         0.00000E+00
         0.00000E+00
         0.00000E+00
         0.00000E+00
         0.00000E+00
         0.00000E+00
         0.00000E+00
         0.00000E+00
         0.00000E+00
         0.00000E+00
         0.00000E+00
         0.00000E+00
         0.00000E+00
         0.00000E+00
         0.00000E+00
         0.00000E+00
         0.00000E+00
         0.00000E+00
         0.00000E+00
         0.00000E+00
         0.00000E+00
         0.00000E+00
         0.00000E+00
         0.00000E+00
         0.00000E+00
         0.00000E+00
         0.00000E+00
         0.00000E+00
         0.00000E+00
         0.00000E+00
         0.00000E+00
         0.00000E+00
         0.00000E+00
         0.00000E+00
         0.00000E+00
         0.00000E+00
         0.00000E+00
         0.00000E+00
         0.00000E+00
         0.00000E+00
         0.00000E+00
         0.00000E+00
         0.00000E+00
         0.00000E+00
         0.00000E+00
         0.00000E+00
         0.00000E+00
         0.00000E+00
         0.00000E+00
         0.00000E+00
         0.00000E+00
         0.00000E+00
         0.00000E+00
         0.00000E+00
         0.00000E+00
         0.00000E+00
         0.00000E+00
         0.00000E+00
         0.00000E+00
         0.00000E+00
         0.00000E+00
         0.00000E+00
         0.00000E+00
         0.00000E+00
         0.00000E+00
         0.00000E+00
         0.00000E+00
         0.00000E+00
         0.00000E+00
         0.00000E+00
         0.00000E+00
         0.00000E+00
         0.00000E+00
         0.00000E+00
         0.00000E+00
         0.00000E+00
         0.00000E+00
         0.00000E+00
         0.00000E+00
         0.00000E+00
         0.00000E+00
         0.00000E+00
         0.00000E+00
         0.00000E+00
         0.00000E+00
         0.00000E+00
         0.00000E+00
         0.00000E+00
         0.00000E+00
         0.00000E+00
         0.00000E+00
         0.00000E+00
         0.00000E+00
         0.00000E+00
         0.00000E+00
         0.00000E+00
         0.00000E+00
         0.00000E+00
         0.00000E+00
         0.00000E+00
         0.00000E+00
         0.00000E+00
         0.00000E+00
         0.00000E+00
         0.00000E+00
         0.00000E+00
         0.00000E+00
         0.00000E+00
         0.00000E+00
         0.00000E+00
         0.00000E+00
         0.00000E+00
         0.00000E+00
         0.00000E+00
         0.00000E+00
         0.00000E+00
         0.00000E+00
         0.00000E+00
         0.00000E+00
         0.00000E+00
         0.00000E+00
         0.00000E+00
         0.00000E+00
         0.00000E+00
         0.00000E+00
         0.00000E+00
         0.00000E+00
         0.00000E+00
         0.00000E+00
         0.00000E+00
         0.00000E+00
         0.00000E+00
         0.00000E+00
         0.00000E+00
         0.00000E+00
         0.00000E+00
         0.00000E+00
         0.00000E+00
         0.00000E+00
         0.00000E+00
         0.00000E+00
         0.00000E+00
         0.00000E+00
         0.00000E+00
         0.00000E+00
         0.00000E+00
         0.00000E+00
         0.00000E+00
         0.00000E+00
         0.00000E+00
         0.00000E+00
         0.00000E+00
         0.00000E+00
         0.00000E+00
         0.00000E+00
         0.00000E+00
         0.00000E+00
         0.00000E+00
         0.00000E+00
         0.00000E+00
         0.00000E+00
         0.00000E+00
         0.00000E+00
         0.00000E+00
         0.00000E+00
         0.00000E+00
         0.00000E+00
         0.00000E+00
         0.00000E+00
         0.00000E+00
         0.00000E+00
         0.00000E+00
         0.00000E+00
         0.00000E+00
         0.00000E+00
         0.00000E+00
         0.00000E+00
         0.00000E+00
         0.00000E+00
         0.00000E+00
         0.00000E+00
         0.00000E+00
         0.00000E+00
         0.00000E+00
         0.00000E+00
         0.00000E+00
         0.00000E+00
         0.00000E+00
         0.00000E+00
         0.00000E+00
         0.00000E+00
         0.00000E+00
         0.00000E+00
         0.00000E+00
         0.00000E+00
         0.00000E+00
         0.00000E+00
         0.00000E+00
         0.00000E+00
         0.00000E+00
         0.00000E+00
         0.00000E+00
         0.00000E+00
         0.00000E+00
         0.00000E+00
         0.00000E+00
         0.00000E+00
         0.00000E+00
         0.00000E+00
         0.00000E+00
         0.00000E+00
         0.00000E+00
         0.00000E+00
         0.00000E+00
         0.00000E+00
         0.00000E+00
         0.00000E+00
         0.00000E+00
         0.00000E+00
         0.00000E+00
         0.00000E+00
         0.00000E+00
         0.00000E+00
         0.00000E+00
         0.00000E+00
         0.00000E+00
         0.00000E+00
         0.00000E+00
         0.00000E+00
         0.00000E+00
         0.00000E+00
         0.00000E+00
         0.00000E+00
         0.00000E+00
         0.00000E+00
         0.00000E+00
         0.00000E+00
         0.00000E+00
         0.00000E+00
         0.00000E+00
         0.00000E+00
         0.00000E+00
         0.00000E+00
         0.00000E+00
         0.00000E+00
         0.00000E+00
         0.00000E+00
         0.00000E+00
         0.00000E+00
         0.00000E+00
         0.00000E+00
         0.00000E+00
         0.00000E+00
         0.00000E+00
         0.00000E+00
         0.00000E+00
         0.00000E+00
         0.00000E+00
         0.00000E+00
         0.00000E+00
         0.00000E+00
         0.00000E+00
         0.00000E+00
         0.00000E+00
         0.00000E+00
         0.00000E+00
         0.00000E+00
         0.00000E+00
         0.00000E+00
         0.00000E+00
         0.00000E+00
         0.00000E+00
         0.00000E+00
         0.00000E+00
         0.00000E+00
         0.00000E+00
         0.00000E+00
         0.00000E+00
         0.00000E+00
         0.00000E+00
         0.00000E+00
         0.00000E+00
         0.00000E+00
         0.00000E+00
         0.00000E+00
         0.00000E+00
         0.00000E+00
         0.00000E+00
         0.00000E+00
         0.00000E+00
         0.00000E+00
         0.00000E+00
         0.00000E+00
         0.00000E+00
         0.00000E+00
         0.00000E+00
         0.00000E+00
         0.00000E+00
         0.00000E+00
         0.00000E+00
         0.00000E+00
         0.00000E+00
         0.00000E+00
         0.00000E+00
         0.00000E+00
         0.00000E+00
         0.00000E+00
         0.00000E+00
         0.00000E+00
         0.00000E+00
         0.00000E+00
         0.00000E+00
         0.00000E+00
         0.00000E+00
         0.00000E+00
         0.00000E+00
         0.00000E+00
         0.00000E+00
         0.00000E+00
         0.00000E+00
         0.00000E+00
         0.00000E+00
         0.00000E+00
         0.00000E+00
         0.00000E+00
         0.00000E+00
         0.00000E+00
         0.00000E+00
         0.00000E+00
         0.00000E+00
         0.00000E+00
         0.00000E+00
         0.00000E+00
         0.00000E+00
         0.00000E+00
         0.00000E+00
         0.00000E+00
         0.00000E+00
         0.00000E+00
         0.00000E+00
         0.00000E+00
         0.00000E+00
         0.00000E+00
         0.00000E+00
         0.00000E+00
         0.00000E+00
         0.00000E+00
         0.00000E+00
         0.00000E+00
         0.00000E+00
         0.00000E+00
         0.00000E+00
         0.00000E+00
         0.00000E+00
         0.00000E+00
         0.00000E+00
         0.00000E+00
         0.00000E+00
         0.00000E+00
         0.00000E+00
         0.00000E+00
         0.00000E+00
         0.00000E+00
         0.00000E+00
         0.00000E+00
         0.00000E+00
         0.00000E+00
         0.00000E+00
         0.00000E+00
         0.00000E+00
         0.00000E+00
         0.00000E+00
         0.00000E+00
         0.00000E+00
         0.00000E+00
         0.00000E+00
         0.00000E+00
         0.00000E+00
         0.00000E+00
         0.00000E+00
         0.00000E+00
         0.00000E+00
         0.00000E+00
         0.00000E+00
         0.00000E+00
         0.00000E+00
         0.00000E+00
         0.00000E+00
         0.00000E+00
         0.00000E+00
         0.00000E+00
         0.00000E+00
         0.00000E+00
         0.00000E+00
         0.00000E+00
         0.00000E+00
         0.00000E+00
         0.00000E+00
         0.00000E+00
         0.00000E+00
         0.00000E+00
         0.00000E+00
         0.00000E+00
         0.00000E+00
         0.00000E+00
         0.00000E+00
         0.00000E+00
         0.00000E+00
         0.00000E+00
         0.00000E+00
         0.00000E+00
         0.00000E+00
         0.00000E+00
         0.00000E+00
         0.00000E+00
         0.00000E+00
         0.00000E+00
         0.00000E+00
         0.00000E+00
         0.00000E+00
         0.00000E+00
         0.00000E+00
         0.00000E+00
         0.00000E+00
         0.00000E+00
         0.00000E+00
         0.00000E+00
         0.00000E+00
         0.00000E+00
         0.00000E+00
         0.00000E+00
         0.00000E+00
         0.00000E+00
         0.00000E+00
         0.00000E+00
         0.00000E+00
         0.00000E+00
         0.00000E+00
         0.00000E+00
         0.00000E+00
         0.00000E+00
         0.00000E+00
         0.00000E+00
         0.00000E+00
         0.00000E+00
         0.00000E+00
         0.00000E+00
         0.00000E+00
         0.00000E+00
         0.00000E+00
         0.00000E+00
         0.00000E+00
         0.00000E+00
         0.00000E+00
         0.00000E+00
         0.00000E+00
         0.00000E+00
         0.00000E+00
         0.00000E+00
         0.00000E+00
         0.00000E+00
         0.00000E+00
         0.00000E+00
         0.00000E+00
         0.00000E+00
         0.00000E+00
         0.00000E+00
         0.00000E+00
         0.00000E+00
         0.00000E+00
         0.00000E+00
         0.00000E+00
         0.00000E+00
         0.00000E+00
         0.00000E+00
         0.00000E+00
         0.00000E+00
         0.00000E+00
         0.00000E+00
         0.00000E+00
         0.00000E+00
         0.00000E+00
         0.00000E+00
         0.00000E+00
         0.00000E+00
         0.00000E+00
         0.00000E+00
         0.00000E+00
         0.00000E+00
         0.00000E+00
         0.00000E+00
         0.00000E+00
         0.00000E+00
         0.00000E+00
         0.00000E+00
         0.00000E+00
         0.00000E+00
         0.00000E+00
         0.00000E+00
         0.00000E+00
         0.00000E+00
         0.00000E+00
         0.00000E+00
         0.00000E+00
         0.00000E+00
         0.00000E+00
         0.00000E+00
         0.00000E+00
         0.00000E+00
         0.00000E+00
         0.00000E+00
         0.00000E+00
         0.00000E+00
         0.00000E+00
         0.00000E+00
         0.00000E+00
         0.00000E+00
         0.00000E+00
         0.00000E+00
         0.00000E+00
         0.00000E+00
         0.00000E+00
         0.00000E+00
         0.00000E+00
         0.00000E+00
         0.00000E+00
         0.00000E+00
         0.00000E+00
         0.00000E+00
         0.00000E+00
         0.00000E+00
         0.00000E+00
         0.00000E+00
         0.00000E+00
         0.00000E+00
         0.00000E+00
         0.00000E+00
         0.00000E+00
         0.00000E+00
         0.00000E+00
         0.00000E+00
         0.00000E+00
         0.00000E+00
         0.00000E+00
         0.00000E+00
         0.00000E+00
         0.00000E+00
         0.00000E+00
         0.00000E+00
         0.00000E+00
         0.00000E+00
         0.00000E+00
         0.00000E+00
         0.00000E+00
         0.00000E+00
         0.00000E+00
         0.00000E+00
         0.00000E+00
         0.00000E+00
         0.00000E+00
         0.00000E+00
         0.00000E+00
         0.00000E+00
         0.00000E+00
         0.00000E+00
         0.00000E+00
         0.00000E+00
         0.00000E+00
         0.00000E+00
         0.00000E+00
         0.00000E+00
         0.00000E+00
         0.00000E+00
         0.00000E+00
         0.00000E+00
         0.00000E+00
         0.00000E+00
         0.00000E+00
         0.00000E+00
         0.00000E+00
         0.00000E+00
         0.00000E+00
         0.00000E+00
         0.00000E+00
         0.00000E+00
         0.00000E+00
         0.00000E+00
         0.00000E+00
         0.00000E+00
         0.00000E+00
         0.00000E+00
         0.00000E+00
         0.00000E+00
         0.00000E+00
         0.00000E+00
         0.00000E+00
         0.00000E+00
         0.00000E+00
         0.00000E+00
         0.00000E+00
         0.00000E+00
         0.00000E+00
         0.00000E+00
         0.00000E+00
         0.00000E+00
         0.00000E+00
         0.00000E+00
         0.00000E+00
         0.00000E+00
         0.00000E+00
         0.00000E+00
         0.00000E+00
         0.00000E+00
         0.00000E+00
         0.00000E+00
         0.00000E+00
         0.00000E+00
         0.00000E+00
         0.00000E+00
         0.00000E+00
         0.00000E+00
         0.00000E+00
         0.00000E+00
         0.00000E+00
         0.00000E+00
         0.00000E+00
         0.00000E+00
         0.00000E+00
         0.00000E+00
         0.00000E+00
         0.00000E+00
         0.00000E+00
         0.00000E+00
         0.00000E+00
         0.00000E+00
         0.00000E+00
         0.00000E+00
         0.00000E+00
         0.00000E+00
         0.00000E+00
         0.00000E+00
         0.00000E+00
         0.00000E+00
         0.00000E+00
         0.00000E+00
         0.00000E+00
         0.00000E+00
         0.00000E+00
         0.00000E+00
         0.00000E+00
         0.00000E+00
         0.00000E+00
         0.00000E+00
         0.00000E+00
         0.00000E+00
         0.00000E+00
         0.00000E+00
         0.00000E+00
         0.00000E+00
         0.00000E+00
         0.00000E+00
         0.00000E+00
         0.00000E+00
         0.00000E+00
         0.00000E+00
         0.00000E+00
         0.00000E+00
         0.00000E+00
         0.00000E+00
         0.00000E+00
         0.00000E+00
         0.00000E+00
         0.00000E+00
         0.00000E+00
         0.00000E+00
         0.00000E+00
         0.00000E+00
         0.00000E+00
         0.00000E+00
         0.00000E+00
         0.00000E+00
         0.00000E+00
         0.00000E+00
         0.00000E+00
         0.00000E+00
         0.00000E+00
         0.00000E+00
         0.00000E+00
         0.00000E+00
         0.00000E+00
         0.00000E+00
         0.00000E+00
         0.00000E+00
         0.00000E+00
         0.00000E+00
         0.00000E+00
         0.00000E+00
         0.00000E+00
         0.00000E+00
         0.00000E+00
         0.00000E+00
         0.00000E+00
         0.00000E+00
         0.00000E+00
         0.00000E+00
         0.00000E+00
         0.00000E+00
         0.00000E+00
         0.00000E+00
         0.00000E+00
         0.00000E+00
         0.00000E+00
         0.00000E+00
         0.00000E+00
         0.00000E+00
         0.00000E+00
         0.00000E+00
         0.00000E+00
         0.00000E+00
         0.00000E+00
         0.00000E+00
  
SCALARS           initial_coordinate_x  double 1
LOOKUP_TABLE default
         0.10378E-02
         0.17452E-02
         0.23177E-02
         0.16698E-02
         0.10379E-02
         0.17453E-02
         0.23178E-02
         0.16700E-02
         0.30377E-02
         0.27791E-02
         0.30377E-02
         0.27788E-02
         0.12850E-02
         0.65139E-03
         0.12851E-02
         0.65164E-03
         0.12757E-03
        -0.12822E-03
         0.12783E-03
        -0.12804E-03
         0.94500E-03
         0.11327E-02
         0.17490E-02
         0.94533E-03
         0.11330E-02
         0.17494E-02
         0.40588E-03
         0.39779E-03
         0.40594E-03
         0.39781E-03
        -0.76303E-03
        -0.86604E-03
         0.46119E-03
        -0.76268E-03
        -0.86593E-03
         0.46164E-03
        -0.18300E-02
        -0.18440E-02
        -0.18297E-02
        -0.18441E-02
        -0.27238E-02
        -0.28028E-02
        -0.27238E-02
        -0.28031E-02
        -0.25365E-02
        -0.19287E-02
        -0.25363E-02
        -0.19283E-02
        -0.99363E-03
        -0.99377E-03
        -0.14380E-02
        -0.14377E-02
        -0.31574E-03
        -0.31594E-03
        -0.11068E-02
        -0.11071E-02
        -0.18845E-02
        -0.18713E-02
        -0.18846E-02
        -0.18714E-02
        -0.15871E-03
        -0.94089E-03
        -0.15844E-03
        -0.94029E-03
         0.78856E-03
         0.78922E-03
         0.17211E-02
         0.17211E-02
         0.32050E-02
         0.28046E-02
         0.32047E-02
         0.28047E-02
         0.23059E-02
         0.23060E-02
        -0.40614E-03
        -0.40627E-03
        -0.12092E-02
        -0.12092E-02
        -0.19448E-02
        -0.19448E-02
        -0.25029E-02
        -0.26371E-02
        -0.25029E-02
        -0.26372E-02
        -0.27671E-02
        -0.27674E-02
        -0.21123E-02
        -0.21122E-02
        -0.16087E-02
        -0.16087E-02
        -0.11939E-02
        -0.58641E-03
        -0.11937E-02
        -0.58606E-03
         0.20912E-03
         0.20952E-03
         0.10586E-02
         0.10589E-02
         0.18413E-02
         0.18413E-02
         0.24544E-02
         0.26022E-02
         0.24543E-02
         0.26021E-02
         0.37964E-02
         0.39100E-02
         0.37964E-02
         0.39100E-02
         0.34621E-02
         0.34621E-02
         0.29267E-02
         0.29267E-02
         0.22211E-02
         0.22211E-02
         0.13865E-02
         0.13865E-02
         0.47130E-03
         0.47130E-03
        -0.47130E-03
        -0.47130E-03
        -0.13865E-02
        -0.13865E-02
        -0.22211E-02
        -0.22211E-02
        -0.29267E-02
        -0.29267E-02
        -0.34621E-02
        -0.34621E-02
        -0.37964E-02
        -0.37964E-02
        -0.39100E-02
        -0.39100E-02
        -0.37964E-02
        -0.37964E-02
        -0.34621E-02
        -0.34621E-02
        -0.29267E-02
        -0.29267E-02
        -0.22211E-02
        -0.22211E-02
        -0.13865E-02
        -0.13865E-02
        -0.47130E-03
        -0.47130E-03
         0.47130E-03
         0.47130E-03
         0.13865E-02
         0.13865E-02
         0.22211E-02
         0.22211E-02
         0.29267E-02
         0.29267E-02
         0.34621E-02
         0.34621E-02
         0.37964E-02
         0.37964E-02
         0.10376E-02
         0.17450E-02
         0.23175E-02
         0.16696E-02
         0.30377E-02
         0.27795E-02
         0.12849E-02
         0.65115E-03
         0.12731E-03
        -0.12841E-03
         0.94467E-03
         0.11323E-02
         0.17487E-02
         0.40583E-03
         0.39777E-03
        -0.76338E-03
        -0.86615E-03
         0.46074E-03
        -0.18303E-02
        -0.18439E-02
        -0.27238E-02
        -0.28025E-02
        -0.25366E-02
        -0.19292E-02
        -0.99349E-03
        -0.14384E-02
        -0.31554E-03
        -0.11064E-02
        -0.18845E-02
        -0.18712E-02
        -0.15899E-03
        -0.94149E-03
         0.78790E-03
         0.17210E-02
         0.32053E-02
         0.28046E-02
         0.23058E-02
        -0.40600E-03
        -0.12092E-02
        -0.19447E-02
        -0.25028E-02
        -0.26370E-02
        -0.27668E-02
        -0.21125E-02
        -0.16088E-02
        -0.11940E-02
        -0.58676E-03
         0.20871E-03
         0.10583E-02
         0.18413E-02
         0.24545E-02
         0.26022E-02
         0.37964E-02
         0.39100E-02
         0.34621E-02
         0.29267E-02
         0.22211E-02
         0.13865E-02
         0.47130E-03
        -0.47130E-03
        -0.13865E-02
        -0.22211E-02
        -0.29267E-02
        -0.34621E-02
        -0.37964E-02
        -0.39100E-02
        -0.37964E-02
        -0.34621E-02
        -0.29267E-02
        -0.22211E-02
        -0.13865E-02
        -0.47130E-03
         0.47130E-03
         0.13865E-02
         0.22211E-02
         0.29267E-02
         0.34621E-02
         0.37964E-02
         0.10375E-02
         0.17448E-02
         0.23174E-02
         0.16694E-02
         0.30377E-02
         0.27798E-02
         0.12848E-02
         0.65090E-03
         0.12705E-03
        -0.12859E-03
         0.94434E-03
         0.11320E-02
         0.17483E-02
         0.40577E-03
         0.39776E-03
        -0.76374E-03
        -0.86626E-03
         0.46029E-03
        -0.18306E-02
        -0.18438E-02
        -0.27238E-02
        -0.28022E-02
        -0.25368E-02
        -0.19296E-02
        -0.99334E-03
        -0.14387E-02
        -0.31534E-03
        -0.11061E-02
        -0.18844E-02
        -0.18710E-02
        -0.15926E-03
        -0.94209E-03
         0.78724E-03
         0.17210E-02
         0.32056E-02
         0.28046E-02
         0.23057E-02
        -0.40586E-03
        -0.12092E-02
        -0.19447E-02
        -0.25028E-02
        -0.26369E-02
        -0.27665E-02
        -0.21126E-02
        -0.16088E-02
        -0.11941E-02
        -0.58711E-03
         0.20830E-03
         0.10580E-02
         0.18414E-02
         0.24546E-02
         0.26023E-02
         0.37964E-02
         0.39100E-02
         0.34621E-02
         0.29267E-02
         0.22211E-02
         0.13865E-02
         0.47130E-03
        -0.47130E-03
        -0.13865E-02
        -0.22211E-02
        -0.29267E-02
        -0.34621E-02
        -0.37964E-02
        -0.39100E-02
        -0.37964E-02
        -0.34621E-02
        -0.29267E-02
        -0.22211E-02
        -0.13865E-02
        -0.47130E-03
         0.47130E-03
         0.13865E-02
         0.22211E-02
         0.29267E-02
         0.34621E-02
         0.37964E-02
         0.10374E-02
         0.17446E-02
         0.23173E-02
         0.16692E-02
         0.30376E-02
         0.27801E-02
         0.12847E-02
         0.65065E-03
         0.12678E-03
        -0.12878E-03
         0.94401E-03
         0.11316E-02
         0.17479E-02
         0.40572E-03
         0.39774E-03
        -0.76409E-03
        -0.86637E-03
         0.45985E-03
        -0.18309E-02
        -0.18437E-02
        -0.27237E-02
        -0.28020E-02
        -0.25369E-02
        -0.19300E-02
        -0.99320E-03
        -0.14391E-02
        -0.31514E-03
        -0.11057E-02
        -0.18844E-02
        -0.18709E-02
        -0.15954E-03
        -0.94269E-03
         0.78658E-03
         0.17209E-02
         0.32060E-02
         0.28046E-02
         0.23056E-02
        -0.40572E-03
        -0.12092E-02
        -0.19446E-02
        -0.25028E-02
        -0.26368E-02
        -0.27662E-02
        -0.21128E-02
        -0.16088E-02
        -0.11942E-02
        -0.58746E-03
         0.20790E-03
         0.10577E-02
         0.18414E-02
         0.24548E-02
         0.26024E-02
         0.37964E-02
         0.39100E-02
         0.34621E-02
         0.29267E-02
         0.22211E-02
         0.13865E-02
         0.47130E-03
        -0.47130E-03
        -0.13865E-02
        -0.22211E-02
        -0.29267E-02
        -0.34621E-02
        -0.37964E-02
        -0.39100E-02
        -0.37964E-02
        -0.34621E-02
        -0.29267E-02
        -0.22211E-02
        -0.13865E-02
        -0.47130E-03
         0.47130E-03
         0.13865E-02
         0.22211E-02
         0.29267E-02
         0.34621E-02
         0.37964E-02
         0.10373E-02
         0.17445E-02
         0.23172E-02
         0.16689E-02
         0.30376E-02
         0.27805E-02
         0.12846E-02
         0.65041E-03
         0.12652E-03
        -0.12896E-03
         0.94367E-03
         0.11313E-02
         0.17475E-02
         0.40566E-03
         0.39772E-03
        -0.76444E-03
        -0.86648E-03
         0.45940E-03
        -0.18312E-02
        -0.18436E-02
        -0.27237E-02
        -0.28017E-02
        -0.25371E-02
        -0.19305E-02
        -0.99305E-03
        -0.14394E-02
        -0.31494E-03
        -0.11054E-02
        -0.18843E-02
        -0.18708E-02
        -0.15981E-03
        -0.94328E-03
         0.78592E-03
         0.17209E-02
         0.32063E-02
         0.28045E-02
         0.23055E-02
        -0.40558E-03
        -0.12092E-02
        -0.19446E-02
        -0.25027E-02
        -0.26367E-02
        -0.27658E-02
        -0.21129E-02
        -0.16089E-02
        -0.11943E-02
        -0.58781E-03
         0.20749E-03
         0.10574E-02
         0.18415E-02
         0.24549E-02
         0.26025E-02
         0.37964E-02
         0.39100E-02
         0.34621E-02
         0.29267E-02
         0.22211E-02
         0.13865E-02
         0.47130E-03
        -0.47130E-03
        -0.13865E-02
        -0.22211E-02
        -0.29267E-02
        -0.34621E-02
        -0.37964E-02
        -0.39100E-02
        -0.37964E-02
        -0.34621E-02
        -0.29267E-02
        -0.22211E-02
        -0.13865E-02
        -0.47130E-03
         0.47130E-03
         0.13865E-02
         0.22211E-02
         0.29267E-02
         0.34621E-02
         0.37964E-02
         0.10372E-02
         0.17443E-02
         0.23171E-02
         0.16687E-02
         0.30376E-02
         0.27808E-02
         0.12845E-02
         0.65016E-03
         0.12626E-03
        -0.12915E-03
         0.94334E-03
         0.11310E-02
         0.17471E-02
         0.40561E-03
         0.39770E-03
        -0.76480E-03
        -0.86659E-03
         0.45895E-03
        -0.18315E-02
        -0.18435E-02
        -0.27237E-02
        -0.28014E-02
        -0.25372E-02
        -0.19309E-02
        -0.99291E-03
        -0.14398E-02
        -0.31474E-03
        -0.11051E-02
        -0.18843E-02
        -0.18706E-02
        -0.16009E-03
        -0.94388E-03
         0.78526E-03
         0.17208E-02
         0.32066E-02
         0.28045E-02
         0.23053E-02
        -0.40545E-03
        -0.12092E-02
        -0.19446E-02
        -0.25027E-02
        -0.26366E-02
        -0.27655E-02
        -0.21130E-02
        -0.16089E-02
        -0.11944E-02
        -0.58816E-03
         0.20709E-03
         0.10571E-02
         0.18415E-02
         0.24550E-02
         0.26025E-02
         0.37964E-02
         0.39100E-02
         0.34621E-02
         0.29267E-02
         0.22211E-02
         0.13865E-02
         0.47130E-03
        -0.47130E-03
        -0.13865E-02
        -0.22211E-02
        -0.29267E-02
        -0.34621E-02
        -0.37964E-02
        -0.39100E-02
        -0.37964E-02
        -0.34621E-02
        -0.29267E-02
        -0.22211E-02
        -0.13865E-02
        -0.47130E-03
         0.47130E-03
         0.13865E-02
         0.22211E-02
         0.29267E-02
         0.34621E-02
         0.37964E-02
         0.10371E-02
         0.17441E-02
         0.23169E-02
         0.16685E-02
         0.30376E-02
         0.27812E-02
         0.12844E-02
         0.64992E-03
         0.12600E-03
        -0.12933E-03
         0.94301E-03
         0.11306E-02
         0.17467E-02
         0.40556E-03
         0.39769E-03
        -0.76515E-03
        -0.86670E-03
         0.45850E-03
        -0.18318E-02
        -0.18434E-02
        -0.27236E-02
        -0.28011E-02
        -0.25374E-02
        -0.19313E-02
        -0.99277E-03
        -0.14401E-02
        -0.31454E-03
        -0.11047E-02
        -0.18842E-02
        -0.18705E-02
        -0.16036E-03
        -0.94448E-03
         0.78460E-03
         0.17208E-02
         0.32070E-02
         0.28045E-02
         0.23052E-02
        -0.40531E-03
        -0.12092E-02
        -0.19445E-02
        -0.25027E-02
        -0.26366E-02
        -0.27652E-02
        -0.21132E-02
        -0.16090E-02
        -0.11946E-02
        -0.58851E-03
         0.20668E-03
         0.10567E-02
         0.18416E-02
         0.24551E-02
         0.26026E-02
         0.37964E-02
         0.39100E-02
         0.34621E-02
         0.29267E-02
         0.22211E-02
         0.13865E-02
         0.47130E-03
        -0.47130E-03
        -0.13865E-02
        -0.22211E-02
        -0.29267E-02
        -0.34621E-02
        -0.37964E-02
        -0.39100E-02
        -0.37964E-02
        -0.34621E-02
        -0.29267E-02
        -0.22211E-02
        -0.13865E-02
        -0.47130E-03
         0.47130E-03
         0.13865E-02
         0.22211E-02
         0.29267E-02
         0.34621E-02
         0.37964E-02
         0.10370E-02
         0.17439E-02
         0.23168E-02
         0.16683E-02
         0.30375E-02
         0.27815E-02
         0.12843E-02
         0.64967E-03
         0.12573E-03
        -0.12952E-03
         0.94268E-03
         0.11303E-02
         0.17463E-02
         0.40550E-03
         0.39767E-03
        -0.76551E-03
        -0.86680E-03
         0.45806E-03
        -0.18321E-02
        -0.18433E-02
        -0.27236E-02
        -0.28009E-02
        -0.25375E-02
        -0.19317E-02
        -0.99262E-03
        -0.14405E-02
        -0.31434E-03
        -0.11044E-02
        -0.18842E-02
        -0.18704E-02
        -0.16064E-03
        -0.94508E-03
         0.78394E-03
         0.17208E-02
         0.32073E-02
         0.28045E-02
         0.23051E-02
        -0.40517E-03
        -0.12092E-02
        -0.19445E-02
        -0.25026E-02
        -0.26365E-02
        -0.27649E-02
        -0.21133E-02
        -0.16090E-02
        -0.11947E-02
        -0.58886E-03
         0.20627E-03
         0.10564E-02
         0.18416E-02
         0.24553E-02
         0.26027E-02
         0.37964E-02
         0.39100E-02
         0.34621E-02
         0.29267E-02
         0.22211E-02
         0.13865E-02
         0.47130E-03
        -0.47130E-03
        -0.13865E-02
        -0.22211E-02
        -0.29267E-02
        -0.34621E-02
        -0.37964E-02
        -0.39100E-02
        -0.37964E-02
        -0.34621E-02
        -0.29267E-02
        -0.22211E-02
        -0.13865E-02
        -0.47130E-03
         0.47130E-03
         0.13865E-02
         0.22211E-02
         0.29267E-02
         0.34621E-02
         0.37964E-02
         0.10368E-02
         0.17438E-02
         0.23167E-02
         0.16681E-02
         0.30375E-02
         0.27819E-02
         0.12842E-02
         0.64943E-03
         0.12547E-03
        -0.12970E-03
         0.94235E-03
         0.11300E-02
         0.17459E-02
         0.40545E-03
         0.39766E-03
        -0.76586E-03
        -0.86691E-03
         0.45761E-03
        -0.18324E-02
        -0.18432E-02
        -0.27236E-02
        -0.28006E-02
        -0.25377E-02
        -0.19322E-02
        -0.99248E-03
        -0.14408E-02
        -0.31414E-03
        -0.11040E-02
        -0.18841E-02
        -0.18703E-02
        -0.16091E-03
        -0.94568E-03
         0.78328E-03
         0.17207E-02
         0.32076E-02
         0.28044E-02
         0.23050E-02
        -0.40503E-03
        -0.12092E-02
        -0.19445E-02
        -0.25026E-02
        -0.26364E-02
        -0.27646E-02
        -0.21134E-02
        -0.16091E-02
        -0.11948E-02
        -0.58921E-03
         0.20587E-03
         0.10561E-02
         0.18416E-02
         0.24554E-02
         0.26027E-02
         0.37964E-02
         0.39100E-02
         0.34621E-02
         0.29267E-02
         0.22211E-02
         0.13865E-02
         0.47130E-03
        -0.47130E-03
        -0.13865E-02
        -0.22211E-02
        -0.29267E-02
        -0.34621E-02
        -0.37964E-02
        -0.39100E-02
        -0.37964E-02
        -0.34621E-02
        -0.29267E-02
        -0.22211E-02
        -0.13865E-02
        -0.47130E-03
         0.47130E-03
         0.13865E-02
         0.22211E-02
         0.29267E-02
         0.34621E-02
         0.37964E-02
         0.10367E-02
         0.17436E-02
         0.23166E-02
         0.16679E-02
         0.30375E-02
         0.27822E-02
         0.12841E-02
         0.64918E-03
         0.12521E-03
        -0.12989E-03
         0.94202E-03
         0.11296E-02
         0.17455E-02
         0.40539E-03
         0.39764E-03
        -0.76621E-03
        -0.86702E-03
         0.45716E-03
        -0.18326E-02
        -0.18431E-02
        -0.27235E-02
        -0.28003E-02
        -0.25379E-02
        -0.19326E-02
        -0.99233E-03
        -0.14412E-02
        -0.31394E-03
        -0.11037E-02
        -0.18841E-02
        -0.18701E-02
        -0.16119E-03
        -0.94628E-03
         0.78262E-03
         0.17207E-02
         0.32079E-02
         0.28044E-02
         0.23049E-02
        -0.40490E-03
        -0.12093E-02
        -0.19444E-02
        -0.25026E-02
        -0.26363E-02
        -0.27643E-02
        -0.21136E-02
        -0.16091E-02
        -0.11949E-02
        -0.58956E-03
         0.20546E-03
         0.10558E-02
         0.18417E-02
         0.24555E-02
         0.26028E-02
         0.37964E-02
         0.39100E-02
         0.34621E-02
         0.29267E-02
         0.22211E-02
         0.13865E-02
         0.47130E-03
        -0.47130E-03
        -0.13865E-02
        -0.22211E-02
        -0.29267E-02
        -0.34621E-02
        -0.37964E-02
        -0.39100E-02
        -0.37964E-02
        -0.34621E-02
        -0.29267E-02
        -0.22211E-02
        -0.13865E-02
        -0.47130E-03
         0.47130E-03
         0.13865E-02
         0.22211E-02
         0.29267E-02
         0.34621E-02
         0.37964E-02
         0.10366E-02
         0.17434E-02
         0.23164E-02
         0.16677E-02
         0.30375E-02
         0.27825E-02
         0.12840E-02
         0.64894E-03
         0.12495E-03
        -0.13007E-03
         0.94169E-03
         0.11293E-02
         0.17451E-02
         0.40534E-03
         0.39762E-03
        -0.76657E-03
        -0.86713E-03
         0.45671E-03
        -0.18329E-02
        -0.18430E-02
        -0.27235E-02
        -0.28001E-02
        -0.25380E-02
        -0.19330E-02
        -0.99219E-03
        -0.14415E-02
        -0.31374E-03
        -0.11033E-02
        -0.18840E-02
        -0.18700E-02
        -0.16146E-03
        -0.94687E-03
         0.78195E-03
         0.17207E-02
         0.32083E-02
         0.28044E-02
         0.23048E-02
        -0.40476E-03
        -0.12093E-02
        -0.19444E-02
        -0.25026E-02
        -0.26362E-02
        -0.27640E-02
        -0.21137E-02
        -0.16091E-02
        -0.11950E-02
        -0.58991E-03
         0.20505E-03
         0.10555E-02
         0.18417E-02
         0.24556E-02
         0.26029E-02
         0.37964E-02
         0.39100E-02
         0.34621E-02
         0.29267E-02
         0.22211E-02
         0.13865E-02
         0.47130E-03
        -0.47130E-03
        -0.13865E-02
        -0.22211E-02
        -0.29267E-02
        -0.34621E-02
        -0.37964E-02
        -0.39100E-02
        -0.37964E-02
        -0.34621E-02
        -0.29267E-02
        -0.22211E-02
        -0.13865E-02
        -0.47130E-03
         0.47130E-03
         0.13865E-02
         0.22211E-02
         0.29267E-02
         0.34621E-02
         0.37964E-02
         0.10365E-02
         0.17432E-02
         0.23163E-02
         0.16675E-02
         0.30374E-02
         0.27829E-02
         0.12839E-02
         0.64869E-03
         0.12468E-03
        -0.13026E-03
         0.94135E-03
         0.11289E-02
         0.17447E-02
         0.40528E-03
         0.39760E-03
        -0.76692E-03
        -0.86724E-03
         0.45626E-03
        -0.18332E-02
        -0.18430E-02
        -0.27235E-02
        -0.27998E-02
        -0.25382E-02
        -0.19334E-02
        -0.99205E-03
        -0.14419E-02
        -0.31354E-03
        -0.11030E-02
        -0.18840E-02
        -0.18699E-02
        -0.16174E-03
        -0.94747E-03
         0.78129E-03
         0.17206E-02
         0.32086E-02
         0.28044E-02
         0.23047E-02
        -0.40462E-03
        -0.12093E-02
        -0.19444E-02
        -0.25025E-02
        -0.26361E-02
        -0.27637E-02
        -0.21139E-02
        -0.16092E-02
        -0.11951E-02
        -0.59025E-03
         0.20465E-03
         0.10552E-02
         0.18418E-02
         0.24558E-02
         0.26030E-02
         0.37964E-02
         0.39100E-02
         0.34621E-02
         0.29267E-02
         0.22211E-02
         0.13865E-02
         0.47130E-03
        -0.47130E-03
        -0.13865E-02
        -0.22211E-02
        -0.29267E-02
        -0.34621E-02
        -0.37964E-02
        -0.39100E-02
        -0.37964E-02
        -0.34621E-02
        -0.29267E-02
        -0.22211E-02
        -0.13865E-02
        -0.47130E-03
         0.47130E-03
         0.13865E-02
         0.22211E-02
         0.29267E-02
         0.34621E-02
         0.37964E-02
         0.10364E-02
         0.17430E-02
         0.23162E-02
         0.16672E-02
         0.30374E-02
         0.27832E-02
         0.12838E-02
         0.64845E-03
         0.12442E-03
        -0.13044E-03
         0.94102E-03
         0.11286E-02
         0.17443E-02
         0.40523E-03
         0.39759E-03
        -0.76727E-03
        -0.86735E-03
         0.45582E-03
        -0.18335E-02
        -0.18429E-02
        -0.27235E-02
        -0.27995E-02
        -0.25383E-02
        -0.19339E-02
        -0.99190E-03
        -0.14422E-02
        -0.31334E-03
        -0.11026E-02
        -0.18839E-02
        -0.18697E-02
        -0.16201E-03
        -0.94807E-03
         0.78063E-03
         0.17206E-02
         0.32089E-02
         0.28043E-02
         0.23046E-02
        -0.40448E-03
        -0.12093E-02
        -0.19443E-02
        -0.25025E-02
        -0.26360E-02
        -0.27633E-02
        -0.21140E-02
        -0.16092E-02
        -0.11953E-02
        -0.59060E-03
         0.20424E-03
         0.10549E-02
         0.18418E-02
         0.24559E-02
         0.26030E-02
         0.37964E-02
         0.39100E-02
         0.34621E-02
         0.29267E-02
         0.22211E-02
         0.13865E-02
         0.47130E-03
        -0.47130E-03
        -0.13865E-02
        -0.22211E-02
        -0.29267E-02
        -0.34621E-02
        -0.37964E-02
        -0.39100E-02
        -0.37964E-02
        -0.34621E-02
        -0.29267E-02
        -0.22211E-02
        -0.13865E-02
        -0.47130E-03
         0.47130E-03
         0.13865E-02
         0.22211E-02
         0.29267E-02
         0.34621E-02
         0.37964E-02
         0.10363E-02
         0.17429E-02
         0.23161E-02
         0.16670E-02
         0.30374E-02
         0.27836E-02
         0.12837E-02
         0.64820E-03
         0.12416E-03
        -0.13063E-03
         0.94069E-03
         0.11282E-02
         0.17439E-02
         0.40518E-03
         0.39757E-03
        -0.76763E-03
        -0.86746E-03
         0.45537E-03
        -0.18338E-02
        -0.18428E-02
        -0.27234E-02
        -0.27992E-02
        -0.25385E-02
        -0.19343E-02
        -0.99176E-03
        -0.14425E-02
        -0.31314E-03
        -0.11023E-02
        -0.18839E-02
        -0.18696E-02
        -0.16229E-03
        -0.94867E-03
         0.77997E-03
         0.17205E-02
         0.32092E-02
         0.28043E-02
         0.23044E-02
        -0.40434E-03
        -0.12093E-02
        -0.19443E-02
        -0.25025E-02
        -0.26359E-02
        -0.27630E-02
        -0.21141E-02
        -0.16093E-02
        -0.11954E-02
        -0.59095E-03
         0.20384E-03
         0.10546E-02
         0.18419E-02
         0.24560E-02
         0.26031E-02
         0.37964E-02
         0.39100E-02
         0.34621E-02
         0.29267E-02
         0.22211E-02
         0.13865E-02
         0.47130E-03
        -0.47130E-03
        -0.13865E-02
        -0.22211E-02
        -0.29267E-02
        -0.34621E-02
        -0.37964E-02
        -0.39100E-02
        -0.37964E-02
        -0.34621E-02
        -0.29267E-02
        -0.22211E-02
        -0.13865E-02
        -0.47130E-03
         0.47130E-03
         0.13865E-02
         0.22211E-02
         0.29267E-02
         0.34621E-02
         0.37964E-02
         0.10362E-02
         0.17427E-02
         0.23160E-02
         0.16668E-02
         0.30373E-02
         0.27839E-02
         0.12836E-02
         0.64796E-03
         0.12390E-03
        -0.13082E-03
         0.94036E-03
         0.11279E-02
         0.17435E-02
         0.40512E-03
         0.39755E-03
        -0.76798E-03
        -0.86756E-03
         0.45492E-03
        -0.18341E-02
        -0.18427E-02
        -0.27234E-02
        -0.27990E-02
        -0.25386E-02
        -0.19347E-02
        -0.99161E-03
        -0.14429E-02
        -0.31294E-03
        -0.11019E-02
        -0.18838E-02
        -0.18695E-02
        -0.16256E-03
        -0.94927E-03
         0.77931E-03
         0.17205E-02
         0.32096E-02
         0.28043E-02
         0.23043E-02
        -0.40420E-03
        -0.12093E-02
        -0.19443E-02
        -0.25024E-02
        -0.26358E-02
        -0.27627E-02
        -0.21143E-02
        -0.16093E-02
        -0.11955E-02
        -0.59130E-03
         0.20343E-03
         0.10543E-02
         0.18419E-02
         0.24561E-02
         0.26032E-02
         0.37964E-02
         0.39100E-02
         0.34621E-02
         0.29267E-02
         0.22211E-02
         0.13865E-02
         0.47130E-03
        -0.47130E-03
        -0.13865E-02
        -0.22211E-02
        -0.29267E-02
        -0.34621E-02
        -0.37964E-02
        -0.39100E-02
        -0.37964E-02
        -0.34621E-02
        -0.29267E-02
        -0.22211E-02
        -0.13865E-02
        -0.47130E-03
         0.47130E-03
         0.13865E-02
         0.22211E-02
         0.29267E-02
         0.34621E-02
         0.37964E-02
         0.10360E-02
         0.17425E-02
         0.23158E-02
         0.16666E-02
         0.30373E-02
         0.27842E-02
         0.12835E-02
         0.64771E-03
         0.12363E-03
        -0.13100E-03
         0.94003E-03
         0.11276E-02
         0.17432E-02
         0.40507E-03
         0.39754E-03
        -0.76834E-03
        -0.86767E-03
         0.45447E-03
        -0.18344E-02
        -0.18426E-02
        -0.27234E-02
        -0.27987E-02
        -0.25388E-02
        -0.19352E-02
        -0.99147E-03
        -0.14433E-02
        -0.31274E-03
        -0.11016E-02
        -0.18838E-02
        -0.18694E-02
        -0.16284E-03
        -0.94986E-03
         0.77865E-03
         0.17205E-02
         0.32099E-02
         0.28042E-02
         0.23042E-02
        -0.40407E-03
        -0.12093E-02
        -0.19442E-02
        -0.25024E-02
        -0.26358E-02
        -0.27624E-02
        -0.21144E-02
        -0.16094E-02
        -0.11956E-02
        -0.59165E-03
         0.20302E-03
         0.10540E-02
         0.18419E-02
         0.24563E-02
         0.26033E-02
         0.37964E-02
         0.39100E-02
         0.34621E-02
         0.29267E-02
         0.22211E-02
         0.13865E-02
         0.47130E-03
        -0.47130E-03
        -0.13865E-02
        -0.22211E-02
        -0.29267E-02
        -0.34621E-02
        -0.37964E-02
        -0.39100E-02
        -0.37964E-02
        -0.34621E-02
        -0.29267E-02
        -0.22211E-02
        -0.13865E-02
        -0.47130E-03
         0.47130E-03
         0.13865E-02
         0.22211E-02
         0.29267E-02
         0.34621E-02
         0.37964E-02
         0.10359E-02
         0.17423E-02
         0.23157E-02
         0.16664E-02
         0.30373E-02
         0.27846E-02
         0.12834E-02
         0.64747E-03
         0.12337E-03
        -0.13118E-03
         0.93970E-03
         0.11272E-02
         0.17428E-02
         0.40501E-03
         0.39752E-03
        -0.76869E-03
        -0.86778E-03
         0.45402E-03
        -0.18347E-02
        -0.18425E-02
        -0.27234E-02
        -0.27984E-02
        -0.25389E-02
        -0.19356E-02
        -0.99133E-03
        -0.14436E-02
        -0.31254E-03
        -0.11013E-02
        -0.18837E-02
        -0.18692E-02
        -0.16311E-03
        -0.95046E-03
         0.77799E-03
         0.17204E-02
         0.32102E-02
         0.28042E-02
         0.23041E-02
        -0.40393E-03
        -0.12093E-02
        -0.19442E-02
        -0.25024E-02
        -0.26357E-02
        -0.27621E-02
        -0.21146E-02
        -0.16094E-02
        -0.11957E-02
        -0.59200E-03
         0.20262E-03
         0.10536E-02
         0.18420E-02
         0.24564E-02
         0.26033E-02
         0.37964E-02
         0.39100E-02
         0.34621E-02
         0.29267E-02
         0.22211E-02
         0.13865E-02
         0.47130E-03
        -0.47130E-03
        -0.13865E-02
        -0.22211E-02
        -0.29267E-02
        -0.34621E-02
        -0.37964E-02
        -0.39100E-02
        -0.37964E-02
        -0.34621E-02
        -0.29267E-02
        -0.22211E-02
        -0.13865E-02
        -0.47130E-03
         0.47130E-03
         0.13865E-02
         0.22211E-02
         0.29267E-02
         0.34621E-02
         0.37964E-02
         0.10358E-02
         0.17422E-02
         0.23156E-02
         0.16662E-02
         0.30373E-02
         0.27849E-02
         0.12833E-02
         0.64722E-03
         0.12311E-03
        -0.13137E-03
         0.93937E-03
         0.11269E-02
         0.17424E-02
         0.40496E-03
         0.39750E-03
        -0.76904E-03
        -0.86789E-03
         0.45358E-03
        -0.18350E-02
        -0.18424E-02
        -0.27233E-02
        -0.27981E-02
        -0.25391E-02
        -0.19360E-02
        -0.99118E-03
        -0.14440E-02
        -0.31234E-03
        -0.11009E-02
        -0.18836E-02
        -0.18691E-02
        -0.16339E-03
        -0.95106E-03
         0.77733E-03
         0.17204E-02
         0.32105E-02
         0.28042E-02
         0.23040E-02
        -0.40379E-03
        -0.12093E-02
        -0.19441E-02
        -0.25023E-02
        -0.26356E-02
        -0.27618E-02
        -0.21147E-02
        -0.16094E-02
        -0.11958E-02
        -0.59235E-03
         0.20221E-03
         0.10533E-02
         0.18420E-02
         0.24565E-02
         0.26034E-02
         0.37964E-02
         0.39100E-02
         0.34621E-02
         0.29267E-02
         0.22211E-02
         0.13865E-02
         0.47130E-03
        -0.47130E-03
        -0.13865E-02
        -0.22211E-02
        -0.29267E-02
        -0.34621E-02
        -0.37964E-02
        -0.39100E-02
        -0.37964E-02
        -0.34621E-02
        -0.29267E-02
        -0.22211E-02
        -0.13865E-02
        -0.47130E-03
         0.47130E-03
         0.13865E-02
         0.22211E-02
         0.29267E-02
         0.34621E-02
         0.37964E-02
         0.10357E-02
         0.17420E-02
         0.23155E-02
         0.16660E-02
         0.30372E-02
         0.27853E-02
         0.12832E-02
         0.64698E-03
         0.12285E-03
        -0.13155E-03
         0.93903E-03
         0.11266E-02
         0.17420E-02
         0.40490E-03
         0.39749E-03
        -0.76940E-03
        -0.86800E-03
         0.45313E-03
        -0.18353E-02
        -0.18423E-02
        -0.27233E-02
        -0.27979E-02
        -0.25393E-02
        -0.19365E-02
        -0.99104E-03
        -0.14443E-02
        -0.31214E-03
        -0.11006E-02
        -0.18836E-02
        -0.18690E-02
        -0.16366E-03
        -0.95166E-03
         0.77667E-03
         0.17203E-02
         0.32109E-02
         0.28042E-02
         0.23039E-02
        -0.40365E-03
        -0.12093E-02
        -0.19441E-02
        -0.25023E-02
        -0.26355E-02
        -0.27615E-02
        -0.21148E-02
        -0.16095E-02
        -0.11960E-02
        -0.59270E-03
         0.20180E-03
         0.10530E-02
         0.18421E-02
         0.24566E-02
         0.26035E-02
         0.37964E-02
         0.39100E-02
         0.34621E-02
         0.29267E-02
         0.22211E-02
         0.13865E-02
         0.47130E-03
        -0.47130E-03
        -0.13865E-02
        -0.22211E-02
        -0.29267E-02
        -0.34621E-02
        -0.37964E-02
        -0.39100E-02
        -0.37964E-02
        -0.34621E-02
        -0.29267E-02
        -0.22211E-02
        -0.13865E-02
        -0.47130E-03
         0.47130E-03
         0.13865E-02
         0.22211E-02
         0.29267E-02
         0.34621E-02
         0.37964E-02
         0.10356E-02
         0.17418E-02
         0.23153E-02
         0.16657E-02
         0.30372E-02
         0.27856E-02
         0.12830E-02
         0.64673E-03
         0.12259E-03
        -0.13174E-03
         0.93870E-03
         0.11262E-02
         0.17416E-02
         0.40485E-03
         0.39747E-03
        -0.76975E-03
        -0.86811E-03
         0.45268E-03
        -0.18356E-02
        -0.18422E-02
        -0.27233E-02
        -0.27976E-02
        -0.25394E-02
        -0.19369E-02
        -0.99090E-03
        -0.14446E-02
        -0.31194E-03
        -0.11002E-02
        -0.18835E-02
        -0.18689E-02
        -0.16394E-03
        -0.95226E-03
         0.77601E-03
         0.17203E-02
         0.32112E-02
         0.28042E-02
         0.23038E-02
        -0.40352E-03
        -0.12093E-02
        -0.19441E-02
        -0.25023E-02
        -0.26354E-02
        -0.27612E-02
        -0.21150E-02
        -0.16095E-02
        -0.11961E-02
        -0.59305E-03
         0.20140E-03
         0.10527E-02
         0.18421E-02
         0.24568E-02
         0.26036E-02
         0.37964E-02
         0.39100E-02
         0.34621E-02
         0.29267E-02
         0.22211E-02
         0.13865E-02
         0.47130E-03
        -0.47130E-03
        -0.13865E-02
        -0.22211E-02
        -0.29267E-02
        -0.34621E-02
        -0.37964E-02
        -0.39100E-02
        -0.37964E-02
        -0.34621E-02
        -0.29267E-02
        -0.22211E-02
        -0.13865E-02
        -0.47130E-03
         0.47130E-03
         0.13865E-02
         0.22211E-02
         0.29267E-02
         0.34621E-02
         0.37964E-02
         0.10355E-02
         0.17416E-02
         0.23152E-02
         0.16655E-02
         0.30372E-02
         0.27860E-02
         0.12829E-02
         0.64649E-03
         0.12232E-03
        -0.13193E-03
         0.93837E-03
         0.11259E-02
         0.17412E-02
         0.40480E-03
         0.39745E-03
        -0.77011E-03
        -0.86822E-03
         0.45223E-03
        -0.18359E-02
        -0.18421E-02
        -0.27232E-02
        -0.27973E-02
        -0.25396E-02
        -0.19373E-02
        -0.99075E-03
        -0.14450E-02
        -0.31173E-03
        -0.10999E-02
        -0.18835E-02
        -0.18687E-02
        -0.16421E-03
        -0.95285E-03
         0.77535E-03
         0.17202E-02
         0.32115E-02
         0.28041E-02
         0.23037E-02
        -0.40338E-03
        -0.12093E-02
        -0.19440E-02
        -0.25023E-02
        -0.26353E-02
        -0.27609E-02
        -0.21151E-02
        -0.16096E-02
        -0.11962E-02
        -0.59340E-03
         0.20099E-03
         0.10524E-02
         0.18422E-02
         0.24569E-02
         0.26036E-02
         0.37964E-02
         0.39100E-02
         0.34621E-02
         0.29267E-02
         0.22211E-02
         0.13865E-02
         0.47130E-03
        -0.47130E-03
        -0.13865E-02
        -0.22211E-02
        -0.29267E-02
        -0.34621E-02
        -0.37964E-02
        -0.39100E-02
        -0.37964E-02
        -0.34621E-02
        -0.29267E-02
        -0.22211E-02
        -0.13865E-02
        -0.47130E-03
         0.47130E-03
         0.13865E-02
         0.22211E-02
         0.29267E-02
         0.34621E-02
         0.37964E-02
         0.10354E-02
         0.17414E-02
         0.23151E-02
         0.16653E-02
         0.30372E-02
         0.27863E-02
         0.12829E-02
         0.64624E-03
         0.12206E-03
        -0.13211E-03
         0.93804E-03
         0.11255E-02
         0.17408E-02
         0.40474E-03
         0.39744E-03
        -0.77046E-03
        -0.86832E-03
         0.45179E-03
        -0.18362E-02
        -0.18420E-02
        -0.27232E-02
        -0.27970E-02
        -0.25397E-02
        -0.19377E-02
        -0.99061E-03
        -0.14453E-02
        -0.31153E-03
        -0.10995E-02
        -0.18834E-02
        -0.18686E-02
        -0.16449E-03
        -0.95345E-03
         0.77469E-03
         0.17202E-02
         0.32119E-02
         0.28041E-02
         0.23036E-02
        -0.40324E-03
        -0.12093E-02
        -0.19440E-02
        -0.25022E-02
        -0.26352E-02
        -0.27606E-02
        -0.21152E-02
        -0.16096E-02
        -0.11963E-02
        -0.59375E-03
         0.20059E-03
         0.10521E-02
         0.18422E-02
         0.24570E-02
         0.26037E-02
         0.37964E-02
         0.39100E-02
         0.34621E-02
         0.29267E-02
         0.22211E-02
         0.13865E-02
         0.47130E-03
        -0.47130E-03
        -0.13865E-02
        -0.22211E-02
        -0.29267E-02
        -0.34621E-02
        -0.37964E-02
        -0.39100E-02
        -0.37964E-02
        -0.34621E-02
        -0.29267E-02
        -0.22211E-02
        -0.13865E-02
        -0.47130E-03
         0.47130E-03
         0.13865E-02
         0.22211E-02
         0.29267E-02
         0.34621E-02
         0.37964E-02
         0.10352E-02
         0.17413E-02
         0.23150E-02
         0.16651E-02
         0.30371E-02
         0.27866E-02
         0.12827E-02
         0.64600E-03
         0.12180E-03
        -0.13230E-03
         0.93771E-03
         0.11252E-02
         0.17404E-02
         0.40469E-03
         0.39742E-03
        -0.77081E-03
        -0.86843E-03
         0.45134E-03
        -0.18365E-02
        -0.18419E-02
        -0.27232E-02
        -0.27968E-02
        -0.25399E-02
        -0.19382E-02
        -0.99046E-03
        -0.14457E-02
        -0.31133E-03
        -0.10992E-02
        -0.18834E-02
        -0.18685E-02
        -0.16476E-03
        -0.95405E-03
         0.77402E-03
         0.17202E-02
         0.32122E-02
         0.28041E-02
         0.23034E-02
        -0.40310E-03
        -0.12093E-02
        -0.19440E-02
        -0.25022E-02
        -0.26351E-02
        -0.27602E-02
        -0.21154E-02
        -0.16097E-02
        -0.11964E-02
        -0.59409E-03
         0.20018E-03
         0.10518E-02
         0.18422E-02
         0.24571E-02
         0.26038E-02
         0.37964E-02
         0.39100E-02
         0.34621E-02
         0.29267E-02
         0.22211E-02
         0.13865E-02
         0.47130E-03
        -0.47130E-03
        -0.13865E-02
        -0.22211E-02
        -0.29267E-02
        -0.34621E-02
        -0.37964E-02
        -0.39100E-02
        -0.37964E-02
        -0.34621E-02
        -0.29267E-02
        -0.22211E-02
        -0.13865E-02
        -0.47130E-03
         0.47130E-03
         0.13865E-02
         0.22211E-02
         0.29267E-02
         0.34621E-02
         0.37964E-02
         0.10351E-02
         0.17411E-02
         0.23149E-02
         0.16649E-02
         0.30371E-02
         0.27870E-02
         0.12826E-02
         0.64575E-03
         0.12154E-03
        -0.13248E-03
         0.93738E-03
         0.11249E-02
         0.17400E-02
         0.40463E-03
         0.39740E-03
        -0.77117E-03
        -0.86854E-03
         0.45089E-03
        -0.18368E-02
        -0.18418E-02
        -0.27232E-02
        -0.27965E-02
        -0.25400E-02
        -0.19386E-02
        -0.99032E-03
        -0.14460E-02
        -0.31113E-03
        -0.10988E-02
        -0.18833E-02
        -0.18683E-02
        -0.16504E-03
        -0.95465E-03
         0.77336E-03
         0.17201E-02
         0.32125E-02
         0.28041E-02
         0.23033E-02
        -0.40296E-03
        -0.12093E-02
        -0.19439E-02
        -0.25022E-02
        -0.26350E-02
        -0.27599E-02
        -0.21155E-02
        -0.16097E-02
        -0.11965E-02
        -0.59444E-03
         0.19977E-03
         0.10515E-02
         0.18423E-02
         0.24573E-02
         0.26039E-02
         0.37964E-02
         0.39100E-02
         0.34621E-02
         0.29267E-02
         0.22211E-02
         0.13865E-02
         0.47130E-03
        -0.47130E-03
        -0.13865E-02
        -0.22211E-02
        -0.29267E-02
        -0.34621E-02
        -0.37964E-02
        -0.39100E-02
        -0.37964E-02
        -0.34621E-02
        -0.29267E-02
        -0.22211E-02
        -0.13865E-02
        -0.47130E-03
         0.47130E-03
         0.13865E-02
         0.22211E-02
         0.29267E-02
         0.34621E-02
         0.37964E-02
  
SCALARS           initial_coordinate_y  double 1
LOOKUP_TABLE default
         0.67292E-03
         0.12308E-02
         0.59151E-03
        -0.33775E-03
         0.67237E-03
         0.12301E-02
         0.59098E-03
        -0.33851E-03
         0.14882E-03
        -0.67643E-03
         0.14846E-03
        -0.67692E-03
         0.18412E-02
         0.14576E-02
         0.18410E-02
         0.14566E-02
         0.29933E-03
         0.11672E-02
         0.29819E-03
         0.11655E-02
         0.22748E-02
         0.28286E-02
         0.24238E-02
         0.22746E-02
         0.28291E-02
         0.24236E-02
         0.21685E-02
         0.29366E-02
         0.21684E-02
         0.29369E-02
        -0.10033E-02
         0.78969E-04
        -0.70318E-03
        -0.10032E-02
         0.78160E-04
        -0.70391E-03
        -0.71196E-03
         0.82749E-04
        -0.71210E-03
         0.82626E-04
        -0.77865E-03
         0.40713E-04
        -0.77882E-03
         0.40439E-04
        -0.15195E-02
        -0.13230E-02
        -0.15195E-02
        -0.13231E-02
         0.98847E-03
         0.98712E-03
        -0.17325E-02
        -0.17325E-02
         0.20220E-02
         0.20217E-02
         0.18615E-02
         0.18616E-02
         0.17175E-02
         0.90940E-03
         0.17175E-02
         0.90916E-03
        -0.19800E-02
        -0.23489E-02
        -0.19800E-02
        -0.23489E-02
        -0.17074E-02
        -0.17074E-02
        -0.14894E-02
        -0.14892E-02
         0.76036E-03
         0.12477E-02
         0.75936E-03
         0.12473E-02
         0.18665E-02
         0.18664E-02
         0.29038E-02
         0.29049E-02
         0.27207E-02
         0.27212E-02
         0.24642E-02
         0.24645E-02
         0.22359E-02
         0.16503E-02
         0.22359E-02
         0.16503E-02
         0.87493E-03
         0.87466E-03
        -0.21373E-02
        -0.21373E-02
        -0.26931E-02
        -0.26931E-02
        -0.31291E-02
        -0.30382E-02
        -0.31291E-02
        -0.30382E-02
        -0.28748E-02
        -0.28748E-02
        -0.26423E-02
        -0.26420E-02
        -0.23707E-02
        -0.23705E-02
        -0.21445E-02
        -0.15105E-02
        -0.21439E-02
        -0.15106E-02
         0.93572E-03
         0.00000E+00
         0.93572E-03
         0.00000E+00
         0.18171E-02
         0.18171E-02
         0.25928E-02
         0.25928E-02
         0.32179E-02
         0.32179E-02
         0.36559E-02
         0.36559E-02
         0.38815E-02
         0.38815E-02
         0.38815E-02
         0.38815E-02
         0.36559E-02
         0.36559E-02
         0.32179E-02
         0.32179E-02
         0.25928E-02
         0.25928E-02
         0.18171E-02
         0.18171E-02
         0.93572E-03
         0.93572E-03
         0.22152E-17
        -0.47884E-18
        -0.93572E-03
        -0.93572E-03
        -0.18171E-02
        -0.18171E-02
        -0.25928E-02
        -0.25928E-02
        -0.32179E-02
        -0.32179E-02
        -0.36559E-02
        -0.36559E-02
        -0.38815E-02
        -0.38815E-02
        -0.38815E-02
        -0.38815E-02
        -0.36559E-02
        -0.36559E-02
        -0.32179E-02
        -0.32179E-02
        -0.25928E-02
        -0.25928E-02
        -0.18171E-02
        -0.18171E-02
        -0.93572E-03
        -0.93572E-03
         0.67348E-03
         0.12314E-02
         0.59203E-03
        -0.33700E-03
         0.14918E-03
        -0.67594E-03
         0.18414E-02
         0.14586E-02
         0.30048E-03
         0.11690E-02
         0.22749E-02
         0.28282E-02
         0.24239E-02
         0.21685E-02
         0.29364E-02
        -0.10035E-02
         0.79778E-04
        -0.70245E-03
        -0.71182E-03
         0.82873E-04
        -0.77848E-03
         0.40986E-04
        -0.15194E-02
        -0.13228E-02
         0.98983E-03
        -0.17324E-02
         0.20223E-02
         0.18614E-02
         0.17175E-02
         0.90964E-03
        -0.19800E-02
        -0.23489E-02
        -0.17074E-02
        -0.14896E-02
         0.76137E-03
         0.12481E-02
         0.18665E-02
         0.29027E-02
         0.27202E-02
         0.24640E-02
         0.22359E-02
         0.16503E-02
         0.87519E-03
        -0.21373E-02
        -0.26932E-02
        -0.31291E-02
        -0.30382E-02
        -0.28748E-02
        -0.26426E-02
        -0.23709E-02
        -0.21450E-02
        -0.15104E-02
         0.93572E-03
         0.00000E+00
         0.18171E-02
         0.25928E-02
         0.32179E-02
         0.36559E-02
         0.38815E-02
         0.38815E-02
         0.36559E-02
         0.32179E-02
         0.25928E-02
         0.18171E-02
         0.93572E-03
        -0.47884E-18
        -0.93572E-03
        -0.18171E-02
        -0.25928E-02
        -0.32179E-02
        -0.36559E-02
        -0.38815E-02
        -0.38815E-02
        -0.36559E-02
        -0.32179E-02
        -0.25928E-02
        -0.18171E-02
        -0.93572E-03
         0.67403E-03
         0.12321E-02
         0.59255E-03
        -0.33624E-03
         0.14955E-03
        -0.67544E-03
         0.18415E-02
         0.14596E-02
         0.30163E-03
         0.11707E-02
         0.22750E-02
         0.28277E-02
         0.24241E-02
         0.21685E-02
         0.29361E-02
        -0.10036E-02
         0.80588E-04
        -0.70173E-03
        -0.71168E-03
         0.82996E-04
        -0.77831E-03
         0.41259E-04
        -0.15194E-02
        -0.13227E-02
         0.99119E-03
        -0.17324E-02
         0.20226E-02
         0.18613E-02
         0.17175E-02
         0.90988E-03
        -0.19801E-02
        -0.23490E-02
        -0.17074E-02
        -0.14899E-02
         0.76237E-03
         0.12485E-02
         0.18666E-02
         0.29017E-02
         0.27198E-02
         0.24638E-02
         0.22359E-02
         0.16503E-02
         0.87545E-03
        -0.21374E-02
        -0.26932E-02
        -0.31291E-02
        -0.30382E-02
        -0.28748E-02
        -0.26428E-02
        -0.23711E-02
        -0.21456E-02
        -0.15103E-02
         0.93572E-03
         0.00000E+00
         0.18171E-02
         0.25928E-02
         0.32179E-02
         0.36559E-02
         0.38815E-02
         0.38815E-02
         0.36559E-02
         0.32179E-02
         0.25928E-02
         0.18171E-02
         0.93572E-03
         0.39516E-17
        -0.93572E-03
        -0.18171E-02
        -0.25928E-02
        -0.32179E-02
        -0.36559E-02
        -0.38815E-02
        -0.38815E-02
        -0.36559E-02
        -0.32179E-02
        -0.25928E-02
        -0.18171E-02
        -0.93572E-03
         0.67459E-03
         0.12328E-02
         0.59308E-03
        -0.33549E-03
         0.14991E-03
        -0.67495E-03
         0.18417E-02
         0.14606E-02
         0.30278E-03
         0.11725E-02
         0.22752E-02
         0.28273E-02
         0.24242E-02
         0.21686E-02
         0.29359E-02
        -0.10038E-02
         0.81397E-04
        -0.70100E-03
        -0.71154E-03
         0.83120E-04
        -0.77814E-03
         0.41533E-04
        -0.15193E-02
        -0.13227E-02
         0.99254E-03
        -0.17324E-02
         0.20228E-02
         0.18611E-02
         0.17175E-02
         0.91012E-03
        -0.19801E-02
        -0.23490E-02
        -0.17074E-02
        -0.14901E-02
         0.76338E-03
         0.12490E-02
         0.18666E-02
         0.29006E-02
         0.27193E-02
         0.24636E-02
         0.22359E-02
         0.16503E-02
         0.87571E-03
        -0.21374E-02
        -0.26932E-02
        -0.31291E-02
        -0.30382E-02
        -0.28748E-02
        -0.26431E-02
        -0.23713E-02
        -0.21461E-02
        -0.15102E-02
         0.93572E-03
         0.00000E+00
         0.18171E-02
         0.25928E-02
         0.32179E-02
         0.36559E-02
         0.38815E-02
         0.38815E-02
         0.36559E-02
         0.32179E-02
         0.25928E-02
         0.18171E-02
         0.93572E-03
        -0.47884E-18
        -0.93572E-03
        -0.18171E-02
        -0.25928E-02
        -0.32179E-02
        -0.36559E-02
        -0.38815E-02
        -0.38815E-02
        -0.36559E-02
        -0.32179E-02
        -0.25928E-02
        -0.18171E-02
        -0.93572E-03
         0.67514E-03
         0.12334E-02
         0.59360E-03
        -0.33474E-03
         0.15027E-03
        -0.67446E-03
         0.18419E-02
         0.14616E-02
         0.30393E-03
         0.11742E-02
         0.22753E-02
         0.28269E-02
         0.24244E-02
         0.21686E-02
         0.29356E-02
        -0.10039E-02
         0.82206E-04
        -0.70028E-03
        -0.71140E-03
         0.83243E-04
        -0.77797E-03
         0.41806E-04
        -0.15193E-02
        -0.13226E-02
         0.99390E-03
        -0.17323E-02
         0.20231E-02
         0.18610E-02
         0.17175E-02
         0.91036E-03
        -0.19801E-02
        -0.23490E-02
        -0.17074E-02
        -0.14904E-02
         0.76439E-03
         0.12494E-02
         0.18666E-02
         0.28995E-02
         0.27188E-02
         0.24633E-02
         0.22359E-02
         0.16503E-02
         0.87597E-03
        -0.21374E-02
        -0.26932E-02
        -0.31291E-02
        -0.30382E-02
        -0.28748E-02
        -0.26434E-02
        -0.23715E-02
        -0.21467E-02
        -0.15101E-02
         0.93572E-03
         0.00000E+00
         0.18171E-02
         0.25928E-02
         0.32179E-02
         0.36559E-02
         0.38815E-02
         0.38815E-02
         0.36559E-02
         0.32179E-02
         0.25928E-02
         0.18171E-02
         0.93572E-03
        -0.47884E-18
        -0.93572E-03
        -0.18171E-02
        -0.25928E-02
        -0.32179E-02
        -0.36559E-02
        -0.38815E-02
        -0.38815E-02
        -0.36559E-02
        -0.32179E-02
        -0.25928E-02
        -0.18171E-02
        -0.93572E-03
         0.67570E-03
         0.12341E-02
         0.59412E-03
        -0.33398E-03
         0.15064E-03
        -0.67396E-03
         0.18421E-02
         0.14626E-02
         0.30507E-03
         0.11760E-02
         0.22754E-02
         0.28264E-02
         0.24245E-02
         0.21686E-02
         0.29353E-02
        -0.10040E-02
         0.83015E-04
        -0.69955E-03
        -0.71126E-03
         0.83367E-04
        -0.77780E-03
         0.42080E-04
        -0.15192E-02
        -0.13224E-02
         0.99526E-03
        -0.17323E-02
         0.20234E-02
         0.18609E-02
         0.17175E-02
         0.91060E-03
        -0.19801E-02
        -0.23490E-02
        -0.17074E-02
        -0.14906E-02
         0.76539E-03
         0.12498E-02
         0.18667E-02
         0.28984E-02
         0.27184E-02
         0.24631E-02
         0.22359E-02
         0.16503E-02
         0.87623E-03
        -0.21374E-02
        -0.26932E-02
        -0.31291E-02
        -0.30382E-02
        -0.28748E-02
        -0.26436E-02
        -0.23717E-02
        -0.21472E-02
        -0.15100E-02
         0.93572E-03
         0.00000E+00
         0.18171E-02
         0.25928E-02
         0.32179E-02
         0.36559E-02
         0.38815E-02
         0.38815E-02
         0.36559E-02
         0.32179E-02
         0.25928E-02
         0.18171E-02
         0.93572E-03
        -0.47884E-18
        -0.93572E-03
        -0.18171E-02
        -0.25928E-02
        -0.32179E-02
        -0.36559E-02
        -0.38815E-02
        -0.38815E-02
        -0.36559E-02
        -0.32179E-02
        -0.25928E-02
        -0.18171E-02
        -0.93572E-03
         0.67625E-03
         0.12348E-02
         0.59465E-03
        -0.33323E-03
         0.15100E-03
        -0.67347E-03
         0.18423E-02
         0.14636E-02
         0.30622E-03
         0.11777E-02
         0.22755E-02
         0.28260E-02
         0.24247E-02
         0.21687E-02
         0.29351E-02
        -0.10042E-02
         0.83825E-04
        -0.69882E-03
        -0.71112E-03
         0.83490E-04
        -0.77763E-03
         0.42353E-04
        -0.15192E-02
        -0.13223E-02
         0.99661E-03
        -0.17322E-02
         0.20237E-02
         0.18607E-02
         0.17175E-02
         0.91084E-03
        -0.19801E-02
        -0.23491E-02
        -0.17074E-02
        -0.14909E-02
         0.76640E-03
         0.12503E-02
         0.18667E-02
         0.28974E-02
         0.27179E-02
         0.24629E-02
         0.22359E-02
         0.16503E-02
         0.87650E-03
        -0.21374E-02
        -0.26933E-02
        -0.31291E-02
        -0.30382E-02
        -0.28749E-02
        -0.26439E-02
        -0.23719E-02
        -0.21478E-02
        -0.15099E-02
         0.93572E-03
         0.00000E+00
         0.18171E-02
         0.25928E-02
         0.32179E-02
         0.36559E-02
         0.38815E-02
         0.38815E-02
         0.36559E-02
         0.32179E-02
         0.25928E-02
         0.18171E-02
         0.93572E-03
        -0.47884E-18
        -0.93572E-03
        -0.18171E-02
        -0.25928E-02
        -0.32179E-02
        -0.36559E-02
        -0.38815E-02
        -0.38815E-02
        -0.36559E-02
        -0.32179E-02
        -0.25928E-02
        -0.18171E-02
        -0.93572E-03
         0.67680E-03
         0.12354E-02
         0.59517E-03
        -0.33247E-03
         0.15136E-03
        -0.67298E-03
         0.18425E-02
         0.14646E-02
         0.30737E-03
         0.11795E-02
         0.22757E-02
         0.28255E-02
         0.24248E-02
         0.21687E-02
         0.29348E-02
        -0.10043E-02
         0.84634E-04
        -0.69810E-03
        -0.71098E-03
         0.83614E-04
        -0.77746E-03
         0.42626E-04
        -0.15191E-02
        -0.13223E-02
         0.99797E-03
        -0.17322E-02
         0.20240E-02
         0.18606E-02
         0.17175E-02
         0.91108E-03
        -0.19802E-02
        -0.23491E-02
        -0.17074E-02
        -0.14911E-02
         0.76740E-03
         0.12507E-02
         0.18668E-02
         0.28963E-02
         0.27174E-02
         0.24627E-02
         0.22358E-02
         0.16503E-02
         0.87676E-03
        -0.21374E-02
        -0.26933E-02
        -0.31291E-02
        -0.30382E-02
        -0.28749E-02
        -0.26442E-02
        -0.23721E-02
        -0.21483E-02
        -0.15097E-02
         0.93572E-03
         0.00000E+00
         0.18171E-02
         0.25928E-02
         0.32179E-02
         0.36559E-02
         0.38815E-02
         0.38815E-02
         0.36559E-02
         0.32179E-02
         0.25928E-02
         0.18171E-02
         0.93572E-03
        -0.47884E-18
        -0.93572E-03
        -0.18171E-02
        -0.25928E-02
        -0.32179E-02
        -0.36559E-02
        -0.38815E-02
        -0.38815E-02
        -0.36559E-02
        -0.32179E-02
        -0.25928E-02
        -0.18171E-02
        -0.93572E-03
         0.67736E-03
         0.12361E-02
         0.59570E-03
        -0.33172E-03
         0.15173E-03
        -0.67248E-03
         0.18427E-02
         0.14656E-02
         0.30852E-03
         0.11812E-02
         0.22758E-02
         0.28251E-02
         0.24249E-02
         0.21688E-02
         0.29345E-02
        -0.10044E-02
         0.85443E-04
        -0.69737E-03
        -0.71084E-03
         0.83737E-04
        -0.77729E-03
         0.42899E-04
        -0.15191E-02
        -0.13222E-02
         0.99932E-03
        -0.17322E-02
         0.20243E-02
         0.18605E-02
         0.17175E-02
         0.91132E-03
        -0.19802E-02
        -0.23491E-02
        -0.17074E-02
        -0.14914E-02
         0.76841E-03
         0.12511E-02
         0.18668E-02
         0.28952E-02
         0.27170E-02
         0.24624E-02
         0.22358E-02
         0.16503E-02
         0.87702E-03
        -0.21374E-02
        -0.26933E-02
        -0.31291E-02
        -0.30382E-02
        -0.28749E-02
        -0.26444E-02
        -0.23723E-02
        -0.21489E-02
        -0.15096E-02
         0.93572E-03
         0.00000E+00
         0.18171E-02
         0.25928E-02
         0.32179E-02
         0.36559E-02
         0.38815E-02
         0.38815E-02
         0.36559E-02
         0.32179E-02
         0.25928E-02
         0.18171E-02
         0.93572E-03
        -0.47884E-18
        -0.93572E-03
        -0.18171E-02
        -0.25928E-02
        -0.32179E-02
        -0.36559E-02
        -0.38815E-02
        -0.38815E-02
        -0.36559E-02
        -0.32179E-02
        -0.25928E-02
        -0.18171E-02
        -0.93572E-03
         0.67791E-03
         0.12368E-02
         0.59622E-03
        -0.33096E-03
         0.15209E-03
        -0.67199E-03
         0.18429E-02
         0.14666E-02
         0.30967E-03
         0.11830E-02
         0.22759E-02
         0.28247E-02
         0.24251E-02
         0.21688E-02
         0.29343E-02
        -0.10046E-02
         0.86253E-04
        -0.69665E-03
        -0.71070E-03
         0.83861E-04
        -0.77712E-03
         0.43173E-04
        -0.15190E-02
        -0.13220E-02
         0.10007E-02
        -0.17321E-02
         0.20245E-02
         0.18603E-02
         0.17175E-02
         0.91156E-03
        -0.19802E-02
        -0.23491E-02
        -0.17074E-02
        -0.14916E-02
         0.76941E-03
         0.12515E-02
         0.18668E-02
         0.28942E-02
         0.27165E-02
         0.24622E-02
         0.22358E-02
         0.16503E-02
         0.87728E-03
        -0.21374E-02
        -0.26933E-02
        -0.31291E-02
        -0.30382E-02
        -0.28749E-02
        -0.26447E-02
        -0.23725E-02
        -0.21494E-02
        -0.15095E-02
         0.93572E-03
         0.00000E+00
         0.18171E-02
         0.25928E-02
         0.32179E-02
         0.36559E-02
         0.38815E-02
         0.38815E-02
         0.36559E-02
         0.32179E-02
         0.25928E-02
         0.18171E-02
         0.93572E-03
        -0.47884E-18
        -0.93572E-03
        -0.18171E-02
        -0.25928E-02
        -0.32179E-02
        -0.36559E-02
        -0.38815E-02
        -0.38815E-02
        -0.36559E-02
        -0.32179E-02
        -0.25928E-02
        -0.18171E-02
        -0.93572E-03
         0.67847E-03
         0.12374E-02
         0.59674E-03
        -0.33021E-03
         0.15245E-03
        -0.67150E-03
         0.18430E-02
         0.14676E-02
         0.31081E-03
         0.11847E-02
         0.22761E-02
         0.28242E-02
         0.24252E-02
         0.21688E-02
         0.29340E-02
        -0.10047E-02
         0.87062E-04
        -0.69592E-03
        -0.71056E-03
         0.83985E-04
        -0.77695E-03
         0.43446E-04
        -0.15190E-02
        -0.13219E-02
         0.10020E-02
        -0.17321E-02
         0.20248E-02
         0.18602E-02
         0.17175E-02
         0.91180E-03
        -0.19803E-02
        -0.23491E-02
        -0.17073E-02
        -0.14919E-02
         0.77042E-03
         0.12520E-02
         0.18669E-02
         0.28931E-02
         0.27160E-02
         0.24620E-02
         0.22358E-02
         0.16503E-02
         0.87754E-03
        -0.21374E-02
        -0.26933E-02
        -0.31291E-02
        -0.30382E-02
        -0.28749E-02
        -0.26450E-02
        -0.23727E-02
        -0.21500E-02
        -0.15094E-02
         0.93572E-03
         0.00000E+00
         0.18171E-02
         0.25928E-02
         0.32179E-02
         0.36559E-02
         0.38815E-02
         0.38815E-02
         0.36559E-02
         0.32179E-02
         0.25928E-02
         0.18171E-02
         0.93572E-03
         0.39516E-17
        -0.93572E-03
        -0.18171E-02
        -0.25928E-02
        -0.32179E-02
        -0.36559E-02
        -0.38815E-02
        -0.38815E-02
        -0.36559E-02
        -0.32179E-02
        -0.25928E-02
        -0.18171E-02
        -0.93572E-03
         0.67902E-03
         0.12381E-02
         0.59727E-03
        -0.32945E-03
         0.15282E-03
        -0.67100E-03
         0.18432E-02
         0.14686E-02
         0.31196E-03
         0.11865E-02
         0.22762E-02
         0.28238E-02
         0.24254E-02
         0.21688E-02
         0.29337E-02
        -0.10049E-02
         0.87871E-04
        -0.69519E-03
        -0.71042E-03
         0.84108E-04
        -0.77678E-03
         0.43720E-04
        -0.15189E-02
        -0.13219E-02
         0.10034E-02
        -0.17320E-02
         0.20251E-02
         0.18601E-02
         0.17175E-02
         0.91204E-03
        -0.19803E-02
        -0.23492E-02
        -0.17073E-02
        -0.14921E-02
         0.77142E-03
         0.12524E-02
         0.18669E-02
         0.28920E-02
         0.27155E-02
         0.24618E-02
         0.22358E-02
         0.16503E-02
         0.87781E-03
        -0.21374E-02
        -0.26934E-02
        -0.31291E-02
        -0.30382E-02
        -0.28749E-02
        -0.26452E-02
        -0.23729E-02
        -0.21505E-02
        -0.15093E-02
         0.93572E-03
         0.00000E+00
         0.18171E-02
         0.25928E-02
         0.32179E-02
         0.36559E-02
         0.38815E-02
         0.38815E-02
         0.36559E-02
         0.32179E-02
         0.25928E-02
         0.18171E-02
         0.93572E-03
        -0.47884E-18
        -0.93572E-03
        -0.18171E-02
        -0.25928E-02
        -0.32179E-02
        -0.36559E-02
        -0.38815E-02
        -0.38815E-02
        -0.36559E-02
        -0.32179E-02
        -0.25928E-02
        -0.18171E-02
        -0.93572E-03
         0.67958E-03
         0.12387E-02
         0.59779E-03
        -0.32870E-03
         0.15318E-03
        -0.67051E-03
         0.18434E-02
         0.14696E-02
         0.31311E-03
         0.11882E-02
         0.22763E-02
         0.28233E-02
         0.24255E-02
         0.21689E-02
         0.29335E-02
        -0.10050E-02
         0.88681E-04
        -0.69447E-03
        -0.71028E-03
         0.84232E-04
        -0.77661E-03
         0.43993E-04
        -0.15189E-02
        -0.13218E-02
         0.10048E-02
        -0.17320E-02
         0.20254E-02
         0.18599E-02
         0.17175E-02
         0.91228E-03
        -0.19803E-02
        -0.23492E-02
        -0.17073E-02
        -0.14923E-02
         0.77243E-03
         0.12528E-02
         0.18670E-02
         0.28910E-02
         0.27151E-02
         0.24615E-02
         0.22358E-02
         0.16503E-02
         0.87807E-03
        -0.21374E-02
        -0.26934E-02
        -0.31291E-02
        -0.30382E-02
        -0.28749E-02
        -0.26455E-02
        -0.23732E-02
        -0.21511E-02
        -0.15092E-02
         0.93572E-03
         0.00000E+00
         0.18171E-02
         0.25928E-02
         0.32179E-02
         0.36559E-02
         0.38815E-02
         0.38815E-02
         0.36559E-02
         0.32179E-02
         0.25928E-02
         0.18171E-02
         0.93572E-03
         0.22152E-17
        -0.93572E-03
        -0.18171E-02
        -0.25928E-02
        -0.32179E-02
        -0.36559E-02
        -0.38815E-02
        -0.38815E-02
        -0.36559E-02
        -0.32179E-02
        -0.25928E-02
        -0.18171E-02
        -0.93572E-03
         0.68013E-03
         0.12394E-02
         0.59831E-03
        -0.32794E-03
         0.15354E-03
        -0.67002E-03
         0.18436E-02
         0.14706E-02
         0.31426E-03
         0.11900E-02
         0.22765E-02
         0.28229E-02
         0.24257E-02
         0.21689E-02
         0.29332E-02
        -0.10051E-02
         0.89490E-04
        -0.69374E-03
        -0.71013E-03
         0.84355E-04
        -0.77644E-03
         0.44266E-04
        -0.15188E-02
        -0.13216E-02
         0.10061E-02
        -0.17320E-02
         0.20257E-02
         0.18598E-02
         0.17175E-02
         0.91252E-03
        -0.19803E-02
        -0.23492E-02
        -0.17073E-02
        -0.14926E-02
         0.77343E-03
         0.12533E-02
         0.18670E-02
         0.28899E-02
         0.27146E-02
         0.24613E-02
         0.22358E-02
         0.16503E-02
         0.87833E-03
        -0.21374E-02
        -0.26934E-02
        -0.31291E-02
        -0.30382E-02
        -0.28750E-02
        -0.26458E-02
        -0.23734E-02
        -0.21516E-02
        -0.15091E-02
         0.93572E-03
         0.00000E+00
         0.18171E-02
         0.25928E-02
         0.32179E-02
         0.36559E-02
         0.38815E-02
         0.38815E-02
         0.36559E-02
         0.32179E-02
         0.25928E-02
         0.18171E-02
         0.93572E-03
        -0.47884E-18
        -0.93572E-03
        -0.18171E-02
        -0.25928E-02
        -0.32179E-02
        -0.36559E-02
        -0.38815E-02
        -0.38815E-02
        -0.36559E-02
        -0.32179E-02
        -0.25928E-02
        -0.18171E-02
        -0.93572E-03
         0.68068E-03
         0.12401E-02
         0.59884E-03
        -0.32719E-03
         0.15391E-03
        -0.66953E-03
         0.18438E-02
         0.14716E-02
         0.31541E-03
         0.11917E-02
         0.22766E-02
         0.28225E-02
         0.24258E-02
         0.21690E-02
         0.29330E-02
        -0.10053E-02
         0.90299E-04
        -0.69302E-03
        -0.70999E-03
         0.84479E-04
        -0.77627E-03
         0.44540E-04
        -0.15188E-02
        -0.13215E-02
         0.10075E-02
        -0.17319E-02
         0.20260E-02
         0.18597E-02
         0.17175E-02
         0.91276E-03
        -0.19804E-02
        -0.23493E-02
        -0.17073E-02
        -0.14928E-02
         0.77444E-03
         0.12537E-02
         0.18670E-02
         0.28888E-02
         0.27141E-02
         0.24611E-02
         0.22358E-02
         0.16503E-02
         0.87859E-03
        -0.21374E-02
        -0.26934E-02
        -0.31291E-02
        -0.30382E-02
        -0.28750E-02
        -0.26460E-02
        -0.23736E-02
        -0.21521E-02
        -0.15090E-02
         0.93572E-03
         0.00000E+00
         0.18171E-02
         0.25928E-02
         0.32179E-02
         0.36559E-02
         0.38815E-02
         0.38815E-02
         0.36559E-02
         0.32179E-02
         0.25928E-02
         0.18171E-02
         0.93572E-03
         0.22152E-17
        -0.93572E-03
        -0.18171E-02
        -0.25928E-02
        -0.32179E-02
        -0.36559E-02
        -0.38815E-02
        -0.38815E-02
        -0.36559E-02
        -0.32179E-02
        -0.25928E-02
        -0.18171E-02
        -0.93572E-03
         0.68124E-03
         0.12407E-02
         0.59936E-03
        -0.32643E-03
         0.15427E-03
        -0.66903E-03
         0.18440E-02
         0.14727E-02
         0.31656E-03
         0.11935E-02
         0.22767E-02
         0.28220E-02
         0.24260E-02
         0.21690E-02
         0.29327E-02
        -0.10054E-02
         0.91108E-04
        -0.69229E-03
        -0.70985E-03
         0.84602E-04
        -0.77610E-03
         0.44813E-04
        -0.15187E-02
        -0.13215E-02
         0.10088E-02
        -0.17319E-02
         0.20262E-02
         0.18595E-02
         0.17175E-02
         0.91300E-03
        -0.19804E-02
        -0.23493E-02
        -0.17073E-02
        -0.14931E-02
         0.77544E-03
         0.12541E-02
         0.18671E-02
         0.28877E-02
         0.27137E-02
         0.24609E-02
         0.22358E-02
         0.16503E-02
         0.87885E-03
        -0.21374E-02
        -0.26934E-02
        -0.31291E-02
        -0.30382E-02
        -0.28750E-02
        -0.26463E-02
        -0.23738E-02
        -0.21527E-02
        -0.15088E-02
         0.93572E-03
         0.00000E+00
         0.18171E-02
         0.25928E-02
         0.32179E-02
         0.36559E-02
         0.38815E-02
         0.38815E-02
         0.36559E-02
         0.32179E-02
         0.25928E-02
         0.18171E-02
         0.93572E-03
        -0.47884E-18
        -0.93572E-03
        -0.18171E-02
        -0.25928E-02
        -0.32179E-02
        -0.36559E-02
        -0.38815E-02
        -0.38815E-02
        -0.36559E-02
        -0.32179E-02
        -0.25928E-02
        -0.18171E-02
        -0.93572E-03
         0.68179E-03
         0.12414E-02
         0.59988E-03
        -0.32568E-03
         0.15463E-03
        -0.66854E-03
         0.18442E-02
         0.14736E-02
         0.31770E-03
         0.11952E-02
         0.22768E-02
         0.28216E-02
         0.24261E-02
         0.21690E-02
         0.29324E-02
        -0.10056E-02
         0.91918E-04
        -0.69156E-03
        -0.70971E-03
         0.84726E-04
        -0.77593E-03
         0.45086E-04
        -0.15187E-02
        -0.13213E-02
         0.10102E-02
        -0.17318E-02
         0.20265E-02
         0.18594E-02
         0.17175E-02
         0.91324E-03
        -0.19804E-02
        -0.23493E-02
        -0.17073E-02
        -0.14933E-02
         0.77645E-03
         0.12545E-02
         0.18671E-02
         0.28867E-02
         0.27132E-02
         0.24606E-02
         0.22358E-02
         0.16503E-02
         0.87912E-03
        -0.21374E-02
        -0.26935E-02
        -0.31291E-02
        -0.30381E-02
        -0.28750E-02
        -0.26466E-02
        -0.23740E-02
        -0.21533E-02
        -0.15087E-02
         0.93572E-03
         0.00000E+00
         0.18171E-02
         0.25928E-02
         0.32179E-02
         0.36559E-02
         0.38815E-02
         0.38815E-02
         0.36559E-02
         0.32179E-02
         0.25928E-02
         0.18171E-02
         0.93572E-03
        -0.47884E-18
        -0.93572E-03
        -0.18171E-02
        -0.25928E-02
        -0.32179E-02
        -0.36559E-02
        -0.38815E-02
        -0.38815E-02
        -0.36559E-02
        -0.32179E-02
        -0.25928E-02
        -0.18171E-02
        -0.93572E-03
         0.68235E-03
         0.12421E-02
         0.60041E-03
        -0.32493E-03
         0.15500E-03
        -0.66805E-03
         0.18444E-02
         0.14747E-02
         0.31885E-03
         0.11970E-02
         0.22770E-02
         0.28211E-02
         0.24262E-02
         0.21691E-02
         0.29322E-02
        -0.10057E-02
         0.92727E-04
        -0.69084E-03
        -0.70957E-03
         0.84849E-04
        -0.77576E-03
         0.45359E-04
        -0.15186E-02
        -0.13212E-02
         0.10115E-02
        -0.17318E-02
         0.20268E-02
         0.18593E-02
         0.17175E-02
         0.91347E-03
        -0.19804E-02
        -0.23493E-02
        -0.17073E-02
        -0.14936E-02
         0.77745E-03
         0.12550E-02
         0.18671E-02
         0.28856E-02
         0.27127E-02
         0.24604E-02
         0.22358E-02
         0.16503E-02
         0.87938E-03
        -0.21374E-02
        -0.26935E-02
        -0.31291E-02
        -0.30381E-02
        -0.28750E-02
        -0.26468E-02
        -0.23742E-02
        -0.21538E-02
        -0.15086E-02
         0.93572E-03
         0.00000E+00
         0.18171E-02
         0.25928E-02
         0.32179E-02
         0.36559E-02
         0.38815E-02
         0.38815E-02
         0.36559E-02
         0.32179E-02
         0.25928E-02
         0.18171E-02
         0.93572E-03
        -0.47884E-18
        -0.93572E-03
        -0.18171E-02
        -0.25928E-02
        -0.32179E-02
        -0.36559E-02
        -0.38815E-02
        -0.38815E-02
        -0.36559E-02
        -0.32179E-02
        -0.25928E-02
        -0.18171E-02
        -0.93572E-03
         0.68290E-03
         0.12427E-02
         0.60093E-03
        -0.32417E-03
         0.15536E-03
        -0.66755E-03
         0.18445E-02
         0.14757E-02
         0.32000E-03
         0.11987E-02
         0.22771E-02
         0.28207E-02
         0.24264E-02
         0.21691E-02
         0.29319E-02
        -0.10058E-02
         0.93536E-04
        -0.69011E-03
        -0.70943E-03
         0.84973E-04
        -0.77559E-03
         0.45633E-04
        -0.15186E-02
        -0.13212E-02
         0.10129E-02
        -0.17318E-02
         0.20271E-02
         0.18592E-02
         0.17175E-02
         0.91371E-03
        -0.19805E-02
        -0.23493E-02
        -0.17073E-02
        -0.14938E-02
         0.77846E-03
         0.12554E-02
         0.18672E-02
         0.28845E-02
         0.27122E-02
         0.24602E-02
         0.22358E-02
         0.16502E-02
         0.87964E-03
        -0.21374E-02
        -0.26935E-02
        -0.31291E-02
        -0.30381E-02
        -0.28750E-02
        -0.26471E-02
        -0.23744E-02
        -0.21543E-02
        -0.15085E-02
         0.93572E-03
         0.00000E+00
         0.18171E-02
         0.25928E-02
         0.32179E-02
         0.36559E-02
         0.38815E-02
         0.38815E-02
         0.36559E-02
         0.32179E-02
         0.25928E-02
         0.18171E-02
         0.93572E-03
        -0.47884E-18
        -0.93572E-03
        -0.18171E-02
        -0.25928E-02
        -0.32179E-02
        -0.36559E-02
        -0.38815E-02
        -0.38815E-02
        -0.36559E-02
        -0.32179E-02
        -0.25928E-02
        -0.18171E-02
        -0.93572E-03
         0.68346E-03
         0.12434E-02
         0.60145E-03
        -0.32342E-03
         0.15572E-03
        -0.66706E-03
         0.18447E-02
         0.14767E-02
         0.32115E-03
         0.12005E-02
         0.22772E-02
         0.28203E-02
         0.24265E-02
         0.21691E-02
         0.29316E-02
        -0.10060E-02
         0.94345E-04
        -0.68939E-03
        -0.70929E-03
         0.85096E-04
        -0.77542E-03
         0.45906E-04
        -0.15185E-02
        -0.13211E-02
         0.10142E-02
        -0.17317E-02
         0.20274E-02
         0.18590E-02
         0.17175E-02
         0.91395E-03
        -0.19805E-02
        -0.23494E-02
        -0.17073E-02
        -0.14941E-02
         0.77946E-03
         0.12558E-02
         0.18672E-02
         0.28835E-02
         0.27118E-02
         0.24600E-02
         0.22358E-02
         0.16502E-02
         0.87990E-03
        -0.21374E-02
        -0.26935E-02
        -0.31291E-02
        -0.30381E-02
        -0.28750E-02
        -0.26474E-02
        -0.23746E-02
        -0.21549E-02
        -0.15084E-02
         0.93572E-03
         0.00000E+00
         0.18171E-02
         0.25928E-02
         0.32179E-02
         0.36559E-02
         0.38815E-02
         0.38815E-02
         0.36559E-02
         0.32179E-02
         0.25928E-02
         0.18171E-02
         0.93572E-03
         0.22152E-17
        -0.93572E-03
        -0.18171E-02
        -0.25928E-02
        -0.32179E-02
        -0.36559E-02
        -0.38815E-02
        -0.38815E-02
        -0.36559E-02
        -0.32179E-02
        -0.25928E-02
        -0.18171E-02
        -0.93572E-03
         0.68401E-03
         0.12440E-02
         0.60198E-03
        -0.32266E-03
         0.15609E-03
        -0.66657E-03
         0.18449E-02
         0.14777E-02
         0.32230E-03
         0.12022E-02
         0.22774E-02
         0.28198E-02
         0.24267E-02
         0.21692E-02
         0.29314E-02
        -0.10061E-02
         0.95155E-04
        -0.68866E-03
        -0.70915E-03
         0.85220E-04
        -0.77525E-03
         0.46180E-04
        -0.15185E-02
        -0.13210E-02
         0.10156E-02
        -0.17317E-02
         0.20277E-02
         0.18589E-02
         0.17175E-02
         0.91419E-03
        -0.19805E-02
        -0.23494E-02
        -0.17073E-02
        -0.14943E-02
         0.78047E-03
         0.12563E-02
         0.18672E-02
         0.28824E-02
         0.27113E-02
         0.24597E-02
         0.22358E-02
         0.16502E-02
         0.88016E-03
        -0.21374E-02
        -0.26935E-02
        -0.31291E-02
        -0.30381E-02
        -0.28751E-02
        -0.26476E-02
        -0.23748E-02
        -0.21554E-02
        -0.15083E-02
         0.93572E-03
         0.00000E+00
         0.18171E-02
         0.25928E-02
         0.32179E-02
         0.36559E-02
         0.38815E-02
         0.38815E-02
         0.36559E-02
         0.32179E-02
         0.25928E-02
         0.18171E-02
         0.93572E-03
        -0.47884E-18
        -0.93572E-03
        -0.18171E-02
        -0.25928E-02
        -0.32179E-02
        -0.36559E-02
        -0.38815E-02
        -0.38815E-02
        -0.36559E-02
        -0.32179E-02
        -0.25928E-02
        -0.18171E-02
        -0.93572E-03
         0.68457E-03
         0.12447E-02
         0.60250E-03
        -0.32191E-03
         0.15645E-03
        -0.66607E-03
         0.18451E-02
         0.14787E-02
         0.32345E-03
         0.12040E-02
         0.22775E-02
         0.28194E-02
         0.24268E-02
         0.21692E-02
         0.29311E-02
        -0.10062E-02
         0.95964E-04
        -0.68793E-03
        -0.70901E-03
         0.85343E-04
        -0.77507E-03
         0.46453E-04
        -0.15184E-02
        -0.13209E-02
         0.10169E-02
        -0.17316E-02
         0.20280E-02
         0.18588E-02
         0.17175E-02
         0.91443E-03
        -0.19806E-02
        -0.23494E-02
        -0.17073E-02
        -0.14945E-02
         0.78148E-03
         0.12567E-02
         0.18673E-02
         0.28813E-02
         0.27108E-02
         0.24595E-02
         0.22358E-02
         0.16502E-02
         0.88043E-03
        -0.21374E-02
        -0.26936E-02
        -0.31291E-02
        -0.30381E-02
        -0.28751E-02
        -0.26479E-02
        -0.23750E-02
        -0.21560E-02
        -0.15082E-02
         0.93572E-03
         0.00000E+00
         0.18171E-02
         0.25928E-02
         0.32179E-02
         0.36559E-02
         0.38815E-02
         0.38815E-02
         0.36559E-02
         0.32179E-02
         0.25928E-02
         0.18171E-02
         0.93572E-03
        -0.47884E-18
        -0.93572E-03
        -0.18171E-02
        -0.25928E-02
        -0.32179E-02
        -0.36559E-02
        -0.38815E-02
        -0.38815E-02
        -0.36559E-02
        -0.32179E-02
        -0.25928E-02
        -0.18171E-02
        -0.93572E-03
         0.68512E-03
         0.12454E-02
         0.60302E-03
        -0.32115E-03
         0.15681E-03
        -0.66558E-03
         0.18453E-02
         0.14797E-02
         0.32459E-03
         0.12058E-02
         0.22776E-02
         0.28189E-02
         0.24270E-02
         0.21693E-02
         0.29308E-02
        -0.10064E-02
         0.96773E-04
        -0.68721E-03
        -0.70887E-03
         0.85467E-04
        -0.77490E-03
         0.46726E-04
        -0.15184E-02
        -0.13208E-02
         0.10183E-02
        -0.17316E-02
         0.20283E-02
         0.18586E-02
         0.17175E-02
         0.91467E-03
        -0.19806E-02
        -0.23494E-02
        -0.17073E-02
        -0.14948E-02
         0.78248E-03
         0.12571E-02
         0.18673E-02
         0.28802E-02
         0.27103E-02
         0.24593E-02
         0.22358E-02
         0.16502E-02
         0.88069E-03
        -0.21374E-02
        -0.26936E-02
        -0.31291E-02
        -0.30381E-02
        -0.28751E-02
        -0.26482E-02
        -0.23752E-02
        -0.21565E-02
        -0.15081E-02
         0.93572E-03
         0.00000E+00
         0.18171E-02
         0.25928E-02
         0.32179E-02
         0.36559E-02
         0.38815E-02
         0.38815E-02
         0.36559E-02
         0.32179E-02
         0.25928E-02
         0.18171E-02
         0.93572E-03
        -0.47884E-18
        -0.93572E-03
        -0.18171E-02
        -0.25928E-02
        -0.32179E-02
        -0.36559E-02
        -0.38815E-02
        -0.38815E-02
        -0.36559E-02
        -0.32179E-02
        -0.25928E-02
        -0.18171E-02
        -0.93572E-03
         0.68567E-03
         0.12460E-02
         0.60355E-03
        -0.32040E-03
         0.15718E-03
        -0.66509E-03
         0.18455E-02
         0.14807E-02
         0.32574E-03
         0.12075E-02
         0.22777E-02
         0.28185E-02
         0.24271E-02
         0.21693E-02
         0.29306E-02
        -0.10065E-02
         0.97583E-04
        -0.68648E-03
        -0.70873E-03
         0.85591E-04
        -0.77474E-03
         0.47000E-04
        -0.15183E-02
        -0.13207E-02
         0.10197E-02
        -0.17316E-02
         0.20285E-02
         0.18585E-02
         0.17175E-02
         0.91491E-03
        -0.19806E-02
        -0.23495E-02
        -0.17073E-02
        -0.14950E-02
         0.78348E-03
         0.12576E-02
         0.18674E-02
         0.28792E-02
         0.27099E-02
         0.24591E-02
         0.22358E-02
         0.16502E-02
         0.88095E-03
        -0.21374E-02
        -0.26936E-02
        -0.31290E-02
        -0.30381E-02
        -0.28751E-02
        -0.26484E-02
        -0.23754E-02
        -0.21571E-02
        -0.15080E-02
         0.93572E-03
         0.00000E+00
         0.18171E-02
         0.25928E-02
         0.32179E-02
         0.36559E-02
         0.38815E-02
         0.38815E-02
         0.36559E-02
         0.32179E-02
         0.25928E-02
         0.18171E-02
         0.93572E-03
         0.47884E-18
        -0.93572E-03
        -0.18171E-02
        -0.25928E-02
        -0.32179E-02
        -0.36559E-02
        -0.38815E-02
        -0.38815E-02
        -0.36559E-02
        -0.32179E-02
        -0.25928E-02
        -0.18171E-02
        -0.93572E-03
  
SCALARS           initial_coordinate_z  double 1
LOOKUP_TABLE default
        -0.10771E-01
        -0.10771E-01
        -0.10771E-01
        -0.10771E-01
        -0.11750E-01
        -0.11750E-01
        -0.11750E-01
        -0.11750E-01
        -0.10771E-01
        -0.10771E-01
        -0.11750E-01
        -0.11750E-01
        -0.10771E-01
        -0.10771E-01
        -0.11750E-01
        -0.11750E-01
        -0.10771E-01
        -0.10771E-01
        -0.11750E-01
        -0.11750E-01
        -0.10771E-01
        -0.10771E-01
        -0.10771E-01
        -0.11750E-01
        -0.11750E-01
        -0.11750E-01
        -0.10771E-01
        -0.10771E-01
        -0.11750E-01
        -0.11750E-01
        -0.10771E-01
        -0.10771E-01
        -0.10771E-01
        -0.11750E-01
        -0.11750E-01
        -0.11750E-01
        -0.10771E-01
        -0.10771E-01
        -0.11750E-01
        -0.11750E-01
        -0.10771E-01
        -0.10771E-01
        -0.11750E-01
        -0.11750E-01
        -0.10771E-01
        -0.10771E-01
        -0.11750E-01
        -0.11750E-01
        -0.10771E-01
        -0.11750E-01
        -0.10771E-01
        -0.11750E-01
        -0.10771E-01
        -0.11750E-01
        -0.10771E-01
        -0.11750E-01
        -0.10771E-01
        -0.10771E-01
        -0.11750E-01
        -0.11750E-01
        -0.10771E-01
        -0.10771E-01
        -0.11750E-01
        -0.11750E-01
        -0.10771E-01
        -0.11750E-01
        -0.10771E-01
        -0.11750E-01
        -0.10771E-01
        -0.10771E-01
        -0.11750E-01
        -0.11750E-01
        -0.10771E-01
        -0.11750E-01
        -0.10771E-01
        -0.11750E-01
        -0.10771E-01
        -0.11750E-01
        -0.10771E-01
        -0.11750E-01
        -0.10771E-01
        -0.10771E-01
        -0.11750E-01
        -0.11750E-01
        -0.10771E-01
        -0.11750E-01
        -0.10771E-01
        -0.11750E-01
        -0.10771E-01
        -0.11750E-01
        -0.10771E-01
        -0.10771E-01
        -0.11750E-01
        -0.11750E-01
        -0.10771E-01
        -0.11750E-01
        -0.10771E-01
        -0.11750E-01
        -0.10771E-01
        -0.11750E-01
        -0.10771E-01
        -0.10771E-01
        -0.11750E-01
        -0.11750E-01
        -0.10771E-01
        -0.10771E-01
        -0.11750E-01
        -0.11750E-01
        -0.10771E-01
        -0.11750E-01
        -0.10771E-01
        -0.11750E-01
        -0.10771E-01
        -0.11750E-01
        -0.10771E-01
        -0.11750E-01
        -0.10771E-01
        -0.11750E-01
        -0.10771E-01
        -0.11750E-01
        -0.10771E-01
        -0.11750E-01
        -0.10771E-01
        -0.11750E-01
        -0.10771E-01
        -0.11750E-01
        -0.10771E-01
        -0.11750E-01
        -0.10771E-01
        -0.11750E-01
        -0.10771E-01
        -0.11750E-01
        -0.10771E-01
        -0.11750E-01
        -0.10771E-01
        -0.11750E-01
        -0.10771E-01
        -0.11750E-01
        -0.10771E-01
        -0.11750E-01
        -0.10771E-01
        -0.11750E-01
        -0.10771E-01
        -0.11750E-01
        -0.10771E-01
        -0.11750E-01
        -0.10771E-01
        -0.11750E-01
        -0.10771E-01
        -0.11750E-01
        -0.10771E-01
        -0.11750E-01
        -0.10771E-01
        -0.11750E-01
        -0.10771E-01
        -0.11750E-01
        -0.97917E-02
        -0.97917E-02
        -0.97917E-02
        -0.97917E-02
        -0.97917E-02
        -0.97917E-02
        -0.97917E-02
        -0.97917E-02
        -0.97917E-02
        -0.97917E-02
        -0.97917E-02
        -0.97917E-02
        -0.97917E-02
        -0.97917E-02
        -0.97917E-02
        -0.97917E-02
        -0.97917E-02
        -0.97917E-02
        -0.97917E-02
        -0.97917E-02
        -0.97917E-02
        -0.97917E-02
        -0.97917E-02
        -0.97917E-02
        -0.97917E-02
        -0.97917E-02
        -0.97917E-02
        -0.97917E-02
        -0.97917E-02
        -0.97917E-02
        -0.97917E-02
        -0.97917E-02
        -0.97917E-02
        -0.97917E-02
        -0.97917E-02
        -0.97917E-02
        -0.97917E-02
        -0.97917E-02
        -0.97917E-02
        -0.97917E-02
        -0.97917E-02
        -0.97917E-02
        -0.97917E-02
        -0.97917E-02
        -0.97917E-02
        -0.97917E-02
        -0.97917E-02
        -0.97917E-02
        -0.97917E-02
        -0.97917E-02
        -0.97917E-02
        -0.97917E-02
        -0.97917E-02
        -0.97917E-02
        -0.97917E-02
        -0.97917E-02
        -0.97917E-02
        -0.97917E-02
        -0.97917E-02
        -0.97917E-02
        -0.97917E-02
        -0.97917E-02
        -0.97917E-02
        -0.97917E-02
        -0.97917E-02
        -0.97917E-02
        -0.97917E-02
        -0.97917E-02
        -0.97917E-02
        -0.97917E-02
        -0.97917E-02
        -0.97917E-02
        -0.97917E-02
        -0.97917E-02
        -0.97917E-02
        -0.97917E-02
        -0.97917E-02
        -0.97917E-02
        -0.88125E-02
        -0.88125E-02
        -0.88125E-02
        -0.88125E-02
        -0.88125E-02
        -0.88125E-02
        -0.88125E-02
        -0.88125E-02
        -0.88125E-02
        -0.88125E-02
        -0.88125E-02
        -0.88125E-02
        -0.88125E-02
        -0.88125E-02
        -0.88125E-02
        -0.88125E-02
        -0.88125E-02
        -0.88125E-02
        -0.88125E-02
        -0.88125E-02
        -0.88125E-02
        -0.88125E-02
        -0.88125E-02
        -0.88125E-02
        -0.88125E-02
        -0.88125E-02
        -0.88125E-02
        -0.88125E-02
        -0.88125E-02
        -0.88125E-02
        -0.88125E-02
        -0.88125E-02
        -0.88125E-02
        -0.88125E-02
        -0.88125E-02
        -0.88125E-02
        -0.88125E-02
        -0.88125E-02
        -0.88125E-02
        -0.88125E-02
        -0.88125E-02
        -0.88125E-02
        -0.88125E-02
        -0.88125E-02
        -0.88125E-02
        -0.88125E-02
        -0.88125E-02
        -0.88125E-02
        -0.88125E-02
        -0.88125E-02
        -0.88125E-02
        -0.88125E-02
        -0.88125E-02
        -0.88125E-02
        -0.88125E-02
        -0.88125E-02
        -0.88125E-02
        -0.88125E-02
        -0.88125E-02
        -0.88125E-02
        -0.88125E-02
        -0.88125E-02
        -0.88125E-02
        -0.88125E-02
        -0.88125E-02
        -0.88125E-02
        -0.88125E-02
        -0.88125E-02
        -0.88125E-02
        -0.88125E-02
        -0.88125E-02
        -0.88125E-02
        -0.88125E-02
        -0.88125E-02
        -0.88125E-02
        -0.88125E-02
        -0.88125E-02
        -0.88125E-02
        -0.78333E-02
        -0.78333E-02
        -0.78333E-02
        -0.78333E-02
        -0.78333E-02
        -0.78333E-02
        -0.78333E-02
        -0.78333E-02
        -0.78333E-02
        -0.78333E-02
        -0.78333E-02
        -0.78333E-02
        -0.78333E-02
        -0.78333E-02
        -0.78333E-02
        -0.78333E-02
        -0.78333E-02
        -0.78333E-02
        -0.78333E-02
        -0.78333E-02
        -0.78333E-02
        -0.78333E-02
        -0.78333E-02
        -0.78333E-02
        -0.78333E-02
        -0.78333E-02
        -0.78333E-02
        -0.78333E-02
        -0.78333E-02
        -0.78333E-02
        -0.78333E-02
        -0.78333E-02
        -0.78333E-02
        -0.78333E-02
        -0.78333E-02
        -0.78333E-02
        -0.78333E-02
        -0.78333E-02
        -0.78333E-02
        -0.78333E-02
        -0.78333E-02
        -0.78333E-02
        -0.78333E-02
        -0.78333E-02
        -0.78333E-02
        -0.78333E-02
        -0.78333E-02
        -0.78333E-02
        -0.78333E-02
        -0.78333E-02
        -0.78333E-02
        -0.78333E-02
        -0.78333E-02
        -0.78333E-02
        -0.78333E-02
        -0.78333E-02
        -0.78333E-02
        -0.78333E-02
        -0.78333E-02
        -0.78333E-02
        -0.78333E-02
        -0.78333E-02
        -0.78333E-02
        -0.78333E-02
        -0.78333E-02
        -0.78333E-02
        -0.78333E-02
        -0.78333E-02
        -0.78333E-02
        -0.78333E-02
        -0.78333E-02
        -0.78333E-02
        -0.78333E-02
        -0.78333E-02
        -0.78333E-02
        -0.78333E-02
        -0.78333E-02
        -0.78333E-02
        -0.68542E-02
        -0.68542E-02
        -0.68542E-02
        -0.68542E-02
        -0.68542E-02
        -0.68542E-02
        -0.68542E-02
        -0.68542E-02
        -0.68542E-02
        -0.68542E-02
        -0.68542E-02
        -0.68542E-02
        -0.68542E-02
        -0.68542E-02
        -0.68542E-02
        -0.68542E-02
        -0.68542E-02
        -0.68542E-02
        -0.68542E-02
        -0.68542E-02
        -0.68542E-02
        -0.68542E-02
        -0.68542E-02
        -0.68542E-02
        -0.68542E-02
        -0.68542E-02
        -0.68542E-02
        -0.68542E-02
        -0.68542E-02
        -0.68542E-02
        -0.68542E-02
        -0.68542E-02
        -0.68542E-02
        -0.68542E-02
        -0.68542E-02
        -0.68542E-02
        -0.68542E-02
        -0.68542E-02
        -0.68542E-02
        -0.68542E-02
        -0.68542E-02
        -0.68542E-02
        -0.68542E-02
        -0.68542E-02
        -0.68542E-02
        -0.68542E-02
        -0.68542E-02
        -0.68542E-02
        -0.68542E-02
        -0.68542E-02
        -0.68542E-02
        -0.68542E-02
        -0.68542E-02
        -0.68542E-02
        -0.68542E-02
        -0.68542E-02
        -0.68542E-02
        -0.68542E-02
        -0.68542E-02
        -0.68542E-02
        -0.68542E-02
        -0.68542E-02
        -0.68542E-02
        -0.68542E-02
        -0.68542E-02
        -0.68542E-02
        -0.68542E-02
        -0.68542E-02
        -0.68542E-02
        -0.68542E-02
        -0.68542E-02
        -0.68542E-02
        -0.68542E-02
        -0.68542E-02
        -0.68542E-02
        -0.68542E-02
        -0.68542E-02
        -0.68542E-02
        -0.58750E-02
        -0.58750E-02
        -0.58750E-02
        -0.58750E-02
        -0.58750E-02
        -0.58750E-02
        -0.58750E-02
        -0.58750E-02
        -0.58750E-02
        -0.58750E-02
        -0.58750E-02
        -0.58750E-02
        -0.58750E-02
        -0.58750E-02
        -0.58750E-02
        -0.58750E-02
        -0.58750E-02
        -0.58750E-02
        -0.58750E-02
        -0.58750E-02
        -0.58750E-02
        -0.58750E-02
        -0.58750E-02
        -0.58750E-02
        -0.58750E-02
        -0.58750E-02
        -0.58750E-02
        -0.58750E-02
        -0.58750E-02
        -0.58750E-02
        -0.58750E-02
        -0.58750E-02
        -0.58750E-02
        -0.58750E-02
        -0.58750E-02
        -0.58750E-02
        -0.58750E-02
        -0.58750E-02
        -0.58750E-02
        -0.58750E-02
        -0.58750E-02
        -0.58750E-02
        -0.58750E-02
        -0.58750E-02
        -0.58750E-02
        -0.58750E-02
        -0.58750E-02
        -0.58750E-02
        -0.58750E-02
        -0.58750E-02
        -0.58750E-02
        -0.58750E-02
        -0.58750E-02
        -0.58750E-02
        -0.58750E-02
        -0.58750E-02
        -0.58750E-02
        -0.58750E-02
        -0.58750E-02
        -0.58750E-02
        -0.58750E-02
        -0.58750E-02
        -0.58750E-02
        -0.58750E-02
        -0.58750E-02
        -0.58750E-02
        -0.58750E-02
        -0.58750E-02
        -0.58750E-02
        -0.58750E-02
        -0.58750E-02
        -0.58750E-02
        -0.58750E-02
        -0.58750E-02
        -0.58750E-02
        -0.58750E-02
        -0.58750E-02
        -0.58750E-02
        -0.48958E-02
        -0.48958E-02
        -0.48958E-02
        -0.48958E-02
        -0.48958E-02
        -0.48958E-02
        -0.48958E-02
        -0.48958E-02
        -0.48958E-02
        -0.48958E-02
        -0.48958E-02
        -0.48958E-02
        -0.48958E-02
        -0.48958E-02
        -0.48958E-02
        -0.48958E-02
        -0.48958E-02
        -0.48958E-02
        -0.48958E-02
        -0.48958E-02
        -0.48958E-02
        -0.48958E-02
        -0.48958E-02
        -0.48958E-02
        -0.48958E-02
        -0.48958E-02
        -0.48958E-02
        -0.48958E-02
        -0.48958E-02
        -0.48958E-02
        -0.48958E-02
        -0.48958E-02
        -0.48958E-02
        -0.48958E-02
        -0.48958E-02
        -0.48958E-02
        -0.48958E-02
        -0.48958E-02
        -0.48958E-02
        -0.48958E-02
        -0.48958E-02
        -0.48958E-02
        -0.48958E-02
        -0.48958E-02
        -0.48958E-02
        -0.48958E-02
        -0.48958E-02
        -0.48958E-02
        -0.48958E-02
        -0.48958E-02
        -0.48958E-02
        -0.48958E-02
        -0.48958E-02
        -0.48958E-02
        -0.48958E-02
        -0.48958E-02
        -0.48958E-02
        -0.48958E-02
        -0.48958E-02
        -0.48958E-02
        -0.48958E-02
        -0.48958E-02
        -0.48958E-02
        -0.48958E-02
        -0.48958E-02
        -0.48958E-02
        -0.48958E-02
        -0.48958E-02
        -0.48958E-02
        -0.48958E-02
        -0.48958E-02
        -0.48958E-02
        -0.48958E-02
        -0.48958E-02
        -0.48958E-02
        -0.48958E-02
        -0.48958E-02
        -0.48958E-02
        -0.39167E-02
        -0.39167E-02
        -0.39167E-02
        -0.39167E-02
        -0.39167E-02
        -0.39167E-02
        -0.39167E-02
        -0.39167E-02
        -0.39167E-02
        -0.39167E-02
        -0.39167E-02
        -0.39167E-02
        -0.39167E-02
        -0.39167E-02
        -0.39167E-02
        -0.39167E-02
        -0.39167E-02
        -0.39167E-02
        -0.39167E-02
        -0.39167E-02
        -0.39167E-02
        -0.39167E-02
        -0.39167E-02
        -0.39167E-02
        -0.39167E-02
        -0.39167E-02
        -0.39167E-02
        -0.39167E-02
        -0.39167E-02
        -0.39167E-02
        -0.39167E-02
        -0.39167E-02
        -0.39167E-02
        -0.39167E-02
        -0.39167E-02
        -0.39167E-02
        -0.39167E-02
        -0.39167E-02
        -0.39167E-02
        -0.39167E-02
        -0.39167E-02
        -0.39167E-02
        -0.39167E-02
        -0.39167E-02
        -0.39167E-02
        -0.39167E-02
        -0.39167E-02
        -0.39167E-02
        -0.39167E-02
        -0.39167E-02
        -0.39167E-02
        -0.39167E-02
        -0.39167E-02
        -0.39167E-02
        -0.39167E-02
        -0.39167E-02
        -0.39167E-02
        -0.39167E-02
        -0.39167E-02
        -0.39167E-02
        -0.39167E-02
        -0.39167E-02
        -0.39167E-02
        -0.39167E-02
        -0.39167E-02
        -0.39167E-02
        -0.39167E-02
        -0.39167E-02
        -0.39167E-02
        -0.39167E-02
        -0.39167E-02
        -0.39167E-02
        -0.39167E-02
        -0.39167E-02
        -0.39167E-02
        -0.39167E-02
        -0.39167E-02
        -0.39167E-02
        -0.29375E-02
        -0.29375E-02
        -0.29375E-02
        -0.29375E-02
        -0.29375E-02
        -0.29375E-02
        -0.29375E-02
        -0.29375E-02
        -0.29375E-02
        -0.29375E-02
        -0.29375E-02
        -0.29375E-02
        -0.29375E-02
        -0.29375E-02
        -0.29375E-02
        -0.29375E-02
        -0.29375E-02
        -0.29375E-02
        -0.29375E-02
        -0.29375E-02
        -0.29375E-02
        -0.29375E-02
        -0.29375E-02
        -0.29375E-02
        -0.29375E-02
        -0.29375E-02
        -0.29375E-02
        -0.29375E-02
        -0.29375E-02
        -0.29375E-02
        -0.29375E-02
        -0.29375E-02
        -0.29375E-02
        -0.29375E-02
        -0.29375E-02
        -0.29375E-02
        -0.29375E-02
        -0.29375E-02
        -0.29375E-02
        -0.29375E-02
        -0.29375E-02
        -0.29375E-02
        -0.29375E-02
        -0.29375E-02
        -0.29375E-02
        -0.29375E-02
        -0.29375E-02
        -0.29375E-02
        -0.29375E-02
        -0.29375E-02
        -0.29375E-02
        -0.29375E-02
        -0.29375E-02
        -0.29375E-02
        -0.29375E-02
        -0.29375E-02
        -0.29375E-02
        -0.29375E-02
        -0.29375E-02
        -0.29375E-02
        -0.29375E-02
        -0.29375E-02
        -0.29375E-02
        -0.29375E-02
        -0.29375E-02
        -0.29375E-02
        -0.29375E-02
        -0.29375E-02
        -0.29375E-02
        -0.29375E-02
        -0.29375E-02
        -0.29375E-02
        -0.29375E-02
        -0.29375E-02
        -0.29375E-02
        -0.29375E-02
        -0.29375E-02
        -0.29375E-02
        -0.19583E-02
        -0.19583E-02
        -0.19583E-02
        -0.19583E-02
        -0.19583E-02
        -0.19583E-02
        -0.19583E-02
        -0.19583E-02
        -0.19583E-02
        -0.19583E-02
        -0.19583E-02
        -0.19583E-02
        -0.19583E-02
        -0.19583E-02
        -0.19583E-02
        -0.19583E-02
        -0.19583E-02
        -0.19583E-02
        -0.19583E-02
        -0.19583E-02
        -0.19583E-02
        -0.19583E-02
        -0.19583E-02
        -0.19583E-02
        -0.19583E-02
        -0.19583E-02
        -0.19583E-02
        -0.19583E-02
        -0.19583E-02
        -0.19583E-02
        -0.19583E-02
        -0.19583E-02
        -0.19583E-02
        -0.19583E-02
        -0.19583E-02
        -0.19583E-02
        -0.19583E-02
        -0.19583E-02
        -0.19583E-02
        -0.19583E-02
        -0.19583E-02
        -0.19583E-02
        -0.19583E-02
        -0.19583E-02
        -0.19583E-02
        -0.19583E-02
        -0.19583E-02
        -0.19583E-02
        -0.19583E-02
        -0.19583E-02
        -0.19583E-02
        -0.19583E-02
        -0.19583E-02
        -0.19583E-02
        -0.19583E-02
        -0.19583E-02
        -0.19583E-02
        -0.19583E-02
        -0.19583E-02
        -0.19583E-02
        -0.19583E-02
        -0.19583E-02
        -0.19583E-02
        -0.19583E-02
        -0.19583E-02
        -0.19583E-02
        -0.19583E-02
        -0.19583E-02
        -0.19583E-02
        -0.19583E-02
        -0.19583E-02
        -0.19583E-02
        -0.19583E-02
        -0.19583E-02
        -0.19583E-02
        -0.19583E-02
        -0.19583E-02
        -0.19583E-02
        -0.97917E-03
        -0.97917E-03
        -0.97917E-03
        -0.97917E-03
        -0.97917E-03
        -0.97917E-03
        -0.97917E-03
        -0.97917E-03
        -0.97917E-03
        -0.97917E-03
        -0.97917E-03
        -0.97917E-03
        -0.97917E-03
        -0.97917E-03
        -0.97917E-03
        -0.97917E-03
        -0.97917E-03
        -0.97917E-03
        -0.97917E-03
        -0.97917E-03
        -0.97917E-03
        -0.97917E-03
        -0.97917E-03
        -0.97917E-03
        -0.97917E-03
        -0.97917E-03
        -0.97917E-03
        -0.97917E-03
        -0.97917E-03
        -0.97917E-03
        -0.97917E-03
        -0.97917E-03
        -0.97917E-03
        -0.97917E-03
        -0.97917E-03
        -0.97917E-03
        -0.97917E-03
        -0.97917E-03
        -0.97917E-03
        -0.97917E-03
        -0.97917E-03
        -0.97917E-03
        -0.97917E-03
        -0.97917E-03
        -0.97917E-03
        -0.97917E-03
        -0.97917E-03
        -0.97917E-03
        -0.97917E-03
        -0.97917E-03
        -0.97917E-03
        -0.97917E-03
        -0.97917E-03
        -0.97917E-03
        -0.97917E-03
        -0.97917E-03
        -0.97917E-03
        -0.97917E-03
        -0.97917E-03
        -0.97917E-03
        -0.97917E-03
        -0.97917E-03
        -0.97917E-03
        -0.97917E-03
        -0.97917E-03
        -0.97917E-03
        -0.97917E-03
        -0.97917E-03
        -0.97917E-03
        -0.97917E-03
        -0.97917E-03
        -0.97917E-03
        -0.97917E-03
        -0.97917E-03
        -0.97917E-03
        -0.97917E-03
        -0.97917E-03
        -0.97917E-03
         0.38917E-18
         0.44621E-18
         0.34485E-18
         0.23671E-18
         0.26613E-18
         0.16162E-18
         0.53980E-18
         0.50579E-18
         0.36337E-18
         0.48798E-18
         0.60712E-18
         0.67611E-18
         0.60634E-18
         0.60658E-18
         0.70997E-18
         0.20892E-18
         0.35894E-18
         0.21887E-18
         0.27638E-18
         0.38382E-18
         0.29058E-18
         0.40326E-18
         0.18564E-18
         0.19650E-18
         0.48570E-18
         0.12837E-18
         0.60589E-18
         0.60416E-18
         0.60524E-18
         0.49621E-18
         0.61582E-19
         0.32255E-19
         0.73874E-19
         0.78478E-19
         0.34514E-18
         0.42054E-18
         0.51644E-18
         0.72521E-18
         0.72233E-18
         0.70722E-18
         0.69126E-18
         0.61573E-18
         0.51484E-18
         0.91170E-19
         0.30347E-20
        -0.66516E-19
        -0.69988E-19
        -0.68643E-19
        -0.59779E-19
        -0.43507E-19
        -0.29471E-19
         0.53205E-19
         0.86819E-18
         0.00000E+00
         0.86819E-18
         0.86819E-18
         0.00000E+00
         0.00000E+00
         0.00000E+00
         0.17364E-17
         0.17364E-17
         0.17364E-17
         0.43410E-18
         0.43410E-18
         0.43410E-18
         0.00000E+00
         0.00000E+00
         0.00000E+00
         0.00000E+00
         0.00000E+00
         0.21705E-18
        -0.21705E-18
         0.00000E+00
         0.00000E+00
         0.00000E+00
        -0.32557E-18
         0.54262E-19
        -0.40697E-18
         0.97917E-03
         0.97917E-03
         0.97917E-03
         0.97917E-03
         0.97917E-03
         0.97917E-03
         0.97917E-03
         0.97917E-03
         0.97917E-03
         0.97917E-03
         0.97917E-03
         0.97917E-03
         0.97917E-03
         0.97917E-03
         0.97917E-03
         0.97917E-03
         0.97917E-03
         0.97917E-03
         0.97917E-03
         0.97917E-03
         0.97917E-03
         0.97917E-03
         0.97917E-03
         0.97917E-03
         0.97917E-03
         0.97917E-03
         0.97917E-03
         0.97917E-03
         0.97917E-03
         0.97917E-03
         0.97917E-03
         0.97917E-03
         0.97917E-03
         0.97917E-03
         0.97917E-03
         0.97917E-03
         0.97917E-03
         0.97917E-03
         0.97917E-03
         0.97917E-03
         0.97917E-03
         0.97917E-03
         0.97917E-03
         0.97917E-03
         0.97917E-03
         0.97917E-03
         0.97917E-03
         0.97917E-03
         0.97917E-03
         0.97917E-03
         0.97917E-03
         0.97917E-03
         0.97917E-03
         0.97917E-03
         0.97917E-03
         0.97917E-03
         0.97917E-03
         0.97917E-03
         0.97917E-03
         0.97917E-03
         0.97917E-03
         0.97917E-03
         0.97917E-03
         0.97917E-03
         0.97917E-03
         0.97917E-03
         0.97917E-03
         0.97917E-03
         0.97917E-03
         0.97917E-03
         0.97917E-03
         0.97917E-03
         0.97917E-03
         0.97917E-03
         0.97917E-03
         0.97917E-03
         0.97917E-03
         0.97917E-03
         0.19583E-02
         0.19583E-02
         0.19583E-02
         0.19583E-02
         0.19583E-02
         0.19583E-02
         0.19583E-02
         0.19583E-02
         0.19583E-02
         0.19583E-02
         0.19583E-02
         0.19583E-02
         0.19583E-02
         0.19583E-02
         0.19583E-02
         0.19583E-02
         0.19583E-02
         0.19583E-02
         0.19583E-02
         0.19583E-02
         0.19583E-02
         0.19583E-02
         0.19583E-02
         0.19583E-02
         0.19583E-02
         0.19583E-02
         0.19583E-02
         0.19583E-02
         0.19583E-02
         0.19583E-02
         0.19583E-02
         0.19583E-02
         0.19583E-02
         0.19583E-02
         0.19583E-02
         0.19583E-02
         0.19583E-02
         0.19583E-02
         0.19583E-02
         0.19583E-02
         0.19583E-02
         0.19583E-02
         0.19583E-02
         0.19583E-02
         0.19583E-02
         0.19583E-02
         0.19583E-02
         0.19583E-02
         0.19583E-02
         0.19583E-02
         0.19583E-02
         0.19583E-02
         0.19583E-02
         0.19583E-02
         0.19583E-02
         0.19583E-02
         0.19583E-02
         0.19583E-02
         0.19583E-02
         0.19583E-02
         0.19583E-02
         0.19583E-02
         0.19583E-02
         0.19583E-02
         0.19583E-02
         0.19583E-02
         0.19583E-02
         0.19583E-02
         0.19583E-02
         0.19583E-02
         0.19583E-02
         0.19583E-02
         0.19583E-02
         0.19583E-02
         0.19583E-02
         0.19583E-02
         0.19583E-02
         0.19583E-02
         0.29375E-02
         0.29375E-02
         0.29375E-02
         0.29375E-02
         0.29375E-02
         0.29375E-02
         0.29375E-02
         0.29375E-02
         0.29375E-02
         0.29375E-02
         0.29375E-02
         0.29375E-02
         0.29375E-02
         0.29375E-02
         0.29375E-02
         0.29375E-02
         0.29375E-02
         0.29375E-02
         0.29375E-02
         0.29375E-02
         0.29375E-02
         0.29375E-02
         0.29375E-02
         0.29375E-02
         0.29375E-02
         0.29375E-02
         0.29375E-02
         0.29375E-02
         0.29375E-02
         0.29375E-02
         0.29375E-02
         0.29375E-02
         0.29375E-02
         0.29375E-02
         0.29375E-02
         0.29375E-02
         0.29375E-02
         0.29375E-02
         0.29375E-02
         0.29375E-02
         0.29375E-02
         0.29375E-02
         0.29375E-02
         0.29375E-02
         0.29375E-02
         0.29375E-02
         0.29375E-02
         0.29375E-02
         0.29375E-02
         0.29375E-02
         0.29375E-02
         0.29375E-02
         0.29375E-02
         0.29375E-02
         0.29375E-02
         0.29375E-02
         0.29375E-02
         0.29375E-02
         0.29375E-02
         0.29375E-02
         0.29375E-02
         0.29375E-02
         0.29375E-02
         0.29375E-02
         0.29375E-02
         0.29375E-02
         0.29375E-02
         0.29375E-02
         0.29375E-02
         0.29375E-02
         0.29375E-02
         0.29375E-02
         0.29375E-02
         0.29375E-02
         0.29375E-02
         0.29375E-02
         0.29375E-02
         0.29375E-02
         0.39167E-02
         0.39167E-02
         0.39167E-02
         0.39167E-02
         0.39167E-02
         0.39167E-02
         0.39167E-02
         0.39167E-02
         0.39167E-02
         0.39167E-02
         0.39167E-02
         0.39167E-02
         0.39167E-02
         0.39167E-02
         0.39167E-02
         0.39167E-02
         0.39167E-02
         0.39167E-02
         0.39167E-02
         0.39167E-02
         0.39167E-02
         0.39167E-02
         0.39167E-02
         0.39167E-02
         0.39167E-02
         0.39167E-02
         0.39167E-02
         0.39167E-02
         0.39167E-02
         0.39167E-02
         0.39167E-02
         0.39167E-02
         0.39167E-02
         0.39167E-02
         0.39167E-02
         0.39167E-02
         0.39167E-02
         0.39167E-02
         0.39167E-02
         0.39167E-02
         0.39167E-02
         0.39167E-02
         0.39167E-02
         0.39167E-02
         0.39167E-02
         0.39167E-02
         0.39167E-02
         0.39167E-02
         0.39167E-02
         0.39167E-02
         0.39167E-02
         0.39167E-02
         0.39167E-02
         0.39167E-02
         0.39167E-02
         0.39167E-02
         0.39167E-02
         0.39167E-02
         0.39167E-02
         0.39167E-02
         0.39167E-02
         0.39167E-02
         0.39167E-02
         0.39167E-02
         0.39167E-02
         0.39167E-02
         0.39167E-02
         0.39167E-02
         0.39167E-02
         0.39167E-02
         0.39167E-02
         0.39167E-02
         0.39167E-02
         0.39167E-02
         0.39167E-02
         0.39167E-02
         0.39167E-02
         0.39167E-02
         0.48958E-02
         0.48958E-02
         0.48958E-02
         0.48958E-02
         0.48958E-02
         0.48958E-02
         0.48958E-02
         0.48958E-02
         0.48958E-02
         0.48958E-02
         0.48958E-02
         0.48958E-02
         0.48958E-02
         0.48958E-02
         0.48958E-02
         0.48958E-02
         0.48958E-02
         0.48958E-02
         0.48958E-02
         0.48958E-02
         0.48958E-02
         0.48958E-02
         0.48958E-02
         0.48958E-02
         0.48958E-02
         0.48958E-02
         0.48958E-02
         0.48958E-02
         0.48958E-02
         0.48958E-02
         0.48958E-02
         0.48958E-02
         0.48958E-02
         0.48958E-02
         0.48958E-02
         0.48958E-02
         0.48958E-02
         0.48958E-02
         0.48958E-02
         0.48958E-02
         0.48958E-02
         0.48958E-02
         0.48958E-02
         0.48958E-02
         0.48958E-02
         0.48958E-02
         0.48958E-02
         0.48958E-02
         0.48958E-02
         0.48958E-02
         0.48958E-02
         0.48958E-02
         0.48958E-02
         0.48958E-02
         0.48958E-02
         0.48958E-02
         0.48958E-02
         0.48958E-02
         0.48958E-02
         0.48958E-02
         0.48958E-02
         0.48958E-02
         0.48958E-02
         0.48958E-02
         0.48958E-02
         0.48958E-02
         0.48958E-02
         0.48958E-02
         0.48958E-02
         0.48958E-02
         0.48958E-02
         0.48958E-02
         0.48958E-02
         0.48958E-02
         0.48958E-02
         0.48958E-02
         0.48958E-02
         0.48958E-02
         0.58750E-02
         0.58750E-02
         0.58750E-02
         0.58750E-02
         0.58750E-02
         0.58750E-02
         0.58750E-02
         0.58750E-02
         0.58750E-02
         0.58750E-02
         0.58750E-02
         0.58750E-02
         0.58750E-02
         0.58750E-02
         0.58750E-02
         0.58750E-02
         0.58750E-02
         0.58750E-02
         0.58750E-02
         0.58750E-02
         0.58750E-02
         0.58750E-02
         0.58750E-02
         0.58750E-02
         0.58750E-02
         0.58750E-02
         0.58750E-02
         0.58750E-02
         0.58750E-02
         0.58750E-02
         0.58750E-02
         0.58750E-02
         0.58750E-02
         0.58750E-02
         0.58750E-02
         0.58750E-02
         0.58750E-02
         0.58750E-02
         0.58750E-02
         0.58750E-02
         0.58750E-02
         0.58750E-02
         0.58750E-02
         0.58750E-02
         0.58750E-02
         0.58750E-02
         0.58750E-02
         0.58750E-02
         0.58750E-02
         0.58750E-02
         0.58750E-02
         0.58750E-02
         0.58750E-02
         0.58750E-02
         0.58750E-02
         0.58750E-02
         0.58750E-02
         0.58750E-02
         0.58750E-02
         0.58750E-02
         0.58750E-02
         0.58750E-02
         0.58750E-02
         0.58750E-02
         0.58750E-02
         0.58750E-02
         0.58750E-02
         0.58750E-02
         0.58750E-02
         0.58750E-02
         0.58750E-02
         0.58750E-02
         0.58750E-02
         0.58750E-02
         0.58750E-02
         0.58750E-02
         0.58750E-02
         0.58750E-02
         0.68542E-02
         0.68542E-02
         0.68542E-02
         0.68542E-02
         0.68542E-02
         0.68542E-02
         0.68542E-02
         0.68542E-02
         0.68542E-02
         0.68542E-02
         0.68542E-02
         0.68542E-02
         0.68542E-02
         0.68542E-02
         0.68542E-02
         0.68542E-02
         0.68542E-02
         0.68542E-02
         0.68542E-02
         0.68542E-02
         0.68542E-02
         0.68542E-02
         0.68542E-02
         0.68542E-02
         0.68542E-02
         0.68542E-02
         0.68542E-02
         0.68542E-02
         0.68542E-02
         0.68542E-02
         0.68542E-02
         0.68542E-02
         0.68542E-02
         0.68542E-02
         0.68542E-02
         0.68542E-02
         0.68542E-02
         0.68542E-02
         0.68542E-02
         0.68542E-02
         0.68542E-02
         0.68542E-02
         0.68542E-02
         0.68542E-02
         0.68542E-02
         0.68542E-02
         0.68542E-02
         0.68542E-02
         0.68542E-02
         0.68542E-02
         0.68542E-02
         0.68542E-02
         0.68542E-02
         0.68542E-02
         0.68542E-02
         0.68542E-02
         0.68542E-02
         0.68542E-02
         0.68542E-02
         0.68542E-02
         0.68542E-02
         0.68542E-02
         0.68542E-02
         0.68542E-02
         0.68542E-02
         0.68542E-02
         0.68542E-02
         0.68542E-02
         0.68542E-02
         0.68542E-02
         0.68542E-02
         0.68542E-02
         0.68542E-02
         0.68542E-02
         0.68542E-02
         0.68542E-02
         0.68542E-02
         0.68542E-02
         0.78333E-02
         0.78333E-02
         0.78333E-02
         0.78333E-02
         0.78333E-02
         0.78333E-02
         0.78333E-02
         0.78333E-02
         0.78333E-02
         0.78333E-02
         0.78333E-02
         0.78333E-02
         0.78333E-02
         0.78333E-02
         0.78333E-02
         0.78333E-02
         0.78333E-02
         0.78333E-02
         0.78333E-02
         0.78333E-02
         0.78333E-02
         0.78333E-02
         0.78333E-02
         0.78333E-02
         0.78333E-02
         0.78333E-02
         0.78333E-02
         0.78333E-02
         0.78333E-02
         0.78333E-02
         0.78333E-02
         0.78333E-02
         0.78333E-02
         0.78333E-02
         0.78333E-02
         0.78333E-02
         0.78333E-02
         0.78333E-02
         0.78333E-02
         0.78333E-02
         0.78333E-02
         0.78333E-02
         0.78333E-02
         0.78333E-02
         0.78333E-02
         0.78333E-02
         0.78333E-02
         0.78333E-02
         0.78333E-02
         0.78333E-02
         0.78333E-02
         0.78333E-02
         0.78333E-02
         0.78333E-02
         0.78333E-02
         0.78333E-02
         0.78333E-02
         0.78333E-02
         0.78333E-02
         0.78333E-02
         0.78333E-02
         0.78333E-02
         0.78333E-02
         0.78333E-02
         0.78333E-02
         0.78333E-02
         0.78333E-02
         0.78333E-02
         0.78333E-02
         0.78333E-02
         0.78333E-02
         0.78333E-02
         0.78333E-02
         0.78333E-02
         0.78333E-02
         0.78333E-02
         0.78333E-02
         0.78333E-02
         0.88125E-02
         0.88125E-02
         0.88125E-02
         0.88125E-02
         0.88125E-02
         0.88125E-02
         0.88125E-02
         0.88125E-02
         0.88125E-02
         0.88125E-02
         0.88125E-02
         0.88125E-02
         0.88125E-02
         0.88125E-02
         0.88125E-02
         0.88125E-02
         0.88125E-02
         0.88125E-02
         0.88125E-02
         0.88125E-02
         0.88125E-02
         0.88125E-02
         0.88125E-02
         0.88125E-02
         0.88125E-02
         0.88125E-02
         0.88125E-02
         0.88125E-02
         0.88125E-02
         0.88125E-02
         0.88125E-02
         0.88125E-02
         0.88125E-02
         0.88125E-02
         0.88125E-02
         0.88125E-02
         0.88125E-02
         0.88125E-02
         0.88125E-02
         0.88125E-02
         0.88125E-02
         0.88125E-02
         0.88125E-02
         0.88125E-02
         0.88125E-02
         0.88125E-02
         0.88125E-02
         0.88125E-02
         0.88125E-02
         0.88125E-02
         0.88125E-02
         0.88125E-02
         0.88125E-02
         0.88125E-02
         0.88125E-02
         0.88125E-02
         0.88125E-02
         0.88125E-02
         0.88125E-02
         0.88125E-02
         0.88125E-02
         0.88125E-02
         0.88125E-02
         0.88125E-02
         0.88125E-02
         0.88125E-02
         0.88125E-02
         0.88125E-02
         0.88125E-02
         0.88125E-02
         0.88125E-02
         0.88125E-02
         0.88125E-02
         0.88125E-02
         0.88125E-02
         0.88125E-02
         0.88125E-02
         0.88125E-02
         0.97917E-02
         0.97917E-02
         0.97917E-02
         0.97917E-02
         0.97917E-02
         0.97917E-02
         0.97917E-02
         0.97917E-02
         0.97917E-02
         0.97917E-02
         0.97917E-02
         0.97917E-02
         0.97917E-02
         0.97917E-02
         0.97917E-02
         0.97917E-02
         0.97917E-02
         0.97917E-02
         0.97917E-02
         0.97917E-02
         0.97917E-02
         0.97917E-02
         0.97917E-02
         0.97917E-02
         0.97917E-02
         0.97917E-02
         0.97917E-02
         0.97917E-02
         0.97917E-02
         0.97917E-02
         0.97917E-02
         0.97917E-02
         0.97917E-02
         0.97917E-02
         0.97917E-02
         0.97917E-02
         0.97917E-02
         0.97917E-02
         0.97917E-02
         0.97917E-02
         0.97917E-02
         0.97917E-02
         0.97917E-02
         0.97917E-02
         0.97917E-02
         0.97917E-02
         0.97917E-02
         0.97917E-02
         0.97917E-02
         0.97917E-02
         0.97917E-02
         0.97917E-02
         0.97917E-02
         0.97917E-02
         0.97917E-02
         0.97917E-02
         0.97917E-02
         0.97917E-02
         0.97917E-02
         0.97917E-02
         0.97917E-02
         0.97917E-02
         0.97917E-02
         0.97917E-02
         0.97917E-02
         0.97917E-02
         0.97917E-02
         0.97917E-02
         0.97917E-02
         0.97917E-02
         0.97917E-02
         0.97917E-02
         0.97917E-02
         0.97917E-02
         0.97917E-02
         0.97917E-02
         0.97917E-02
         0.97917E-02
         0.10771E-01
         0.10771E-01
         0.10771E-01
         0.10771E-01
         0.10771E-01
         0.10771E-01
         0.10771E-01
         0.10771E-01
         0.10771E-01
         0.10771E-01
         0.10771E-01
         0.10771E-01
         0.10771E-01
         0.10771E-01
         0.10771E-01
         0.10771E-01
         0.10771E-01
         0.10771E-01
         0.10771E-01
         0.10771E-01
         0.10771E-01
         0.10771E-01
         0.10771E-01
         0.10771E-01
         0.10771E-01
         0.10771E-01
         0.10771E-01
         0.10771E-01
         0.10771E-01
         0.10771E-01
         0.10771E-01
         0.10771E-01
         0.10771E-01
         0.10771E-01
         0.10771E-01
         0.10771E-01
         0.10771E-01
         0.10771E-01
         0.10771E-01
         0.10771E-01
         0.10771E-01
         0.10771E-01
         0.10771E-01
         0.10771E-01
         0.10771E-01
         0.10771E-01
         0.10771E-01
         0.10771E-01
         0.10771E-01
         0.10771E-01
         0.10771E-01
         0.10771E-01
         0.10771E-01
         0.10771E-01
         0.10771E-01
         0.10771E-01
         0.10771E-01
         0.10771E-01
         0.10771E-01
         0.10771E-01
         0.10771E-01
         0.10771E-01
         0.10771E-01
         0.10771E-01
         0.10771E-01
         0.10771E-01
         0.10771E-01
         0.10771E-01
         0.10771E-01
         0.10771E-01
         0.10771E-01
         0.10771E-01
         0.10771E-01
         0.10771E-01
         0.10771E-01
         0.10771E-01
         0.10771E-01
         0.10771E-01
         0.11750E-01
         0.11750E-01
         0.11750E-01
         0.11750E-01
         0.11750E-01
         0.11750E-01
         0.11750E-01
         0.11750E-01
         0.11750E-01
         0.11750E-01
         0.11750E-01
         0.11750E-01
         0.11750E-01
         0.11750E-01
         0.11750E-01
         0.11750E-01
         0.11750E-01
         0.11750E-01
         0.11750E-01
         0.11750E-01
         0.11750E-01
         0.11750E-01
         0.11750E-01
         0.11750E-01
         0.11750E-01
         0.11750E-01
         0.11750E-01
         0.11750E-01
         0.11750E-01
         0.11750E-01
         0.11750E-01
         0.11750E-01
         0.11750E-01
         0.11750E-01
         0.11750E-01
         0.11750E-01
         0.11750E-01
         0.11750E-01
         0.11750E-01
         0.11750E-01
         0.11750E-01
         0.11750E-01
         0.11750E-01
         0.11750E-01
         0.11750E-01
         0.11750E-01
         0.11750E-01
         0.11750E-01
         0.11750E-01
         0.11750E-01
         0.11750E-01
         0.11750E-01
         0.11750E-01
         0.11750E-01
         0.11750E-01
         0.11750E-01
         0.11750E-01
         0.11750E-01
         0.11750E-01
         0.11750E-01
         0.11750E-01
         0.11750E-01
         0.11750E-01
         0.11750E-01
         0.11750E-01
         0.11750E-01
         0.11750E-01
         0.11750E-01
         0.11750E-01
         0.11750E-01
         0.11750E-01
         0.11750E-01
         0.11750E-01
         0.11750E-01
         0.11750E-01
         0.11750E-01
         0.11750E-01
         0.11750E-01
  
SCALARS                init_velocity_x  double 1
LOOKUP_TABLE default
         0.00000E+00
         0.00000E+00
         0.00000E+00
         0.00000E+00
         0.00000E+00
         0.00000E+00
         0.00000E+00
         0.00000E+00
         0.00000E+00
         0.00000E+00
         0.00000E+00
         0.00000E+00
         0.00000E+00
         0.00000E+00
         0.00000E+00
         0.00000E+00
         0.00000E+00
         0.00000E+00
         0.00000E+00
         0.00000E+00
         0.00000E+00
         0.00000E+00
         0.00000E+00
         0.00000E+00
         0.00000E+00
         0.00000E+00
         0.00000E+00
         0.00000E+00
         0.00000E+00
         0.00000E+00
         0.00000E+00
         0.00000E+00
         0.00000E+00
         0.00000E+00
         0.00000E+00
         0.00000E+00
         0.00000E+00
         0.00000E+00
         0.00000E+00
         0.00000E+00
         0.00000E+00
         0.00000E+00
         0.00000E+00
         0.00000E+00
         0.00000E+00
         0.00000E+00
         0.00000E+00
         0.00000E+00
         0.00000E+00
         0.00000E+00
         0.00000E+00
         0.00000E+00
         0.00000E+00
         0.00000E+00
         0.00000E+00
         0.00000E+00
         0.00000E+00
         0.00000E+00
         0.00000E+00
         0.00000E+00
         0.00000E+00
         0.00000E+00
         0.00000E+00
         0.00000E+00
         0.00000E+00
         0.00000E+00
         0.00000E+00
         0.00000E+00
         0.00000E+00
         0.00000E+00
         0.00000E+00
         0.00000E+00
         0.00000E+00
         0.00000E+00
         0.00000E+00
         0.00000E+00
         0.00000E+00
         0.00000E+00
         0.00000E+00
         0.00000E+00
         0.00000E+00
         0.00000E+00
         0.00000E+00
         0.00000E+00
         0.00000E+00
         0.00000E+00
         0.00000E+00
         0.00000E+00
         0.00000E+00
         0.00000E+00
         0.00000E+00
         0.00000E+00
         0.00000E+00
         0.00000E+00
         0.00000E+00
         0.00000E+00
         0.00000E+00
         0.00000E+00
         0.00000E+00
         0.00000E+00
         0.00000E+00
         0.00000E+00
         0.00000E+00
         0.00000E+00
         0.00000E+00
         0.00000E+00
         0.00000E+00
         0.00000E+00
         0.00000E+00
         0.00000E+00
         0.00000E+00
         0.00000E+00
         0.00000E+00
         0.00000E+00
         0.00000E+00
         0.00000E+00
         0.00000E+00
         0.00000E+00
         0.00000E+00
         0.00000E+00
         0.00000E+00
         0.00000E+00
         0.00000E+00
         0.00000E+00
         0.00000E+00
         0.00000E+00
         0.00000E+00
         0.00000E+00
         0.00000E+00
         0.00000E+00
         0.00000E+00
         0.00000E+00
         0.00000E+00
         0.00000E+00
         0.00000E+00
         0.00000E+00
         0.00000E+00
         0.00000E+00
         0.00000E+00
         0.00000E+00
         0.00000E+00
         0.00000E+00
         0.00000E+00
         0.00000E+00
         0.00000E+00
         0.00000E+00
         0.00000E+00
         0.00000E+00
         0.00000E+00
         0.00000E+00
         0.00000E+00
         0.00000E+00
         0.00000E+00
         0.00000E+00
         0.00000E+00
         0.00000E+00
         0.00000E+00
         0.00000E+00
         0.00000E+00
         0.00000E+00
         0.00000E+00
         0.00000E+00
         0.00000E+00
         0.00000E+00
         0.00000E+00
         0.00000E+00
         0.00000E+00
         0.00000E+00
         0.00000E+00
         0.00000E+00
         0.00000E+00
         0.00000E+00
         0.00000E+00
         0.00000E+00
         0.00000E+00
         0.00000E+00
         0.00000E+00
         0.00000E+00
         0.00000E+00
         0.00000E+00
         0.00000E+00
         0.00000E+00
         0.00000E+00
         0.00000E+00
         0.00000E+00
         0.00000E+00
         0.00000E+00
         0.00000E+00
         0.00000E+00
         0.00000E+00
         0.00000E+00
         0.00000E+00
         0.00000E+00
         0.00000E+00
         0.00000E+00
         0.00000E+00
         0.00000E+00
         0.00000E+00
         0.00000E+00
         0.00000E+00
         0.00000E+00
         0.00000E+00
         0.00000E+00
         0.00000E+00
         0.00000E+00
         0.00000E+00
         0.00000E+00
         0.00000E+00
         0.00000E+00
         0.00000E+00
         0.00000E+00
         0.00000E+00
         0.00000E+00
         0.00000E+00
         0.00000E+00
         0.00000E+00
         0.00000E+00
         0.00000E+00
         0.00000E+00
         0.00000E+00
         0.00000E+00
         0.00000E+00
         0.00000E+00
         0.00000E+00
         0.00000E+00
         0.00000E+00
         0.00000E+00
         0.00000E+00
         0.00000E+00
         0.00000E+00
         0.00000E+00
         0.00000E+00
         0.00000E+00
         0.00000E+00
         0.00000E+00
         0.00000E+00
         0.00000E+00
         0.00000E+00
         0.00000E+00
         0.00000E+00
         0.00000E+00
         0.00000E+00
         0.00000E+00
         0.00000E+00
         0.00000E+00
         0.00000E+00
         0.00000E+00
         0.00000E+00
         0.00000E+00
         0.00000E+00
         0.00000E+00
         0.00000E+00
         0.00000E+00
         0.00000E+00
         0.00000E+00
         0.00000E+00
         0.00000E+00
         0.00000E+00
         0.00000E+00
         0.00000E+00
         0.00000E+00
         0.00000E+00
         0.00000E+00
         0.00000E+00
         0.00000E+00
         0.00000E+00
         0.00000E+00
         0.00000E+00
         0.00000E+00
         0.00000E+00
         0.00000E+00
         0.00000E+00
         0.00000E+00
         0.00000E+00
         0.00000E+00
         0.00000E+00
         0.00000E+00
         0.00000E+00
         0.00000E+00
         0.00000E+00
         0.00000E+00
         0.00000E+00
         0.00000E+00
         0.00000E+00
         0.00000E+00
         0.00000E+00
         0.00000E+00
         0.00000E+00
         0.00000E+00
         0.00000E+00
         0.00000E+00
         0.00000E+00
         0.00000E+00
         0.00000E+00
         0.00000E+00
         0.00000E+00
         0.00000E+00
         0.00000E+00
         0.00000E+00
         0.00000E+00
         0.00000E+00
         0.00000E+00
         0.00000E+00
         0.00000E+00
         0.00000E+00
         0.00000E+00
         0.00000E+00
         0.00000E+00
         0.00000E+00
         0.00000E+00
         0.00000E+00
         0.00000E+00
         0.00000E+00
         0.00000E+00
         0.00000E+00
         0.00000E+00
         0.00000E+00
         0.00000E+00
         0.00000E+00
         0.00000E+00
         0.00000E+00
         0.00000E+00
         0.00000E+00
         0.00000E+00
         0.00000E+00
         0.00000E+00
         0.00000E+00
         0.00000E+00
         0.00000E+00
         0.00000E+00
         0.00000E+00
         0.00000E+00
         0.00000E+00
         0.00000E+00
         0.00000E+00
         0.00000E+00
         0.00000E+00
         0.00000E+00
         0.00000E+00
         0.00000E+00
         0.00000E+00
         0.00000E+00
         0.00000E+00
         0.00000E+00
         0.00000E+00
         0.00000E+00
         0.00000E+00
         0.00000E+00
         0.00000E+00
         0.00000E+00
         0.00000E+00
         0.00000E+00
         0.00000E+00
         0.00000E+00
         0.00000E+00
         0.00000E+00
         0.00000E+00
         0.00000E+00
         0.00000E+00
         0.00000E+00
         0.00000E+00
         0.00000E+00
         0.00000E+00
         0.00000E+00
         0.00000E+00
         0.00000E+00
         0.00000E+00
         0.00000E+00
         0.00000E+00
         0.00000E+00
         0.00000E+00
         0.00000E+00
         0.00000E+00
         0.00000E+00
         0.00000E+00
         0.00000E+00
         0.00000E+00
         0.00000E+00
         0.00000E+00
         0.00000E+00
         0.00000E+00
         0.00000E+00
         0.00000E+00
         0.00000E+00
         0.00000E+00
         0.00000E+00
         0.00000E+00
         0.00000E+00
         0.00000E+00
         0.00000E+00
         0.00000E+00
         0.00000E+00
         0.00000E+00
         0.00000E+00
         0.00000E+00
         0.00000E+00
         0.00000E+00
         0.00000E+00
         0.00000E+00
         0.00000E+00
         0.00000E+00
         0.00000E+00
         0.00000E+00
         0.00000E+00
         0.00000E+00
         0.00000E+00
         0.00000E+00
         0.00000E+00
         0.00000E+00
         0.00000E+00
         0.00000E+00
         0.00000E+00
         0.00000E+00
         0.00000E+00
         0.00000E+00
         0.00000E+00
         0.00000E+00
         0.00000E+00
         0.00000E+00
         0.00000E+00
         0.00000E+00
         0.00000E+00
         0.00000E+00
         0.00000E+00
         0.00000E+00
         0.00000E+00
         0.00000E+00
         0.00000E+00
         0.00000E+00
         0.00000E+00
         0.00000E+00
         0.00000E+00
         0.00000E+00
         0.00000E+00
         0.00000E+00
         0.00000E+00
         0.00000E+00
         0.00000E+00
         0.00000E+00
         0.00000E+00
         0.00000E+00
         0.00000E+00
         0.00000E+00
         0.00000E+00
         0.00000E+00
         0.00000E+00
         0.00000E+00
         0.00000E+00
         0.00000E+00
         0.00000E+00
         0.00000E+00
         0.00000E+00
         0.00000E+00
         0.00000E+00
         0.00000E+00
         0.00000E+00
         0.00000E+00
         0.00000E+00
         0.00000E+00
         0.00000E+00
         0.00000E+00
         0.00000E+00
         0.00000E+00
         0.00000E+00
         0.00000E+00
         0.00000E+00
         0.00000E+00
         0.00000E+00
         0.00000E+00
         0.00000E+00
         0.00000E+00
         0.00000E+00
         0.00000E+00
         0.00000E+00
         0.00000E+00
         0.00000E+00
         0.00000E+00
         0.00000E+00
         0.00000E+00
         0.00000E+00
         0.00000E+00
         0.00000E+00
         0.00000E+00
         0.00000E+00
         0.00000E+00
         0.00000E+00
         0.00000E+00
         0.00000E+00
         0.00000E+00
         0.00000E+00
         0.00000E+00
         0.00000E+00
         0.00000E+00
         0.00000E+00
         0.00000E+00
         0.00000E+00
         0.00000E+00
         0.00000E+00
         0.00000E+00
         0.00000E+00
         0.00000E+00
         0.00000E+00
         0.00000E+00
         0.00000E+00
         0.00000E+00
         0.00000E+00
         0.00000E+00
         0.00000E+00
         0.00000E+00
         0.00000E+00
         0.00000E+00
         0.00000E+00
         0.00000E+00
         0.00000E+00
         0.00000E+00
         0.00000E+00
         0.00000E+00
         0.00000E+00
         0.00000E+00
         0.00000E+00
         0.00000E+00
         0.00000E+00
         0.00000E+00
         0.00000E+00
         0.00000E+00
         0.00000E+00
         0.00000E+00
         0.00000E+00
         0.00000E+00
         0.00000E+00
         0.00000E+00
         0.00000E+00
         0.00000E+00
         0.00000E+00
         0.00000E+00
         0.00000E+00
         0.00000E+00
         0.00000E+00
         0.00000E+00
         0.00000E+00
         0.00000E+00
         0.00000E+00
         0.00000E+00
         0.00000E+00
         0.00000E+00
         0.00000E+00
         0.00000E+00
         0.00000E+00
         0.00000E+00
         0.00000E+00
         0.00000E+00
         0.00000E+00
         0.00000E+00
         0.00000E+00
         0.00000E+00
         0.00000E+00
         0.00000E+00
         0.00000E+00
         0.00000E+00
         0.00000E+00
         0.00000E+00
         0.00000E+00
         0.00000E+00
         0.00000E+00
         0.00000E+00
         0.00000E+00
         0.00000E+00
         0.00000E+00
         0.00000E+00
         0.00000E+00
         0.00000E+00
         0.00000E+00
         0.00000E+00
         0.00000E+00
         0.00000E+00
         0.00000E+00
         0.00000E+00
         0.00000E+00
         0.00000E+00
         0.00000E+00
         0.00000E+00
         0.00000E+00
         0.00000E+00
         0.00000E+00
         0.00000E+00
         0.00000E+00
         0.00000E+00
         0.00000E+00
         0.00000E+00
         0.00000E+00
         0.00000E+00
         0.00000E+00
         0.00000E+00
         0.00000E+00
         0.00000E+00
         0.00000E+00
         0.00000E+00
         0.00000E+00
         0.00000E+00
         0.00000E+00
         0.00000E+00
         0.00000E+00
         0.00000E+00
         0.00000E+00
         0.00000E+00
         0.00000E+00
         0.00000E+00
         0.00000E+00
         0.00000E+00
         0.00000E+00
         0.00000E+00
         0.00000E+00
         0.00000E+00
         0.00000E+00
         0.00000E+00
         0.00000E+00
         0.00000E+00
         0.00000E+00
         0.00000E+00
         0.00000E+00
         0.00000E+00
         0.00000E+00
         0.00000E+00
         0.00000E+00
         0.00000E+00
         0.00000E+00
         0.00000E+00
         0.00000E+00
         0.00000E+00
         0.00000E+00
         0.00000E+00
         0.00000E+00
         0.00000E+00
         0.00000E+00
         0.00000E+00
         0.00000E+00
         0.00000E+00
         0.00000E+00
         0.00000E+00
         0.00000E+00
         0.00000E+00
         0.00000E+00
         0.00000E+00
         0.00000E+00
         0.00000E+00
         0.00000E+00
         0.00000E+00
         0.00000E+00
         0.00000E+00
         0.00000E+00
         0.00000E+00
         0.00000E+00
         0.00000E+00
         0.00000E+00
         0.00000E+00
         0.00000E+00
         0.00000E+00
         0.00000E+00
         0.00000E+00
         0.00000E+00
         0.00000E+00
         0.00000E+00
         0.00000E+00
         0.00000E+00
         0.00000E+00
         0.00000E+00
         0.00000E+00
         0.00000E+00
         0.00000E+00
         0.00000E+00
         0.00000E+00
         0.00000E+00
         0.00000E+00
         0.00000E+00
         0.00000E+00
         0.00000E+00
         0.00000E+00
         0.00000E+00
         0.00000E+00
         0.00000E+00
         0.00000E+00
         0.00000E+00
         0.00000E+00
         0.00000E+00
         0.00000E+00
         0.00000E+00
         0.00000E+00
         0.00000E+00
         0.00000E+00
         0.00000E+00
         0.00000E+00
         0.00000E+00
         0.00000E+00
         0.00000E+00
         0.00000E+00
         0.00000E+00
         0.00000E+00
         0.00000E+00
         0.00000E+00
         0.00000E+00
         0.00000E+00
         0.00000E+00
         0.00000E+00
         0.00000E+00
         0.00000E+00
         0.00000E+00
         0.00000E+00
         0.00000E+00
         0.00000E+00
         0.00000E+00
         0.00000E+00
         0.00000E+00
         0.00000E+00
         0.00000E+00
         0.00000E+00
         0.00000E+00
         0.00000E+00
         0.00000E+00
         0.00000E+00
         0.00000E+00
         0.00000E+00
         0.00000E+00
         0.00000E+00
         0.00000E+00
         0.00000E+00
         0.00000E+00
         0.00000E+00
         0.00000E+00
         0.00000E+00
         0.00000E+00
         0.00000E+00
         0.00000E+00
         0.00000E+00
         0.00000E+00
         0.00000E+00
         0.00000E+00
         0.00000E+00
         0.00000E+00
         0.00000E+00
         0.00000E+00
         0.00000E+00
         0.00000E+00
         0.00000E+00
         0.00000E+00
         0.00000E+00
         0.00000E+00
         0.00000E+00
         0.00000E+00
         0.00000E+00
         0.00000E+00
         0.00000E+00
         0.00000E+00
         0.00000E+00
         0.00000E+00
         0.00000E+00
         0.00000E+00
         0.00000E+00
         0.00000E+00
         0.00000E+00
         0.00000E+00
         0.00000E+00
         0.00000E+00
         0.00000E+00
         0.00000E+00
         0.00000E+00
         0.00000E+00
         0.00000E+00
         0.00000E+00
         0.00000E+00
         0.00000E+00
         0.00000E+00
         0.00000E+00
         0.00000E+00
         0.00000E+00
         0.00000E+00
         0.00000E+00
         0.00000E+00
         0.00000E+00
         0.00000E+00
         0.00000E+00
         0.00000E+00
         0.00000E+00
         0.00000E+00
         0.00000E+00
         0.00000E+00
         0.00000E+00
         0.00000E+00
         0.00000E+00
         0.00000E+00
         0.00000E+00
         0.00000E+00
         0.00000E+00
         0.00000E+00
         0.00000E+00
         0.00000E+00
         0.00000E+00
         0.00000E+00
         0.00000E+00
         0.00000E+00
         0.00000E+00
         0.00000E+00
         0.00000E+00
         0.00000E+00
         0.00000E+00
         0.00000E+00
         0.00000E+00
         0.00000E+00
         0.00000E+00
         0.00000E+00
         0.00000E+00
         0.00000E+00
         0.00000E+00
         0.00000E+00
         0.00000E+00
         0.00000E+00
         0.00000E+00
         0.00000E+00
         0.00000E+00
         0.00000E+00
         0.00000E+00
         0.00000E+00
         0.00000E+00
         0.00000E+00
         0.00000E+00
         0.00000E+00
         0.00000E+00
         0.00000E+00
         0.00000E+00
         0.00000E+00
         0.00000E+00
         0.00000E+00
         0.00000E+00
         0.00000E+00
         0.00000E+00
         0.00000E+00
         0.00000E+00
         0.00000E+00
         0.00000E+00
         0.00000E+00
         0.00000E+00
         0.00000E+00
         0.00000E+00
         0.00000E+00
         0.00000E+00
         0.00000E+00
         0.00000E+00
         0.00000E+00
         0.00000E+00
         0.00000E+00
         0.00000E+00
         0.00000E+00
         0.00000E+00
         0.00000E+00
         0.00000E+00
         0.00000E+00
         0.00000E+00
         0.00000E+00
         0.00000E+00
         0.00000E+00
         0.00000E+00
         0.00000E+00
         0.00000E+00
         0.00000E+00
         0.00000E+00
         0.00000E+00
         0.00000E+00
         0.00000E+00
         0.00000E+00
         0.00000E+00
         0.00000E+00
         0.00000E+00
         0.00000E+00
         0.00000E+00
         0.00000E+00
         0.00000E+00
         0.00000E+00
         0.00000E+00
         0.00000E+00
         0.00000E+00
         0.00000E+00
         0.00000E+00
         0.00000E+00
         0.00000E+00
         0.00000E+00
         0.00000E+00
         0.00000E+00
         0.00000E+00
         0.00000E+00
         0.00000E+00
         0.00000E+00
         0.00000E+00
         0.00000E+00
         0.00000E+00
         0.00000E+00
         0.00000E+00
         0.00000E+00
         0.00000E+00
         0.00000E+00
         0.00000E+00
         0.00000E+00
         0.00000E+00
         0.00000E+00
         0.00000E+00
         0.00000E+00
         0.00000E+00
         0.00000E+00
         0.00000E+00
         0.00000E+00
         0.00000E+00
         0.00000E+00
         0.00000E+00
         0.00000E+00
         0.00000E+00
         0.00000E+00
         0.00000E+00
         0.00000E+00
         0.00000E+00
         0.00000E+00
         0.00000E+00
         0.00000E+00
         0.00000E+00
         0.00000E+00
         0.00000E+00
         0.00000E+00
         0.00000E+00
         0.00000E+00
         0.00000E+00
         0.00000E+00
         0.00000E+00
         0.00000E+00
         0.00000E+00
         0.00000E+00
         0.00000E+00
         0.00000E+00
         0.00000E+00
         0.00000E+00
         0.00000E+00
         0.00000E+00
         0.00000E+00
         0.00000E+00
         0.00000E+00
         0.00000E+00
         0.00000E+00
         0.00000E+00
         0.00000E+00
         0.00000E+00
         0.00000E+00
         0.00000E+00
         0.00000E+00
         0.00000E+00
         0.00000E+00
         0.00000E+00
         0.00000E+00
         0.00000E+00
         0.00000E+00
         0.00000E+00
         0.00000E+00
         0.00000E+00
         0.00000E+00
         0.00000E+00
         0.00000E+00
         0.00000E+00
         0.00000E+00
         0.00000E+00
         0.00000E+00
         0.00000E+00
         0.00000E+00
         0.00000E+00
         0.00000E+00
         0.00000E+00
         0.00000E+00
         0.00000E+00
         0.00000E+00
         0.00000E+00
         0.00000E+00
         0.00000E+00
         0.00000E+00
         0.00000E+00
         0.00000E+00
         0.00000E+00
         0.00000E+00
         0.00000E+00
         0.00000E+00
         0.00000E+00
         0.00000E+00
         0.00000E+00
         0.00000E+00
         0.00000E+00
         0.00000E+00
         0.00000E+00
         0.00000E+00
         0.00000E+00
         0.00000E+00
         0.00000E+00
         0.00000E+00
         0.00000E+00
         0.00000E+00
         0.00000E+00
         0.00000E+00
         0.00000E+00
         0.00000E+00
         0.00000E+00
         0.00000E+00
         0.00000E+00
         0.00000E+00
         0.00000E+00
         0.00000E+00
         0.00000E+00
         0.00000E+00
         0.00000E+00
         0.00000E+00
         0.00000E+00
         0.00000E+00
         0.00000E+00
         0.00000E+00
         0.00000E+00
         0.00000E+00
         0.00000E+00
         0.00000E+00
         0.00000E+00
         0.00000E+00
         0.00000E+00
         0.00000E+00
         0.00000E+00
         0.00000E+00
         0.00000E+00
         0.00000E+00
         0.00000E+00
         0.00000E+00
         0.00000E+00
         0.00000E+00
         0.00000E+00
         0.00000E+00
         0.00000E+00
         0.00000E+00
         0.00000E+00
         0.00000E+00
         0.00000E+00
         0.00000E+00
         0.00000E+00
         0.00000E+00
         0.00000E+00
         0.00000E+00
         0.00000E+00
         0.00000E+00
         0.00000E+00
         0.00000E+00
         0.00000E+00
         0.00000E+00
         0.00000E+00
         0.00000E+00
         0.00000E+00
         0.00000E+00
         0.00000E+00
         0.00000E+00
         0.00000E+00
         0.00000E+00
         0.00000E+00
         0.00000E+00
         0.00000E+00
         0.00000E+00
         0.00000E+00
         0.00000E+00
         0.00000E+00
         0.00000E+00
         0.00000E+00
         0.00000E+00
         0.00000E+00
         0.00000E+00
         0.00000E+00
         0.00000E+00
         0.00000E+00
         0.00000E+00
         0.00000E+00
         0.00000E+00
         0.00000E+00
         0.00000E+00
         0.00000E+00
         0.00000E+00
         0.00000E+00
         0.00000E+00
         0.00000E+00
         0.00000E+00
         0.00000E+00
         0.00000E+00
         0.00000E+00
         0.00000E+00
         0.00000E+00
         0.00000E+00
         0.00000E+00
         0.00000E+00
         0.00000E+00
         0.00000E+00
         0.00000E+00
         0.00000E+00
         0.00000E+00
         0.00000E+00
         0.00000E+00
         0.00000E+00
         0.00000E+00
         0.00000E+00
         0.00000E+00
         0.00000E+00
         0.00000E+00
         0.00000E+00
         0.00000E+00
         0.00000E+00
         0.00000E+00
         0.00000E+00
         0.00000E+00
         0.00000E+00
         0.00000E+00
         0.00000E+00
         0.00000E+00
         0.00000E+00
         0.00000E+00
         0.00000E+00
         0.00000E+00
         0.00000E+00
         0.00000E+00
         0.00000E+00
         0.00000E+00
         0.00000E+00
         0.00000E+00
         0.00000E+00
         0.00000E+00
         0.00000E+00
         0.00000E+00
         0.00000E+00
         0.00000E+00
         0.00000E+00
         0.00000E+00
         0.00000E+00
         0.00000E+00
         0.00000E+00
         0.00000E+00
         0.00000E+00
         0.00000E+00
         0.00000E+00
         0.00000E+00
         0.00000E+00
         0.00000E+00
         0.00000E+00
         0.00000E+00
         0.00000E+00
         0.00000E+00
         0.00000E+00
         0.00000E+00
         0.00000E+00
         0.00000E+00
         0.00000E+00
         0.00000E+00
         0.00000E+00
         0.00000E+00
         0.00000E+00
         0.00000E+00
         0.00000E+00
         0.00000E+00
         0.00000E+00
         0.00000E+00
         0.00000E+00
         0.00000E+00
         0.00000E+00
         0.00000E+00
         0.00000E+00
         0.00000E+00
         0.00000E+00
         0.00000E+00
         0.00000E+00
         0.00000E+00
         0.00000E+00
         0.00000E+00
         0.00000E+00
         0.00000E+00
         0.00000E+00
         0.00000E+00
         0.00000E+00
         0.00000E+00
         0.00000E+00
         0.00000E+00
         0.00000E+00
         0.00000E+00
         0.00000E+00
         0.00000E+00
         0.00000E+00
         0.00000E+00
         0.00000E+00
         0.00000E+00
         0.00000E+00
         0.00000E+00
         0.00000E+00
         0.00000E+00
         0.00000E+00
         0.00000E+00
         0.00000E+00
         0.00000E+00
         0.00000E+00
         0.00000E+00
         0.00000E+00
         0.00000E+00
         0.00000E+00
         0.00000E+00
         0.00000E+00
         0.00000E+00
         0.00000E+00
         0.00000E+00
         0.00000E+00
         0.00000E+00
         0.00000E+00
         0.00000E+00
         0.00000E+00
         0.00000E+00
         0.00000E+00
         0.00000E+00
         0.00000E+00
         0.00000E+00
         0.00000E+00
         0.00000E+00
         0.00000E+00
         0.00000E+00
         0.00000E+00
         0.00000E+00
         0.00000E+00
         0.00000E+00
         0.00000E+00
         0.00000E+00
         0.00000E+00
         0.00000E+00
         0.00000E+00
         0.00000E+00
         0.00000E+00
         0.00000E+00
         0.00000E+00
         0.00000E+00
         0.00000E+00
         0.00000E+00
         0.00000E+00
         0.00000E+00
         0.00000E+00
         0.00000E+00
         0.00000E+00
         0.00000E+00
         0.00000E+00
         0.00000E+00
         0.00000E+00
         0.00000E+00
         0.00000E+00
         0.00000E+00
         0.00000E+00
         0.00000E+00
         0.00000E+00
         0.00000E+00
         0.00000E+00
         0.00000E+00
         0.00000E+00
         0.00000E+00
         0.00000E+00
         0.00000E+00
         0.00000E+00
         0.00000E+00
         0.00000E+00
         0.00000E+00
         0.00000E+00
         0.00000E+00
         0.00000E+00
         0.00000E+00
         0.00000E+00
         0.00000E+00
         0.00000E+00
         0.00000E+00
         0.00000E+00
         0.00000E+00
         0.00000E+00
         0.00000E+00
         0.00000E+00
         0.00000E+00
         0.00000E+00
         0.00000E+00
         0.00000E+00
         0.00000E+00
         0.00000E+00
         0.00000E+00
         0.00000E+00
         0.00000E+00
         0.00000E+00
         0.00000E+00
         0.00000E+00
         0.00000E+00
         0.00000E+00
         0.00000E+00
         0.00000E+00
         0.00000E+00
         0.00000E+00
         0.00000E+00
         0.00000E+00
         0.00000E+00
         0.00000E+00
         0.00000E+00
         0.00000E+00
         0.00000E+00
         0.00000E+00
         0.00000E+00
         0.00000E+00
         0.00000E+00
         0.00000E+00
         0.00000E+00
         0.00000E+00
         0.00000E+00
         0.00000E+00
         0.00000E+00
         0.00000E+00
         0.00000E+00
         0.00000E+00
         0.00000E+00
         0.00000E+00
         0.00000E+00
         0.00000E+00
         0.00000E+00
         0.00000E+00
         0.00000E+00
         0.00000E+00
         0.00000E+00
         0.00000E+00
         0.00000E+00
         0.00000E+00
         0.00000E+00
         0.00000E+00
         0.00000E+00
         0.00000E+00
         0.00000E+00
         0.00000E+00
         0.00000E+00
         0.00000E+00
         0.00000E+00
         0.00000E+00
         0.00000E+00
         0.00000E+00
         0.00000E+00
         0.00000E+00
         0.00000E+00
         0.00000E+00
         0.00000E+00
         0.00000E+00
         0.00000E+00
         0.00000E+00
         0.00000E+00
         0.00000E+00
         0.00000E+00
         0.00000E+00
         0.00000E+00
         0.00000E+00
         0.00000E+00
         0.00000E+00
         0.00000E+00
         0.00000E+00
         0.00000E+00
         0.00000E+00
         0.00000E+00
         0.00000E+00
         0.00000E+00
         0.00000E+00
         0.00000E+00
         0.00000E+00
         0.00000E+00
         0.00000E+00
         0.00000E+00
         0.00000E+00
         0.00000E+00
         0.00000E+00
         0.00000E+00
         0.00000E+00
         0.00000E+00
         0.00000E+00
         0.00000E+00
         0.00000E+00
         0.00000E+00
         0.00000E+00
         0.00000E+00
         0.00000E+00
         0.00000E+00
         0.00000E+00
         0.00000E+00
         0.00000E+00
         0.00000E+00
         0.00000E+00
         0.00000E+00
         0.00000E+00
         0.00000E+00
         0.00000E+00
         0.00000E+00
         0.00000E+00
         0.00000E+00
         0.00000E+00
         0.00000E+00
         0.00000E+00
         0.00000E+00
         0.00000E+00
         0.00000E+00
         0.00000E+00
         0.00000E+00
         0.00000E+00
         0.00000E+00
         0.00000E+00
         0.00000E+00
         0.00000E+00
         0.00000E+00
         0.00000E+00
         0.00000E+00
         0.00000E+00
         0.00000E+00
         0.00000E+00
         0.00000E+00
         0.00000E+00
         0.00000E+00
         0.00000E+00
         0.00000E+00
         0.00000E+00
         0.00000E+00
         0.00000E+00
         0.00000E+00
         0.00000E+00
         0.00000E+00
         0.00000E+00
         0.00000E+00
         0.00000E+00
         0.00000E+00
         0.00000E+00
         0.00000E+00
         0.00000E+00
         0.00000E+00
         0.00000E+00
         0.00000E+00
         0.00000E+00
         0.00000E+00
         0.00000E+00
         0.00000E+00
         0.00000E+00
         0.00000E+00
         0.00000E+00
         0.00000E+00
         0.00000E+00
         0.00000E+00
         0.00000E+00
         0.00000E+00
         0.00000E+00
         0.00000E+00
         0.00000E+00
         0.00000E+00
         0.00000E+00
         0.00000E+00
         0.00000E+00
         0.00000E+00
         0.00000E+00
         0.00000E+00
         0.00000E+00
         0.00000E+00
         0.00000E+00
         0.00000E+00
         0.00000E+00
         0.00000E+00
         0.00000E+00
         0.00000E+00
         0.00000E+00
         0.00000E+00
         0.00000E+00
         0.00000E+00
         0.00000E+00
         0.00000E+00
         0.00000E+00
         0.00000E+00
         0.00000E+00
         0.00000E+00
         0.00000E+00
         0.00000E+00
         0.00000E+00
         0.00000E+00
         0.00000E+00
         0.00000E+00
         0.00000E+00
         0.00000E+00
         0.00000E+00
         0.00000E+00
         0.00000E+00
         0.00000E+00
         0.00000E+00
         0.00000E+00
         0.00000E+00
         0.00000E+00
         0.00000E+00
         0.00000E+00
         0.00000E+00
         0.00000E+00
         0.00000E+00
         0.00000E+00
         0.00000E+00
         0.00000E+00
         0.00000E+00
         0.00000E+00
         0.00000E+00
         0.00000E+00
         0.00000E+00
         0.00000E+00
         0.00000E+00
         0.00000E+00
         0.00000E+00
         0.00000E+00
         0.00000E+00
         0.00000E+00
         0.00000E+00
         0.00000E+00
         0.00000E+00
         0.00000E+00
         0.00000E+00
         0.00000E+00
         0.00000E+00
         0.00000E+00
         0.00000E+00
         0.00000E+00
         0.00000E+00
         0.00000E+00
         0.00000E+00
         0.00000E+00
         0.00000E+00
         0.00000E+00
         0.00000E+00
         0.00000E+00
         0.00000E+00
         0.00000E+00
         0.00000E+00
         0.00000E+00
         0.00000E+00
         0.00000E+00
         0.00000E+00
         0.00000E+00
         0.00000E+00
         0.00000E+00
         0.00000E+00
         0.00000E+00
         0.00000E+00
         0.00000E+00
         0.00000E+00
         0.00000E+00
         0.00000E+00
         0.00000E+00
         0.00000E+00
         0.00000E+00
         0.00000E+00
         0.00000E+00
         0.00000E+00
         0.00000E+00
         0.00000E+00
         0.00000E+00
         0.00000E+00
         0.00000E+00
         0.00000E+00
         0.00000E+00
         0.00000E+00
         0.00000E+00
         0.00000E+00
         0.00000E+00
         0.00000E+00
         0.00000E+00
         0.00000E+00
         0.00000E+00
         0.00000E+00
         0.00000E+00
         0.00000E+00
         0.00000E+00
         0.00000E+00
         0.00000E+00
         0.00000E+00
         0.00000E+00
         0.00000E+00
         0.00000E+00
         0.00000E+00
         0.00000E+00
         0.00000E+00
         0.00000E+00
         0.00000E+00
         0.00000E+00
         0.00000E+00
         0.00000E+00
         0.00000E+00
         0.00000E+00
         0.00000E+00
         0.00000E+00
         0.00000E+00
         0.00000E+00
         0.00000E+00
         0.00000E+00
         0.00000E+00
         0.00000E+00
         0.00000E+00
         0.00000E+00
         0.00000E+00
         0.00000E+00
         0.00000E+00
         0.00000E+00
         0.00000E+00
         0.00000E+00
         0.00000E+00
         0.00000E+00
         0.00000E+00
         0.00000E+00
         0.00000E+00
         0.00000E+00
         0.00000E+00
         0.00000E+00
         0.00000E+00
         0.00000E+00
         0.00000E+00
         0.00000E+00
         0.00000E+00
         0.00000E+00
         0.00000E+00
         0.00000E+00
         0.00000E+00
         0.00000E+00
         0.00000E+00
         0.00000E+00
         0.00000E+00
         0.00000E+00
         0.00000E+00
         0.00000E+00
         0.00000E+00
         0.00000E+00
         0.00000E+00
         0.00000E+00
         0.00000E+00
         0.00000E+00
         0.00000E+00
         0.00000E+00
         0.00000E+00
         0.00000E+00
         0.00000E+00
         0.00000E+00
         0.00000E+00
         0.00000E+00
         0.00000E+00
         0.00000E+00
         0.00000E+00
         0.00000E+00
         0.00000E+00
         0.00000E+00
         0.00000E+00
         0.00000E+00
         0.00000E+00
         0.00000E+00
         0.00000E+00
         0.00000E+00
         0.00000E+00
         0.00000E+00
         0.00000E+00
         0.00000E+00
         0.00000E+00
         0.00000E+00
         0.00000E+00
         0.00000E+00
         0.00000E+00
         0.00000E+00
         0.00000E+00
         0.00000E+00
         0.00000E+00
         0.00000E+00
         0.00000E+00
         0.00000E+00
         0.00000E+00
         0.00000E+00
         0.00000E+00
         0.00000E+00
         0.00000E+00
         0.00000E+00
         0.00000E+00
         0.00000E+00
         0.00000E+00
         0.00000E+00
         0.00000E+00
         0.00000E+00
         0.00000E+00
         0.00000E+00
         0.00000E+00
         0.00000E+00
         0.00000E+00
         0.00000E+00
         0.00000E+00
         0.00000E+00
         0.00000E+00
         0.00000E+00
         0.00000E+00
         0.00000E+00
         0.00000E+00
         0.00000E+00
         0.00000E+00
         0.00000E+00
         0.00000E+00
         0.00000E+00
         0.00000E+00
         0.00000E+00
         0.00000E+00
         0.00000E+00
         0.00000E+00
         0.00000E+00
         0.00000E+00
         0.00000E+00
         0.00000E+00
         0.00000E+00
         0.00000E+00
         0.00000E+00
         0.00000E+00
         0.00000E+00
         0.00000E+00
         0.00000E+00
         0.00000E+00
         0.00000E+00
         0.00000E+00
         0.00000E+00
         0.00000E+00
         0.00000E+00
         0.00000E+00
         0.00000E+00
         0.00000E+00
         0.00000E+00
         0.00000E+00
         0.00000E+00
         0.00000E+00
         0.00000E+00
         0.00000E+00
         0.00000E+00
         0.00000E+00
         0.00000E+00
         0.00000E+00
         0.00000E+00
         0.00000E+00
         0.00000E+00
         0.00000E+00
         0.00000E+00
         0.00000E+00
         0.00000E+00
         0.00000E+00
         0.00000E+00
         0.00000E+00
         0.00000E+00
         0.00000E+00
         0.00000E+00
         0.00000E+00
         0.00000E+00
         0.00000E+00
         0.00000E+00
         0.00000E+00
         0.00000E+00
         0.00000E+00
         0.00000E+00
         0.00000E+00
         0.00000E+00
         0.00000E+00
         0.00000E+00
         0.00000E+00
         0.00000E+00
         0.00000E+00
         0.00000E+00
         0.00000E+00
         0.00000E+00
         0.00000E+00
         0.00000E+00
         0.00000E+00
         0.00000E+00
         0.00000E+00
         0.00000E+00
         0.00000E+00
         0.00000E+00
         0.00000E+00
         0.00000E+00
         0.00000E+00
         0.00000E+00
         0.00000E+00
         0.00000E+00
         0.00000E+00
         0.00000E+00
         0.00000E+00
         0.00000E+00
         0.00000E+00
         0.00000E+00
         0.00000E+00
         0.00000E+00
         0.00000E+00
         0.00000E+00
         0.00000E+00
         0.00000E+00
         0.00000E+00
         0.00000E+00
         0.00000E+00
         0.00000E+00
         0.00000E+00
         0.00000E+00
         0.00000E+00
         0.00000E+00
         0.00000E+00
         0.00000E+00
         0.00000E+00
         0.00000E+00
         0.00000E+00
         0.00000E+00
         0.00000E+00
         0.00000E+00
         0.00000E+00
         0.00000E+00
         0.00000E+00
         0.00000E+00
         0.00000E+00
         0.00000E+00
         0.00000E+00
         0.00000E+00
         0.00000E+00
         0.00000E+00
         0.00000E+00
         0.00000E+00
         0.00000E+00
         0.00000E+00
         0.00000E+00
         0.00000E+00
         0.00000E+00
         0.00000E+00
         0.00000E+00
         0.00000E+00
         0.00000E+00
         0.00000E+00
         0.00000E+00
         0.00000E+00
         0.00000E+00
         0.00000E+00
         0.00000E+00
         0.00000E+00
         0.00000E+00
         0.00000E+00
         0.00000E+00
         0.00000E+00
         0.00000E+00
         0.00000E+00
         0.00000E+00
         0.00000E+00
         0.00000E+00
         0.00000E+00
         0.00000E+00
         0.00000E+00
         0.00000E+00
         0.00000E+00
         0.00000E+00
         0.00000E+00
         0.00000E+00
         0.00000E+00
         0.00000E+00
         0.00000E+00
         0.00000E+00
         0.00000E+00
         0.00000E+00
         0.00000E+00
         0.00000E+00
         0.00000E+00
         0.00000E+00
         0.00000E+00
         0.00000E+00
         0.00000E+00
         0.00000E+00
         0.00000E+00
         0.00000E+00
         0.00000E+00
         0.00000E+00
         0.00000E+00
         0.00000E+00
         0.00000E+00
         0.00000E+00
         0.00000E+00
         0.00000E+00
         0.00000E+00
         0.00000E+00
         0.00000E+00
         0.00000E+00
         0.00000E+00
         0.00000E+00
         0.00000E+00
         0.00000E+00
         0.00000E+00
         0.00000E+00
         0.00000E+00
         0.00000E+00
         0.00000E+00
         0.00000E+00
         0.00000E+00
         0.00000E+00
         0.00000E+00
         0.00000E+00
         0.00000E+00
         0.00000E+00
         0.00000E+00
         0.00000E+00
         0.00000E+00
         0.00000E+00
         0.00000E+00
         0.00000E+00
         0.00000E+00
         0.00000E+00
         0.00000E+00
         0.00000E+00
         0.00000E+00
         0.00000E+00
         0.00000E+00
         0.00000E+00
         0.00000E+00
         0.00000E+00
         0.00000E+00
         0.00000E+00
         0.00000E+00
         0.00000E+00
         0.00000E+00
         0.00000E+00
         0.00000E+00
         0.00000E+00
         0.00000E+00
         0.00000E+00
         0.00000E+00
         0.00000E+00
         0.00000E+00
         0.00000E+00
         0.00000E+00
         0.00000E+00
         0.00000E+00
         0.00000E+00
         0.00000E+00
         0.00000E+00
         0.00000E+00
         0.00000E+00
         0.00000E+00
         0.00000E+00
         0.00000E+00
         0.00000E+00
         0.00000E+00
         0.00000E+00
         0.00000E+00
         0.00000E+00
         0.00000E+00
         0.00000E+00
         0.00000E+00
         0.00000E+00
         0.00000E+00
         0.00000E+00
         0.00000E+00
         0.00000E+00
         0.00000E+00
         0.00000E+00
         0.00000E+00
  
SCALARS                init_velocity_y  double 1
LOOKUP_TABLE default
         0.00000E+00
         0.00000E+00
         0.00000E+00
         0.00000E+00
         0.00000E+00
         0.00000E+00
         0.00000E+00
         0.00000E+00
         0.00000E+00
         0.00000E+00
         0.00000E+00
         0.00000E+00
         0.00000E+00
         0.00000E+00
         0.00000E+00
         0.00000E+00
         0.00000E+00
         0.00000E+00
         0.00000E+00
         0.00000E+00
         0.00000E+00
         0.00000E+00
         0.00000E+00
         0.00000E+00
         0.00000E+00
         0.00000E+00
         0.00000E+00
         0.00000E+00
         0.00000E+00
         0.00000E+00
         0.00000E+00
         0.00000E+00
         0.00000E+00
         0.00000E+00
         0.00000E+00
         0.00000E+00
         0.00000E+00
         0.00000E+00
         0.00000E+00
         0.00000E+00
         0.00000E+00
         0.00000E+00
         0.00000E+00
         0.00000E+00
         0.00000E+00
         0.00000E+00
         0.00000E+00
         0.00000E+00
         0.00000E+00
         0.00000E+00
         0.00000E+00
         0.00000E+00
         0.00000E+00
         0.00000E+00
         0.00000E+00
         0.00000E+00
         0.00000E+00
         0.00000E+00
         0.00000E+00
         0.00000E+00
         0.00000E+00
         0.00000E+00
         0.00000E+00
         0.00000E+00
         0.00000E+00
         0.00000E+00
         0.00000E+00
         0.00000E+00
         0.00000E+00
         0.00000E+00
         0.00000E+00
         0.00000E+00
         0.00000E+00
         0.00000E+00
         0.00000E+00
         0.00000E+00
         0.00000E+00
         0.00000E+00
         0.00000E+00
         0.00000E+00
         0.00000E+00
         0.00000E+00
         0.00000E+00
         0.00000E+00
         0.00000E+00
         0.00000E+00
         0.00000E+00
         0.00000E+00
         0.00000E+00
         0.00000E+00
         0.00000E+00
         0.00000E+00
         0.00000E+00
         0.00000E+00
         0.00000E+00
         0.00000E+00
         0.00000E+00
         0.00000E+00
         0.00000E+00
         0.00000E+00
         0.00000E+00
         0.00000E+00
         0.00000E+00
         0.00000E+00
         0.00000E+00
         0.00000E+00
         0.00000E+00
         0.00000E+00
         0.00000E+00
         0.00000E+00
         0.00000E+00
         0.00000E+00
         0.00000E+00
         0.00000E+00
         0.00000E+00
         0.00000E+00
         0.00000E+00
         0.00000E+00
         0.00000E+00
         0.00000E+00
         0.00000E+00
         0.00000E+00
         0.00000E+00
         0.00000E+00
         0.00000E+00
         0.00000E+00
         0.00000E+00
         0.00000E+00
         0.00000E+00
         0.00000E+00
         0.00000E+00
         0.00000E+00
         0.00000E+00
         0.00000E+00
         0.00000E+00
         0.00000E+00
         0.00000E+00
         0.00000E+00
         0.00000E+00
         0.00000E+00
         0.00000E+00
         0.00000E+00
         0.00000E+00
         0.00000E+00
         0.00000E+00
         0.00000E+00
         0.00000E+00
         0.00000E+00
         0.00000E+00
         0.00000E+00
         0.00000E+00
         0.00000E+00
         0.00000E+00
         0.00000E+00
         0.00000E+00
         0.00000E+00
         0.00000E+00
         0.00000E+00
         0.00000E+00
         0.00000E+00
         0.00000E+00
         0.00000E+00
         0.00000E+00
         0.00000E+00
         0.00000E+00
         0.00000E+00
         0.00000E+00
         0.00000E+00
         0.00000E+00
         0.00000E+00
         0.00000E+00
         0.00000E+00
         0.00000E+00
         0.00000E+00
         0.00000E+00
         0.00000E+00
         0.00000E+00
         0.00000E+00
         0.00000E+00
         0.00000E+00
         0.00000E+00
         0.00000E+00
         0.00000E+00
         0.00000E+00
         0.00000E+00
         0.00000E+00
         0.00000E+00
         0.00000E+00
         0.00000E+00
         0.00000E+00
         0.00000E+00
         0.00000E+00
         0.00000E+00
         0.00000E+00
         0.00000E+00
         0.00000E+00
         0.00000E+00
         0.00000E+00
         0.00000E+00
         0.00000E+00
         0.00000E+00
         0.00000E+00
         0.00000E+00
         0.00000E+00
         0.00000E+00
         0.00000E+00
         0.00000E+00
         0.00000E+00
         0.00000E+00
         0.00000E+00
         0.00000E+00
         0.00000E+00
         0.00000E+00
         0.00000E+00
         0.00000E+00
         0.00000E+00
         0.00000E+00
         0.00000E+00
         0.00000E+00
         0.00000E+00
         0.00000E+00
         0.00000E+00
         0.00000E+00
         0.00000E+00
         0.00000E+00
         0.00000E+00
         0.00000E+00
         0.00000E+00
         0.00000E+00
         0.00000E+00
         0.00000E+00
         0.00000E+00
         0.00000E+00
         0.00000E+00
         0.00000E+00
         0.00000E+00
         0.00000E+00
         0.00000E+00
         0.00000E+00
         0.00000E+00
         0.00000E+00
         0.00000E+00
         0.00000E+00
         0.00000E+00
         0.00000E+00
         0.00000E+00
         0.00000E+00
         0.00000E+00
         0.00000E+00
         0.00000E+00
         0.00000E+00
         0.00000E+00
         0.00000E+00
         0.00000E+00
         0.00000E+00
         0.00000E+00
         0.00000E+00
         0.00000E+00
         0.00000E+00
         0.00000E+00
         0.00000E+00
         0.00000E+00
         0.00000E+00
         0.00000E+00
         0.00000E+00
         0.00000E+00
         0.00000E+00
         0.00000E+00
         0.00000E+00
         0.00000E+00
         0.00000E+00
         0.00000E+00
         0.00000E+00
         0.00000E+00
         0.00000E+00
         0.00000E+00
         0.00000E+00
         0.00000E+00
         0.00000E+00
         0.00000E+00
         0.00000E+00
         0.00000E+00
         0.00000E+00
         0.00000E+00
         0.00000E+00
         0.00000E+00
         0.00000E+00
         0.00000E+00
         0.00000E+00
         0.00000E+00
         0.00000E+00
         0.00000E+00
         0.00000E+00
         0.00000E+00
         0.00000E+00
         0.00000E+00
         0.00000E+00
         0.00000E+00
         0.00000E+00
         0.00000E+00
         0.00000E+00
         0.00000E+00
         0.00000E+00
         0.00000E+00
         0.00000E+00
         0.00000E+00
         0.00000E+00
         0.00000E+00
         0.00000E+00
         0.00000E+00
         0.00000E+00
         0.00000E+00
         0.00000E+00
         0.00000E+00
         0.00000E+00
         0.00000E+00
         0.00000E+00
         0.00000E+00
         0.00000E+00
         0.00000E+00
         0.00000E+00
         0.00000E+00
         0.00000E+00
         0.00000E+00
         0.00000E+00
         0.00000E+00
         0.00000E+00
         0.00000E+00
         0.00000E+00
         0.00000E+00
         0.00000E+00
         0.00000E+00
         0.00000E+00
         0.00000E+00
         0.00000E+00
         0.00000E+00
         0.00000E+00
         0.00000E+00
         0.00000E+00
         0.00000E+00
         0.00000E+00
         0.00000E+00
         0.00000E+00
         0.00000E+00
         0.00000E+00
         0.00000E+00
         0.00000E+00
         0.00000E+00
         0.00000E+00
         0.00000E+00
         0.00000E+00
         0.00000E+00
         0.00000E+00
         0.00000E+00
         0.00000E+00
         0.00000E+00
         0.00000E+00
         0.00000E+00
         0.00000E+00
         0.00000E+00
         0.00000E+00
         0.00000E+00
         0.00000E+00
         0.00000E+00
         0.00000E+00
         0.00000E+00
         0.00000E+00
         0.00000E+00
         0.00000E+00
         0.00000E+00
         0.00000E+00
         0.00000E+00
         0.00000E+00
         0.00000E+00
         0.00000E+00
         0.00000E+00
         0.00000E+00
         0.00000E+00
         0.00000E+00
         0.00000E+00
         0.00000E+00
         0.00000E+00
         0.00000E+00
         0.00000E+00
         0.00000E+00
         0.00000E+00
         0.00000E+00
         0.00000E+00
         0.00000E+00
         0.00000E+00
         0.00000E+00
         0.00000E+00
         0.00000E+00
         0.00000E+00
         0.00000E+00
         0.00000E+00
         0.00000E+00
         0.00000E+00
         0.00000E+00
         0.00000E+00
         0.00000E+00
         0.00000E+00
         0.00000E+00
         0.00000E+00
         0.00000E+00
         0.00000E+00
         0.00000E+00
         0.00000E+00
         0.00000E+00
         0.00000E+00
         0.00000E+00
         0.00000E+00
         0.00000E+00
         0.00000E+00
         0.00000E+00
         0.00000E+00
         0.00000E+00
         0.00000E+00
         0.00000E+00
         0.00000E+00
         0.00000E+00
         0.00000E+00
         0.00000E+00
         0.00000E+00
         0.00000E+00
         0.00000E+00
         0.00000E+00
         0.00000E+00
         0.00000E+00
         0.00000E+00
         0.00000E+00
         0.00000E+00
         0.00000E+00
         0.00000E+00
         0.00000E+00
         0.00000E+00
         0.00000E+00
         0.00000E+00
         0.00000E+00
         0.00000E+00
         0.00000E+00
         0.00000E+00
         0.00000E+00
         0.00000E+00
         0.00000E+00
         0.00000E+00
         0.00000E+00
         0.00000E+00
         0.00000E+00
         0.00000E+00
         0.00000E+00
         0.00000E+00
         0.00000E+00
         0.00000E+00
         0.00000E+00
         0.00000E+00
         0.00000E+00
         0.00000E+00
         0.00000E+00
         0.00000E+00
         0.00000E+00
         0.00000E+00
         0.00000E+00
         0.00000E+00
         0.00000E+00
         0.00000E+00
         0.00000E+00
         0.00000E+00
         0.00000E+00
         0.00000E+00
         0.00000E+00
         0.00000E+00
         0.00000E+00
         0.00000E+00
         0.00000E+00
         0.00000E+00
         0.00000E+00
         0.00000E+00
         0.00000E+00
         0.00000E+00
         0.00000E+00
         0.00000E+00
         0.00000E+00
         0.00000E+00
         0.00000E+00
         0.00000E+00
         0.00000E+00
         0.00000E+00
         0.00000E+00
         0.00000E+00
         0.00000E+00
         0.00000E+00
         0.00000E+00
         0.00000E+00
         0.00000E+00
         0.00000E+00
         0.00000E+00
         0.00000E+00
         0.00000E+00
         0.00000E+00
         0.00000E+00
         0.00000E+00
         0.00000E+00
         0.00000E+00
         0.00000E+00
         0.00000E+00
         0.00000E+00
         0.00000E+00
         0.00000E+00
         0.00000E+00
         0.00000E+00
         0.00000E+00
         0.00000E+00
         0.00000E+00
         0.00000E+00
         0.00000E+00
         0.00000E+00
         0.00000E+00
         0.00000E+00
         0.00000E+00
         0.00000E+00
         0.00000E+00
         0.00000E+00
         0.00000E+00
         0.00000E+00
         0.00000E+00
         0.00000E+00
         0.00000E+00
         0.00000E+00
         0.00000E+00
         0.00000E+00
         0.00000E+00
         0.00000E+00
         0.00000E+00
         0.00000E+00
         0.00000E+00
         0.00000E+00
         0.00000E+00
         0.00000E+00
         0.00000E+00
         0.00000E+00
         0.00000E+00
         0.00000E+00
         0.00000E+00
         0.00000E+00
         0.00000E+00
         0.00000E+00
         0.00000E+00
         0.00000E+00
         0.00000E+00
         0.00000E+00
         0.00000E+00
         0.00000E+00
         0.00000E+00
         0.00000E+00
         0.00000E+00
         0.00000E+00
         0.00000E+00
         0.00000E+00
         0.00000E+00
         0.00000E+00
         0.00000E+00
         0.00000E+00
         0.00000E+00
         0.00000E+00
         0.00000E+00
         0.00000E+00
         0.00000E+00
         0.00000E+00
         0.00000E+00
         0.00000E+00
         0.00000E+00
         0.00000E+00
         0.00000E+00
         0.00000E+00
         0.00000E+00
         0.00000E+00
         0.00000E+00
         0.00000E+00
         0.00000E+00
         0.00000E+00
         0.00000E+00
         0.00000E+00
         0.00000E+00
         0.00000E+00
         0.00000E+00
         0.00000E+00
         0.00000E+00
         0.00000E+00
         0.00000E+00
         0.00000E+00
         0.00000E+00
         0.00000E+00
         0.00000E+00
         0.00000E+00
         0.00000E+00
         0.00000E+00
         0.00000E+00
         0.00000E+00
         0.00000E+00
         0.00000E+00
         0.00000E+00
         0.00000E+00
         0.00000E+00
         0.00000E+00
         0.00000E+00
         0.00000E+00
         0.00000E+00
         0.00000E+00
         0.00000E+00
         0.00000E+00
         0.00000E+00
         0.00000E+00
         0.00000E+00
         0.00000E+00
         0.00000E+00
         0.00000E+00
         0.00000E+00
         0.00000E+00
         0.00000E+00
         0.00000E+00
         0.00000E+00
         0.00000E+00
         0.00000E+00
         0.00000E+00
         0.00000E+00
         0.00000E+00
         0.00000E+00
         0.00000E+00
         0.00000E+00
         0.00000E+00
         0.00000E+00
         0.00000E+00
         0.00000E+00
         0.00000E+00
         0.00000E+00
         0.00000E+00
         0.00000E+00
         0.00000E+00
         0.00000E+00
         0.00000E+00
         0.00000E+00
         0.00000E+00
         0.00000E+00
         0.00000E+00
         0.00000E+00
         0.00000E+00
         0.00000E+00
         0.00000E+00
         0.00000E+00
         0.00000E+00
         0.00000E+00
         0.00000E+00
         0.00000E+00
         0.00000E+00
         0.00000E+00
         0.00000E+00
         0.00000E+00
         0.00000E+00
         0.00000E+00
         0.00000E+00
         0.00000E+00
         0.00000E+00
         0.00000E+00
         0.00000E+00
         0.00000E+00
         0.00000E+00
         0.00000E+00
         0.00000E+00
         0.00000E+00
         0.00000E+00
         0.00000E+00
         0.00000E+00
         0.00000E+00
         0.00000E+00
         0.00000E+00
         0.00000E+00
         0.00000E+00
         0.00000E+00
         0.00000E+00
         0.00000E+00
         0.00000E+00
         0.00000E+00
         0.00000E+00
         0.00000E+00
         0.00000E+00
         0.00000E+00
         0.00000E+00
         0.00000E+00
         0.00000E+00
         0.00000E+00
         0.00000E+00
         0.00000E+00
         0.00000E+00
         0.00000E+00
         0.00000E+00
         0.00000E+00
         0.00000E+00
         0.00000E+00
         0.00000E+00
         0.00000E+00
         0.00000E+00
         0.00000E+00
         0.00000E+00
         0.00000E+00
         0.00000E+00
         0.00000E+00
         0.00000E+00
         0.00000E+00
         0.00000E+00
         0.00000E+00
         0.00000E+00
         0.00000E+00
         0.00000E+00
         0.00000E+00
         0.00000E+00
         0.00000E+00
         0.00000E+00
         0.00000E+00
         0.00000E+00
         0.00000E+00
         0.00000E+00
         0.00000E+00
         0.00000E+00
         0.00000E+00
         0.00000E+00
         0.00000E+00
         0.00000E+00
         0.00000E+00
         0.00000E+00
         0.00000E+00
         0.00000E+00
         0.00000E+00
         0.00000E+00
         0.00000E+00
         0.00000E+00
         0.00000E+00
         0.00000E+00
         0.00000E+00
         0.00000E+00
         0.00000E+00
         0.00000E+00
         0.00000E+00
         0.00000E+00
         0.00000E+00
         0.00000E+00
         0.00000E+00
         0.00000E+00
         0.00000E+00
         0.00000E+00
         0.00000E+00
         0.00000E+00
         0.00000E+00
         0.00000E+00
         0.00000E+00
         0.00000E+00
         0.00000E+00
         0.00000E+00
         0.00000E+00
         0.00000E+00
         0.00000E+00
         0.00000E+00
         0.00000E+00
         0.00000E+00
         0.00000E+00
         0.00000E+00
         0.00000E+00
         0.00000E+00
         0.00000E+00
         0.00000E+00
         0.00000E+00
         0.00000E+00
         0.00000E+00
         0.00000E+00
         0.00000E+00
         0.00000E+00
         0.00000E+00
         0.00000E+00
         0.00000E+00
         0.00000E+00
         0.00000E+00
         0.00000E+00
         0.00000E+00
         0.00000E+00
         0.00000E+00
         0.00000E+00
         0.00000E+00
         0.00000E+00
         0.00000E+00
         0.00000E+00
         0.00000E+00
         0.00000E+00
         0.00000E+00
         0.00000E+00
         0.00000E+00
         0.00000E+00
         0.00000E+00
         0.00000E+00
         0.00000E+00
         0.00000E+00
         0.00000E+00
         0.00000E+00
         0.00000E+00
         0.00000E+00
         0.00000E+00
         0.00000E+00
         0.00000E+00
         0.00000E+00
         0.00000E+00
         0.00000E+00
         0.00000E+00
         0.00000E+00
         0.00000E+00
         0.00000E+00
         0.00000E+00
         0.00000E+00
         0.00000E+00
         0.00000E+00
         0.00000E+00
         0.00000E+00
         0.00000E+00
         0.00000E+00
         0.00000E+00
         0.00000E+00
         0.00000E+00
         0.00000E+00
         0.00000E+00
         0.00000E+00
         0.00000E+00
         0.00000E+00
         0.00000E+00
         0.00000E+00
         0.00000E+00
         0.00000E+00
         0.00000E+00
         0.00000E+00
         0.00000E+00
         0.00000E+00
         0.00000E+00
         0.00000E+00
         0.00000E+00
         0.00000E+00
         0.00000E+00
         0.00000E+00
         0.00000E+00
         0.00000E+00
         0.00000E+00
         0.00000E+00
         0.00000E+00
         0.00000E+00
         0.00000E+00
         0.00000E+00
         0.00000E+00
         0.00000E+00
         0.00000E+00
         0.00000E+00
         0.00000E+00
         0.00000E+00
         0.00000E+00
         0.00000E+00
         0.00000E+00
         0.00000E+00
         0.00000E+00
         0.00000E+00
         0.00000E+00
         0.00000E+00
         0.00000E+00
         0.00000E+00
         0.00000E+00
         0.00000E+00
         0.00000E+00
         0.00000E+00
         0.00000E+00
         0.00000E+00
         0.00000E+00
         0.00000E+00
         0.00000E+00
         0.00000E+00
         0.00000E+00
         0.00000E+00
         0.00000E+00
         0.00000E+00
         0.00000E+00
         0.00000E+00
         0.00000E+00
         0.00000E+00
         0.00000E+00
         0.00000E+00
         0.00000E+00
         0.00000E+00
         0.00000E+00
         0.00000E+00
         0.00000E+00
         0.00000E+00
         0.00000E+00
         0.00000E+00
         0.00000E+00
         0.00000E+00
         0.00000E+00
         0.00000E+00
         0.00000E+00
         0.00000E+00
         0.00000E+00
         0.00000E+00
         0.00000E+00
         0.00000E+00
         0.00000E+00
         0.00000E+00
         0.00000E+00
         0.00000E+00
         0.00000E+00
         0.00000E+00
         0.00000E+00
         0.00000E+00
         0.00000E+00
         0.00000E+00
         0.00000E+00
         0.00000E+00
         0.00000E+00
         0.00000E+00
         0.00000E+00
         0.00000E+00
         0.00000E+00
         0.00000E+00
         0.00000E+00
         0.00000E+00
         0.00000E+00
         0.00000E+00
         0.00000E+00
         0.00000E+00
         0.00000E+00
         0.00000E+00
         0.00000E+00
         0.00000E+00
         0.00000E+00
         0.00000E+00
         0.00000E+00
         0.00000E+00
         0.00000E+00
         0.00000E+00
         0.00000E+00
         0.00000E+00
         0.00000E+00
         0.00000E+00
         0.00000E+00
         0.00000E+00
         0.00000E+00
         0.00000E+00
         0.00000E+00
         0.00000E+00
         0.00000E+00
         0.00000E+00
         0.00000E+00
         0.00000E+00
         0.00000E+00
         0.00000E+00
         0.00000E+00
         0.00000E+00
         0.00000E+00
         0.00000E+00
         0.00000E+00
         0.00000E+00
         0.00000E+00
         0.00000E+00
         0.00000E+00
         0.00000E+00
         0.00000E+00
         0.00000E+00
         0.00000E+00
         0.00000E+00
         0.00000E+00
         0.00000E+00
         0.00000E+00
         0.00000E+00
         0.00000E+00
         0.00000E+00
         0.00000E+00
         0.00000E+00
         0.00000E+00
         0.00000E+00
         0.00000E+00
         0.00000E+00
         0.00000E+00
         0.00000E+00
         0.00000E+00
         0.00000E+00
         0.00000E+00
         0.00000E+00
         0.00000E+00
         0.00000E+00
         0.00000E+00
         0.00000E+00
         0.00000E+00
         0.00000E+00
         0.00000E+00
         0.00000E+00
         0.00000E+00
         0.00000E+00
         0.00000E+00
         0.00000E+00
         0.00000E+00
         0.00000E+00
         0.00000E+00
         0.00000E+00
         0.00000E+00
         0.00000E+00
         0.00000E+00
         0.00000E+00
         0.00000E+00
         0.00000E+00
         0.00000E+00
         0.00000E+00
         0.00000E+00
         0.00000E+00
         0.00000E+00
         0.00000E+00
         0.00000E+00
         0.00000E+00
         0.00000E+00
         0.00000E+00
         0.00000E+00
         0.00000E+00
         0.00000E+00
         0.00000E+00
         0.00000E+00
         0.00000E+00
         0.00000E+00
         0.00000E+00
         0.00000E+00
         0.00000E+00
         0.00000E+00
         0.00000E+00
         0.00000E+00
         0.00000E+00
         0.00000E+00
         0.00000E+00
         0.00000E+00
         0.00000E+00
         0.00000E+00
         0.00000E+00
         0.00000E+00
         0.00000E+00
         0.00000E+00
         0.00000E+00
         0.00000E+00
         0.00000E+00
         0.00000E+00
         0.00000E+00
         0.00000E+00
         0.00000E+00
         0.00000E+00
         0.00000E+00
         0.00000E+00
         0.00000E+00
         0.00000E+00
         0.00000E+00
         0.00000E+00
         0.00000E+00
         0.00000E+00
         0.00000E+00
         0.00000E+00
         0.00000E+00
         0.00000E+00
         0.00000E+00
         0.00000E+00
         0.00000E+00
         0.00000E+00
         0.00000E+00
         0.00000E+00
         0.00000E+00
         0.00000E+00
         0.00000E+00
         0.00000E+00
         0.00000E+00
         0.00000E+00
         0.00000E+00
         0.00000E+00
         0.00000E+00
         0.00000E+00
         0.00000E+00
         0.00000E+00
         0.00000E+00
         0.00000E+00
         0.00000E+00
         0.00000E+00
         0.00000E+00
         0.00000E+00
         0.00000E+00
         0.00000E+00
         0.00000E+00
         0.00000E+00
         0.00000E+00
         0.00000E+00
         0.00000E+00
         0.00000E+00
         0.00000E+00
         0.00000E+00
         0.00000E+00
         0.00000E+00
         0.00000E+00
         0.00000E+00
         0.00000E+00
         0.00000E+00
         0.00000E+00
         0.00000E+00
         0.00000E+00
         0.00000E+00
         0.00000E+00
         0.00000E+00
         0.00000E+00
         0.00000E+00
         0.00000E+00
         0.00000E+00
         0.00000E+00
         0.00000E+00
         0.00000E+00
         0.00000E+00
         0.00000E+00
         0.00000E+00
         0.00000E+00
         0.00000E+00
         0.00000E+00
         0.00000E+00
         0.00000E+00
         0.00000E+00
         0.00000E+00
         0.00000E+00
         0.00000E+00
         0.00000E+00
         0.00000E+00
         0.00000E+00
         0.00000E+00
         0.00000E+00
         0.00000E+00
         0.00000E+00
         0.00000E+00
         0.00000E+00
         0.00000E+00
         0.00000E+00
         0.00000E+00
         0.00000E+00
         0.00000E+00
         0.00000E+00
         0.00000E+00
         0.00000E+00
         0.00000E+00
         0.00000E+00
         0.00000E+00
         0.00000E+00
         0.00000E+00
         0.00000E+00
         0.00000E+00
         0.00000E+00
         0.00000E+00
         0.00000E+00
         0.00000E+00
         0.00000E+00
         0.00000E+00
         0.00000E+00
         0.00000E+00
         0.00000E+00
         0.00000E+00
         0.00000E+00
         0.00000E+00
         0.00000E+00
         0.00000E+00
         0.00000E+00
         0.00000E+00
         0.00000E+00
         0.00000E+00
         0.00000E+00
         0.00000E+00
         0.00000E+00
         0.00000E+00
         0.00000E+00
         0.00000E+00
         0.00000E+00
         0.00000E+00
         0.00000E+00
         0.00000E+00
         0.00000E+00
         0.00000E+00
         0.00000E+00
         0.00000E+00
         0.00000E+00
         0.00000E+00
         0.00000E+00
         0.00000E+00
         0.00000E+00
         0.00000E+00
         0.00000E+00
         0.00000E+00
         0.00000E+00
         0.00000E+00
         0.00000E+00
         0.00000E+00
         0.00000E+00
         0.00000E+00
         0.00000E+00
         0.00000E+00
         0.00000E+00
         0.00000E+00
         0.00000E+00
         0.00000E+00
         0.00000E+00
         0.00000E+00
         0.00000E+00
         0.00000E+00
         0.00000E+00
         0.00000E+00
         0.00000E+00
         0.00000E+00
         0.00000E+00
         0.00000E+00
         0.00000E+00
         0.00000E+00
         0.00000E+00
         0.00000E+00
         0.00000E+00
         0.00000E+00
         0.00000E+00
         0.00000E+00
         0.00000E+00
         0.00000E+00
         0.00000E+00
         0.00000E+00
         0.00000E+00
         0.00000E+00
         0.00000E+00
         0.00000E+00
         0.00000E+00
         0.00000E+00
         0.00000E+00
         0.00000E+00
         0.00000E+00
         0.00000E+00
         0.00000E+00
         0.00000E+00
         0.00000E+00
         0.00000E+00
         0.00000E+00
         0.00000E+00
         0.00000E+00
         0.00000E+00
         0.00000E+00
         0.00000E+00
         0.00000E+00
         0.00000E+00
         0.00000E+00
         0.00000E+00
         0.00000E+00
         0.00000E+00
         0.00000E+00
         0.00000E+00
         0.00000E+00
         0.00000E+00
         0.00000E+00
         0.00000E+00
         0.00000E+00
         0.00000E+00
         0.00000E+00
         0.00000E+00
         0.00000E+00
         0.00000E+00
         0.00000E+00
         0.00000E+00
         0.00000E+00
         0.00000E+00
         0.00000E+00
         0.00000E+00
         0.00000E+00
         0.00000E+00
         0.00000E+00
         0.00000E+00
         0.00000E+00
         0.00000E+00
         0.00000E+00
         0.00000E+00
         0.00000E+00
         0.00000E+00
         0.00000E+00
         0.00000E+00
         0.00000E+00
         0.00000E+00
         0.00000E+00
         0.00000E+00
         0.00000E+00
         0.00000E+00
         0.00000E+00
         0.00000E+00
         0.00000E+00
         0.00000E+00
         0.00000E+00
         0.00000E+00
         0.00000E+00
         0.00000E+00
         0.00000E+00
         0.00000E+00
         0.00000E+00
         0.00000E+00
         0.00000E+00
         0.00000E+00
         0.00000E+00
         0.00000E+00
         0.00000E+00
         0.00000E+00
         0.00000E+00
         0.00000E+00
         0.00000E+00
         0.00000E+00
         0.00000E+00
         0.00000E+00
         0.00000E+00
         0.00000E+00
         0.00000E+00
         0.00000E+00
         0.00000E+00
         0.00000E+00
         0.00000E+00
         0.00000E+00
         0.00000E+00
         0.00000E+00
         0.00000E+00
         0.00000E+00
         0.00000E+00
         0.00000E+00
         0.00000E+00
         0.00000E+00
         0.00000E+00
         0.00000E+00
         0.00000E+00
         0.00000E+00
         0.00000E+00
         0.00000E+00
         0.00000E+00
         0.00000E+00
         0.00000E+00
         0.00000E+00
         0.00000E+00
         0.00000E+00
         0.00000E+00
         0.00000E+00
         0.00000E+00
         0.00000E+00
         0.00000E+00
         0.00000E+00
         0.00000E+00
         0.00000E+00
         0.00000E+00
         0.00000E+00
         0.00000E+00
         0.00000E+00
         0.00000E+00
         0.00000E+00
         0.00000E+00
         0.00000E+00
         0.00000E+00
         0.00000E+00
         0.00000E+00
         0.00000E+00
         0.00000E+00
         0.00000E+00
         0.00000E+00
         0.00000E+00
         0.00000E+00
         0.00000E+00
         0.00000E+00
         0.00000E+00
         0.00000E+00
         0.00000E+00
         0.00000E+00
         0.00000E+00
         0.00000E+00
         0.00000E+00
         0.00000E+00
         0.00000E+00
         0.00000E+00
         0.00000E+00
         0.00000E+00
         0.00000E+00
         0.00000E+00
         0.00000E+00
         0.00000E+00
         0.00000E+00
         0.00000E+00
         0.00000E+00
         0.00000E+00
         0.00000E+00
         0.00000E+00
         0.00000E+00
         0.00000E+00
         0.00000E+00
         0.00000E+00
         0.00000E+00
         0.00000E+00
         0.00000E+00
         0.00000E+00
         0.00000E+00
         0.00000E+00
         0.00000E+00
         0.00000E+00
         0.00000E+00
         0.00000E+00
         0.00000E+00
         0.00000E+00
         0.00000E+00
         0.00000E+00
         0.00000E+00
         0.00000E+00
         0.00000E+00
         0.00000E+00
         0.00000E+00
         0.00000E+00
         0.00000E+00
         0.00000E+00
         0.00000E+00
         0.00000E+00
         0.00000E+00
         0.00000E+00
         0.00000E+00
         0.00000E+00
         0.00000E+00
         0.00000E+00
         0.00000E+00
         0.00000E+00
         0.00000E+00
         0.00000E+00
         0.00000E+00
         0.00000E+00
         0.00000E+00
         0.00000E+00
         0.00000E+00
         0.00000E+00
         0.00000E+00
         0.00000E+00
         0.00000E+00
         0.00000E+00
         0.00000E+00
         0.00000E+00
         0.00000E+00
         0.00000E+00
         0.00000E+00
         0.00000E+00
         0.00000E+00
         0.00000E+00
         0.00000E+00
         0.00000E+00
         0.00000E+00
         0.00000E+00
         0.00000E+00
         0.00000E+00
         0.00000E+00
         0.00000E+00
         0.00000E+00
         0.00000E+00
         0.00000E+00
         0.00000E+00
         0.00000E+00
         0.00000E+00
         0.00000E+00
         0.00000E+00
         0.00000E+00
         0.00000E+00
         0.00000E+00
         0.00000E+00
         0.00000E+00
         0.00000E+00
         0.00000E+00
         0.00000E+00
         0.00000E+00
         0.00000E+00
         0.00000E+00
         0.00000E+00
         0.00000E+00
         0.00000E+00
         0.00000E+00
         0.00000E+00
         0.00000E+00
         0.00000E+00
         0.00000E+00
         0.00000E+00
         0.00000E+00
         0.00000E+00
         0.00000E+00
         0.00000E+00
         0.00000E+00
         0.00000E+00
         0.00000E+00
         0.00000E+00
         0.00000E+00
         0.00000E+00
         0.00000E+00
         0.00000E+00
         0.00000E+00
         0.00000E+00
         0.00000E+00
         0.00000E+00
         0.00000E+00
         0.00000E+00
         0.00000E+00
         0.00000E+00
         0.00000E+00
         0.00000E+00
         0.00000E+00
         0.00000E+00
         0.00000E+00
         0.00000E+00
         0.00000E+00
         0.00000E+00
         0.00000E+00
         0.00000E+00
         0.00000E+00
         0.00000E+00
         0.00000E+00
         0.00000E+00
         0.00000E+00
         0.00000E+00
         0.00000E+00
         0.00000E+00
         0.00000E+00
         0.00000E+00
         0.00000E+00
         0.00000E+00
         0.00000E+00
         0.00000E+00
         0.00000E+00
         0.00000E+00
         0.00000E+00
         0.00000E+00
         0.00000E+00
         0.00000E+00
         0.00000E+00
         0.00000E+00
         0.00000E+00
         0.00000E+00
         0.00000E+00
         0.00000E+00
         0.00000E+00
         0.00000E+00
         0.00000E+00
         0.00000E+00
         0.00000E+00
         0.00000E+00
         0.00000E+00
         0.00000E+00
         0.00000E+00
         0.00000E+00
         0.00000E+00
         0.00000E+00
         0.00000E+00
         0.00000E+00
         0.00000E+00
         0.00000E+00
         0.00000E+00
         0.00000E+00
         0.00000E+00
         0.00000E+00
         0.00000E+00
         0.00000E+00
         0.00000E+00
         0.00000E+00
         0.00000E+00
         0.00000E+00
         0.00000E+00
         0.00000E+00
         0.00000E+00
         0.00000E+00
         0.00000E+00
         0.00000E+00
         0.00000E+00
         0.00000E+00
         0.00000E+00
         0.00000E+00
         0.00000E+00
         0.00000E+00
         0.00000E+00
         0.00000E+00
         0.00000E+00
         0.00000E+00
         0.00000E+00
         0.00000E+00
         0.00000E+00
         0.00000E+00
         0.00000E+00
         0.00000E+00
         0.00000E+00
         0.00000E+00
         0.00000E+00
         0.00000E+00
         0.00000E+00
         0.00000E+00
         0.00000E+00
         0.00000E+00
         0.00000E+00
         0.00000E+00
         0.00000E+00
         0.00000E+00
         0.00000E+00
         0.00000E+00
         0.00000E+00
         0.00000E+00
         0.00000E+00
         0.00000E+00
         0.00000E+00
         0.00000E+00
         0.00000E+00
         0.00000E+00
         0.00000E+00
         0.00000E+00
         0.00000E+00
         0.00000E+00
         0.00000E+00
         0.00000E+00
         0.00000E+00
         0.00000E+00
         0.00000E+00
         0.00000E+00
         0.00000E+00
         0.00000E+00
         0.00000E+00
         0.00000E+00
         0.00000E+00
         0.00000E+00
         0.00000E+00
         0.00000E+00
         0.00000E+00
         0.00000E+00
         0.00000E+00
         0.00000E+00
         0.00000E+00
         0.00000E+00
         0.00000E+00
         0.00000E+00
         0.00000E+00
         0.00000E+00
         0.00000E+00
         0.00000E+00
         0.00000E+00
         0.00000E+00
         0.00000E+00
         0.00000E+00
         0.00000E+00
         0.00000E+00
         0.00000E+00
         0.00000E+00
         0.00000E+00
         0.00000E+00
         0.00000E+00
         0.00000E+00
         0.00000E+00
         0.00000E+00
         0.00000E+00
         0.00000E+00
         0.00000E+00
         0.00000E+00
         0.00000E+00
         0.00000E+00
         0.00000E+00
         0.00000E+00
         0.00000E+00
         0.00000E+00
         0.00000E+00
         0.00000E+00
         0.00000E+00
         0.00000E+00
         0.00000E+00
         0.00000E+00
         0.00000E+00
         0.00000E+00
         0.00000E+00
         0.00000E+00
         0.00000E+00
         0.00000E+00
         0.00000E+00
         0.00000E+00
         0.00000E+00
         0.00000E+00
         0.00000E+00
         0.00000E+00
         0.00000E+00
         0.00000E+00
         0.00000E+00
         0.00000E+00
         0.00000E+00
         0.00000E+00
         0.00000E+00
         0.00000E+00
         0.00000E+00
         0.00000E+00
         0.00000E+00
         0.00000E+00
         0.00000E+00
         0.00000E+00
         0.00000E+00
         0.00000E+00
         0.00000E+00
         0.00000E+00
         0.00000E+00
         0.00000E+00
         0.00000E+00
         0.00000E+00
         0.00000E+00
         0.00000E+00
         0.00000E+00
         0.00000E+00
         0.00000E+00
         0.00000E+00
         0.00000E+00
         0.00000E+00
         0.00000E+00
         0.00000E+00
         0.00000E+00
         0.00000E+00
         0.00000E+00
         0.00000E+00
         0.00000E+00
         0.00000E+00
         0.00000E+00
         0.00000E+00
         0.00000E+00
         0.00000E+00
         0.00000E+00
         0.00000E+00
         0.00000E+00
         0.00000E+00
         0.00000E+00
         0.00000E+00
         0.00000E+00
         0.00000E+00
         0.00000E+00
         0.00000E+00
         0.00000E+00
         0.00000E+00
         0.00000E+00
         0.00000E+00
         0.00000E+00
         0.00000E+00
         0.00000E+00
         0.00000E+00
         0.00000E+00
         0.00000E+00
         0.00000E+00
         0.00000E+00
         0.00000E+00
         0.00000E+00
         0.00000E+00
         0.00000E+00
         0.00000E+00
         0.00000E+00
         0.00000E+00
         0.00000E+00
         0.00000E+00
         0.00000E+00
         0.00000E+00
         0.00000E+00
         0.00000E+00
         0.00000E+00
         0.00000E+00
         0.00000E+00
         0.00000E+00
         0.00000E+00
         0.00000E+00
         0.00000E+00
         0.00000E+00
         0.00000E+00
         0.00000E+00
         0.00000E+00
         0.00000E+00
         0.00000E+00
         0.00000E+00
         0.00000E+00
         0.00000E+00
         0.00000E+00
         0.00000E+00
         0.00000E+00
         0.00000E+00
         0.00000E+00
         0.00000E+00
         0.00000E+00
         0.00000E+00
         0.00000E+00
         0.00000E+00
         0.00000E+00
         0.00000E+00
         0.00000E+00
         0.00000E+00
         0.00000E+00
         0.00000E+00
         0.00000E+00
         0.00000E+00
         0.00000E+00
         0.00000E+00
         0.00000E+00
         0.00000E+00
         0.00000E+00
         0.00000E+00
         0.00000E+00
         0.00000E+00
         0.00000E+00
         0.00000E+00
         0.00000E+00
         0.00000E+00
         0.00000E+00
         0.00000E+00
         0.00000E+00
         0.00000E+00
         0.00000E+00
         0.00000E+00
         0.00000E+00
         0.00000E+00
         0.00000E+00
         0.00000E+00
         0.00000E+00
         0.00000E+00
         0.00000E+00
         0.00000E+00
         0.00000E+00
         0.00000E+00
         0.00000E+00
         0.00000E+00
         0.00000E+00
         0.00000E+00
         0.00000E+00
         0.00000E+00
         0.00000E+00
         0.00000E+00
         0.00000E+00
         0.00000E+00
         0.00000E+00
         0.00000E+00
         0.00000E+00
         0.00000E+00
         0.00000E+00
         0.00000E+00
         0.00000E+00
         0.00000E+00
         0.00000E+00
         0.00000E+00
         0.00000E+00
         0.00000E+00
         0.00000E+00
         0.00000E+00
         0.00000E+00
         0.00000E+00
         0.00000E+00
         0.00000E+00
         0.00000E+00
         0.00000E+00
         0.00000E+00
         0.00000E+00
         0.00000E+00
         0.00000E+00
         0.00000E+00
         0.00000E+00
         0.00000E+00
         0.00000E+00
         0.00000E+00
         0.00000E+00
         0.00000E+00
         0.00000E+00
         0.00000E+00
         0.00000E+00
         0.00000E+00
         0.00000E+00
         0.00000E+00
         0.00000E+00
         0.00000E+00
         0.00000E+00
         0.00000E+00
         0.00000E+00
         0.00000E+00
         0.00000E+00
         0.00000E+00
         0.00000E+00
         0.00000E+00
         0.00000E+00
         0.00000E+00
         0.00000E+00
         0.00000E+00
         0.00000E+00
         0.00000E+00
         0.00000E+00
         0.00000E+00
         0.00000E+00
         0.00000E+00
         0.00000E+00
         0.00000E+00
         0.00000E+00
         0.00000E+00
         0.00000E+00
         0.00000E+00
         0.00000E+00
         0.00000E+00
         0.00000E+00
         0.00000E+00
         0.00000E+00
         0.00000E+00
         0.00000E+00
         0.00000E+00
         0.00000E+00
         0.00000E+00
         0.00000E+00
         0.00000E+00
         0.00000E+00
         0.00000E+00
         0.00000E+00
         0.00000E+00
         0.00000E+00
         0.00000E+00
         0.00000E+00
         0.00000E+00
         0.00000E+00
         0.00000E+00
         0.00000E+00
         0.00000E+00
         0.00000E+00
         0.00000E+00
         0.00000E+00
         0.00000E+00
         0.00000E+00
         0.00000E+00
         0.00000E+00
         0.00000E+00
         0.00000E+00
         0.00000E+00
         0.00000E+00
         0.00000E+00
         0.00000E+00
         0.00000E+00
         0.00000E+00
         0.00000E+00
         0.00000E+00
         0.00000E+00
         0.00000E+00
         0.00000E+00
         0.00000E+00
         0.00000E+00
         0.00000E+00
         0.00000E+00
         0.00000E+00
         0.00000E+00
         0.00000E+00
         0.00000E+00
         0.00000E+00
         0.00000E+00
         0.00000E+00
         0.00000E+00
         0.00000E+00
         0.00000E+00
         0.00000E+00
  
SCALARS                init_velocity_z  double 1
LOOKUP_TABLE default
        -0.37300E+03
        -0.37300E+03
        -0.37300E+03
        -0.37300E+03
        -0.37300E+03
        -0.37300E+03
        -0.37300E+03
        -0.37300E+03
        -0.37300E+03
        -0.37300E+03
        -0.37300E+03
        -0.37300E+03
        -0.37300E+03
        -0.37300E+03
        -0.37300E+03
        -0.37300E+03
        -0.37300E+03
        -0.37300E+03
        -0.37300E+03
        -0.37300E+03
        -0.37300E+03
        -0.37300E+03
        -0.37300E+03
        -0.37300E+03
        -0.37300E+03
        -0.37300E+03
        -0.37300E+03
        -0.37300E+03
        -0.37300E+03
        -0.37300E+03
        -0.37300E+03
        -0.37300E+03
        -0.37300E+03
        -0.37300E+03
        -0.37300E+03
        -0.37300E+03
        -0.37300E+03
        -0.37300E+03
        -0.37300E+03
        -0.37300E+03
        -0.37300E+03
        -0.37300E+03
        -0.37300E+03
        -0.37300E+03
        -0.37300E+03
        -0.37300E+03
        -0.37300E+03
        -0.37300E+03
        -0.37300E+03
        -0.37300E+03
        -0.37300E+03
        -0.37300E+03
        -0.37300E+03
        -0.37300E+03
        -0.37300E+03
        -0.37300E+03
        -0.37300E+03
        -0.37300E+03
        -0.37300E+03
        -0.37300E+03
        -0.37300E+03
        -0.37300E+03
        -0.37300E+03
        -0.37300E+03
        -0.37300E+03
        -0.37300E+03
        -0.37300E+03
        -0.37300E+03
        -0.37300E+03
        -0.37300E+03
        -0.37300E+03
        -0.37300E+03
        -0.37300E+03
        -0.37300E+03
        -0.37300E+03
        -0.37300E+03
        -0.37300E+03
        -0.37300E+03
        -0.37300E+03
        -0.37300E+03
        -0.37300E+03
        -0.37300E+03
        -0.37300E+03
        -0.37300E+03
        -0.37300E+03
        -0.37300E+03
        -0.37300E+03
        -0.37300E+03
        -0.37300E+03
        -0.37300E+03
        -0.37300E+03
        -0.37300E+03
        -0.37300E+03
        -0.37300E+03
        -0.37300E+03
        -0.37300E+03
        -0.37300E+03
        -0.37300E+03
        -0.37300E+03
        -0.37300E+03
        -0.37300E+03
        -0.37300E+03
        -0.37300E+03
        -0.37300E+03
        -0.37300E+03
        -0.37300E+03
        -0.37300E+03
        -0.37300E+03
        -0.37300E+03
        -0.37300E+03
        -0.37300E+03
        -0.37300E+03
        -0.37300E+03
        -0.37300E+03
        -0.37300E+03
        -0.37300E+03
        -0.37300E+03
        -0.37300E+03
        -0.37300E+03
        -0.37300E+03
        -0.37300E+03
        -0.37300E+03
        -0.37300E+03
        -0.37300E+03
        -0.37300E+03
        -0.37300E+03
        -0.37300E+03
        -0.37300E+03
        -0.37300E+03
        -0.37300E+03
        -0.37300E+03
        -0.37300E+03
        -0.37300E+03
        -0.37300E+03
        -0.37300E+03
        -0.37300E+03
        -0.37300E+03
        -0.37300E+03
        -0.37300E+03
        -0.37300E+03
        -0.37300E+03
        -0.37300E+03
        -0.37300E+03
        -0.37300E+03
        -0.37300E+03
        -0.37300E+03
        -0.37300E+03
        -0.37300E+03
        -0.37300E+03
        -0.37300E+03
        -0.37300E+03
        -0.37300E+03
        -0.37300E+03
        -0.37300E+03
        -0.37300E+03
        -0.37300E+03
        -0.37300E+03
        -0.37300E+03
        -0.37300E+03
        -0.37300E+03
        -0.37300E+03
        -0.37300E+03
        -0.37300E+03
        -0.37300E+03
        -0.37300E+03
        -0.37300E+03
        -0.37300E+03
        -0.37300E+03
        -0.37300E+03
        -0.37300E+03
        -0.37300E+03
        -0.37300E+03
        -0.37300E+03
        -0.37300E+03
        -0.37300E+03
        -0.37300E+03
        -0.37300E+03
        -0.37300E+03
        -0.37300E+03
        -0.37300E+03
        -0.37300E+03
        -0.37300E+03
        -0.37300E+03
        -0.37300E+03
        -0.37300E+03
        -0.37300E+03
        -0.37300E+03
        -0.37300E+03
        -0.37300E+03
        -0.37300E+03
        -0.37300E+03
        -0.37300E+03
        -0.37300E+03
        -0.37300E+03
        -0.37300E+03
        -0.37300E+03
        -0.37300E+03
        -0.37300E+03
        -0.37300E+03
        -0.37300E+03
        -0.37300E+03
        -0.37300E+03
        -0.37300E+03
        -0.37300E+03
        -0.37300E+03
        -0.37300E+03
        -0.37300E+03
        -0.37300E+03
        -0.37300E+03
        -0.37300E+03
        -0.37300E+03
        -0.37300E+03
        -0.37300E+03
        -0.37300E+03
        -0.37300E+03
        -0.37300E+03
        -0.37300E+03
        -0.37300E+03
        -0.37300E+03
        -0.37300E+03
        -0.37300E+03
        -0.37300E+03
        -0.37300E+03
        -0.37300E+03
        -0.37300E+03
        -0.37300E+03
        -0.37300E+03
        -0.37300E+03
        -0.37300E+03
        -0.37300E+03
        -0.37300E+03
        -0.37300E+03
        -0.37300E+03
        -0.37300E+03
        -0.37300E+03
        -0.37300E+03
        -0.37300E+03
        -0.37300E+03
        -0.37300E+03
        -0.37300E+03
        -0.37300E+03
        -0.37300E+03
        -0.37300E+03
        -0.37300E+03
        -0.37300E+03
        -0.37300E+03
        -0.37300E+03
        -0.37300E+03
        -0.37300E+03
        -0.37300E+03
        -0.37300E+03
        -0.37300E+03
        -0.37300E+03
        -0.37300E+03
        -0.37300E+03
        -0.37300E+03
        -0.37300E+03
        -0.37300E+03
        -0.37300E+03
        -0.37300E+03
        -0.37300E+03
        -0.37300E+03
        -0.37300E+03
        -0.37300E+03
        -0.37300E+03
        -0.37300E+03
        -0.37300E+03
        -0.37300E+03
        -0.37300E+03
        -0.37300E+03
        -0.37300E+03
        -0.37300E+03
        -0.37300E+03
        -0.37300E+03
        -0.37300E+03
        -0.37300E+03
        -0.37300E+03
        -0.37300E+03
        -0.37300E+03
        -0.37300E+03
        -0.37300E+03
        -0.37300E+03
        -0.37300E+03
        -0.37300E+03
        -0.37300E+03
        -0.37300E+03
        -0.37300E+03
        -0.37300E+03
        -0.37300E+03
        -0.37300E+03
        -0.37300E+03
        -0.37300E+03
        -0.37300E+03
        -0.37300E+03
        -0.37300E+03
        -0.37300E+03
        -0.37300E+03
        -0.37300E+03
        -0.37300E+03
        -0.37300E+03
        -0.37300E+03
        -0.37300E+03
        -0.37300E+03
        -0.37300E+03
        -0.37300E+03
        -0.37300E+03
        -0.37300E+03
        -0.37300E+03
        -0.37300E+03
        -0.37300E+03
        -0.37300E+03
        -0.37300E+03
        -0.37300E+03
        -0.37300E+03
        -0.37300E+03
        -0.37300E+03
        -0.37300E+03
        -0.37300E+03
        -0.37300E+03
        -0.37300E+03
        -0.37300E+03
        -0.37300E+03
        -0.37300E+03
        -0.37300E+03
        -0.37300E+03
        -0.37300E+03
        -0.37300E+03
        -0.37300E+03
        -0.37300E+03
        -0.37300E+03
        -0.37300E+03
        -0.37300E+03
        -0.37300E+03
        -0.37300E+03
        -0.37300E+03
        -0.37300E+03
        -0.37300E+03
        -0.37300E+03
        -0.37300E+03
        -0.37300E+03
        -0.37300E+03
        -0.37300E+03
        -0.37300E+03
        -0.37300E+03
        -0.37300E+03
        -0.37300E+03
        -0.37300E+03
        -0.37300E+03
        -0.37300E+03
        -0.37300E+03
        -0.37300E+03
        -0.37300E+03
        -0.37300E+03
        -0.37300E+03
        -0.37300E+03
        -0.37300E+03
        -0.37300E+03
        -0.37300E+03
        -0.37300E+03
        -0.37300E+03
        -0.37300E+03
        -0.37300E+03
        -0.37300E+03
        -0.37300E+03
        -0.37300E+03
        -0.37300E+03
        -0.37300E+03
        -0.37300E+03
        -0.37300E+03
        -0.37300E+03
        -0.37300E+03
        -0.37300E+03
        -0.37300E+03
        -0.37300E+03
        -0.37300E+03
        -0.37300E+03
        -0.37300E+03
        -0.37300E+03
        -0.37300E+03
        -0.37300E+03
        -0.37300E+03
        -0.37300E+03
        -0.37300E+03
        -0.37300E+03
        -0.37300E+03
        -0.37300E+03
        -0.37300E+03
        -0.37300E+03
        -0.37300E+03
        -0.37300E+03
        -0.37300E+03
        -0.37300E+03
        -0.37300E+03
        -0.37300E+03
        -0.37300E+03
        -0.37300E+03
        -0.37300E+03
        -0.37300E+03
        -0.37300E+03
        -0.37300E+03
        -0.37300E+03
        -0.37300E+03
        -0.37300E+03
        -0.37300E+03
        -0.37300E+03
        -0.37300E+03
        -0.37300E+03
        -0.37300E+03
        -0.37300E+03
        -0.37300E+03
        -0.37300E+03
        -0.37300E+03
        -0.37300E+03
        -0.37300E+03
        -0.37300E+03
        -0.37300E+03
        -0.37300E+03
        -0.37300E+03
        -0.37300E+03
        -0.37300E+03
        -0.37300E+03
        -0.37300E+03
        -0.37300E+03
        -0.37300E+03
        -0.37300E+03
        -0.37300E+03
        -0.37300E+03
        -0.37300E+03
        -0.37300E+03
        -0.37300E+03
        -0.37300E+03
        -0.37300E+03
        -0.37300E+03
        -0.37300E+03
        -0.37300E+03
        -0.37300E+03
        -0.37300E+03
        -0.37300E+03
        -0.37300E+03
        -0.37300E+03
        -0.37300E+03
        -0.37300E+03
        -0.37300E+03
        -0.37300E+03
        -0.37300E+03
        -0.37300E+03
        -0.37300E+03
        -0.37300E+03
        -0.37300E+03
        -0.37300E+03
        -0.37300E+03
        -0.37300E+03
        -0.37300E+03
        -0.37300E+03
        -0.37300E+03
        -0.37300E+03
        -0.37300E+03
        -0.37300E+03
        -0.37300E+03
        -0.37300E+03
        -0.37300E+03
        -0.37300E+03
        -0.37300E+03
        -0.37300E+03
        -0.37300E+03
        -0.37300E+03
        -0.37300E+03
        -0.37300E+03
        -0.37300E+03
        -0.37300E+03
        -0.37300E+03
        -0.37300E+03
        -0.37300E+03
        -0.37300E+03
        -0.37300E+03
        -0.37300E+03
        -0.37300E+03
        -0.37300E+03
        -0.37300E+03
        -0.37300E+03
        -0.37300E+03
        -0.37300E+03
        -0.37300E+03
        -0.37300E+03
        -0.37300E+03
        -0.37300E+03
        -0.37300E+03
        -0.37300E+03
        -0.37300E+03
        -0.37300E+03
        -0.37300E+03
        -0.37300E+03
        -0.37300E+03
        -0.37300E+03
        -0.37300E+03
        -0.37300E+03
        -0.37300E+03
        -0.37300E+03
        -0.37300E+03
        -0.37300E+03
        -0.37300E+03
        -0.37300E+03
        -0.37300E+03
        -0.37300E+03
        -0.37300E+03
        -0.37300E+03
        -0.37300E+03
        -0.37300E+03
        -0.37300E+03
        -0.37300E+03
        -0.37300E+03
        -0.37300E+03
        -0.37300E+03
        -0.37300E+03
        -0.37300E+03
        -0.37300E+03
        -0.37300E+03
        -0.37300E+03
        -0.37300E+03
        -0.37300E+03
        -0.37300E+03
        -0.37300E+03
        -0.37300E+03
        -0.37300E+03
        -0.37300E+03
        -0.37300E+03
        -0.37300E+03
        -0.37300E+03
        -0.37300E+03
        -0.37300E+03
        -0.37300E+03
        -0.37300E+03
        -0.37300E+03
        -0.37300E+03
        -0.37300E+03
        -0.37300E+03
        -0.37300E+03
        -0.37300E+03
        -0.37300E+03
        -0.37300E+03
        -0.37300E+03
        -0.37300E+03
        -0.37300E+03
        -0.37300E+03
        -0.37300E+03
        -0.37300E+03
        -0.37300E+03
        -0.37300E+03
        -0.37300E+03
        -0.37300E+03
        -0.37300E+03
        -0.37300E+03
        -0.37300E+03
        -0.37300E+03
        -0.37300E+03
        -0.37300E+03
        -0.37300E+03
        -0.37300E+03
        -0.37300E+03
        -0.37300E+03
        -0.37300E+03
        -0.37300E+03
        -0.37300E+03
        -0.37300E+03
        -0.37300E+03
        -0.37300E+03
        -0.37300E+03
        -0.37300E+03
        -0.37300E+03
        -0.37300E+03
        -0.37300E+03
        -0.37300E+03
        -0.37300E+03
        -0.37300E+03
        -0.37300E+03
        -0.37300E+03
        -0.37300E+03
        -0.37300E+03
        -0.37300E+03
        -0.37300E+03
        -0.37300E+03
        -0.37300E+03
        -0.37300E+03
        -0.37300E+03
        -0.37300E+03
        -0.37300E+03
        -0.37300E+03
        -0.37300E+03
        -0.37300E+03
        -0.37300E+03
        -0.37300E+03
        -0.37300E+03
        -0.37300E+03
        -0.37300E+03
        -0.37300E+03
        -0.37300E+03
        -0.37300E+03
        -0.37300E+03
        -0.37300E+03
        -0.37300E+03
        -0.37300E+03
        -0.37300E+03
        -0.37300E+03
        -0.37300E+03
        -0.37300E+03
        -0.37300E+03
        -0.37300E+03
        -0.37300E+03
        -0.37300E+03
        -0.37300E+03
        -0.37300E+03
        -0.37300E+03
        -0.37300E+03
        -0.37300E+03
        -0.37300E+03
        -0.37300E+03
        -0.37300E+03
        -0.37300E+03
        -0.37300E+03
        -0.37300E+03
        -0.37300E+03
        -0.37300E+03
        -0.37300E+03
        -0.37300E+03
        -0.37300E+03
        -0.37300E+03
        -0.37300E+03
        -0.37300E+03
        -0.37300E+03
        -0.37300E+03
        -0.37300E+03
        -0.37300E+03
        -0.37300E+03
        -0.37300E+03
        -0.37300E+03
        -0.37300E+03
        -0.37300E+03
        -0.37300E+03
        -0.37300E+03
        -0.37300E+03
        -0.37300E+03
        -0.37300E+03
        -0.37300E+03
        -0.37300E+03
        -0.37300E+03
        -0.37300E+03
        -0.37300E+03
        -0.37300E+03
        -0.37300E+03
        -0.37300E+03
        -0.37300E+03
        -0.37300E+03
        -0.37300E+03
        -0.37300E+03
        -0.37300E+03
        -0.37300E+03
        -0.37300E+03
        -0.37300E+03
        -0.37300E+03
        -0.37300E+03
        -0.37300E+03
        -0.37300E+03
        -0.37300E+03
        -0.37300E+03
        -0.37300E+03
        -0.37300E+03
        -0.37300E+03
        -0.37300E+03
        -0.37300E+03
        -0.37300E+03
        -0.37300E+03
        -0.37300E+03
        -0.37300E+03
        -0.37300E+03
        -0.37300E+03
        -0.37300E+03
        -0.37300E+03
        -0.37300E+03
        -0.37300E+03
        -0.37300E+03
        -0.37300E+03
        -0.37300E+03
        -0.37300E+03
        -0.37300E+03
        -0.37300E+03
        -0.37300E+03
        -0.37300E+03
        -0.37300E+03
        -0.37300E+03
        -0.37300E+03
        -0.37300E+03
        -0.37300E+03
        -0.37300E+03
        -0.37300E+03
        -0.37300E+03
        -0.37300E+03
        -0.37300E+03
        -0.37300E+03
        -0.37300E+03
        -0.37300E+03
        -0.37300E+03
        -0.37300E+03
        -0.37300E+03
        -0.37300E+03
        -0.37300E+03
        -0.37300E+03
        -0.37300E+03
        -0.37300E+03
        -0.37300E+03
        -0.37300E+03
        -0.37300E+03
        -0.37300E+03
        -0.37300E+03
        -0.37300E+03
        -0.37300E+03
        -0.37300E+03
        -0.37300E+03
        -0.37300E+03
        -0.37300E+03
        -0.37300E+03
        -0.37300E+03
        -0.37300E+03
        -0.37300E+03
        -0.37300E+03
        -0.37300E+03
        -0.37300E+03
        -0.37300E+03
        -0.37300E+03
        -0.37300E+03
        -0.37300E+03
        -0.37300E+03
        -0.37300E+03
        -0.37300E+03
        -0.37300E+03
        -0.37300E+03
        -0.37300E+03
        -0.37300E+03
        -0.37300E+03
        -0.37300E+03
        -0.37300E+03
        -0.37300E+03
        -0.37300E+03
        -0.37300E+03
        -0.37300E+03
        -0.37300E+03
        -0.37300E+03
        -0.37300E+03
        -0.37300E+03
        -0.37300E+03
        -0.37300E+03
        -0.37300E+03
        -0.37300E+03
        -0.37300E+03
        -0.37300E+03
        -0.37300E+03
        -0.37300E+03
        -0.37300E+03
        -0.37300E+03
        -0.37300E+03
        -0.37300E+03
        -0.37300E+03
        -0.37300E+03
        -0.37300E+03
        -0.37300E+03
        -0.37300E+03
        -0.37300E+03
        -0.37300E+03
        -0.37300E+03
        -0.37300E+03
        -0.37300E+03
        -0.37300E+03
        -0.37300E+03
        -0.37300E+03
        -0.37300E+03
        -0.37300E+03
        -0.37300E+03
        -0.37300E+03
        -0.37300E+03
        -0.37300E+03
        -0.37300E+03
        -0.37300E+03
        -0.37300E+03
        -0.37300E+03
        -0.37300E+03
        -0.37300E+03
        -0.37300E+03
        -0.37300E+03
        -0.37300E+03
        -0.37300E+03
        -0.37300E+03
        -0.37300E+03
        -0.37300E+03
        -0.37300E+03
        -0.37300E+03
        -0.37300E+03
        -0.37300E+03
        -0.37300E+03
        -0.37300E+03
        -0.37300E+03
        -0.37300E+03
        -0.37300E+03
        -0.37300E+03
        -0.37300E+03
        -0.37300E+03
        -0.37300E+03
        -0.37300E+03
        -0.37300E+03
        -0.37300E+03
        -0.37300E+03
        -0.37300E+03
        -0.37300E+03
        -0.37300E+03
        -0.37300E+03
        -0.37300E+03
        -0.37300E+03
        -0.37300E+03
        -0.37300E+03
        -0.37300E+03
        -0.37300E+03
        -0.37300E+03
        -0.37300E+03
        -0.37300E+03
        -0.37300E+03
        -0.37300E+03
        -0.37300E+03
        -0.37300E+03
        -0.37300E+03
        -0.37300E+03
        -0.37300E+03
        -0.37300E+03
        -0.37300E+03
        -0.37300E+03
        -0.37300E+03
        -0.37300E+03
        -0.37300E+03
        -0.37300E+03
        -0.37300E+03
        -0.37300E+03
        -0.37300E+03
        -0.37300E+03
        -0.37300E+03
        -0.37300E+03
        -0.37300E+03
        -0.37300E+03
        -0.37300E+03
        -0.37300E+03
        -0.37300E+03
        -0.37300E+03
        -0.37300E+03
        -0.37300E+03
        -0.37300E+03
        -0.37300E+03
        -0.37300E+03
        -0.37300E+03
        -0.37300E+03
        -0.37300E+03
        -0.37300E+03
        -0.37300E+03
        -0.37300E+03
        -0.37300E+03
        -0.37300E+03
        -0.37300E+03
        -0.37300E+03
        -0.37300E+03
        -0.37300E+03
        -0.37300E+03
        -0.37300E+03
        -0.37300E+03
        -0.37300E+03
        -0.37300E+03
        -0.37300E+03
        -0.37300E+03
        -0.37300E+03
        -0.37300E+03
        -0.37300E+03
        -0.37300E+03
        -0.37300E+03
        -0.37300E+03
        -0.37300E+03
        -0.37300E+03
        -0.37300E+03
        -0.37300E+03
        -0.37300E+03
        -0.37300E+03
        -0.37300E+03
        -0.37300E+03
        -0.37300E+03
        -0.37300E+03
        -0.37300E+03
        -0.37300E+03
        -0.37300E+03
        -0.37300E+03
        -0.37300E+03
        -0.37300E+03
        -0.37300E+03
        -0.37300E+03
        -0.37300E+03
        -0.37300E+03
        -0.37300E+03
        -0.37300E+03
        -0.37300E+03
        -0.37300E+03
        -0.37300E+03
        -0.37300E+03
        -0.37300E+03
        -0.37300E+03
        -0.37300E+03
        -0.37300E+03
        -0.37300E+03
        -0.37300E+03
        -0.37300E+03
        -0.37300E+03
        -0.37300E+03
        -0.37300E+03
        -0.37300E+03
        -0.37300E+03
        -0.37300E+03
        -0.37300E+03
        -0.37300E+03
        -0.37300E+03
        -0.37300E+03
        -0.37300E+03
        -0.37300E+03
        -0.37300E+03
        -0.37300E+03
        -0.37300E+03
        -0.37300E+03
        -0.37300E+03
        -0.37300E+03
        -0.37300E+03
        -0.37300E+03
        -0.37300E+03
        -0.37300E+03
        -0.37300E+03
        -0.37300E+03
        -0.37300E+03
        -0.37300E+03
        -0.37300E+03
        -0.37300E+03
        -0.37300E+03
        -0.37300E+03
        -0.37300E+03
        -0.37300E+03
        -0.37300E+03
        -0.37300E+03
        -0.37300E+03
        -0.37300E+03
        -0.37300E+03
        -0.37300E+03
        -0.37300E+03
        -0.37300E+03
        -0.37300E+03
        -0.37300E+03
        -0.37300E+03
        -0.37300E+03
        -0.37300E+03
        -0.37300E+03
        -0.37300E+03
        -0.37300E+03
        -0.37300E+03
        -0.37300E+03
        -0.37300E+03
        -0.37300E+03
        -0.37300E+03
        -0.37300E+03
        -0.37300E+03
        -0.37300E+03
        -0.37300E+03
        -0.37300E+03
        -0.37300E+03
        -0.37300E+03
        -0.37300E+03
        -0.37300E+03
        -0.37300E+03
        -0.37300E+03
        -0.37300E+03
        -0.37300E+03
        -0.37300E+03
        -0.37300E+03
        -0.37300E+03
        -0.37300E+03
        -0.37300E+03
        -0.37300E+03
        -0.37300E+03
        -0.37300E+03
        -0.37300E+03
        -0.37300E+03
        -0.37300E+03
        -0.37300E+03
        -0.37300E+03
        -0.37300E+03
        -0.37300E+03
        -0.37300E+03
        -0.37300E+03
        -0.37300E+03
        -0.37300E+03
        -0.37300E+03
        -0.37300E+03
        -0.37300E+03
        -0.37300E+03
        -0.37300E+03
        -0.37300E+03
        -0.37300E+03
        -0.37300E+03
        -0.37300E+03
        -0.37300E+03
        -0.37300E+03
        -0.37300E+03
        -0.37300E+03
        -0.37300E+03
        -0.37300E+03
        -0.37300E+03
        -0.37300E+03
        -0.37300E+03
        -0.37300E+03
        -0.37300E+03
        -0.37300E+03
        -0.37300E+03
        -0.37300E+03
        -0.37300E+03
        -0.37300E+03
        -0.37300E+03
        -0.37300E+03
        -0.37300E+03
        -0.37300E+03
        -0.37300E+03
        -0.37300E+03
        -0.37300E+03
        -0.37300E+03
        -0.37300E+03
        -0.37300E+03
        -0.37300E+03
        -0.37300E+03
        -0.37300E+03
        -0.37300E+03
        -0.37300E+03
        -0.37300E+03
        -0.37300E+03
        -0.37300E+03
        -0.37300E+03
        -0.37300E+03
        -0.37300E+03
        -0.37300E+03
        -0.37300E+03
        -0.37300E+03
        -0.37300E+03
        -0.37300E+03
        -0.37300E+03
        -0.37300E+03
        -0.37300E+03
        -0.37300E+03
        -0.37300E+03
        -0.37300E+03
        -0.37300E+03
        -0.37300E+03
        -0.37300E+03
        -0.37300E+03
        -0.37300E+03
        -0.37300E+03
        -0.37300E+03
        -0.37300E+03
        -0.37300E+03
        -0.37300E+03
        -0.37300E+03
        -0.37300E+03
        -0.37300E+03
        -0.37300E+03
        -0.37300E+03
        -0.37300E+03
        -0.37300E+03
        -0.37300E+03
        -0.37300E+03
        -0.37300E+03
        -0.37300E+03
        -0.37300E+03
        -0.37300E+03
        -0.37300E+03
        -0.37300E+03
        -0.37300E+03
        -0.37300E+03
        -0.37300E+03
        -0.37300E+03
        -0.37300E+03
        -0.37300E+03
        -0.37300E+03
        -0.37300E+03
        -0.37300E+03
        -0.37300E+03
        -0.37300E+03
        -0.37300E+03
        -0.37300E+03
        -0.37300E+03
        -0.37300E+03
        -0.37300E+03
        -0.37300E+03
        -0.37300E+03
        -0.37300E+03
        -0.37300E+03
        -0.37300E+03
        -0.37300E+03
        -0.37300E+03
        -0.37300E+03
        -0.37300E+03
        -0.37300E+03
        -0.37300E+03
        -0.37300E+03
        -0.37300E+03
        -0.37300E+03
        -0.37300E+03
        -0.37300E+03
        -0.37300E+03
        -0.37300E+03
        -0.37300E+03
        -0.37300E+03
        -0.37300E+03
        -0.37300E+03
        -0.37300E+03
        -0.37300E+03
        -0.37300E+03
        -0.37300E+03
        -0.37300E+03
        -0.37300E+03
        -0.37300E+03
        -0.37300E+03
        -0.37300E+03
        -0.37300E+03
        -0.37300E+03
        -0.37300E+03
        -0.37300E+03
        -0.37300E+03
        -0.37300E+03
        -0.37300E+03
        -0.37300E+03
        -0.37300E+03
        -0.37300E+03
        -0.37300E+03
        -0.37300E+03
        -0.37300E+03
        -0.37300E+03
        -0.37300E+03
        -0.37300E+03
        -0.37300E+03
        -0.37300E+03
        -0.37300E+03
        -0.37300E+03
        -0.37300E+03
        -0.37300E+03
        -0.37300E+03
        -0.37300E+03
        -0.37300E+03
        -0.37300E+03
        -0.37300E+03
        -0.37300E+03
        -0.37300E+03
        -0.37300E+03
        -0.37300E+03
        -0.37300E+03
        -0.37300E+03
        -0.37300E+03
        -0.37300E+03
        -0.37300E+03
        -0.37300E+03
        -0.37300E+03
        -0.37300E+03
        -0.37300E+03
        -0.37300E+03
        -0.37300E+03
        -0.37300E+03
        -0.37300E+03
        -0.37300E+03
        -0.37300E+03
        -0.37300E+03
        -0.37300E+03
        -0.37300E+03
        -0.37300E+03
        -0.37300E+03
        -0.37300E+03
        -0.37300E+03
        -0.37300E+03
        -0.37300E+03
        -0.37300E+03
        -0.37300E+03
        -0.37300E+03
        -0.37300E+03
        -0.37300E+03
        -0.37300E+03
        -0.37300E+03
        -0.37300E+03
        -0.37300E+03
        -0.37300E+03
        -0.37300E+03
        -0.37300E+03
        -0.37300E+03
        -0.37300E+03
        -0.37300E+03
        -0.37300E+03
        -0.37300E+03
        -0.37300E+03
        -0.37300E+03
        -0.37300E+03
        -0.37300E+03
        -0.37300E+03
        -0.37300E+03
        -0.37300E+03
        -0.37300E+03
        -0.37300E+03
        -0.37300E+03
        -0.37300E+03
        -0.37300E+03
        -0.37300E+03
        -0.37300E+03
        -0.37300E+03
        -0.37300E+03
        -0.37300E+03
        -0.37300E+03
        -0.37300E+03
        -0.37300E+03
        -0.37300E+03
        -0.37300E+03
        -0.37300E+03
        -0.37300E+03
        -0.37300E+03
        -0.37300E+03
        -0.37300E+03
        -0.37300E+03
        -0.37300E+03
        -0.37300E+03
        -0.37300E+03
        -0.37300E+03
        -0.37300E+03
        -0.37300E+03
        -0.37300E+03
        -0.37300E+03
        -0.37300E+03
        -0.37300E+03
        -0.37300E+03
        -0.37300E+03
        -0.37300E+03
        -0.37300E+03
        -0.37300E+03
        -0.37300E+03
        -0.37300E+03
        -0.37300E+03
        -0.37300E+03
        -0.37300E+03
        -0.37300E+03
        -0.37300E+03
        -0.37300E+03
        -0.37300E+03
        -0.37300E+03
        -0.37300E+03
        -0.37300E+03
        -0.37300E+03
        -0.37300E+03
        -0.37300E+03
        -0.37300E+03
        -0.37300E+03
        -0.37300E+03
        -0.37300E+03
        -0.37300E+03
        -0.37300E+03
        -0.37300E+03
        -0.37300E+03
        -0.37300E+03
        -0.37300E+03
        -0.37300E+03
        -0.37300E+03
        -0.37300E+03
        -0.37300E+03
        -0.37300E+03
        -0.37300E+03
        -0.37300E+03
        -0.37300E+03
        -0.37300E+03
        -0.37300E+03
        -0.37300E+03
        -0.37300E+03
        -0.37300E+03
        -0.37300E+03
        -0.37300E+03
        -0.37300E+03
        -0.37300E+03
        -0.37300E+03
        -0.37300E+03
        -0.37300E+03
        -0.37300E+03
        -0.37300E+03
        -0.37300E+03
        -0.37300E+03
        -0.37300E+03
        -0.37300E+03
        -0.37300E+03
        -0.37300E+03
        -0.37300E+03
        -0.37300E+03
        -0.37300E+03
        -0.37300E+03
        -0.37300E+03
        -0.37300E+03
        -0.37300E+03
        -0.37300E+03
        -0.37300E+03
        -0.37300E+03
        -0.37300E+03
        -0.37300E+03
        -0.37300E+03
        -0.37300E+03
        -0.37300E+03
        -0.37300E+03
        -0.37300E+03
        -0.37300E+03
        -0.37300E+03
        -0.37300E+03
        -0.37300E+03
        -0.37300E+03
        -0.37300E+03
        -0.37300E+03
        -0.37300E+03
        -0.37300E+03
        -0.37300E+03
        -0.37300E+03
        -0.37300E+03
        -0.37300E+03
        -0.37300E+03
        -0.37300E+03
        -0.37300E+03
        -0.37300E+03
        -0.37300E+03
        -0.37300E+03
        -0.37300E+03
        -0.37300E+03
        -0.37300E+03
        -0.37300E+03
        -0.37300E+03
        -0.37300E+03
        -0.37300E+03
        -0.37300E+03
        -0.37300E+03
        -0.37300E+03
        -0.37300E+03
        -0.37300E+03
        -0.37300E+03
        -0.37300E+03
        -0.37300E+03
        -0.37300E+03
        -0.37300E+03
        -0.37300E+03
        -0.37300E+03
        -0.37300E+03
        -0.37300E+03
        -0.37300E+03
        -0.37300E+03
        -0.37300E+03
        -0.37300E+03
        -0.37300E+03
        -0.37300E+03
        -0.37300E+03
        -0.37300E+03
        -0.37300E+03
        -0.37300E+03
        -0.37300E+03
        -0.37300E+03
        -0.37300E+03
        -0.37300E+03
        -0.37300E+03
        -0.37300E+03
        -0.37300E+03
        -0.37300E+03
        -0.37300E+03
        -0.37300E+03
        -0.37300E+03
        -0.37300E+03
        -0.37300E+03
        -0.37300E+03
        -0.37300E+03
        -0.37300E+03
        -0.37300E+03
        -0.37300E+03
        -0.37300E+03
        -0.37300E+03
        -0.37300E+03
        -0.37300E+03
        -0.37300E+03
        -0.37300E+03
        -0.37300E+03
        -0.37300E+03
        -0.37300E+03
        -0.37300E+03
        -0.37300E+03
        -0.37300E+03
        -0.37300E+03
        -0.37300E+03
        -0.37300E+03
        -0.37300E+03
        -0.37300E+03
        -0.37300E+03
        -0.37300E+03
        -0.37300E+03
        -0.37300E+03
        -0.37300E+03
        -0.37300E+03
        -0.37300E+03
        -0.37300E+03
        -0.37300E+03
        -0.37300E+03
        -0.37300E+03
        -0.37300E+03
        -0.37300E+03
        -0.37300E+03
        -0.37300E+03
        -0.37300E+03
        -0.37300E+03
        -0.37300E+03
        -0.37300E+03
        -0.37300E+03
        -0.37300E+03
        -0.37300E+03
        -0.37300E+03
        -0.37300E+03
        -0.37300E+03
        -0.37300E+03
        -0.37300E+03
        -0.37300E+03
        -0.37300E+03
        -0.37300E+03
        -0.37300E+03
        -0.37300E+03
        -0.37300E+03
        -0.37300E+03
        -0.37300E+03
        -0.37300E+03
        -0.37300E+03
        -0.37300E+03
        -0.37300E+03
        -0.37300E+03
        -0.37300E+03
        -0.37300E+03
        -0.37300E+03
        -0.37300E+03
        -0.37300E+03
        -0.37300E+03
        -0.37300E+03
        -0.37300E+03
        -0.37300E+03
        -0.37300E+03
        -0.37300E+03
        -0.37300E+03
        -0.37300E+03
        -0.37300E+03
        -0.37300E+03
        -0.37300E+03
        -0.37300E+03
        -0.37300E+03
        -0.37300E+03
        -0.37300E+03
        -0.37300E+03
        -0.37300E+03
        -0.37300E+03
        -0.37300E+03
        -0.37300E+03
        -0.37300E+03
        -0.37300E+03
        -0.37300E+03
        -0.37300E+03
        -0.37300E+03
        -0.37300E+03
        -0.37300E+03
        -0.37300E+03
        -0.37300E+03
        -0.37300E+03
        -0.37300E+03
        -0.37300E+03
        -0.37300E+03
        -0.37300E+03
        -0.37300E+03
        -0.37300E+03
        -0.37300E+03
        -0.37300E+03
        -0.37300E+03
        -0.37300E+03
        -0.37300E+03
        -0.37300E+03
        -0.37300E+03
        -0.37300E+03
        -0.37300E+03
        -0.37300E+03
        -0.37300E+03
        -0.37300E+03
        -0.37300E+03
        -0.37300E+03
        -0.37300E+03
        -0.37300E+03
        -0.37300E+03
        -0.37300E+03
        -0.37300E+03
        -0.37300E+03
        -0.37300E+03
        -0.37300E+03
        -0.37300E+03
        -0.37300E+03
        -0.37300E+03
        -0.37300E+03
        -0.37300E+03
        -0.37300E+03
        -0.37300E+03
        -0.37300E+03
        -0.37300E+03
        -0.37300E+03
        -0.37300E+03
        -0.37300E+03
        -0.37300E+03
        -0.37300E+03
        -0.37300E+03
        -0.37300E+03
        -0.37300E+03
        -0.37300E+03
        -0.37300E+03
        -0.37300E+03
        -0.37300E+03
        -0.37300E+03
        -0.37300E+03
        -0.37300E+03
        -0.37300E+03
        -0.37300E+03
        -0.37300E+03
        -0.37300E+03
        -0.37300E+03
        -0.37300E+03
        -0.37300E+03
        -0.37300E+03
        -0.37300E+03
        -0.37300E+03
        -0.37300E+03
        -0.37300E+03
        -0.37300E+03
        -0.37300E+03
        -0.37300E+03
        -0.37300E+03
        -0.37300E+03
        -0.37300E+03
        -0.37300E+03
        -0.37300E+03
        -0.37300E+03
        -0.37300E+03
        -0.37300E+03
        -0.37300E+03
        -0.37300E+03
        -0.37300E+03
        -0.37300E+03
        -0.37300E+03
        -0.37300E+03
        -0.37300E+03
        -0.37300E+03
        -0.37300E+03
        -0.37300E+03
        -0.37300E+03
        -0.37300E+03
        -0.37300E+03
        -0.37300E+03
        -0.37300E+03
        -0.37300E+03
        -0.37300E+03
        -0.37300E+03
        -0.37300E+03
        -0.37300E+03
        -0.37300E+03
        -0.37300E+03
        -0.37300E+03
        -0.37300E+03
        -0.37300E+03
        -0.37300E+03
        -0.37300E+03
        -0.37300E+03
        -0.37300E+03
        -0.37300E+03
        -0.37300E+03
        -0.37300E+03
        -0.37300E+03
        -0.37300E+03
        -0.37300E+03
        -0.37300E+03
        -0.37300E+03
        -0.37300E+03
        -0.37300E+03
        -0.37300E+03
        -0.37300E+03
        -0.37300E+03
        -0.37300E+03
        -0.37300E+03
        -0.37300E+03
        -0.37300E+03
        -0.37300E+03
        -0.37300E+03
        -0.37300E+03
        -0.37300E+03
        -0.37300E+03
        -0.37300E+03
        -0.37300E+03
        -0.37300E+03
        -0.37300E+03
        -0.37300E+03
        -0.37300E+03
        -0.37300E+03
        -0.37300E+03
        -0.37300E+03
        -0.37300E+03
        -0.37300E+03
        -0.37300E+03
        -0.37300E+03
        -0.37300E+03
        -0.37300E+03
        -0.37300E+03
        -0.37300E+03
        -0.37300E+03
        -0.37300E+03
        -0.37300E+03
        -0.37300E+03
        -0.37300E+03
        -0.37300E+03
        -0.37300E+03
        -0.37300E+03
        -0.37300E+03
        -0.37300E+03
        -0.37300E+03
        -0.37300E+03
        -0.37300E+03
        -0.37300E+03
        -0.37300E+03
        -0.37300E+03
        -0.37300E+03
        -0.37300E+03
        -0.37300E+03
        -0.37300E+03
        -0.37300E+03
        -0.37300E+03
        -0.37300E+03
        -0.37300E+03
        -0.37300E+03
        -0.37300E+03
        -0.37300E+03
        -0.37300E+03
        -0.37300E+03
        -0.37300E+03
        -0.37300E+03
        -0.37300E+03
        -0.37300E+03
        -0.37300E+03
        -0.37300E+03
        -0.37300E+03
        -0.37300E+03
        -0.37300E+03
        -0.37300E+03
        -0.37300E+03
        -0.37300E+03
        -0.37300E+03
        -0.37300E+03
        -0.37300E+03
        -0.37300E+03
        -0.37300E+03
        -0.37300E+03
        -0.37300E+03
        -0.37300E+03
        -0.37300E+03
        -0.37300E+03
        -0.37300E+03
        -0.37300E+03
        -0.37300E+03
        -0.37300E+03
        -0.37300E+03
        -0.37300E+03
        -0.37300E+03
        -0.37300E+03
        -0.37300E+03
        -0.37300E+03
        -0.37300E+03
        -0.37300E+03
        -0.37300E+03
        -0.37300E+03
        -0.37300E+03
        -0.37300E+03
        -0.37300E+03
        -0.37300E+03
        -0.37300E+03
        -0.37300E+03
        -0.37300E+03
        -0.37300E+03
        -0.37300E+03
        -0.37300E+03
        -0.37300E+03
        -0.37300E+03
        -0.37300E+03
        -0.37300E+03
        -0.37300E+03
        -0.37300E+03
        -0.37300E+03
        -0.37300E+03
        -0.37300E+03
        -0.37300E+03
        -0.37300E+03
        -0.37300E+03
        -0.37300E+03
        -0.37300E+03
        -0.37300E+03
        -0.37300E+03
        -0.37300E+03
        -0.37300E+03
        -0.37300E+03
        -0.37300E+03
        -0.37300E+03
        -0.37300E+03
        -0.37300E+03
        -0.37300E+03
        -0.37300E+03
        -0.37300E+03
        -0.37300E+03
        -0.37300E+03
        -0.37300E+03
        -0.37300E+03
        -0.37300E+03
        -0.37300E+03
        -0.37300E+03
        -0.37300E+03
        -0.37300E+03
        -0.37300E+03
        -0.37300E+03
        -0.37300E+03
        -0.37300E+03
        -0.37300E+03
        -0.37300E+03
        -0.37300E+03
        -0.37300E+03
        -0.37300E+03
        -0.37300E+03
        -0.37300E+03
        -0.37300E+03
        -0.37300E+03
        -0.37300E+03
        -0.37300E+03
        -0.37300E+03
        -0.37300E+03
        -0.37300E+03
        -0.37300E+03
        -0.37300E+03
        -0.37300E+03
        -0.37300E+03
        -0.37300E+03
        -0.37300E+03
        -0.37300E+03
        -0.37300E+03
        -0.37300E+03
        -0.37300E+03
        -0.37300E+03
        -0.37300E+03
        -0.37300E+03
        -0.37300E+03
        -0.37300E+03
        -0.37300E+03
        -0.37300E+03
        -0.37300E+03
        -0.37300E+03
        -0.37300E+03
        -0.37300E+03
        -0.37300E+03
        -0.37300E+03
        -0.37300E+03
        -0.37300E+03
        -0.37300E+03
        -0.37300E+03
        -0.37300E+03
        -0.37300E+03
        -0.37300E+03
        -0.37300E+03
        -0.37300E+03
        -0.37300E+03
        -0.37300E+03
        -0.37300E+03
        -0.37300E+03
        -0.37300E+03
        -0.37300E+03
        -0.37300E+03
        -0.37300E+03
        -0.37300E+03
        -0.37300E+03
        -0.37300E+03
        -0.37300E+03
        -0.37300E+03
        -0.37300E+03
        -0.37300E+03
        -0.37300E+03
        -0.37300E+03
        -0.37300E+03
        -0.37300E+03
        -0.37300E+03
        -0.37300E+03
        -0.37300E+03
        -0.37300E+03
        -0.37300E+03
        -0.37300E+03
        -0.37300E+03
        -0.37300E+03
        -0.37300E+03
        -0.37300E+03
        -0.37300E+03
        -0.37300E+03
        -0.37300E+03
        -0.37300E+03
        -0.37300E+03
        -0.37300E+03
        -0.37300E+03
        -0.37300E+03
        -0.37300E+03
        -0.37300E+03
        -0.37300E+03
        -0.37300E+03
        -0.37300E+03
        -0.37300E+03
        -0.37300E+03
        -0.37300E+03
        -0.37300E+03
        -0.37300E+03
        -0.37300E+03
        -0.37300E+03
        -0.37300E+03
        -0.37300E+03
        -0.37300E+03
        -0.37300E+03
        -0.37300E+03
        -0.37300E+03
        -0.37300E+03
        -0.37300E+03
        -0.37300E+03
        -0.37300E+03
        -0.37300E+03
        -0.37300E+03
        -0.37300E+03
        -0.37300E+03
        -0.37300E+03
        -0.37300E+03
        -0.37300E+03
        -0.37300E+03
        -0.37300E+03
        -0.37300E+03
        -0.37300E+03
        -0.37300E+03
        -0.37300E+03
        -0.37300E+03
        -0.37300E+03
        -0.37300E+03
        -0.37300E+03
        -0.37300E+03
        -0.37300E+03
        -0.37300E+03
        -0.37300E+03
        -0.37300E+03
        -0.37300E+03
        -0.37300E+03
        -0.37300E+03
        -0.37300E+03
        -0.37300E+03
        -0.37300E+03
        -0.37300E+03
        -0.37300E+03
        -0.37300E+03
        -0.37300E+03
        -0.37300E+03
        -0.37300E+03
        -0.37300E+03
        -0.37300E+03
        -0.37300E+03
        -0.37300E+03
        -0.37300E+03
        -0.37300E+03
        -0.37300E+03
        -0.37300E+03
        -0.37300E+03
        -0.37300E+03
        -0.37300E+03
        -0.37300E+03
        -0.37300E+03
        -0.37300E+03
        -0.37300E+03
        -0.37300E+03
        -0.37300E+03
        -0.37300E+03
        -0.37300E+03
        -0.37300E+03
        -0.37300E+03
        -0.37300E+03
        -0.37300E+03
        -0.37300E+03
        -0.37300E+03
        -0.37300E+03
        -0.37300E+03
        -0.37300E+03
        -0.37300E+03
        -0.37300E+03
        -0.37300E+03
        -0.37300E+03
        -0.37300E+03
        -0.37300E+03
        -0.37300E+03
        -0.37300E+03
        -0.37300E+03
        -0.37300E+03
        -0.37300E+03
        -0.37300E+03
        -0.37300E+03
        -0.37300E+03
        -0.37300E+03
        -0.37300E+03
        -0.37300E+03
        -0.37300E+03
        -0.37300E+03
        -0.37300E+03
        -0.37300E+03
        -0.37300E+03
        -0.37300E+03
        -0.37300E+03
        -0.37300E+03
        -0.37300E+03
        -0.37300E+03
        -0.37300E+03
        -0.37300E+03
        -0.37300E+03
        -0.37300E+03
        -0.37300E+03
        -0.37300E+03
        -0.37300E+03
        -0.37300E+03
        -0.37300E+03
        -0.37300E+03
        -0.37300E+03
        -0.37300E+03
        -0.37300E+03
        -0.37300E+03
        -0.37300E+03
        -0.37300E+03
        -0.37300E+03
        -0.37300E+03
        -0.37300E+03
        -0.37300E+03
        -0.37300E+03
        -0.37300E+03
        -0.37300E+03
        -0.37300E+03
        -0.37300E+03
        -0.37300E+03
        -0.37300E+03
        -0.37300E+03
        -0.37300E+03
  
SCALARS              normalized_window  double 1
LOOKUP_TABLE default
         0.27500E+01
         0.27500E+01
         0.27500E+01
         0.27500E+01
         0.27500E+01
         0.27500E+01
         0.27500E+01
         0.27500E+01
         0.27500E+01
         0.27500E+01
         0.27500E+01
         0.27500E+01
         0.27500E+01
         0.27500E+01
         0.27500E+01
         0.27500E+01
         0.27500E+01
         0.27500E+01
         0.27500E+01
         0.27500E+01
         0.27500E+01
         0.27500E+01
         0.27500E+01
         0.27500E+01
         0.27500E+01
         0.27500E+01
         0.27500E+01
         0.27500E+01
         0.27500E+01
         0.27500E+01
         0.27500E+01
         0.27500E+01
         0.27500E+01
         0.27500E+01
         0.27500E+01
         0.27500E+01
         0.27500E+01
         0.27500E+01
         0.27500E+01
         0.27500E+01
         0.27500E+01
         0.27500E+01
         0.27500E+01
         0.27500E+01
         0.27500E+01
         0.27500E+01
         0.27500E+01
         0.27500E+01
         0.27500E+01
         0.27500E+01
         0.27500E+01
         0.27500E+01
         0.27500E+01
         0.27500E+01
         0.27500E+01
         0.27500E+01
         0.27500E+01
         0.27500E+01
         0.27500E+01
         0.27500E+01
         0.27500E+01
         0.27500E+01
         0.27500E+01
         0.27500E+01
         0.27500E+01
         0.27500E+01
         0.27500E+01
         0.27500E+01
         0.27500E+01
         0.27500E+01
         0.27500E+01
         0.27500E+01
         0.27500E+01
         0.27500E+01
         0.27500E+01
         0.27500E+01
         0.27500E+01
         0.27500E+01
         0.27500E+01
         0.27500E+01
         0.27500E+01
         0.27500E+01
         0.27500E+01
         0.27500E+01
         0.27500E+01
         0.27500E+01
         0.27500E+01
         0.27500E+01
         0.27500E+01
         0.27500E+01
         0.27500E+01
         0.27500E+01
         0.27500E+01
         0.27500E+01
         0.27500E+01
         0.27500E+01
         0.27500E+01
         0.27500E+01
         0.27500E+01
         0.27500E+01
         0.27500E+01
         0.27500E+01
         0.27500E+01
         0.27500E+01
         0.27500E+01
         0.27500E+01
         0.27500E+01
         0.27500E+01
         0.27500E+01
         0.27500E+01
         0.27500E+01
         0.27500E+01
         0.27500E+01
         0.27500E+01
         0.27500E+01
         0.27500E+01
         0.27500E+01
         0.27500E+01
         0.27500E+01
         0.27500E+01
         0.27500E+01
         0.27500E+01
         0.27500E+01
         0.27500E+01
         0.27500E+01
         0.27500E+01
         0.27500E+01
         0.27500E+01
         0.27500E+01
         0.27500E+01
         0.27500E+01
         0.27500E+01
         0.27500E+01
         0.27500E+01
         0.27500E+01
         0.27500E+01
         0.27500E+01
         0.27500E+01
         0.27500E+01
         0.27500E+01
         0.27500E+01
         0.27500E+01
         0.27500E+01
         0.27500E+01
         0.27500E+01
         0.27500E+01
         0.27500E+01
         0.27500E+01
         0.27500E+01
         0.27500E+01
         0.27500E+01
         0.27500E+01
         0.27500E+01
         0.27500E+01
         0.27500E+01
         0.27500E+01
         0.27500E+01
         0.27500E+01
         0.27500E+01
         0.27500E+01
         0.27500E+01
         0.27500E+01
         0.27500E+01
         0.27500E+01
         0.27500E+01
         0.27500E+01
         0.27500E+01
         0.27500E+01
         0.27500E+01
         0.27500E+01
         0.27500E+01
         0.27500E+01
         0.27500E+01
         0.27500E+01
         0.27500E+01
         0.27500E+01
         0.27500E+01
         0.27500E+01
         0.27500E+01
         0.27500E+01
         0.27500E+01
         0.27500E+01
         0.27500E+01
         0.27500E+01
         0.27500E+01
         0.27500E+01
         0.27500E+01
         0.27500E+01
         0.27500E+01
         0.27500E+01
         0.27500E+01
         0.27500E+01
         0.27500E+01
         0.27500E+01
         0.27500E+01
         0.27500E+01
         0.27500E+01
         0.27500E+01
         0.27500E+01
         0.27500E+01
         0.27500E+01
         0.27500E+01
         0.27500E+01
         0.27500E+01
         0.27500E+01
         0.27500E+01
         0.27500E+01
         0.27500E+01
         0.27500E+01
         0.27500E+01
         0.27500E+01
         0.27500E+01
         0.27500E+01
         0.27500E+01
         0.27500E+01
         0.27500E+01
         0.27500E+01
         0.27500E+01
         0.27500E+01
         0.27500E+01
         0.27500E+01
         0.27500E+01
         0.27500E+01
         0.27500E+01
         0.27500E+01
         0.27500E+01
         0.27500E+01
         0.27500E+01
         0.27500E+01
         0.27500E+01
         0.27500E+01
         0.27500E+01
         0.27500E+01
         0.27500E+01
         0.27500E+01
         0.27500E+01
         0.27500E+01
         0.27500E+01
         0.27500E+01
         0.27500E+01
         0.27500E+01
         0.27500E+01
         0.27500E+01
         0.27500E+01
         0.27500E+01
         0.27500E+01
         0.27500E+01
         0.27500E+01
         0.27500E+01
         0.27500E+01
         0.27500E+01
         0.27500E+01
         0.27500E+01
         0.27500E+01
         0.27500E+01
         0.27500E+01
         0.27500E+01
         0.27500E+01
         0.27500E+01
         0.27500E+01
         0.27500E+01
         0.27500E+01
         0.27500E+01
         0.27500E+01
         0.27500E+01
         0.27500E+01
         0.27500E+01
         0.27500E+01
         0.27500E+01
         0.27500E+01
         0.27500E+01
         0.27500E+01
         0.27500E+01
         0.27500E+01
         0.27500E+01
         0.27500E+01
         0.27500E+01
         0.27500E+01
         0.27500E+01
         0.27500E+01
         0.27500E+01
         0.27500E+01
         0.27500E+01
         0.27500E+01
         0.27500E+01
         0.27500E+01
         0.27500E+01
         0.27500E+01
         0.27500E+01
         0.27500E+01
         0.27500E+01
         0.27500E+01
         0.27500E+01
         0.27500E+01
         0.27500E+01
         0.27500E+01
         0.27500E+01
         0.27500E+01
         0.27500E+01
         0.27500E+01
         0.27500E+01
         0.27500E+01
         0.27500E+01
         0.27500E+01
         0.27500E+01
         0.27500E+01
         0.27500E+01
         0.27500E+01
         0.27500E+01
         0.27500E+01
         0.27500E+01
         0.27500E+01
         0.27500E+01
         0.27500E+01
         0.27500E+01
         0.27500E+01
         0.27500E+01
         0.27500E+01
         0.27500E+01
         0.27500E+01
         0.27500E+01
         0.27500E+01
         0.27500E+01
         0.27500E+01
         0.27500E+01
         0.27500E+01
         0.27500E+01
         0.27500E+01
         0.27500E+01
         0.27500E+01
         0.27500E+01
         0.27500E+01
         0.27500E+01
         0.27500E+01
         0.27500E+01
         0.27500E+01
         0.27500E+01
         0.27500E+01
         0.27500E+01
         0.27500E+01
         0.27500E+01
         0.27500E+01
         0.27500E+01
         0.27500E+01
         0.27500E+01
         0.27500E+01
         0.27500E+01
         0.27500E+01
         0.27500E+01
         0.27500E+01
         0.27500E+01
         0.27500E+01
         0.27500E+01
         0.27500E+01
         0.27500E+01
         0.27500E+01
         0.27500E+01
         0.27500E+01
         0.27500E+01
         0.27500E+01
         0.27500E+01
         0.27500E+01
         0.27500E+01
         0.27500E+01
         0.27500E+01
         0.27500E+01
         0.27500E+01
         0.27500E+01
         0.27500E+01
         0.27500E+01
         0.27500E+01
         0.27500E+01
         0.27500E+01
         0.27500E+01
         0.27500E+01
         0.27500E+01
         0.27500E+01
         0.27500E+01
         0.27500E+01
         0.27500E+01
         0.27500E+01
         0.27500E+01
         0.27500E+01
         0.27500E+01
         0.27500E+01
         0.27500E+01
         0.27500E+01
         0.27500E+01
         0.27500E+01
         0.27500E+01
         0.27500E+01
         0.27500E+01
         0.27500E+01
         0.27500E+01
         0.27500E+01
         0.27500E+01
         0.27500E+01
         0.27500E+01
         0.27500E+01
         0.27500E+01
         0.27500E+01
         0.27500E+01
         0.27500E+01
         0.27500E+01
         0.27500E+01
         0.27500E+01
         0.27500E+01
         0.27500E+01
         0.27500E+01
         0.27500E+01
         0.27500E+01
         0.27500E+01
         0.27500E+01
         0.27500E+01
         0.27500E+01
         0.27500E+01
         0.27500E+01
         0.27500E+01
         0.27500E+01
         0.27500E+01
         0.27500E+01
         0.27500E+01
         0.27500E+01
         0.27500E+01
         0.27500E+01
         0.27500E+01
         0.27500E+01
         0.27500E+01
         0.27500E+01
         0.27500E+01
         0.27500E+01
         0.27500E+01
         0.27500E+01
         0.27500E+01
         0.27500E+01
         0.27500E+01
         0.27500E+01
         0.27500E+01
         0.27500E+01
         0.27500E+01
         0.27500E+01
         0.27500E+01
         0.27500E+01
         0.27500E+01
         0.27500E+01
         0.27500E+01
         0.27500E+01
         0.27500E+01
         0.27500E+01
         0.27500E+01
         0.27500E+01
         0.27500E+01
         0.27500E+01
         0.27500E+01
         0.27500E+01
         0.27500E+01
         0.27500E+01
         0.27500E+01
         0.27500E+01
         0.27500E+01
         0.27500E+01
         0.27500E+01
         0.27500E+01
         0.27500E+01
         0.27500E+01
         0.27500E+01
         0.27500E+01
         0.27500E+01
         0.27500E+01
         0.27500E+01
         0.27500E+01
         0.27500E+01
         0.27500E+01
         0.27500E+01
         0.27500E+01
         0.27500E+01
         0.27500E+01
         0.27500E+01
         0.27500E+01
         0.27500E+01
         0.27500E+01
         0.27500E+01
         0.27500E+01
         0.27500E+01
         0.27500E+01
         0.27500E+01
         0.27500E+01
         0.27500E+01
         0.27500E+01
         0.27500E+01
         0.27500E+01
         0.27500E+01
         0.27500E+01
         0.27500E+01
         0.27500E+01
         0.27500E+01
         0.27500E+01
         0.27500E+01
         0.27500E+01
         0.27500E+01
         0.27500E+01
         0.27500E+01
         0.27500E+01
         0.27500E+01
         0.27500E+01
         0.27500E+01
         0.27500E+01
         0.27500E+01
         0.27500E+01
         0.27500E+01
         0.27500E+01
         0.27500E+01
         0.27500E+01
         0.27500E+01
         0.27500E+01
         0.27500E+01
         0.27500E+01
         0.27500E+01
         0.27500E+01
         0.27500E+01
         0.27500E+01
         0.27500E+01
         0.27500E+01
         0.27500E+01
         0.27500E+01
         0.27500E+01
         0.27500E+01
         0.27500E+01
         0.27500E+01
         0.27500E+01
         0.27500E+01
         0.27500E+01
         0.27500E+01
         0.27500E+01
         0.27500E+01
         0.27500E+01
         0.27500E+01
         0.27500E+01
         0.27500E+01
         0.27500E+01
         0.27500E+01
         0.27500E+01
         0.27500E+01
         0.27500E+01
         0.27500E+01
         0.27500E+01
         0.27500E+01
         0.27500E+01
         0.27500E+01
         0.27500E+01
         0.27500E+01
         0.27500E+01
         0.27500E+01
         0.27500E+01
         0.27500E+01
         0.27500E+01
         0.27500E+01
         0.27500E+01
         0.27500E+01
         0.27500E+01
         0.27500E+01
         0.27500E+01
         0.27500E+01
         0.27500E+01
         0.27500E+01
         0.27500E+01
         0.27500E+01
         0.27500E+01
         0.27500E+01
         0.27500E+01
         0.27500E+01
         0.27500E+01
         0.27500E+01
         0.27500E+01
         0.27500E+01
         0.27500E+01
         0.27500E+01
         0.27500E+01
         0.27500E+01
         0.27500E+01
         0.27500E+01
         0.27500E+01
         0.27500E+01
         0.27500E+01
         0.27500E+01
         0.27500E+01
         0.27500E+01
         0.27500E+01
         0.27500E+01
         0.27500E+01
         0.27500E+01
         0.27500E+01
         0.27500E+01
         0.27500E+01
         0.27500E+01
         0.27500E+01
         0.27500E+01
         0.27500E+01
         0.27500E+01
         0.27500E+01
         0.27500E+01
         0.27500E+01
         0.27500E+01
         0.27500E+01
         0.27500E+01
         0.27500E+01
         0.27500E+01
         0.27500E+01
         0.27500E+01
         0.27500E+01
         0.27500E+01
         0.27500E+01
         0.27500E+01
         0.27500E+01
         0.27500E+01
         0.27500E+01
         0.27500E+01
         0.27500E+01
         0.27500E+01
         0.27500E+01
         0.27500E+01
         0.27500E+01
         0.27500E+01
         0.27500E+01
         0.27500E+01
         0.27500E+01
         0.27500E+01
         0.27500E+01
         0.27500E+01
         0.27500E+01
         0.27500E+01
         0.27500E+01
         0.27500E+01
         0.27500E+01
         0.27500E+01
         0.27500E+01
         0.27500E+01
         0.27500E+01
         0.27500E+01
         0.27500E+01
         0.27500E+01
         0.27500E+01
         0.27500E+01
         0.27500E+01
         0.27500E+01
         0.27500E+01
         0.27500E+01
         0.27500E+01
         0.27500E+01
         0.27500E+01
         0.27500E+01
         0.27500E+01
         0.27500E+01
         0.27500E+01
         0.27500E+01
         0.27500E+01
         0.27500E+01
         0.27500E+01
         0.27500E+01
         0.27500E+01
         0.27500E+01
         0.27500E+01
         0.27500E+01
         0.27500E+01
         0.27500E+01
         0.27500E+01
         0.27500E+01
         0.27500E+01
         0.27500E+01
         0.27500E+01
         0.27500E+01
         0.27500E+01
         0.27500E+01
         0.27500E+01
         0.27500E+01
         0.27500E+01
         0.27500E+01
         0.27500E+01
         0.27500E+01
         0.27500E+01
         0.27500E+01
         0.27500E+01
         0.27500E+01
         0.27500E+01
         0.27500E+01
         0.27500E+01
         0.27500E+01
         0.27500E+01
         0.27500E+01
         0.27500E+01
         0.27500E+01
         0.27500E+01
         0.27500E+01
         0.27500E+01
         0.27500E+01
         0.27500E+01
         0.27500E+01
         0.27500E+01
         0.27500E+01
         0.27500E+01
         0.27500E+01
         0.27500E+01
         0.27500E+01
         0.27500E+01
         0.27500E+01
         0.27500E+01
         0.27500E+01
         0.27500E+01
         0.27500E+01
         0.27500E+01
         0.27500E+01
         0.27500E+01
         0.27500E+01
         0.27500E+01
         0.27500E+01
         0.27500E+01
         0.27500E+01
         0.27500E+01
         0.27500E+01
         0.27500E+01
         0.27500E+01
         0.27500E+01
         0.27500E+01
         0.27500E+01
         0.27500E+01
         0.27500E+01
         0.27500E+01
         0.27500E+01
         0.27500E+01
         0.27500E+01
         0.27500E+01
         0.27500E+01
         0.27500E+01
         0.27500E+01
         0.27500E+01
         0.27500E+01
         0.27500E+01
         0.27500E+01
         0.27500E+01
         0.27500E+01
         0.27500E+01
         0.27500E+01
         0.27500E+01
         0.27500E+01
         0.27500E+01
         0.27500E+01
         0.27500E+01
         0.27500E+01
         0.27500E+01
         0.27500E+01
         0.27500E+01
         0.27500E+01
         0.27500E+01
         0.27500E+01
         0.27500E+01
         0.27500E+01
         0.27500E+01
         0.27500E+01
         0.27500E+01
         0.27500E+01
         0.27500E+01
         0.27500E+01
         0.27500E+01
         0.27500E+01
         0.27500E+01
         0.27500E+01
         0.27500E+01
         0.27500E+01
         0.27500E+01
         0.27500E+01
         0.27500E+01
         0.27500E+01
         0.27500E+01
         0.27500E+01
         0.27500E+01
         0.27500E+01
         0.27500E+01
         0.27500E+01
         0.27500E+01
         0.27500E+01
         0.27500E+01
         0.27500E+01
         0.27500E+01
         0.27500E+01
         0.27500E+01
         0.27500E+01
         0.27500E+01
         0.27500E+01
         0.27500E+01
         0.27500E+01
         0.27500E+01
         0.27500E+01
         0.27500E+01
         0.27500E+01
         0.27500E+01
         0.27500E+01
         0.27500E+01
         0.27500E+01
         0.27500E+01
         0.27500E+01
         0.27500E+01
         0.27500E+01
         0.27500E+01
         0.27500E+01
         0.27500E+01
         0.27500E+01
         0.27500E+01
         0.27500E+01
         0.27500E+01
         0.27500E+01
         0.27500E+01
         0.27500E+01
         0.27500E+01
         0.27500E+01
         0.27500E+01
         0.27500E+01
         0.27500E+01
         0.27500E+01
         0.27500E+01
         0.27500E+01
         0.27500E+01
         0.27500E+01
         0.27500E+01
         0.27500E+01
         0.27500E+01
         0.27500E+01
         0.27500E+01
         0.27500E+01
         0.27500E+01
         0.27500E+01
         0.27500E+01
         0.27500E+01
         0.27500E+01
         0.27500E+01
         0.27500E+01
         0.27500E+01
         0.27500E+01
         0.27500E+01
         0.27500E+01
         0.27500E+01
         0.27500E+01
         0.27500E+01
         0.27500E+01
         0.27500E+01
         0.27500E+01
         0.27500E+01
         0.27500E+01
         0.27500E+01
         0.27500E+01
         0.27500E+01
         0.27500E+01
         0.27500E+01
         0.27500E+01
         0.27500E+01
         0.27500E+01
         0.27500E+01
         0.27500E+01
         0.27500E+01
         0.27500E+01
         0.27500E+01
         0.27500E+01
         0.27500E+01
         0.27500E+01
         0.27500E+01
         0.27500E+01
         0.27500E+01
         0.27500E+01
         0.27500E+01
         0.27500E+01
         0.27500E+01
         0.27500E+01
         0.27500E+01
         0.27500E+01
         0.27500E+01
         0.27500E+01
         0.27500E+01
         0.27500E+01
         0.27500E+01
         0.27500E+01
         0.27500E+01
         0.27500E+01
         0.27500E+01
         0.27500E+01
         0.27500E+01
         0.27500E+01
         0.27500E+01
         0.27500E+01
         0.27500E+01
         0.27500E+01
         0.27500E+01
         0.27500E+01
         0.27500E+01
         0.27500E+01
         0.27500E+01
         0.27500E+01
         0.27500E+01
         0.27500E+01
         0.27500E+01
         0.27500E+01
         0.27500E+01
         0.27500E+01
         0.27500E+01
         0.27500E+01
         0.27500E+01
         0.27500E+01
         0.27500E+01
         0.27500E+01
         0.27500E+01
         0.27500E+01
         0.27500E+01
         0.27500E+01
         0.27500E+01
         0.27500E+01
         0.27500E+01
         0.27500E+01
         0.27500E+01
         0.27500E+01
         0.27500E+01
         0.27500E+01
         0.27500E+01
         0.27500E+01
         0.27500E+01
         0.27500E+01
         0.27500E+01
         0.27500E+01
         0.27500E+01
         0.27500E+01
         0.27500E+01
         0.27500E+01
         0.27500E+01
         0.27500E+01
         0.27500E+01
         0.27500E+01
         0.27500E+01
         0.27500E+01
         0.27500E+01
         0.27500E+01
         0.27500E+01
         0.27500E+01
         0.27500E+01
         0.27500E+01
         0.27500E+01
         0.27500E+01
         0.27500E+01
         0.27500E+01
         0.27500E+01
         0.27500E+01
         0.27500E+01
         0.27500E+01
         0.27500E+01
         0.27500E+01
         0.27500E+01
         0.27500E+01
         0.27500E+01
         0.27500E+01
         0.27500E+01
         0.27500E+01
         0.27500E+01
         0.27500E+01
         0.27500E+01
         0.27500E+01
         0.27500E+01
         0.27500E+01
         0.27500E+01
         0.27500E+01
         0.27500E+01
         0.27500E+01
         0.27500E+01
         0.27500E+01
         0.27500E+01
         0.27500E+01
         0.27500E+01
         0.27500E+01
         0.27500E+01
         0.27500E+01
         0.27500E+01
         0.27500E+01
         0.27500E+01
         0.27500E+01
         0.27500E+01
         0.27500E+01
         0.27500E+01
         0.27500E+01
         0.27500E+01
         0.27500E+01
         0.27500E+01
         0.27500E+01
         0.27500E+01
         0.27500E+01
         0.27500E+01
         0.27500E+01
         0.27500E+01
         0.27500E+01
         0.27500E+01
         0.27500E+01
         0.27500E+01
         0.27500E+01
         0.27500E+01
         0.27500E+01
         0.27500E+01
         0.27500E+01
         0.27500E+01
         0.27500E+01
         0.27500E+01
         0.27500E+01
         0.27500E+01
         0.27500E+01
         0.27500E+01
         0.27500E+01
         0.27500E+01
         0.27500E+01
         0.27500E+01
         0.27500E+01
         0.27500E+01
         0.27500E+01
         0.27500E+01
         0.27500E+01
         0.27500E+01
         0.27500E+01
         0.27500E+01
         0.27500E+01
         0.27500E+01
         0.27500E+01
         0.27500E+01
         0.27500E+01
         0.27500E+01
         0.27500E+01
         0.27500E+01
         0.27500E+01
         0.27500E+01
         0.27500E+01
         0.27500E+01
         0.27500E+01
         0.27500E+01
         0.27500E+01
         0.27500E+01
         0.27500E+01
         0.27500E+01
         0.27500E+01
         0.27500E+01
         0.27500E+01
         0.27500E+01
         0.27500E+01
         0.27500E+01
         0.27500E+01
         0.27500E+01
         0.27500E+01
         0.27500E+01
         0.27500E+01
         0.27500E+01
         0.27500E+01
         0.27500E+01
         0.27500E+01
         0.27500E+01
         0.27500E+01
         0.27500E+01
         0.27500E+01
         0.27500E+01
         0.27500E+01
         0.27500E+01
         0.27500E+01
         0.27500E+01
         0.27500E+01
         0.27500E+01
         0.27500E+01
         0.27500E+01
         0.27500E+01
         0.27500E+01
         0.27500E+01
         0.27500E+01
         0.27500E+01
         0.27500E+01
         0.27500E+01
         0.27500E+01
         0.27500E+01
         0.27500E+01
         0.27500E+01
         0.27500E+01
         0.27500E+01
         0.27500E+01
         0.27500E+01
         0.27500E+01
         0.27500E+01
         0.27500E+01
         0.27500E+01
         0.27500E+01
         0.27500E+01
         0.27500E+01
         0.27500E+01
         0.27500E+01
         0.27500E+01
         0.27500E+01
         0.27500E+01
         0.27500E+01
         0.27500E+01
         0.27500E+01
         0.27500E+01
         0.27500E+01
         0.27500E+01
         0.27500E+01
         0.27500E+01
         0.27500E+01
         0.27500E+01
         0.27500E+01
         0.27500E+01
         0.27500E+01
         0.27500E+01
         0.27500E+01
         0.27500E+01
         0.27500E+01
         0.27500E+01
         0.27500E+01
         0.27500E+01
         0.27500E+01
         0.27500E+01
         0.27500E+01
         0.27500E+01
         0.27500E+01
         0.27500E+01
         0.27500E+01
         0.27500E+01
         0.27500E+01
         0.27500E+01
         0.27500E+01
         0.27500E+01
         0.27500E+01
         0.27500E+01
         0.27500E+01
         0.27500E+01
         0.27500E+01
         0.27500E+01
         0.27500E+01
         0.27500E+01
         0.27500E+01
         0.27500E+01
         0.27500E+01
         0.27500E+01
         0.27500E+01
         0.27500E+01
         0.27500E+01
         0.27500E+01
         0.27500E+01
         0.27500E+01
         0.27500E+01
         0.27500E+01
         0.27500E+01
         0.27500E+01
         0.27500E+01
         0.27500E+01
         0.27500E+01
         0.27500E+01
         0.27500E+01
         0.27500E+01
         0.27500E+01
         0.27500E+01
         0.27500E+01
         0.27500E+01
         0.27500E+01
         0.27500E+01
         0.27500E+01
         0.27500E+01
         0.27500E+01
         0.27500E+01
         0.27500E+01
         0.27500E+01
         0.27500E+01
         0.27500E+01
         0.27500E+01
         0.27500E+01
         0.27500E+01
         0.27500E+01
         0.27500E+01
         0.27500E+01
         0.27500E+01
         0.27500E+01
         0.27500E+01
         0.27500E+01
         0.27500E+01
         0.27500E+01
         0.27500E+01
         0.27500E+01
         0.27500E+01
         0.27500E+01
         0.27500E+01
         0.27500E+01
         0.27500E+01
         0.27500E+01
         0.27500E+01
         0.27500E+01
         0.27500E+01
         0.27500E+01
         0.27500E+01
         0.27500E+01
         0.27500E+01
         0.27500E+01
         0.27500E+01
         0.27500E+01
         0.27500E+01
         0.27500E+01
         0.27500E+01
         0.27500E+01
         0.27500E+01
         0.27500E+01
         0.27500E+01
         0.27500E+01
         0.27500E+01
         0.27500E+01
         0.27500E+01
         0.27500E+01
         0.27500E+01
         0.27500E+01
         0.27500E+01
         0.27500E+01
         0.27500E+01
         0.27500E+01
         0.27500E+01
         0.27500E+01
         0.27500E+01
         0.27500E+01
         0.27500E+01
         0.27500E+01
         0.27500E+01
         0.27500E+01
         0.27500E+01
         0.27500E+01
         0.27500E+01
         0.27500E+01
         0.27500E+01
         0.27500E+01
         0.27500E+01
         0.27500E+01
         0.27500E+01
         0.27500E+01
         0.27500E+01
         0.27500E+01
         0.27500E+01
         0.27500E+01
         0.27500E+01
         0.27500E+01
         0.27500E+01
         0.27500E+01
         0.27500E+01
         0.27500E+01
         0.27500E+01
         0.27500E+01
         0.27500E+01
         0.27500E+01
         0.27500E+01
         0.27500E+01
         0.27500E+01
         0.27500E+01
         0.27500E+01
         0.27500E+01
         0.27500E+01
         0.27500E+01
         0.27500E+01
         0.27500E+01
         0.27500E+01
         0.27500E+01
         0.27500E+01
         0.27500E+01
         0.27500E+01
         0.27500E+01
         0.27500E+01
         0.27500E+01
         0.27500E+01
         0.27500E+01
         0.27500E+01
         0.27500E+01
         0.27500E+01
         0.27500E+01
         0.27500E+01
         0.27500E+01
         0.27500E+01
         0.27500E+01
         0.27500E+01
         0.27500E+01
         0.27500E+01
         0.27500E+01
         0.27500E+01
         0.27500E+01
         0.27500E+01
         0.27500E+01
         0.27500E+01
         0.27500E+01
         0.27500E+01
         0.27500E+01
         0.27500E+01
         0.27500E+01
         0.27500E+01
         0.27500E+01
         0.27500E+01
         0.27500E+01
         0.27500E+01
         0.27500E+01
         0.27500E+01
         0.27500E+01
         0.27500E+01
         0.27500E+01
         0.27500E+01
         0.27500E+01
         0.27500E+01
         0.27500E+01
         0.27500E+01
         0.27500E+01
         0.27500E+01
         0.27500E+01
         0.27500E+01
         0.27500E+01
         0.27500E+01
         0.27500E+01
         0.27500E+01
         0.27500E+01
         0.27500E+01
         0.27500E+01
         0.27500E+01
         0.27500E+01
         0.27500E+01
         0.27500E+01
         0.27500E+01
         0.27500E+01
         0.27500E+01
         0.27500E+01
         0.27500E+01
         0.27500E+01
         0.27500E+01
         0.27500E+01
         0.27500E+01
         0.27500E+01
         0.27500E+01
         0.27500E+01
         0.27500E+01
         0.27500E+01
         0.27500E+01
         0.27500E+01
         0.27500E+01
         0.27500E+01
         0.27500E+01
         0.27500E+01
         0.27500E+01
         0.27500E+01
         0.27500E+01
         0.27500E+01
         0.27500E+01
         0.27500E+01
         0.27500E+01
         0.27500E+01
         0.27500E+01
         0.27500E+01
         0.27500E+01
         0.27500E+01
         0.27500E+01
         0.27500E+01
         0.27500E+01
         0.27500E+01
         0.27500E+01
         0.27500E+01
         0.27500E+01
         0.27500E+01
         0.27500E+01
         0.27500E+01
         0.27500E+01
         0.27500E+01
         0.27500E+01
         0.27500E+01
         0.27500E+01
         0.27500E+01
         0.27500E+01
         0.27500E+01
         0.27500E+01
         0.27500E+01
         0.27500E+01
         0.27500E+01
         0.27500E+01
         0.27500E+01
         0.27500E+01
         0.27500E+01
         0.27500E+01
         0.27500E+01
         0.27500E+01
         0.27500E+01
         0.27500E+01
         0.27500E+01
         0.27500E+01
         0.27500E+01
         0.27500E+01
         0.27500E+01
         0.27500E+01
         0.27500E+01
         0.27500E+01
         0.27500E+01
         0.27500E+01
         0.27500E+01
         0.27500E+01
         0.27500E+01
         0.27500E+01
         0.27500E+01
         0.27500E+01
         0.27500E+01
         0.27500E+01
         0.27500E+01
         0.27500E+01
         0.27500E+01
         0.27500E+01
         0.27500E+01
         0.27500E+01
         0.27500E+01
         0.27500E+01
         0.27500E+01
         0.27500E+01
         0.27500E+01
         0.27500E+01
         0.27500E+01
         0.27500E+01
         0.27500E+01
         0.27500E+01
         0.27500E+01
         0.27500E+01
         0.27500E+01
         0.27500E+01
         0.27500E+01
         0.27500E+01
         0.27500E+01
         0.27500E+01
         0.27500E+01
         0.27500E+01
         0.27500E+01
         0.27500E+01
         0.27500E+01
         0.27500E+01
         0.27500E+01
         0.27500E+01
         0.27500E+01
         0.27500E+01
         0.27500E+01
         0.27500E+01
         0.27500E+01
         0.27500E+01
         0.27500E+01
         0.27500E+01
         0.27500E+01
         0.27500E+01
         0.27500E+01
         0.27500E+01
         0.27500E+01
         0.27500E+01
         0.27500E+01
         0.27500E+01
         0.27500E+01
         0.27500E+01
         0.27500E+01
         0.27500E+01
         0.27500E+01
         0.27500E+01
         0.27500E+01
         0.27500E+01
         0.27500E+01
         0.27500E+01
         0.27500E+01
         0.27500E+01
         0.27500E+01
         0.27500E+01
         0.27500E+01
         0.27500E+01
         0.27500E+01
         0.27500E+01
         0.27500E+01
         0.27500E+01
         0.27500E+01
         0.27500E+01
         0.27500E+01
         0.27500E+01
         0.27500E+01
         0.27500E+01
         0.27500E+01
         0.27500E+01
         0.27500E+01
         0.27500E+01
         0.27500E+01
         0.27500E+01
         0.27500E+01
         0.27500E+01
         0.27500E+01
         0.27500E+01
         0.27500E+01
         0.27500E+01
         0.27500E+01
         0.27500E+01
         0.27500E+01
         0.27500E+01
         0.27500E+01
         0.27500E+01
         0.27500E+01
         0.27500E+01
         0.27500E+01
         0.27500E+01
         0.27500E+01
         0.27500E+01
         0.27500E+01
         0.27500E+01
         0.27500E+01
         0.27500E+01
         0.27500E+01
         0.27500E+01
         0.27500E+01
         0.27500E+01
         0.27500E+01
         0.27500E+01
         0.27500E+01
         0.27500E+01
         0.27500E+01
         0.27500E+01
         0.27500E+01
         0.27500E+01
         0.27500E+01
         0.27500E+01
         0.27500E+01
         0.27500E+01
         0.27500E+01
         0.27500E+01
         0.27500E+01
         0.27500E+01
         0.27500E+01
         0.27500E+01
         0.27500E+01
         0.27500E+01
         0.27500E+01
         0.27500E+01
         0.27500E+01
         0.27500E+01
         0.27500E+01
         0.27500E+01
         0.27500E+01
         0.27500E+01
         0.27500E+01
         0.27500E+01
         0.27500E+01
         0.27500E+01
         0.27500E+01
         0.27500E+01
         0.27500E+01
         0.27500E+01
         0.27500E+01
         0.27500E+01
         0.27500E+01
         0.27500E+01
         0.27500E+01
         0.27500E+01
         0.27500E+01
         0.27500E+01
         0.27500E+01
         0.27500E+01
         0.27500E+01
         0.27500E+01
         0.27500E+01
         0.27500E+01
         0.27500E+01
         0.27500E+01
         0.27500E+01
         0.27500E+01
         0.27500E+01
         0.27500E+01
         0.27500E+01
         0.27500E+01
         0.27500E+01
         0.27500E+01
         0.27500E+01
         0.27500E+01
         0.27500E+01
         0.27500E+01
         0.27500E+01
         0.27500E+01
         0.27500E+01
         0.27500E+01
         0.27500E+01
         0.27500E+01
         0.27500E+01
         0.27500E+01
         0.27500E+01
         0.27500E+01
         0.27500E+01
         0.27500E+01
         0.27500E+01
         0.27500E+01
         0.27500E+01
         0.27500E+01
         0.27500E+01
         0.27500E+01
         0.27500E+01
         0.27500E+01
         0.27500E+01
         0.27500E+01
         0.27500E+01
         0.27500E+01
         0.27500E+01
         0.27500E+01
         0.27500E+01
         0.27500E+01
         0.27500E+01
         0.27500E+01
         0.27500E+01
         0.27500E+01
         0.27500E+01
         0.27500E+01
         0.27500E+01
         0.27500E+01
         0.27500E+01
         0.27500E+01
         0.27500E+01
         0.27500E+01
         0.27500E+01
         0.27500E+01
         0.27500E+01
         0.27500E+01
         0.27500E+01
         0.27500E+01
         0.27500E+01
         0.27500E+01
         0.27500E+01
         0.27500E+01
         0.27500E+01
         0.27500E+01
         0.27500E+01
         0.27500E+01
         0.27500E+01
         0.27500E+01
         0.27500E+01
         0.27500E+01
         0.27500E+01
         0.27500E+01
         0.27500E+01
         0.27500E+01
         0.27500E+01
         0.27500E+01
         0.27500E+01
         0.27500E+01
         0.27500E+01
         0.27500E+01
         0.27500E+01
         0.27500E+01
         0.27500E+01
         0.27500E+01
         0.27500E+01
         0.27500E+01
         0.27500E+01
         0.27500E+01
         0.27500E+01
         0.27500E+01
         0.27500E+01
         0.27500E+01
         0.27500E+01
         0.27500E+01
         0.27500E+01
         0.27500E+01
         0.27500E+01
         0.27500E+01
         0.27500E+01
         0.27500E+01
         0.27500E+01
         0.27500E+01
         0.27500E+01
         0.27500E+01
         0.27500E+01
         0.27500E+01
         0.27500E+01
         0.27500E+01
         0.27500E+01
         0.27500E+01
         0.27500E+01
         0.27500E+01
         0.27500E+01
         0.27500E+01
         0.27500E+01
         0.27500E+01
         0.27500E+01
         0.27500E+01
         0.27500E+01
         0.27500E+01
         0.27500E+01
         0.27500E+01
         0.27500E+01
         0.27500E+01
         0.27500E+01
         0.27500E+01
         0.27500E+01
         0.27500E+01
         0.27500E+01
         0.27500E+01
         0.27500E+01
         0.27500E+01
         0.27500E+01
         0.27500E+01
         0.27500E+01
         0.27500E+01
         0.27500E+01
         0.27500E+01
         0.27500E+01
         0.27500E+01
         0.27500E+01
         0.27500E+01
         0.27500E+01
         0.27500E+01
         0.27500E+01
         0.27500E+01
         0.27500E+01
         0.27500E+01
         0.27500E+01
         0.27500E+01
         0.27500E+01
         0.27500E+01
         0.27500E+01
         0.27500E+01
         0.27500E+01
         0.27500E+01
         0.27500E+01
         0.27500E+01
         0.27500E+01
         0.27500E+01
         0.27500E+01
         0.27500E+01
         0.27500E+01
         0.27500E+01
         0.27500E+01
         0.27500E+01
         0.27500E+01
         0.27500E+01
         0.27500E+01
         0.27500E+01
         0.27500E+01
         0.27500E+01
         0.27500E+01
         0.27500E+01
         0.27500E+01
         0.27500E+01
         0.27500E+01
         0.27500E+01
         0.27500E+01
         0.27500E+01
         0.27500E+01
         0.27500E+01
         0.27500E+01
         0.27500E+01
         0.27500E+01
         0.27500E+01
         0.27500E+01
         0.27500E+01
         0.27500E+01
         0.27500E+01
         0.27500E+01
         0.27500E+01
         0.27500E+01
         0.27500E+01
         0.27500E+01
         0.27500E+01
         0.27500E+01
         0.27500E+01
         0.27500E+01
         0.27500E+01
         0.27500E+01
         0.27500E+01
         0.27500E+01
         0.27500E+01
         0.27500E+01
         0.27500E+01
         0.27500E+01
         0.27500E+01
         0.27500E+01
         0.27500E+01
         0.27500E+01
         0.27500E+01
         0.27500E+01
         0.27500E+01
         0.27500E+01
         0.27500E+01
         0.27500E+01
         0.27500E+01
         0.27500E+01
         0.27500E+01
         0.27500E+01
         0.27500E+01
         0.27500E+01
         0.27500E+01
         0.27500E+01
         0.27500E+01
         0.27500E+01
         0.27500E+01
         0.27500E+01
         0.27500E+01
         0.27500E+01
         0.27500E+01
         0.27500E+01
         0.27500E+01
         0.27500E+01
         0.27500E+01
         0.27500E+01
         0.27500E+01
         0.27500E+01
         0.27500E+01
         0.27500E+01
         0.27500E+01
         0.27500E+01
         0.27500E+01
         0.27500E+01
         0.27500E+01
         0.27500E+01
         0.27500E+01
         0.27500E+01
         0.27500E+01
         0.27500E+01
         0.27500E+01
         0.27500E+01
         0.27500E+01
         0.27500E+01
         0.27500E+01
         0.27500E+01
         0.27500E+01
         0.27500E+01
         0.27500E+01
         0.27500E+01
         0.27500E+01
         0.27500E+01
         0.27500E+01
         0.27500E+01
         0.27500E+01
         0.27500E+01
         0.27500E+01
         0.27500E+01
         0.27500E+01
         0.27500E+01
         0.27500E+01
         0.27500E+01
         0.27500E+01
         0.27500E+01
         0.27500E+01
         0.27500E+01
         0.27500E+01
         0.27500E+01
         0.27500E+01
         0.27500E+01
         0.27500E+01
         0.27500E+01
         0.27500E+01
         0.27500E+01
         0.27500E+01
         0.27500E+01
         0.27500E+01
         0.27500E+01
         0.27500E+01
         0.27500E+01
         0.27500E+01
         0.27500E+01
         0.27500E+01
         0.27500E+01
         0.27500E+01
         0.27500E+01
         0.27500E+01
         0.27500E+01
         0.27500E+01
         0.27500E+01
         0.27500E+01
         0.27500E+01
         0.27500E+01
         0.27500E+01
         0.27500E+01
         0.27500E+01
         0.27500E+01
         0.27500E+01
         0.27500E+01
         0.27500E+01
         0.27500E+01
         0.27500E+01
         0.27500E+01
         0.27500E+01
         0.27500E+01
         0.27500E+01
         0.27500E+01
         0.27500E+01
         0.27500E+01
         0.27500E+01
         0.27500E+01
         0.27500E+01
         0.27500E+01
         0.27500E+01
         0.27500E+01
         0.27500E+01
         0.27500E+01
         0.27500E+01
         0.27500E+01
         0.27500E+01
         0.27500E+01
         0.27500E+01
         0.27500E+01
         0.27500E+01
         0.27500E+01
         0.27500E+01
         0.27500E+01
         0.27500E+01
         0.27500E+01
         0.27500E+01
         0.27500E+01
         0.27500E+01
         0.27500E+01
         0.27500E+01
         0.27500E+01
         0.27500E+01
         0.27500E+01
         0.27500E+01
         0.27500E+01
         0.27500E+01
         0.27500E+01
         0.27500E+01
         0.27500E+01
         0.27500E+01
         0.27500E+01
         0.27500E+01
         0.27500E+01
         0.27500E+01
         0.27500E+01
         0.27500E+01
         0.27500E+01
         0.27500E+01
         0.27500E+01
         0.27500E+01
         0.27500E+01
         0.27500E+01
         0.27500E+01
         0.27500E+01
         0.27500E+01
         0.27500E+01
         0.27500E+01
         0.27500E+01
         0.27500E+01
         0.27500E+01
         0.27500E+01
         0.27500E+01
         0.27500E+01
         0.27500E+01
         0.27500E+01
         0.27500E+01
         0.27500E+01
         0.27500E+01
         0.27500E+01
         0.27500E+01
         0.27500E+01
         0.27500E+01
         0.27500E+01
         0.27500E+01
         0.27500E+01
         0.27500E+01
         0.27500E+01
  
SCALARS              physical_window_x  double 1
LOOKUP_TABLE default
         0.42419E-02
         0.35201E-02
         0.37624E-02
         0.42419E-02
         0.42417E-02
         0.35201E-02
         0.37618E-02
         0.42417E-02
         0.37624E-02
         0.37624E-02
         0.37618E-02
         0.37618E-02
         0.30086E-02
         0.32069E-02
         0.30084E-02
         0.32067E-02
         0.42419E-02
         0.32069E-02
         0.42417E-02
         0.32067E-02
         0.24180E-02
         0.29942E-02
         0.32396E-02
         0.24180E-02
         0.29933E-02
         0.32385E-02
         0.26608E-02
         0.27190E-02
         0.26608E-02
         0.27190E-02
         0.42687E-02
         0.36511E-02
         0.42687E-02
         0.42687E-02
         0.36511E-02
         0.42687E-02
         0.32069E-02
         0.29739E-02
         0.32066E-02
         0.29739E-02
         0.34652E-02
         0.32621E-02
         0.34652E-02
         0.32621E-02
         0.37123E-02
         0.32069E-02
         0.37123E-02
         0.32066E-02
         0.30844E-02
         0.30844E-02
         0.35191E-02
         0.35189E-02
         0.26925E-02
         0.26925E-02
         0.26925E-02
         0.26925E-02
         0.24643E-02
         0.27651E-02
         0.24643E-02
         0.27651E-02
         0.42687E-02
         0.35191E-02
         0.42687E-02
         0.35189E-02
         0.42687E-02
         0.42687E-02
         0.34658E-02
         0.34648E-02
         0.27274E-02
         0.31799E-02
         0.27273E-02
         0.31796E-02
         0.32396E-02
         0.32385E-02
         0.26964E-02
         0.26960E-02
         0.27828E-02
         0.27828E-02
         0.27828E-02
         0.27828E-02
         0.27004E-02
         0.31883E-02
         0.27003E-02
         0.31880E-02
         0.31883E-02
         0.31880E-02
         0.37123E-02
         0.37123E-02
         0.36245E-02
         0.36245E-02
         0.28253E-02
         0.31642E-02
         0.28253E-02
         0.31636E-02
         0.33485E-02
         0.33485E-02
         0.33485E-02
         0.33485E-02
         0.31978E-02
         0.31969E-02
         0.29849E-02
         0.32843E-02
         0.29849E-02
         0.32843E-02
         0.27274E-02
         0.31109E-02
         0.27273E-02
         0.31109E-02
         0.31799E-02
         0.31796E-02
         0.32396E-02
         0.32385E-02
         0.32396E-02
         0.32385E-02
         0.29942E-02
         0.29933E-02
         0.27190E-02
         0.27190E-02
         0.26964E-02
         0.26960E-02
         0.27828E-02
         0.27828E-02
         0.27828E-02
         0.27828E-02
         0.27004E-02
         0.27003E-02
         0.31883E-02
         0.31880E-02
         0.31883E-02
         0.31880E-02
         0.32621E-02
         0.32621E-02
         0.34652E-02
         0.34652E-02
         0.37123E-02
         0.37123E-02
         0.37123E-02
         0.37123E-02
         0.36245E-02
         0.36245E-02
         0.28253E-02
         0.28253E-02
         0.29097E-02
         0.29087E-02
         0.32389E-02
         0.32378E-02
         0.32389E-02
         0.32378E-02
         0.31978E-02
         0.31969E-02
         0.29849E-02
         0.29849E-02
         0.32843E-02
         0.32843E-02
         0.32843E-02
         0.32843E-02
         0.42420E-02
         0.35201E-02
         0.37629E-02
         0.42420E-02
         0.37629E-02
         0.37629E-02
         0.30087E-02
         0.32071E-02
         0.42420E-02
         0.32071E-02
         0.24178E-02
         0.29952E-02
         0.32407E-02
         0.26596E-02
         0.27191E-02
         0.42679E-02
         0.36502E-02
         0.42679E-02
         0.32071E-02
         0.29727E-02
         0.34648E-02
         0.32622E-02
         0.37119E-02
         0.32071E-02
         0.30833E-02
         0.35193E-02
         0.26910E-02
         0.26910E-02
         0.24638E-02
         0.27644E-02
         0.42679E-02
         0.35193E-02
         0.42679E-02
         0.34670E-02
         0.27274E-02
         0.31802E-02
         0.32407E-02
         0.26968E-02
         0.27828E-02
         0.27828E-02
         0.27005E-02
         0.31885E-02
         0.31885E-02
         0.37119E-02
         0.36244E-02
         0.28250E-02
         0.31647E-02
         0.33484E-02
         0.33484E-02
         0.31986E-02
         0.29848E-02
         0.32841E-02
         0.27274E-02
         0.31099E-02
         0.31802E-02
         0.32407E-02
         0.32407E-02
         0.29952E-02
         0.27191E-02
         0.26968E-02
         0.27828E-02
         0.27828E-02
         0.27005E-02
         0.31885E-02
         0.31885E-02
         0.32622E-02
         0.34648E-02
         0.37119E-02
         0.37119E-02
         0.36244E-02
         0.28250E-02
         0.29106E-02
         0.32401E-02
         0.32401E-02
         0.31986E-02
         0.29848E-02
         0.32841E-02
         0.32841E-02
         0.42421E-02
         0.35201E-02
         0.37634E-02
         0.42421E-02
         0.37634E-02
         0.37634E-02
         0.30089E-02
         0.32073E-02
         0.42421E-02
         0.32073E-02
         0.24177E-02
         0.29961E-02
         0.32418E-02
         0.26584E-02
         0.27191E-02
         0.42670E-02
         0.36493E-02
         0.42670E-02
         0.32073E-02
         0.29714E-02
         0.34644E-02
         0.32623E-02
         0.37115E-02
         0.32073E-02
         0.30822E-02
         0.35195E-02
         0.26896E-02
         0.26896E-02
         0.24633E-02
         0.27638E-02
         0.42670E-02
         0.35195E-02
         0.42670E-02
         0.34681E-02
         0.27275E-02
         0.31805E-02
         0.32418E-02
         0.26972E-02
         0.27828E-02
         0.27828E-02
         0.27006E-02
         0.31888E-02
         0.31888E-02
         0.37115E-02
         0.36243E-02
         0.28247E-02
         0.31652E-02
         0.33483E-02
         0.33483E-02
         0.31995E-02
         0.29847E-02
         0.32839E-02
         0.27275E-02
         0.31090E-02
         0.31805E-02
         0.32418E-02
         0.32418E-02
         0.29961E-02
         0.27191E-02
         0.26972E-02
         0.27828E-02
         0.27828E-02
         0.27006E-02
         0.31888E-02
         0.31888E-02
         0.32623E-02
         0.34644E-02
         0.37115E-02
         0.37115E-02
         0.36243E-02
         0.28247E-02
         0.29116E-02
         0.32412E-02
         0.32412E-02
         0.31995E-02
         0.29847E-02
         0.32839E-02
         0.32839E-02
         0.42423E-02
         0.35200E-02
         0.37639E-02
         0.42423E-02
         0.37639E-02
         0.37639E-02
         0.30091E-02
         0.32075E-02
         0.42423E-02
         0.32075E-02
         0.24176E-02
         0.29970E-02
         0.32428E-02
         0.26572E-02
         0.27192E-02
         0.42662E-02
         0.36483E-02
         0.42662E-02
         0.32075E-02
         0.29702E-02
         0.34639E-02
         0.32624E-02
         0.37111E-02
         0.32075E-02
         0.30811E-02
         0.35197E-02
         0.26881E-02
         0.26881E-02
         0.24628E-02
         0.27631E-02
         0.42662E-02
         0.35197E-02
         0.42662E-02
         0.34692E-02
         0.27276E-02
         0.31808E-02
         0.32428E-02
         0.26975E-02
         0.27828E-02
         0.27828E-02
         0.27007E-02
         0.31890E-02
         0.31890E-02
         0.37111E-02
         0.36242E-02
         0.28243E-02
         0.31658E-02
         0.33482E-02
         0.33482E-02
         0.32003E-02
         0.29846E-02
         0.32837E-02
         0.27276E-02
         0.31081E-02
         0.31808E-02
         0.32428E-02
         0.32428E-02
         0.29970E-02
         0.27192E-02
         0.26975E-02
         0.27828E-02
         0.27828E-02
         0.27007E-02
         0.31890E-02
         0.31890E-02
         0.32624E-02
         0.34639E-02
         0.37111E-02
         0.37111E-02
         0.36242E-02
         0.28243E-02
         0.29125E-02
         0.32423E-02
         0.32423E-02
         0.32003E-02
         0.29846E-02
         0.32837E-02
         0.32837E-02
         0.42424E-02
         0.35200E-02
         0.37644E-02
         0.42424E-02
         0.37644E-02
         0.37644E-02
         0.30093E-02
         0.32077E-02
         0.42424E-02
         0.32077E-02
         0.24174E-02
         0.29979E-02
         0.32439E-02
         0.26559E-02
         0.27192E-02
         0.42653E-02
         0.36474E-02
         0.42653E-02
         0.32077E-02
         0.29690E-02
         0.34635E-02
         0.32624E-02
         0.37108E-02
         0.32077E-02
         0.30799E-02
         0.35199E-02
         0.26867E-02
         0.26867E-02
         0.24623E-02
         0.27625E-02
         0.42653E-02
         0.35199E-02
         0.42653E-02
         0.34703E-02
         0.27276E-02
         0.31812E-02
         0.32439E-02
         0.26979E-02
         0.27828E-02
         0.27828E-02
         0.27008E-02
         0.31893E-02
         0.31893E-02
         0.37108E-02
         0.36241E-02
         0.28240E-02
         0.31663E-02
         0.33481E-02
         0.33481E-02
         0.32012E-02
         0.29844E-02
         0.32835E-02
         0.27276E-02
         0.31071E-02
         0.31812E-02
         0.32439E-02
         0.32439E-02
         0.29979E-02
         0.27192E-02
         0.26979E-02
         0.27828E-02
         0.27828E-02
         0.27008E-02
         0.31893E-02
         0.31893E-02
         0.32624E-02
         0.34635E-02
         0.37108E-02
         0.37108E-02
         0.36241E-02
         0.28240E-02
         0.29135E-02
         0.32434E-02
         0.32434E-02
         0.32012E-02
         0.29844E-02
         0.32835E-02
         0.32835E-02
         0.42425E-02
         0.35200E-02
         0.37649E-02
         0.42425E-02
         0.37649E-02
         0.37649E-02
         0.30095E-02
         0.32079E-02
         0.42425E-02
         0.32079E-02
         0.24173E-02
         0.29989E-02
         0.32450E-02
         0.26547E-02
         0.27193E-02
         0.42645E-02
         0.36465E-02
         0.42645E-02
         0.32079E-02
         0.29677E-02
         0.34631E-02
         0.32625E-02
         0.37104E-02
         0.32079E-02
         0.30788E-02
         0.35201E-02
         0.26852E-02
         0.26852E-02
         0.24618E-02
         0.27618E-02
         0.42645E-02
         0.35201E-02
         0.42645E-02
         0.34715E-02
         0.27277E-02
         0.31815E-02
         0.32450E-02
         0.26983E-02
         0.27828E-02
         0.27828E-02
         0.27009E-02
         0.31895E-02
         0.31895E-02
         0.37104E-02
         0.36239E-02
         0.28237E-02
         0.31668E-02
         0.33480E-02
         0.33480E-02
         0.32020E-02
         0.29843E-02
         0.32833E-02
         0.27277E-02
         0.31062E-02
         0.31815E-02
         0.32450E-02
         0.32450E-02
         0.29989E-02
         0.27193E-02
         0.26983E-02
         0.27828E-02
         0.27828E-02
         0.27009E-02
         0.31895E-02
         0.31895E-02
         0.32625E-02
         0.34631E-02
         0.37104E-02
         0.37104E-02
         0.36239E-02
         0.28237E-02
         0.29145E-02
         0.32445E-02
         0.32445E-02
         0.32020E-02
         0.29843E-02
         0.32833E-02
         0.32833E-02
         0.42427E-02
         0.35200E-02
         0.37654E-02
         0.42427E-02
         0.37654E-02
         0.37654E-02
         0.30097E-02
         0.32081E-02
         0.42427E-02
         0.32081E-02
         0.24171E-02
         0.29998E-02
         0.32461E-02
         0.26535E-02
         0.27193E-02
         0.42636E-02
         0.36455E-02
         0.42636E-02
         0.32081E-02
         0.29665E-02
         0.34626E-02
         0.32626E-02
         0.37100E-02
         0.32081E-02
         0.30777E-02
         0.35203E-02
         0.26838E-02
         0.26838E-02
         0.24613E-02
         0.27611E-02
         0.42636E-02
         0.35203E-02
         0.42636E-02
         0.34726E-02
         0.27278E-02
         0.31818E-02
         0.32461E-02
         0.26987E-02
         0.27827E-02
         0.27827E-02
         0.27010E-02
         0.31898E-02
         0.31898E-02
         0.37100E-02
         0.36238E-02
         0.28234E-02
         0.31673E-02
         0.33479E-02
         0.33479E-02
         0.32029E-02
         0.29842E-02
         0.32831E-02
         0.27278E-02
         0.31052E-02
         0.31818E-02
         0.32461E-02
         0.32461E-02
         0.29998E-02
         0.27193E-02
         0.26987E-02
         0.27827E-02
         0.27827E-02
         0.27010E-02
         0.31898E-02
         0.31898E-02
         0.32626E-02
         0.34626E-02
         0.37100E-02
         0.37100E-02
         0.36238E-02
         0.28234E-02
         0.29154E-02
         0.32457E-02
         0.32457E-02
         0.32029E-02
         0.29842E-02
         0.32831E-02
         0.32831E-02
         0.42428E-02
         0.35199E-02
         0.37660E-02
         0.42428E-02
         0.37660E-02
         0.37660E-02
         0.30099E-02
         0.32083E-02
         0.42428E-02
         0.32083E-02
         0.24170E-02
         0.30007E-02
         0.32471E-02
         0.26523E-02
         0.27194E-02
         0.42628E-02
         0.36446E-02
         0.42628E-02
         0.32083E-02
         0.29652E-02
         0.34622E-02
         0.32627E-02
         0.37096E-02
         0.32083E-02
         0.30766E-02
         0.35205E-02
         0.26823E-02
         0.26823E-02
         0.24608E-02
         0.27605E-02
         0.42628E-02
         0.35205E-02
         0.42628E-02
         0.34737E-02
         0.27279E-02
         0.31821E-02
         0.32471E-02
         0.26991E-02
         0.27827E-02
         0.27827E-02
         0.27011E-02
         0.31900E-02
         0.31900E-02
         0.37096E-02
         0.36237E-02
         0.28231E-02
         0.31679E-02
         0.33478E-02
         0.33478E-02
         0.32038E-02
         0.29841E-02
         0.32829E-02
         0.27279E-02
         0.31043E-02
         0.31821E-02
         0.32471E-02
         0.32471E-02
         0.30007E-02
         0.27194E-02
         0.26991E-02
         0.27827E-02
         0.27827E-02
         0.27011E-02
         0.31900E-02
         0.31900E-02
         0.32627E-02
         0.34622E-02
         0.37096E-02
         0.37096E-02
         0.36237E-02
         0.28231E-02
         0.29164E-02
         0.32468E-02
         0.32468E-02
         0.32038E-02
         0.29841E-02
         0.32829E-02
         0.32829E-02
         0.42429E-02
         0.35199E-02
         0.37665E-02
         0.42429E-02
         0.37665E-02
         0.37665E-02
         0.30101E-02
         0.32085E-02
         0.42429E-02
         0.32085E-02
         0.24168E-02
         0.30017E-02
         0.32482E-02
         0.26510E-02
         0.27194E-02
         0.42619E-02
         0.36437E-02
         0.42619E-02
         0.32085E-02
         0.29640E-02
         0.34618E-02
         0.32627E-02
         0.37092E-02
         0.32085E-02
         0.30755E-02
         0.35207E-02
         0.26808E-02
         0.26808E-02
         0.24603E-02
         0.27599E-02
         0.42619E-02
         0.35207E-02
         0.42619E-02
         0.34748E-02
         0.27279E-02
         0.31824E-02
         0.32482E-02
         0.26994E-02
         0.27827E-02
         0.27827E-02
         0.27012E-02
         0.31902E-02
         0.31902E-02
         0.37092E-02
         0.36236E-02
         0.28227E-02
         0.31684E-02
         0.33477E-02
         0.33477E-02
         0.32046E-02
         0.29840E-02
         0.32827E-02
         0.27279E-02
         0.31034E-02
         0.31824E-02
         0.32482E-02
         0.32482E-02
         0.30017E-02
         0.27194E-02
         0.26994E-02
         0.27827E-02
         0.27827E-02
         0.27012E-02
         0.31902E-02
         0.31902E-02
         0.32627E-02
         0.34618E-02
         0.37092E-02
         0.37092E-02
         0.36236E-02
         0.28227E-02
         0.29173E-02
         0.32479E-02
         0.32479E-02
         0.32046E-02
         0.29840E-02
         0.32827E-02
         0.32827E-02
         0.42431E-02
         0.35199E-02
         0.37670E-02
         0.42431E-02
         0.37670E-02
         0.37670E-02
         0.30102E-02
         0.32087E-02
         0.42431E-02
         0.32087E-02
         0.24167E-02
         0.30026E-02
         0.32493E-02
         0.26498E-02
         0.27194E-02
         0.42611E-02
         0.36427E-02
         0.42611E-02
         0.32087E-02
         0.29628E-02
         0.34613E-02
         0.32628E-02
         0.37089E-02
         0.32087E-02
         0.30744E-02
         0.35209E-02
         0.26794E-02
         0.26794E-02
         0.24598E-02
         0.27592E-02
         0.42611E-02
         0.35209E-02
         0.42611E-02
         0.34759E-02
         0.27280E-02
         0.31827E-02
         0.32493E-02
         0.26998E-02
         0.27827E-02
         0.27827E-02
         0.27013E-02
         0.31905E-02
         0.31905E-02
         0.37089E-02
         0.36235E-02
         0.28224E-02
         0.31689E-02
         0.33476E-02
         0.33476E-02
         0.32055E-02
         0.29839E-02
         0.32825E-02
         0.27280E-02
         0.31024E-02
         0.31827E-02
         0.32493E-02
         0.32493E-02
         0.30026E-02
         0.27194E-02
         0.26998E-02
         0.27827E-02
         0.27827E-02
         0.27013E-02
         0.31905E-02
         0.31905E-02
         0.32628E-02
         0.34613E-02
         0.37089E-02
         0.37089E-02
         0.36235E-02
         0.28224E-02
         0.29183E-02
         0.32490E-02
         0.32490E-02
         0.32055E-02
         0.29839E-02
         0.32825E-02
         0.32825E-02
         0.42432E-02
         0.35199E-02
         0.37675E-02
         0.42432E-02
         0.37675E-02
         0.37675E-02
         0.30104E-02
         0.32089E-02
         0.42432E-02
         0.32089E-02
         0.24166E-02
         0.30035E-02
         0.32504E-02
         0.26486E-02
         0.27195E-02
         0.42603E-02
         0.36418E-02
         0.42603E-02
         0.32089E-02
         0.29615E-02
         0.34609E-02
         0.32629E-02
         0.37085E-02
         0.32089E-02
         0.30732E-02
         0.35211E-02
         0.26779E-02
         0.26779E-02
         0.24593E-02
         0.27585E-02
         0.42603E-02
         0.35211E-02
         0.42603E-02
         0.34771E-02
         0.27281E-02
         0.31830E-02
         0.32504E-02
         0.27002E-02
         0.27827E-02
         0.27827E-02
         0.27014E-02
         0.31907E-02
         0.31907E-02
         0.37085E-02
         0.36233E-02
         0.28221E-02
         0.31694E-02
         0.33475E-02
         0.33475E-02
         0.32063E-02
         0.29838E-02
         0.32823E-02
         0.27281E-02
         0.31015E-02
         0.31830E-02
         0.32504E-02
         0.32504E-02
         0.30035E-02
         0.27195E-02
         0.27002E-02
         0.27827E-02
         0.27827E-02
         0.27014E-02
         0.31907E-02
         0.31907E-02
         0.32629E-02
         0.34609E-02
         0.37085E-02
         0.37085E-02
         0.36233E-02
         0.28221E-02
         0.29193E-02
         0.32501E-02
         0.32501E-02
         0.32063E-02
         0.29838E-02
         0.32823E-02
         0.32823E-02
         0.42433E-02
         0.35199E-02
         0.37680E-02
         0.42433E-02
         0.37680E-02
         0.37680E-02
         0.30106E-02
         0.32091E-02
         0.42433E-02
         0.32091E-02
         0.24164E-02
         0.30045E-02
         0.32514E-02
         0.26474E-02
         0.27195E-02
         0.42594E-02
         0.36409E-02
         0.42594E-02
         0.32091E-02
         0.29603E-02
         0.34605E-02
         0.32630E-02
         0.37081E-02
         0.32091E-02
         0.30721E-02
         0.35213E-02
         0.26765E-02
         0.26765E-02
         0.24588E-02
         0.27579E-02
         0.42594E-02
         0.35213E-02
         0.42594E-02
         0.34782E-02
         0.27281E-02
         0.31833E-02
         0.32514E-02
         0.27006E-02
         0.27826E-02
         0.27826E-02
         0.27015E-02
         0.31910E-02
         0.31910E-02
         0.37081E-02
         0.36232E-02
         0.28218E-02
         0.31700E-02
         0.33474E-02
         0.33474E-02
         0.32072E-02
         0.29836E-02
         0.32821E-02
         0.27281E-02
         0.31005E-02
         0.31833E-02
         0.32514E-02
         0.32514E-02
         0.30045E-02
         0.27195E-02
         0.27006E-02
         0.27826E-02
         0.27826E-02
         0.27015E-02
         0.31910E-02
         0.31910E-02
         0.32630E-02
         0.34605E-02
         0.37081E-02
         0.37081E-02
         0.36232E-02
         0.28218E-02
         0.29202E-02
         0.32512E-02
         0.32512E-02
         0.32072E-02
         0.29836E-02
         0.32821E-02
         0.32821E-02
         0.42435E-02
         0.35199E-02
         0.37685E-02
         0.42435E-02
         0.37685E-02
         0.37685E-02
         0.30108E-02
         0.32093E-02
         0.42435E-02
         0.32093E-02
         0.24163E-02
         0.30054E-02
         0.32525E-02
         0.26461E-02
         0.27196E-02
         0.42586E-02
         0.36399E-02
         0.42586E-02
         0.32093E-02
         0.29591E-02
         0.34601E-02
         0.32630E-02
         0.37077E-02
         0.32093E-02
         0.30710E-02
         0.35215E-02
         0.26750E-02
         0.26750E-02
         0.24583E-02
         0.27572E-02
         0.42586E-02
         0.35215E-02
         0.42586E-02
         0.34793E-02
         0.27282E-02
         0.31836E-02
         0.32525E-02
         0.27010E-02
         0.27826E-02
         0.27826E-02
         0.27016E-02
         0.31912E-02
         0.31912E-02
         0.37077E-02
         0.36231E-02
         0.28215E-02
         0.31705E-02
         0.33473E-02
         0.33473E-02
         0.32080E-02
         0.29835E-02
         0.32819E-02
         0.27282E-02
         0.30996E-02
         0.31836E-02
         0.32525E-02
         0.32525E-02
         0.30054E-02
         0.27196E-02
         0.27010E-02
         0.27826E-02
         0.27826E-02
         0.27016E-02
         0.31912E-02
         0.31912E-02
         0.32630E-02
         0.34601E-02
         0.37077E-02
         0.37077E-02
         0.36231E-02
         0.28215E-02
         0.29212E-02
         0.32524E-02
         0.32524E-02
         0.32080E-02
         0.29835E-02
         0.32819E-02
         0.32819E-02
         0.42436E-02
         0.35198E-02
         0.37690E-02
         0.42436E-02
         0.37690E-02
         0.37690E-02
         0.30110E-02
         0.32095E-02
         0.42436E-02
         0.32095E-02
         0.24162E-02
         0.30064E-02
         0.32536E-02
         0.26449E-02
         0.27196E-02
         0.42577E-02
         0.36390E-02
         0.42577E-02
         0.32096E-02
         0.29578E-02
         0.34596E-02
         0.32631E-02
         0.37074E-02
         0.32096E-02
         0.30699E-02
         0.35217E-02
         0.26735E-02
         0.26735E-02
         0.24578E-02
         0.27566E-02
         0.42577E-02
         0.35217E-02
         0.42577E-02
         0.34804E-02
         0.27283E-02
         0.31839E-02
         0.32536E-02
         0.27013E-02
         0.27826E-02
         0.27826E-02
         0.27017E-02
         0.31915E-02
         0.31915E-02
         0.37074E-02
         0.36230E-02
         0.28211E-02
         0.31710E-02
         0.33472E-02
         0.33472E-02
         0.32089E-02
         0.29834E-02
         0.32817E-02
         0.27283E-02
         0.30986E-02
         0.31839E-02
         0.32536E-02
         0.32536E-02
         0.30064E-02
         0.27196E-02
         0.27013E-02
         0.27826E-02
         0.27826E-02
         0.27017E-02
         0.31915E-02
         0.31915E-02
         0.32631E-02
         0.34596E-02
         0.37074E-02
         0.37074E-02
         0.36230E-02
         0.28211E-02
         0.29221E-02
         0.32535E-02
         0.32535E-02
         0.32089E-02
         0.29834E-02
         0.32817E-02
         0.32817E-02
         0.42437E-02
         0.35198E-02
         0.37695E-02
         0.42437E-02
         0.37695E-02
         0.37695E-02
         0.30112E-02
         0.32097E-02
         0.42437E-02
         0.32097E-02
         0.24160E-02
         0.30073E-02
         0.32547E-02
         0.26437E-02
         0.27197E-02
         0.42569E-02
         0.36381E-02
         0.42569E-02
         0.32098E-02
         0.29566E-02
         0.34592E-02
         0.32632E-02
         0.37070E-02
         0.32098E-02
         0.30688E-02
         0.35219E-02
         0.26721E-02
         0.26721E-02
         0.24573E-02
         0.27560E-02
         0.42569E-02
         0.35219E-02
         0.42569E-02
         0.34815E-02
         0.27284E-02
         0.31843E-02
         0.32547E-02
         0.27017E-02
         0.27826E-02
         0.27826E-02
         0.27018E-02
         0.31917E-02
         0.31917E-02
         0.37070E-02
         0.36229E-02
         0.28208E-02
         0.31716E-02
         0.33471E-02
         0.33471E-02
         0.32097E-02
         0.29833E-02
         0.32815E-02
         0.27284E-02
         0.30977E-02
         0.31843E-02
         0.32547E-02
         0.32547E-02
         0.30073E-02
         0.27197E-02
         0.27017E-02
         0.27826E-02
         0.27826E-02
         0.27018E-02
         0.31917E-02
         0.31917E-02
         0.32632E-02
         0.34592E-02
         0.37070E-02
         0.37070E-02
         0.36229E-02
         0.28208E-02
         0.29231E-02
         0.32546E-02
         0.32546E-02
         0.32097E-02
         0.29833E-02
         0.32815E-02
         0.32815E-02
         0.42439E-02
         0.35198E-02
         0.37701E-02
         0.42439E-02
         0.37701E-02
         0.37701E-02
         0.30113E-02
         0.32099E-02
         0.42439E-02
         0.32099E-02
         0.24159E-02
         0.30082E-02
         0.32558E-02
         0.26425E-02
         0.27197E-02
         0.42560E-02
         0.36371E-02
         0.42560E-02
         0.32100E-02
         0.29554E-02
         0.34588E-02
         0.32633E-02
         0.37066E-02
         0.32100E-02
         0.30677E-02
         0.35221E-02
         0.26706E-02
         0.26706E-02
         0.24568E-02
         0.27553E-02
         0.42560E-02
         0.35221E-02
         0.42560E-02
         0.34827E-02
         0.27284E-02
         0.31846E-02
         0.32558E-02
         0.27021E-02
         0.27826E-02
         0.27826E-02
         0.27019E-02
         0.31920E-02
         0.31920E-02
         0.37066E-02
         0.36227E-02
         0.28205E-02
         0.31721E-02
         0.33470E-02
         0.33470E-02
         0.32106E-02
         0.29831E-02
         0.32813E-02
         0.27284E-02
         0.30968E-02
         0.31846E-02
         0.32558E-02
         0.32558E-02
         0.30082E-02
         0.27197E-02
         0.27021E-02
         0.27826E-02
         0.27826E-02
         0.27019E-02
         0.31920E-02
         0.31920E-02
         0.32633E-02
         0.34588E-02
         0.37066E-02
         0.37066E-02
         0.36227E-02
         0.28205E-02
         0.29241E-02
         0.32557E-02
         0.32557E-02
         0.32106E-02
         0.29831E-02
         0.32813E-02
         0.32813E-02
         0.42440E-02
         0.35198E-02
         0.37706E-02
         0.42440E-02
         0.37706E-02
         0.37706E-02
         0.30115E-02
         0.32101E-02
         0.42440E-02
         0.32101E-02
         0.24158E-02
         0.30091E-02
         0.32568E-02
         0.26412E-02
         0.27198E-02
         0.42552E-02
         0.36362E-02
         0.42552E-02
         0.32102E-02
         0.29541E-02
         0.34583E-02
         0.32633E-02
         0.37062E-02
         0.32102E-02
         0.30665E-02
         0.35223E-02
         0.26692E-02
         0.26692E-02
         0.24563E-02
         0.27546E-02
         0.42552E-02
         0.35223E-02
         0.42552E-02
         0.34838E-02
         0.27285E-02
         0.31849E-02
         0.32568E-02
         0.27025E-02
         0.27826E-02
         0.27826E-02
         0.27020E-02
         0.31922E-02
         0.31922E-02
         0.37062E-02
         0.36226E-02
         0.28202E-02
         0.31726E-02
         0.33469E-02
         0.33469E-02
         0.32114E-02
         0.29830E-02
         0.32811E-02
         0.27285E-02
         0.30958E-02
         0.31849E-02
         0.32568E-02
         0.32568E-02
         0.30091E-02
         0.27198E-02
         0.27025E-02
         0.27826E-02
         0.27826E-02
         0.27020E-02
         0.31922E-02
         0.31922E-02
         0.32633E-02
         0.34583E-02
         0.37062E-02
         0.37062E-02
         0.36226E-02
         0.28202E-02
         0.29250E-02
         0.32568E-02
         0.32568E-02
         0.32114E-02
         0.29830E-02
         0.32811E-02
         0.32811E-02
         0.42441E-02
         0.35198E-02
         0.37711E-02
         0.42441E-02
         0.37711E-02
         0.37711E-02
         0.30117E-02
         0.32103E-02
         0.42441E-02
         0.32103E-02
         0.24156E-02
         0.30101E-02
         0.32579E-02
         0.26400E-02
         0.27198E-02
         0.42543E-02
         0.36353E-02
         0.42543E-02
         0.32104E-02
         0.29529E-02
         0.34579E-02
         0.32634E-02
         0.37058E-02
         0.32104E-02
         0.30654E-02
         0.35225E-02
         0.26677E-02
         0.26677E-02
         0.24558E-02
         0.27540E-02
         0.42543E-02
         0.35225E-02
         0.42543E-02
         0.34849E-02
         0.27286E-02
         0.31852E-02
         0.32579E-02
         0.27029E-02
         0.27826E-02
         0.27826E-02
         0.27021E-02
         0.31924E-02
         0.31924E-02
         0.37058E-02
         0.36225E-02
         0.28198E-02
         0.31731E-02
         0.33468E-02
         0.33468E-02
         0.32123E-02
         0.29829E-02
         0.32809E-02
         0.27286E-02
         0.30949E-02
         0.31852E-02
         0.32579E-02
         0.32579E-02
         0.30101E-02
         0.27198E-02
         0.27029E-02
         0.27826E-02
         0.27826E-02
         0.27021E-02
         0.31924E-02
         0.31924E-02
         0.32634E-02
         0.34579E-02
         0.37058E-02
         0.37058E-02
         0.36225E-02
         0.28198E-02
         0.29260E-02
         0.32579E-02
         0.32579E-02
         0.32123E-02
         0.29829E-02
         0.32809E-02
         0.32809E-02
         0.42443E-02
         0.35197E-02
         0.37716E-02
         0.42443E-02
         0.37716E-02
         0.37716E-02
         0.30119E-02
         0.32105E-02
         0.42443E-02
         0.32105E-02
         0.24155E-02
         0.30110E-02
         0.32590E-02
         0.26388E-02
         0.27199E-02
         0.42535E-02
         0.36343E-02
         0.42535E-02
         0.32106E-02
         0.29517E-02
         0.34575E-02
         0.32635E-02
         0.37055E-02
         0.32106E-02
         0.30643E-02
         0.35227E-02
         0.26663E-02
         0.26663E-02
         0.24553E-02
         0.27533E-02
         0.42535E-02
         0.35227E-02
         0.42535E-02
         0.34860E-02
         0.27286E-02
         0.31855E-02
         0.32590E-02
         0.27032E-02
         0.27826E-02
         0.27826E-02
         0.27022E-02
         0.31927E-02
         0.31927E-02
         0.37055E-02
         0.36224E-02
         0.28195E-02
         0.31737E-02
         0.33467E-02
         0.33467E-02
         0.32132E-02
         0.29828E-02
         0.32807E-02
         0.27286E-02
         0.30939E-02
         0.31855E-02
         0.32590E-02
         0.32590E-02
         0.30110E-02
         0.27199E-02
         0.27032E-02
         0.27826E-02
         0.27826E-02
         0.27022E-02
         0.31927E-02
         0.31927E-02
         0.32635E-02
         0.34575E-02
         0.37055E-02
         0.37055E-02
         0.36224E-02
         0.28195E-02
         0.29269E-02
         0.32591E-02
         0.32591E-02
         0.32132E-02
         0.29828E-02
         0.32807E-02
         0.32807E-02
         0.42444E-02
         0.35197E-02
         0.37721E-02
         0.42444E-02
         0.37721E-02
         0.37721E-02
         0.30121E-02
         0.32107E-02
         0.42444E-02
         0.32107E-02
         0.24154E-02
         0.30119E-02
         0.32601E-02
         0.26376E-02
         0.27199E-02
         0.42527E-02
         0.36334E-02
         0.42527E-02
         0.32108E-02
         0.29504E-02
         0.34571E-02
         0.32636E-02
         0.37051E-02
         0.32108E-02
         0.30632E-02
         0.35229E-02
         0.26648E-02
         0.26648E-02
         0.24552E-02
         0.27527E-02
         0.42527E-02
         0.35229E-02
         0.42527E-02
         0.34871E-02
         0.27287E-02
         0.31858E-02
         0.32601E-02
         0.27036E-02
         0.27825E-02
         0.27825E-02
         0.27023E-02
         0.31929E-02
         0.31929E-02
         0.37051E-02
         0.36223E-02
         0.28192E-02
         0.31742E-02
         0.33466E-02
         0.33466E-02
         0.32140E-02
         0.29827E-02
         0.32805E-02
         0.27287E-02
         0.30930E-02
         0.31858E-02
         0.32601E-02
         0.32601E-02
         0.30119E-02
         0.27199E-02
         0.27036E-02
         0.27825E-02
         0.27825E-02
         0.27023E-02
         0.31929E-02
         0.31929E-02
         0.32636E-02
         0.34571E-02
         0.37051E-02
         0.37051E-02
         0.36223E-02
         0.28192E-02
         0.29279E-02
         0.32602E-02
         0.32602E-02
         0.32140E-02
         0.29827E-02
         0.32805E-02
         0.32805E-02
         0.42445E-02
         0.35197E-02
         0.37726E-02
         0.42445E-02
         0.37726E-02
         0.37726E-02
         0.30123E-02
         0.32108E-02
         0.42445E-02
         0.32108E-02
         0.24152E-02
         0.30129E-02
         0.32611E-02
         0.26363E-02
         0.27200E-02
         0.42518E-02
         0.36325E-02
         0.42518E-02
         0.32110E-02
         0.29492E-02
         0.34566E-02
         0.32636E-02
         0.37047E-02
         0.32110E-02
         0.30621E-02
         0.35231E-02
         0.26633E-02
         0.26633E-02
         0.24554E-02
         0.27520E-02
         0.42518E-02
         0.35231E-02
         0.42518E-02
         0.34882E-02
         0.27288E-02
         0.31861E-02
         0.32611E-02
         0.27040E-02
         0.27825E-02
         0.27825E-02
         0.27024E-02
         0.31932E-02
         0.31932E-02
         0.37047E-02
         0.36222E-02
         0.28189E-02
         0.31747E-02
         0.33465E-02
         0.33465E-02
         0.32149E-02
         0.29826E-02
         0.32803E-02
         0.27288E-02
         0.30921E-02
         0.31861E-02
         0.32611E-02
         0.32611E-02
         0.30129E-02
         0.27200E-02
         0.27040E-02
         0.27825E-02
         0.27825E-02
         0.27024E-02
         0.31932E-02
         0.31932E-02
         0.32636E-02
         0.34566E-02
         0.37047E-02
         0.37047E-02
         0.36222E-02
         0.28189E-02
         0.29289E-02
         0.32613E-02
         0.32613E-02
         0.32149E-02
         0.29826E-02
         0.32803E-02
         0.32803E-02
         0.42447E-02
         0.35196E-02
         0.37732E-02
         0.42447E-02
         0.37732E-02
         0.37732E-02
         0.30125E-02
         0.32111E-02
         0.42447E-02
         0.32111E-02
         0.24151E-02
         0.30138E-02
         0.32622E-02
         0.26351E-02
         0.27200E-02
         0.42510E-02
         0.36315E-02
         0.42510E-02
         0.32112E-02
         0.29480E-02
         0.34562E-02
         0.32637E-02
         0.37043E-02
         0.32112E-02
         0.30610E-02
         0.35233E-02
         0.26619E-02
         0.26619E-02
         0.24557E-02
         0.27514E-02
         0.42510E-02
         0.35233E-02
         0.42510E-02
         0.34894E-02
         0.27289E-02
         0.31864E-02
         0.32622E-02
         0.27044E-02
         0.27825E-02
         0.27825E-02
         0.27025E-02
         0.31934E-02
         0.31934E-02
         0.37043E-02
         0.36220E-02
         0.28186E-02
         0.31753E-02
         0.33464E-02
         0.33464E-02
         0.32157E-02
         0.29824E-02
         0.32801E-02
         0.27289E-02
         0.30911E-02
         0.31864E-02
         0.32622E-02
         0.32622E-02
         0.30138E-02
         0.27200E-02
         0.27044E-02
         0.27825E-02
         0.27825E-02
         0.27025E-02
         0.31934E-02
         0.31934E-02
         0.32637E-02
         0.34562E-02
         0.37043E-02
         0.37043E-02
         0.36220E-02
         0.28186E-02
         0.29298E-02
         0.32624E-02
         0.32624E-02
         0.32157E-02
         0.29824E-02
         0.32801E-02
         0.32801E-02
         0.42448E-02
         0.35196E-02
         0.37737E-02
         0.42448E-02
         0.37737E-02
         0.37737E-02
         0.30126E-02
         0.32112E-02
         0.42448E-02
         0.32112E-02
         0.24150E-02
         0.30147E-02
         0.32633E-02
         0.26339E-02
         0.27200E-02
         0.42501E-02
         0.36306E-02
         0.42501E-02
         0.32114E-02
         0.29467E-02
         0.34558E-02
         0.32638E-02
         0.37039E-02
         0.32114E-02
         0.30598E-02
         0.35235E-02
         0.26604E-02
         0.26604E-02
         0.24559E-02
         0.27507E-02
         0.42501E-02
         0.35235E-02
         0.42501E-02
         0.34905E-02
         0.27289E-02
         0.31867E-02
         0.32633E-02
         0.27048E-02
         0.27825E-02
         0.27825E-02
         0.27026E-02
         0.31937E-02
         0.31937E-02
         0.37039E-02
         0.36219E-02
         0.28183E-02
         0.31758E-02
         0.33463E-02
         0.33463E-02
         0.32166E-02
         0.29823E-02
         0.32799E-02
         0.27289E-02
         0.30902E-02
         0.31867E-02
         0.32633E-02
         0.32633E-02
         0.30147E-02
         0.27200E-02
         0.27048E-02
         0.27825E-02
         0.27825E-02
         0.27026E-02
         0.31937E-02
         0.31937E-02
         0.32638E-02
         0.34558E-02
         0.37039E-02
         0.37039E-02
         0.36219E-02
         0.28183E-02
         0.29308E-02
         0.32635E-02
         0.32635E-02
         0.32166E-02
         0.29823E-02
         0.32799E-02
         0.32799E-02
         0.42448E-02
         0.35196E-02
         0.37737E-02
         0.42448E-02
         0.37737E-02
         0.37737E-02
         0.30126E-02
         0.32112E-02
         0.42448E-02
         0.32112E-02
         0.24148E-02
         0.30147E-02
         0.32633E-02
         0.26327E-02
         0.27200E-02
         0.42493E-02
         0.36297E-02
         0.42493E-02
         0.32114E-02
         0.29455E-02
         0.34553E-02
         0.32638E-02
         0.37036E-02
         0.32114E-02
         0.30587E-02
         0.35235E-02
         0.26590E-02
         0.26590E-02
         0.24559E-02
         0.27501E-02
         0.42493E-02
         0.35235E-02
         0.42493E-02
         0.34905E-02
         0.27289E-02
         0.31867E-02
         0.32633E-02
         0.27048E-02
         0.27825E-02
         0.27825E-02
         0.27026E-02
         0.31937E-02
         0.31937E-02
         0.37036E-02
         0.36218E-02
         0.28180E-02
         0.31758E-02
         0.33462E-02
         0.33462E-02
         0.32166E-02
         0.29822E-02
         0.32797E-02
         0.27289E-02
         0.30892E-02
         0.31867E-02
         0.32633E-02
         0.32633E-02
         0.30147E-02
         0.27200E-02
         0.27048E-02
         0.27825E-02
         0.27825E-02
         0.27026E-02
         0.31937E-02
         0.31937E-02
         0.32638E-02
         0.34553E-02
         0.37036E-02
         0.37036E-02
         0.36218E-02
         0.28180E-02
         0.29308E-02
         0.32635E-02
         0.32635E-02
         0.32166E-02
         0.29822E-02
         0.32797E-02
         0.32797E-02
  
SCALARS              physical_window_y  double 1
LOOKUP_TABLE default
         0.43155E-02
         0.43155E-02
         0.43155E-02
         0.43155E-02
         0.43155E-02
         0.43155E-02
         0.43155E-02
         0.43155E-02
         0.34883E-02
         0.34883E-02
         0.34882E-02
         0.34882E-02
         0.32826E-02
         0.32142E-02
         0.32826E-02
         0.32142E-02
         0.37863E-02
         0.31884E-02
         0.37863E-02
         0.31884E-02
         0.27172E-02
         0.33887E-02
         0.37164E-02
         0.27172E-02
         0.33887E-02
         0.37164E-02
         0.27582E-02
         0.28966E-02
         0.27582E-02
         0.28954E-02
         0.37007E-02
         0.35859E-02
         0.37863E-02
         0.37007E-02
         0.35824E-02
         0.37863E-02
         0.29875E-02
         0.29875E-02
         0.29867E-02
         0.29867E-02
         0.28561E-02
         0.26860E-02
         0.28556E-02
         0.26852E-02
         0.29518E-02
         0.28068E-02
         0.29517E-02
         0.28066E-02
         0.29975E-02
         0.29949E-02
         0.37007E-02
         0.37007E-02
         0.28693E-02
         0.28693E-02
         0.28693E-02
         0.28693E-02
         0.27602E-02
         0.26193E-02
         0.27602E-02
         0.26193E-02
         0.37007E-02
         0.37007E-02
         0.37007E-02
         0.37007E-02
         0.37685E-02
         0.37665E-02
         0.37685E-02
         0.37665E-02
         0.30230E-02
         0.37003E-02
         0.30229E-02
         0.37003E-02
         0.37164E-02
         0.37164E-02
         0.31934E-02
         0.31921E-02
         0.32777E-02
         0.32771E-02
         0.32777E-02
         0.32771E-02
         0.27006E-02
         0.25920E-02
         0.27006E-02
         0.25920E-02
         0.25916E-02
         0.25916E-02
         0.29715E-02
         0.29715E-02
         0.29715E-02
         0.29715E-02
         0.26477E-02
         0.29102E-02
         0.26477E-02
         0.29102E-02
         0.34085E-02
         0.34085E-02
         0.35350E-02
         0.35350E-02
         0.35350E-02
         0.35350E-02
         0.29766E-02
         0.32272E-02
         0.29763E-02
         0.32254E-02
         0.29087E-02
         0.29835E-02
         0.29087E-02
         0.29825E-02
         0.37003E-02
         0.37003E-02
         0.37164E-02
         0.37164E-02
         0.37164E-02
         0.37164E-02
         0.33887E-02
         0.33887E-02
         0.28966E-02
         0.28954E-02
         0.31934E-02
         0.31921E-02
         0.32777E-02
         0.32771E-02
         0.32777E-02
         0.32771E-02
         0.27006E-02
         0.27006E-02
         0.25920E-02
         0.25920E-02
         0.25916E-02
         0.25916E-02
         0.26860E-02
         0.26852E-02
         0.28561E-02
         0.28556E-02
         0.29518E-02
         0.29517E-02
         0.29715E-02
         0.29715E-02
         0.29715E-02
         0.29715E-02
         0.26477E-02
         0.26477E-02
         0.27685E-02
         0.27685E-02
         0.34085E-02
         0.34085E-02
         0.35350E-02
         0.35350E-02
         0.35350E-02
         0.35350E-02
         0.29766E-02
         0.29763E-02
         0.31381E-02
         0.31368E-02
         0.31381E-02
         0.31368E-02
         0.43153E-02
         0.43153E-02
         0.43153E-02
         0.43153E-02
         0.34883E-02
         0.34883E-02
         0.32812E-02
         0.32132E-02
         0.37858E-02
         0.31880E-02
         0.27155E-02
         0.33883E-02
         0.37163E-02
         0.27535E-02
         0.28978E-02
         0.37004E-02
         0.35894E-02
         0.37858E-02
         0.29882E-02
         0.29882E-02
         0.28566E-02
         0.26867E-02
         0.29519E-02
         0.28071E-02
         0.30001E-02
         0.37004E-02
         0.28667E-02
         0.28667E-02
         0.27589E-02
         0.26183E-02
         0.37004E-02
         0.37004E-02
         0.37706E-02
         0.37706E-02
         0.30232E-02
         0.36991E-02
         0.37163E-02
         0.31947E-02
         0.32784E-02
         0.32784E-02
         0.27006E-02
         0.25920E-02
         0.25909E-02
         0.29715E-02
         0.29715E-02
         0.26476E-02
         0.29101E-02
         0.34078E-02
         0.35344E-02
         0.35344E-02
         0.29769E-02
         0.32290E-02
         0.29059E-02
         0.29845E-02
         0.36991E-02
         0.37163E-02
         0.37163E-02
         0.33883E-02
         0.28978E-02
         0.31947E-02
         0.32784E-02
         0.32784E-02
         0.27006E-02
         0.25920E-02
         0.25909E-02
         0.26867E-02
         0.28566E-02
         0.29519E-02
         0.29715E-02
         0.29715E-02
         0.26476E-02
         0.27685E-02
         0.34078E-02
         0.35344E-02
         0.35344E-02
         0.29769E-02
         0.31395E-02
         0.31395E-02
         0.43150E-02
         0.43150E-02
         0.43150E-02
         0.43150E-02
         0.34884E-02
         0.34884E-02
         0.32798E-02
         0.32122E-02
         0.37853E-02
         0.31876E-02
         0.27137E-02
         0.33879E-02
         0.37162E-02
         0.27488E-02
         0.28990E-02
         0.37001E-02
         0.35930E-02
         0.37853E-02
         0.29889E-02
         0.29889E-02
         0.28571E-02
         0.26875E-02
         0.29521E-02
         0.28074E-02
         0.30027E-02
         0.37001E-02
         0.28641E-02
         0.28641E-02
         0.27576E-02
         0.26173E-02
         0.37001E-02
         0.37001E-02
         0.37727E-02
         0.37727E-02
         0.30234E-02
         0.36979E-02
         0.37162E-02
         0.31960E-02
         0.32790E-02
         0.32790E-02
         0.27006E-02
         0.25920E-02
         0.25902E-02
         0.29715E-02
         0.29715E-02
         0.26476E-02
         0.29100E-02
         0.34071E-02
         0.35339E-02
         0.35339E-02
         0.29772E-02
         0.32307E-02
         0.29032E-02
         0.29855E-02
         0.36979E-02
         0.37162E-02
         0.37162E-02
         0.33879E-02
         0.28990E-02
         0.31960E-02
         0.32790E-02
         0.32790E-02
         0.27006E-02
         0.25920E-02
         0.25902E-02
         0.26875E-02
         0.28571E-02
         0.29521E-02
         0.29715E-02
         0.29715E-02
         0.26476E-02
         0.27684E-02
         0.34071E-02
         0.35339E-02
         0.35339E-02
         0.29772E-02
         0.31408E-02
         0.31408E-02
         0.43148E-02
         0.43148E-02
         0.43148E-02
         0.43148E-02
         0.34885E-02
         0.34885E-02
         0.32783E-02
         0.32112E-02
         0.37849E-02
         0.31872E-02
         0.27120E-02
         0.33875E-02
         0.37161E-02
         0.27441E-02
         0.29003E-02
         0.36998E-02
         0.35965E-02
         0.37849E-02
         0.29896E-02
         0.29896E-02
         0.28575E-02
         0.26882E-02
         0.29522E-02
         0.28077E-02
         0.30053E-02
         0.36998E-02
         0.28615E-02
         0.28615E-02
         0.27563E-02
         0.26163E-02
         0.36998E-02
         0.36998E-02
         0.37747E-02
         0.37747E-02
         0.30236E-02
         0.36967E-02
         0.37161E-02
         0.31973E-02
         0.32796E-02
         0.32796E-02
         0.27006E-02
         0.25920E-02
         0.25895E-02
         0.29714E-02
         0.29714E-02
         0.26475E-02
         0.29099E-02
         0.34063E-02
         0.35333E-02
         0.35333E-02
         0.29775E-02
         0.32325E-02
         0.29004E-02
         0.29865E-02
         0.36967E-02
         0.37161E-02
         0.37161E-02
         0.33875E-02
         0.29003E-02
         0.31973E-02
         0.32796E-02
         0.32796E-02
         0.27006E-02
         0.25920E-02
         0.25895E-02
         0.26882E-02
         0.28575E-02
         0.29522E-02
         0.29714E-02
         0.29714E-02
         0.26475E-02
         0.27684E-02
         0.34063E-02
         0.35333E-02
         0.35333E-02
         0.29775E-02
         0.31422E-02
         0.31422E-02
         0.43145E-02
         0.43145E-02
         0.43145E-02
         0.43145E-02
         0.34886E-02
         0.34886E-02
         0.32769E-02
         0.32102E-02
         0.37844E-02
         0.31868E-02
         0.27103E-02
         0.33871E-02
         0.37160E-02
         0.27394E-02
         0.29015E-02
         0.36995E-02
         0.36000E-02
         0.37844E-02
         0.29903E-02
         0.29903E-02
         0.28580E-02
         0.26890E-02
         0.29523E-02
         0.28079E-02
         0.30079E-02
         0.36995E-02
         0.28589E-02
         0.28589E-02
         0.27550E-02
         0.26152E-02
         0.36995E-02
         0.36995E-02
         0.37768E-02
         0.37768E-02
         0.30238E-02
         0.36956E-02
         0.37160E-02
         0.31986E-02
         0.32802E-02
         0.32802E-02
         0.27006E-02
         0.25920E-02
         0.25887E-02
         0.29714E-02
         0.29714E-02
         0.26475E-02
         0.29098E-02
         0.34056E-02
         0.35327E-02
         0.35327E-02
         0.29778E-02
         0.32342E-02
         0.28977E-02
         0.29875E-02
         0.36956E-02
         0.37160E-02
         0.37160E-02
         0.33871E-02
         0.29015E-02
         0.31986E-02
         0.32802E-02
         0.32802E-02
         0.27006E-02
         0.25920E-02
         0.25887E-02
         0.26890E-02
         0.28580E-02
         0.29523E-02
         0.29714E-02
         0.29714E-02
         0.26475E-02
         0.27683E-02
         0.34056E-02
         0.35327E-02
         0.35327E-02
         0.29778E-02
         0.31435E-02
         0.31435E-02
         0.43143E-02
         0.43143E-02
         0.43143E-02
         0.43143E-02
         0.34887E-02
         0.34887E-02
         0.32755E-02
         0.32091E-02
         0.37839E-02
         0.31864E-02
         0.27086E-02
         0.33867E-02
         0.37159E-02
         0.27347E-02
         0.29027E-02
         0.36991E-02
         0.36036E-02
         0.37839E-02
         0.29920E-02
         0.29920E-02
         0.28585E-02
         0.26897E-02
         0.29525E-02
         0.28082E-02
         0.30105E-02
         0.36991E-02
         0.28563E-02
         0.28563E-02
         0.27537E-02
         0.26142E-02
         0.36991E-02
         0.36991E-02
         0.37789E-02
         0.37789E-02
         0.30240E-02
         0.36944E-02
         0.37159E-02
         0.31999E-02
         0.32808E-02
         0.32808E-02
         0.27006E-02
         0.25920E-02
         0.25880E-02
         0.29714E-02
         0.29714E-02
         0.26474E-02
         0.29097E-02
         0.34049E-02
         0.35322E-02
         0.35322E-02
         0.29781E-02
         0.32360E-02
         0.28949E-02
         0.29885E-02
         0.36944E-02
         0.37159E-02
         0.37159E-02
         0.33867E-02
         0.29027E-02
         0.31999E-02
         0.32808E-02
         0.32808E-02
         0.27006E-02
         0.25920E-02
         0.25880E-02
         0.26897E-02
         0.28585E-02
         0.29525E-02
         0.29714E-02
         0.29714E-02
         0.26474E-02
         0.27683E-02
         0.34049E-02
         0.35322E-02
         0.35322E-02
         0.29781E-02
         0.31449E-02
         0.31449E-02
         0.43140E-02
         0.43140E-02
         0.43140E-02
         0.43140E-02
         0.34888E-02
         0.34888E-02
         0.32740E-02
         0.32081E-02
         0.37834E-02
         0.31860E-02
         0.27069E-02
         0.33863E-02
         0.37158E-02
         0.27299E-02
         0.29039E-02
         0.36988E-02
         0.36071E-02
         0.37834E-02
         0.29946E-02
         0.29946E-02
         0.28589E-02
         0.26905E-02
         0.29526E-02
         0.28085E-02
         0.30131E-02
         0.36988E-02
         0.28538E-02
         0.28538E-02
         0.27524E-02
         0.26132E-02
         0.36988E-02
         0.36988E-02
         0.37809E-02
         0.37809E-02
         0.30241E-02
         0.36932E-02
         0.37158E-02
         0.32012E-02
         0.32814E-02
         0.32814E-02
         0.27006E-02
         0.25920E-02
         0.25873E-02
         0.29714E-02
         0.29714E-02
         0.26473E-02
         0.29097E-02
         0.34041E-02
         0.35316E-02
         0.35316E-02
         0.29784E-02
         0.32378E-02
         0.28921E-02
         0.29895E-02
         0.36932E-02
         0.37158E-02
         0.37158E-02
         0.33863E-02
         0.29039E-02
         0.32012E-02
         0.32814E-02
         0.32814E-02
         0.27006E-02
         0.25920E-02
         0.25873E-02
         0.26905E-02
         0.28589E-02
         0.29526E-02
         0.29714E-02
         0.29714E-02
         0.26473E-02
         0.27683E-02
         0.34041E-02
         0.35316E-02
         0.35316E-02
         0.29784E-02
         0.31463E-02
         0.31463E-02
         0.43138E-02
         0.43138E-02
         0.43138E-02
         0.43138E-02
         0.34888E-02
         0.34888E-02
         0.32726E-02
         0.32071E-02
         0.37830E-02
         0.31856E-02
         0.27051E-02
         0.33859E-02
         0.37157E-02
         0.27252E-02
         0.29051E-02
         0.36985E-02
         0.36106E-02
         0.37830E-02
         0.29972E-02
         0.29972E-02
         0.28594E-02
         0.26912E-02
         0.29528E-02
         0.28087E-02
         0.30156E-02
         0.36985E-02
         0.28512E-02
         0.28512E-02
         0.27512E-02
         0.26122E-02
         0.36985E-02
         0.36985E-02
         0.37830E-02
         0.37830E-02
         0.30243E-02
         0.36920E-02
         0.37157E-02
         0.32025E-02
         0.32821E-02
         0.32821E-02
         0.27006E-02
         0.25920E-02
         0.25866E-02
         0.29714E-02
         0.29714E-02
         0.26473E-02
         0.29096E-02
         0.34034E-02
         0.35310E-02
         0.35310E-02
         0.29787E-02
         0.32396E-02
         0.28894E-02
         0.29905E-02
         0.36920E-02
         0.37157E-02
         0.37157E-02
         0.33859E-02
         0.29051E-02
         0.32025E-02
         0.32821E-02
         0.32821E-02
         0.27006E-02
         0.25920E-02
         0.25866E-02
         0.26912E-02
         0.28594E-02
         0.29528E-02
         0.29714E-02
         0.29714E-02
         0.26473E-02
         0.27682E-02
         0.34034E-02
         0.35310E-02
         0.35310E-02
         0.29787E-02
         0.31476E-02
         0.31476E-02
         0.43135E-02
         0.43135E-02
         0.43135E-02
         0.43135E-02
         0.34889E-02
         0.34889E-02
         0.32712E-02
         0.32061E-02
         0.37825E-02
         0.31852E-02
         0.27034E-02
         0.33856E-02
         0.37156E-02
         0.27205E-02
         0.29063E-02
         0.36982E-02
         0.36142E-02
         0.37851E-02
         0.29998E-02
         0.29998E-02
         0.28599E-02
         0.26920E-02
         0.29529E-02
         0.28090E-02
         0.30182E-02
         0.36982E-02
         0.28486E-02
         0.28486E-02
         0.27499E-02
         0.26112E-02
         0.36982E-02
         0.36982E-02
         0.37851E-02
         0.37851E-02
         0.30245E-02
         0.36908E-02
         0.37156E-02
         0.32038E-02
         0.32827E-02
         0.32827E-02
         0.27006E-02
         0.25920E-02
         0.25859E-02
         0.29714E-02
         0.29714E-02
         0.26472E-02
         0.29095E-02
         0.34027E-02
         0.35304E-02
         0.35304E-02
         0.29790E-02
         0.32413E-02
         0.28866E-02
         0.29915E-02
         0.36908E-02
         0.37156E-02
         0.37156E-02
         0.33856E-02
         0.29063E-02
         0.32038E-02
         0.32827E-02
         0.32827E-02
         0.27006E-02
         0.25920E-02
         0.25859E-02
         0.26920E-02
         0.28599E-02
         0.29529E-02
         0.29714E-02
         0.29714E-02
         0.26472E-02
         0.27682E-02
         0.34027E-02
         0.35304E-02
         0.35304E-02
         0.29790E-02
         0.31490E-02
         0.31490E-02
         0.43133E-02
         0.43133E-02
         0.43133E-02
         0.43133E-02
         0.34890E-02
         0.34890E-02
         0.32698E-02
         0.32051E-02
         0.37820E-02
         0.31848E-02
         0.27017E-02
         0.33851E-02
         0.37155E-02
         0.27158E-02
         0.29075E-02
         0.36979E-02
         0.36177E-02
         0.37871E-02
         0.30024E-02
         0.30024E-02
         0.28603E-02
         0.26927E-02
         0.29530E-02
         0.28093E-02
         0.30208E-02
         0.36979E-02
         0.28460E-02
         0.28460E-02
         0.27486E-02
         0.26101E-02
         0.36979E-02
         0.36979E-02
         0.37871E-02
         0.37871E-02
         0.30247E-02
         0.36896E-02
         0.37155E-02
         0.32051E-02
         0.32833E-02
         0.32833E-02
         0.27006E-02
         0.25920E-02
         0.25851E-02
         0.29714E-02
         0.29714E-02
         0.26472E-02
         0.29094E-02
         0.34019E-02
         0.35299E-02
         0.35299E-02
         0.29793E-02
         0.32431E-02
         0.28838E-02
         0.29925E-02
         0.36896E-02
         0.37155E-02
         0.37155E-02
         0.33851E-02
         0.29075E-02
         0.32051E-02
         0.32833E-02
         0.32833E-02
         0.27006E-02
         0.25920E-02
         0.25851E-02
         0.26927E-02
         0.28603E-02
         0.29530E-02
         0.29714E-02
         0.29714E-02
         0.26472E-02
         0.27681E-02
         0.34019E-02
         0.35299E-02
         0.35299E-02
         0.29793E-02
         0.31503E-02
         0.31503E-02
         0.43130E-02
         0.43130E-02
         0.43130E-02
         0.43130E-02
         0.34891E-02
         0.34891E-02
         0.32683E-02
         0.32041E-02
         0.37816E-02
         0.31844E-02
         0.27000E-02
         0.33848E-02
         0.37154E-02
         0.27111E-02
         0.29087E-02
         0.36976E-02
         0.36213E-02
         0.37892E-02
         0.30050E-02
         0.30050E-02
         0.28608E-02
         0.26935E-02
         0.29532E-02
         0.28096E-02
         0.30234E-02
         0.36976E-02
         0.28434E-02
         0.28434E-02
         0.27472E-02
         0.26091E-02
         0.36976E-02
         0.36976E-02
         0.37892E-02
         0.37892E-02
         0.30249E-02
         0.36885E-02
         0.37154E-02
         0.32064E-02
         0.32839E-02
         0.32839E-02
         0.27006E-02
         0.25920E-02
         0.25844E-02
         0.29714E-02
         0.29714E-02
         0.26471E-02
         0.29094E-02
         0.34012E-02
         0.35293E-02
         0.35293E-02
         0.29797E-02
         0.32449E-02
         0.28811E-02
         0.29935E-02
         0.36885E-02
         0.37154E-02
         0.37154E-02
         0.33848E-02
         0.29087E-02
         0.32064E-02
         0.32839E-02
         0.32839E-02
         0.27006E-02
         0.25920E-02
         0.25844E-02
         0.26935E-02
         0.28608E-02
         0.29532E-02
         0.29714E-02
         0.29714E-02
         0.26471E-02
         0.27681E-02
         0.34012E-02
         0.35293E-02
         0.35293E-02
         0.29797E-02
         0.31517E-02
         0.31517E-02
         0.43128E-02
         0.43128E-02
         0.43128E-02
         0.43128E-02
         0.34892E-02
         0.34892E-02
         0.32669E-02
         0.32031E-02
         0.37811E-02
         0.31840E-02
         0.26982E-02
         0.33844E-02
         0.37152E-02
         0.27063E-02
         0.29099E-02
         0.36973E-02
         0.36248E-02
         0.37913E-02
         0.30076E-02
         0.30076E-02
         0.28613E-02
         0.26942E-02
         0.29533E-02
         0.28099E-02
         0.30260E-02
         0.36973E-02
         0.28408E-02
         0.28408E-02
         0.27460E-02
         0.26081E-02
         0.36973E-02
         0.36973E-02
         0.37913E-02
         0.37913E-02
         0.30250E-02
         0.36873E-02
         0.37152E-02
         0.32077E-02
         0.32845E-02
         0.32845E-02
         0.27006E-02
         0.25920E-02
         0.25837E-02
         0.29714E-02
         0.29714E-02
         0.26471E-02
         0.29093E-02
         0.34005E-02
         0.35287E-02
         0.35287E-02
         0.29800E-02
         0.32467E-02
         0.28783E-02
         0.29945E-02
         0.36873E-02
         0.37152E-02
         0.37152E-02
         0.33844E-02
         0.29099E-02
         0.32077E-02
         0.32845E-02
         0.32845E-02
         0.27006E-02
         0.25920E-02
         0.25837E-02
         0.26942E-02
         0.28613E-02
         0.29533E-02
         0.29714E-02
         0.29714E-02
         0.26471E-02
         0.27681E-02
         0.34005E-02
         0.35287E-02
         0.35287E-02
         0.29800E-02
         0.31530E-02
         0.31530E-02
         0.43125E-02
         0.43125E-02
         0.43125E-02
         0.43125E-02
         0.34893E-02
         0.34893E-02
         0.32655E-02
         0.32021E-02
         0.37806E-02
         0.31836E-02
         0.26965E-02
         0.33840E-02
         0.37151E-02
         0.27016E-02
         0.29111E-02
         0.36969E-02
         0.36283E-02
         0.37933E-02
         0.30102E-02
         0.30102E-02
         0.28617E-02
         0.26950E-02
         0.29535E-02
         0.28101E-02
         0.30286E-02
         0.36969E-02
         0.28382E-02
         0.28382E-02
         0.27447E-02
         0.26071E-02
         0.36969E-02
         0.36969E-02
         0.37933E-02
         0.37933E-02
         0.30252E-02
         0.36861E-02
         0.37151E-02
         0.32090E-02
         0.32852E-02
         0.32852E-02
         0.27006E-02
         0.25920E-02
         0.25830E-02
         0.29714E-02
         0.29714E-02
         0.26470E-02
         0.29092E-02
         0.33997E-02
         0.35282E-02
         0.35282E-02
         0.29803E-02
         0.32484E-02
         0.28755E-02
         0.29955E-02
         0.36861E-02
         0.37151E-02
         0.37151E-02
         0.33840E-02
         0.29111E-02
         0.32090E-02
         0.32852E-02
         0.32852E-02
         0.27006E-02
         0.25920E-02
         0.25830E-02
         0.26950E-02
         0.28617E-02
         0.29535E-02
         0.29714E-02
         0.29714E-02
         0.26470E-02
         0.27680E-02
         0.33997E-02
         0.35282E-02
         0.35282E-02
         0.29803E-02
         0.31544E-02
         0.31544E-02
         0.43123E-02
         0.43123E-02
         0.43123E-02
         0.43123E-02
         0.34893E-02
         0.34893E-02
         0.32640E-02
         0.32011E-02
         0.37801E-02
         0.31832E-02
         0.26948E-02
         0.33836E-02
         0.37150E-02
         0.26969E-02
         0.29123E-02
         0.36966E-02
         0.36319E-02
         0.37954E-02
         0.30128E-02
         0.30128E-02
         0.28622E-02
         0.26957E-02
         0.29536E-02
         0.28104E-02
         0.30312E-02
         0.36966E-02
         0.28357E-02
         0.28357E-02
         0.27434E-02
         0.26061E-02
         0.36966E-02
         0.36966E-02
         0.37954E-02
         0.37954E-02
         0.30254E-02
         0.36849E-02
         0.37150E-02
         0.32103E-02
         0.32858E-02
         0.32858E-02
         0.27006E-02
         0.25920E-02
         0.25823E-02
         0.29714E-02
         0.29714E-02
         0.26470E-02
         0.29091E-02
         0.33990E-02
         0.35276E-02
         0.35276E-02
         0.29806E-02
         0.32502E-02
         0.28728E-02
         0.29965E-02
         0.36849E-02
         0.37150E-02
         0.37150E-02
         0.33836E-02
         0.29123E-02
         0.32103E-02
         0.32858E-02
         0.32858E-02
         0.27006E-02
         0.25920E-02
         0.25823E-02
         0.26957E-02
         0.28622E-02
         0.29536E-02
         0.29714E-02
         0.29714E-02
         0.26470E-02
         0.27680E-02
         0.33990E-02
         0.35276E-02
         0.35276E-02
         0.29806E-02
         0.31557E-02
         0.31557E-02
         0.43120E-02
         0.43120E-02
         0.43120E-02
         0.43120E-02
         0.34894E-02
         0.34894E-02
         0.32626E-02
         0.32001E-02
         0.37797E-02
         0.31828E-02
         0.26931E-02
         0.33832E-02
         0.37149E-02
         0.26922E-02
         0.29135E-02
         0.36963E-02
         0.36354E-02
         0.37975E-02
         0.30154E-02
         0.30154E-02
         0.28627E-02
         0.26965E-02
         0.29537E-02
         0.28107E-02
         0.30338E-02
         0.36963E-02
         0.28331E-02
         0.28331E-02
         0.27421E-02
         0.26051E-02
         0.36963E-02
         0.36963E-02
         0.37975E-02
         0.37975E-02
         0.30256E-02
         0.36838E-02
         0.37149E-02
         0.32116E-02
         0.32864E-02
         0.32864E-02
         0.27006E-02
         0.25920E-02
         0.25815E-02
         0.29714E-02
         0.29714E-02
         0.26469E-02
         0.29090E-02
         0.33983E-02
         0.35270E-02
         0.35270E-02
         0.29809E-02
         0.32519E-02
         0.28700E-02
         0.29975E-02
         0.36838E-02
         0.37149E-02
         0.37149E-02
         0.33832E-02
         0.29135E-02
         0.32116E-02
         0.32864E-02
         0.32864E-02
         0.27006E-02
         0.25920E-02
         0.25815E-02
         0.26965E-02
         0.28627E-02
         0.29537E-02
         0.29714E-02
         0.29714E-02
         0.26469E-02
         0.27680E-02
         0.33983E-02
         0.35270E-02
         0.35270E-02
         0.29809E-02
         0.31571E-02
         0.31571E-02
         0.43118E-02
         0.43118E-02
         0.43118E-02
         0.43118E-02
         0.34895E-02
         0.34895E-02
         0.32612E-02
         0.31990E-02
         0.37792E-02
         0.31824E-02
         0.26913E-02
         0.33828E-02
         0.37148E-02
         0.26875E-02
         0.29148E-02
         0.36960E-02
         0.36390E-02
         0.37995E-02
         0.30180E-02
         0.30180E-02
         0.28631E-02
         0.26972E-02
         0.29539E-02
         0.28110E-02
         0.30364E-02
         0.36960E-02
         0.28305E-02
         0.28305E-02
         0.27408E-02
         0.26040E-02
         0.36960E-02
         0.36960E-02
         0.37995E-02
         0.37995E-02
         0.30258E-02
         0.36826E-02
         0.37148E-02
         0.32129E-02
         0.32870E-02
         0.32870E-02
         0.27006E-02
         0.25920E-02
         0.25808E-02
         0.29713E-02
         0.29713E-02
         0.26468E-02
         0.29089E-02
         0.33975E-02
         0.35264E-02
         0.35264E-02
         0.29812E-02
         0.32537E-02
         0.28672E-02
         0.29985E-02
         0.36826E-02
         0.37148E-02
         0.37148E-02
         0.33828E-02
         0.29148E-02
         0.32129E-02
         0.32870E-02
         0.32870E-02
         0.27006E-02
         0.25920E-02
         0.25808E-02
         0.26972E-02
         0.28631E-02
         0.29539E-02
         0.29713E-02
         0.29713E-02
         0.26468E-02
         0.27679E-02
         0.33975E-02
         0.35264E-02
         0.35264E-02
         0.29812E-02
         0.31585E-02
         0.31585E-02
         0.43115E-02
         0.43115E-02
         0.43115E-02
         0.43115E-02
         0.34896E-02
         0.34896E-02
         0.32597E-02
         0.31980E-02
         0.37787E-02
         0.31820E-02
         0.26896E-02
         0.33824E-02
         0.37147E-02
         0.26827E-02
         0.29160E-02
         0.36957E-02
         0.36425E-02
         0.38016E-02
         0.30206E-02
         0.30206E-02
         0.28636E-02
         0.26980E-02
         0.29540E-02
         0.28112E-02
         0.30390E-02
         0.36957E-02
         0.28279E-02
         0.28279E-02
         0.27395E-02
         0.26030E-02
         0.36957E-02
         0.36957E-02
         0.38016E-02
         0.38016E-02
         0.30260E-02
         0.36814E-02
         0.37147E-02
         0.32141E-02
         0.32876E-02
         0.32876E-02
         0.27006E-02
         0.25920E-02
         0.25801E-02
         0.29713E-02
         0.29713E-02
         0.26468E-02
         0.29089E-02
         0.33968E-02
         0.35259E-02
         0.35259E-02
         0.29815E-02
         0.32555E-02
         0.28645E-02
         0.29995E-02
         0.36814E-02
         0.37147E-02
         0.37147E-02
         0.33824E-02
         0.29160E-02
         0.32141E-02
         0.32876E-02
         0.32876E-02
         0.27006E-02
         0.25920E-02
         0.25801E-02
         0.26980E-02
         0.28636E-02
         0.29540E-02
         0.29713E-02
         0.29713E-02
         0.26468E-02
         0.27679E-02
         0.33968E-02
         0.35259E-02
         0.35259E-02
         0.29815E-02
         0.31598E-02
         0.31598E-02
         0.43113E-02
         0.43113E-02
         0.43113E-02
         0.43113E-02
         0.34897E-02
         0.34897E-02
         0.32583E-02
         0.31970E-02
         0.37783E-02
         0.31816E-02
         0.26879E-02
         0.33820E-02
         0.37146E-02
         0.26780E-02
         0.29172E-02
         0.36954E-02
         0.36460E-02
         0.38037E-02
         0.30232E-02
         0.30232E-02
         0.28641E-02
         0.26987E-02
         0.29542E-02
         0.28115E-02
         0.30416E-02
         0.36954E-02
         0.28253E-02
         0.28253E-02
         0.27382E-02
         0.26020E-02
         0.36954E-02
         0.36954E-02
         0.38037E-02
         0.38037E-02
         0.30261E-02
         0.36802E-02
         0.37146E-02
         0.32154E-02
         0.32882E-02
         0.32882E-02
         0.27006E-02
         0.25921E-02
         0.25794E-02
         0.29713E-02
         0.29713E-02
         0.26467E-02
         0.29088E-02
         0.33961E-02
         0.35253E-02
         0.35253E-02
         0.29818E-02
         0.32573E-02
         0.28617E-02
         0.30005E-02
         0.36802E-02
         0.37146E-02
         0.37146E-02
         0.33820E-02
         0.29172E-02
         0.32154E-02
         0.32882E-02
         0.32882E-02
         0.27006E-02
         0.25921E-02
         0.25794E-02
         0.26987E-02
         0.28641E-02
         0.29542E-02
         0.29713E-02
         0.29713E-02
         0.26467E-02
         0.27678E-02
         0.33961E-02
         0.35253E-02
         0.35253E-02
         0.29818E-02
         0.31612E-02
         0.31612E-02
         0.43110E-02
         0.43110E-02
         0.43110E-02
         0.43110E-02
         0.34898E-02
         0.34898E-02
         0.32569E-02
         0.31960E-02
         0.37778E-02
         0.31812E-02
         0.26862E-02
         0.33816E-02
         0.37145E-02
         0.26733E-02
         0.29184E-02
         0.36950E-02
         0.36495E-02
         0.38057E-02
         0.30258E-02
         0.30258E-02
         0.28645E-02
         0.26995E-02
         0.29543E-02
         0.28118E-02
         0.30442E-02
         0.36950E-02
         0.28227E-02
         0.28227E-02
         0.27369E-02
         0.26010E-02
         0.36950E-02
         0.36950E-02
         0.38057E-02
         0.38057E-02
         0.30263E-02
         0.36790E-02
         0.37145E-02
         0.32167E-02
         0.32889E-02
         0.32889E-02
         0.27006E-02
         0.25921E-02
         0.25787E-02
         0.29713E-02
         0.29713E-02
         0.26467E-02
         0.29087E-02
         0.33953E-02
         0.35247E-02
         0.35247E-02
         0.29821E-02
         0.32590E-02
         0.28589E-02
         0.30015E-02
         0.36790E-02
         0.37145E-02
         0.37145E-02
         0.33816E-02
         0.29184E-02
         0.32167E-02
         0.32889E-02
         0.32889E-02
         0.27006E-02
         0.25921E-02
         0.25787E-02
         0.26995E-02
         0.28645E-02
         0.29543E-02
         0.29713E-02
         0.29713E-02
         0.26467E-02
         0.27678E-02
         0.33953E-02
         0.35247E-02
         0.35247E-02
         0.29821E-02
         0.31625E-02
         0.31625E-02
         0.43108E-02
         0.43108E-02
         0.43108E-02
         0.43108E-02
         0.34898E-02
         0.34898E-02
         0.32555E-02
         0.31950E-02
         0.37773E-02
         0.31808E-02
         0.26845E-02
         0.33812E-02
         0.37144E-02
         0.26686E-02
         0.29196E-02
         0.36948E-02
         0.36531E-02
         0.38078E-02
         0.30285E-02
         0.30285E-02
         0.28650E-02
         0.27002E-02
         0.29544E-02
         0.28120E-02
         0.30467E-02
         0.36948E-02
         0.28201E-02
         0.28201E-02
         0.27356E-02
         0.26000E-02
         0.36948E-02
         0.36948E-02
         0.38078E-02
         0.38078E-02
         0.30265E-02
         0.36779E-02
         0.37144E-02
         0.32181E-02
         0.32895E-02
         0.32895E-02
         0.27006E-02
         0.25921E-02
         0.25779E-02
         0.29713E-02
         0.29713E-02
         0.26466E-02
         0.29086E-02
         0.33946E-02
         0.35242E-02
         0.35242E-02
         0.29824E-02
         0.32608E-02
         0.28562E-02
         0.30025E-02
         0.36779E-02
         0.37144E-02
         0.37144E-02
         0.33812E-02
         0.29196E-02
         0.32181E-02
         0.32895E-02
         0.32895E-02
         0.27006E-02
         0.25921E-02
         0.25779E-02
         0.27002E-02
         0.28650E-02
         0.29544E-02
         0.29713E-02
         0.29713E-02
         0.26466E-02
         0.27678E-02
         0.33946E-02
         0.35242E-02
         0.35242E-02
         0.29824E-02
         0.31639E-02
         0.31639E-02
         0.43105E-02
         0.43105E-02
         0.43105E-02
         0.43105E-02
         0.34899E-02
         0.34899E-02
         0.32540E-02
         0.31940E-02
         0.37768E-02
         0.31804E-02
         0.26827E-02
         0.33808E-02
         0.37143E-02
         0.26639E-02
         0.29208E-02
         0.36944E-02
         0.36566E-02
         0.38099E-02
         0.30311E-02
         0.30311E-02
         0.28655E-02
         0.27010E-02
         0.29546E-02
         0.28123E-02
         0.30493E-02
         0.36944E-02
         0.28175E-02
         0.28175E-02
         0.27343E-02
         0.25990E-02
         0.36944E-02
         0.36944E-02
         0.38099E-02
         0.38099E-02
         0.30267E-02
         0.36767E-02
         0.37143E-02
         0.32193E-02
         0.32901E-02
         0.32901E-02
         0.27006E-02
         0.25921E-02
         0.25772E-02
         0.29713E-02
         0.29713E-02
         0.26466E-02
         0.29085E-02
         0.33939E-02
         0.35236E-02
         0.35236E-02
         0.29827E-02
         0.32626E-02
         0.28534E-02
         0.30035E-02
         0.36767E-02
         0.37143E-02
         0.37143E-02
         0.33808E-02
         0.29208E-02
         0.32193E-02
         0.32901E-02
         0.32901E-02
         0.27006E-02
         0.25921E-02
         0.25772E-02
         0.27010E-02
         0.28655E-02
         0.29546E-02
         0.29713E-02
         0.29713E-02
         0.26466E-02
         0.27677E-02
         0.33939E-02
         0.35236E-02
         0.35236E-02
         0.29827E-02
         0.31652E-02
         0.31652E-02
         0.43103E-02
         0.43103E-02
         0.43103E-02
         0.43103E-02
         0.34900E-02
         0.34900E-02
         0.32526E-02
         0.31930E-02
         0.37764E-02
         0.31800E-02
         0.26810E-02
         0.33804E-02
         0.37142E-02
         0.26591E-02
         0.29220E-02
         0.36941E-02
         0.36602E-02
         0.38119E-02
         0.30337E-02
         0.30337E-02
         0.28660E-02
         0.27017E-02
         0.29547E-02
         0.28126E-02
         0.30519E-02
         0.36941E-02
         0.28150E-02
         0.28150E-02
         0.27330E-02
         0.25979E-02
         0.36941E-02
         0.36941E-02
         0.38119E-02
         0.38119E-02
         0.30269E-02
         0.36755E-02
         0.37142E-02
         0.32206E-02
         0.32907E-02
         0.32907E-02
         0.27006E-02
         0.25921E-02
         0.25765E-02
         0.29713E-02
         0.29713E-02
         0.26465E-02
         0.29085E-02
         0.33931E-02
         0.35230E-02
         0.35230E-02
         0.29830E-02
         0.32643E-02
         0.28507E-02
         0.30045E-02
         0.36755E-02
         0.37142E-02
         0.37142E-02
         0.33804E-02
         0.29220E-02
         0.32206E-02
         0.32907E-02
         0.32907E-02
         0.27006E-02
         0.25921E-02
         0.25765E-02
         0.27017E-02
         0.28660E-02
         0.29547E-02
         0.29713E-02
         0.29713E-02
         0.26465E-02
         0.27677E-02
         0.33931E-02
         0.35230E-02
         0.35230E-02
         0.29830E-02
         0.31666E-02
         0.31666E-02
         0.43100E-02
         0.43100E-02
         0.43100E-02
         0.43100E-02
         0.34901E-02
         0.34901E-02
         0.32512E-02
         0.31920E-02
         0.37759E-02
         0.31796E-02
         0.26793E-02
         0.33800E-02
         0.37141E-02
         0.26544E-02
         0.29232E-02
         0.36938E-02
         0.36637E-02
         0.38140E-02
         0.30363E-02
         0.30363E-02
         0.28664E-02
         0.27025E-02
         0.29548E-02
         0.28129E-02
         0.30545E-02
         0.36938E-02
         0.28124E-02
         0.28124E-02
         0.27317E-02
         0.25969E-02
         0.36938E-02
         0.36938E-02
         0.38140E-02
         0.38140E-02
         0.30271E-02
         0.36743E-02
         0.37141E-02
         0.32219E-02
         0.32913E-02
         0.32913E-02
         0.27006E-02
         0.25921E-02
         0.25758E-02
         0.29713E-02
         0.29713E-02
         0.26465E-02
         0.29084E-02
         0.33924E-02
         0.35224E-02
         0.35224E-02
         0.29833E-02
         0.32661E-02
         0.28479E-02
         0.30055E-02
         0.36743E-02
         0.37141E-02
         0.37141E-02
         0.33800E-02
         0.29232E-02
         0.32219E-02
         0.32913E-02
         0.32913E-02
         0.27006E-02
         0.25921E-02
         0.25758E-02
         0.27025E-02
         0.28664E-02
         0.29548E-02
         0.29713E-02
         0.29713E-02
         0.26465E-02
         0.27677E-02
         0.33924E-02
         0.35224E-02
         0.35224E-02
         0.29833E-02
         0.31680E-02
         0.31680E-02
         0.43098E-02
         0.43098E-02
         0.43098E-02
         0.43098E-02
         0.34901E-02
         0.34901E-02
         0.32498E-02
         0.31910E-02
         0.37754E-02
         0.31792E-02
         0.26776E-02
         0.33796E-02
         0.37140E-02
         0.26497E-02
         0.29232E-02
         0.36935E-02
         0.36637E-02
         0.38140E-02
         0.30363E-02
         0.30363E-02
         0.28664E-02
         0.27025E-02
         0.29548E-02
         0.28129E-02
         0.30545E-02
         0.36935E-02
         0.28098E-02
         0.28098E-02
         0.27304E-02
         0.25959E-02
         0.36935E-02
         0.36935E-02
         0.38140E-02
         0.38140E-02
         0.30271E-02
         0.36731E-02
         0.37140E-02
         0.32219E-02
         0.32913E-02
         0.32913E-02
         0.27006E-02
         0.25921E-02
         0.25751E-02
         0.29713E-02
         0.29713E-02
         0.26464E-02
         0.29083E-02
         0.33916E-02
         0.35219E-02
         0.35219E-02
         0.29833E-02
         0.32661E-02
         0.28451E-02
         0.30055E-02
         0.36731E-02
         0.37140E-02
         0.37140E-02
         0.33796E-02
         0.29232E-02
         0.32219E-02
         0.32913E-02
         0.32913E-02
         0.27006E-02
         0.25921E-02
         0.25751E-02
         0.27025E-02
         0.28664E-02
         0.29548E-02
         0.29713E-02
         0.29713E-02
         0.26464E-02
         0.27676E-02
         0.33916E-02
         0.35219E-02
         0.35219E-02
         0.29833E-02
         0.31680E-02
         0.31680E-02
  
SCALARS              physical_window_z  double 1
LOOKUP_TABLE default
         0.26928E-02
         0.26928E-02
         0.26928E-02
         0.26928E-02
         0.26928E-02
         0.26928E-02
         0.26928E-02
         0.26928E-02
         0.26928E-02
         0.26928E-02
         0.26928E-02
         0.26928E-02
         0.26928E-02
         0.26928E-02
         0.26928E-02
         0.26928E-02
         0.26928E-02
         0.26928E-02
         0.26928E-02
         0.26928E-02
         0.26928E-02
         0.26928E-02
         0.26928E-02
         0.26928E-02
         0.26928E-02
         0.26928E-02
         0.26928E-02
         0.26928E-02
         0.26928E-02
         0.26928E-02
         0.26928E-02
         0.26928E-02
         0.26928E-02
         0.26928E-02
         0.26928E-02
         0.26928E-02
         0.26928E-02
         0.26928E-02
         0.26928E-02
         0.26928E-02
         0.26928E-02
         0.26928E-02
         0.26928E-02
         0.26928E-02
         0.26928E-02
         0.26928E-02
         0.26928E-02
         0.26928E-02
         0.26928E-02
         0.26928E-02
         0.26928E-02
         0.26928E-02
         0.26928E-02
         0.26928E-02
         0.26928E-02
         0.26928E-02
         0.26928E-02
         0.26928E-02
         0.26928E-02
         0.26928E-02
         0.26928E-02
         0.26928E-02
         0.26928E-02
         0.26928E-02
         0.26928E-02
         0.26928E-02
         0.26928E-02
         0.26928E-02
         0.26928E-02
         0.26928E-02
         0.26928E-02
         0.26928E-02
         0.26928E-02
         0.26928E-02
         0.26928E-02
         0.26928E-02
         0.26928E-02
         0.26928E-02
         0.26928E-02
         0.26928E-02
         0.26928E-02
         0.26928E-02
         0.26928E-02
         0.26928E-02
         0.26928E-02
         0.26928E-02
         0.26928E-02
         0.26928E-02
         0.26928E-02
         0.26928E-02
         0.26928E-02
         0.26928E-02
         0.26928E-02
         0.26928E-02
         0.26928E-02
         0.26928E-02
         0.26928E-02
         0.26928E-02
         0.26928E-02
         0.26928E-02
         0.26928E-02
         0.26928E-02
         0.26928E-02
         0.26928E-02
         0.26928E-02
         0.26928E-02
         0.26928E-02
         0.26928E-02
         0.26928E-02
         0.26928E-02
         0.26928E-02
         0.26928E-02
         0.26928E-02
         0.26928E-02
         0.26928E-02
         0.26928E-02
         0.26928E-02
         0.26928E-02
         0.26928E-02
         0.26928E-02
         0.26928E-02
         0.26928E-02
         0.26928E-02
         0.26928E-02
         0.26928E-02
         0.26928E-02
         0.26928E-02
         0.26928E-02
         0.26928E-02
         0.26928E-02
         0.26928E-02
         0.26928E-02
         0.26928E-02
         0.26928E-02
         0.26928E-02
         0.26928E-02
         0.26928E-02
         0.26928E-02
         0.26928E-02
         0.26928E-02
         0.26928E-02
         0.26928E-02
         0.26928E-02
         0.26928E-02
         0.26928E-02
         0.26928E-02
         0.26928E-02
         0.26928E-02
         0.26928E-02
         0.26928E-02
         0.26928E-02
         0.26928E-02
         0.26928E-02
         0.26928E-02
         0.26928E-02
         0.26928E-02
         0.26927E-02
         0.26927E-02
         0.26927E-02
         0.26927E-02
         0.26927E-02
         0.26927E-02
         0.26927E-02
         0.26927E-02
         0.26927E-02
         0.26927E-02
         0.26927E-02
         0.26927E-02
         0.26927E-02
         0.26927E-02
         0.26927E-02
         0.26927E-02
         0.26927E-02
         0.26927E-02
         0.26927E-02
         0.26927E-02
         0.26927E-02
         0.26927E-02
         0.26927E-02
         0.26927E-02
         0.26927E-02
         0.26927E-02
         0.26927E-02
         0.26927E-02
         0.26927E-02
         0.26927E-02
         0.26927E-02
         0.26927E-02
         0.26927E-02
         0.26927E-02
         0.26927E-02
         0.26927E-02
         0.26927E-02
         0.26927E-02
         0.26927E-02
         0.26927E-02
         0.26927E-02
         0.26927E-02
         0.26927E-02
         0.26927E-02
         0.26927E-02
         0.26927E-02
         0.26927E-02
         0.26927E-02
         0.26927E-02
         0.26927E-02
         0.26927E-02
         0.26927E-02
         0.26927E-02
         0.26927E-02
         0.26927E-02
         0.26927E-02
         0.26927E-02
         0.26927E-02
         0.26927E-02
         0.26927E-02
         0.26927E-02
         0.26927E-02
         0.26927E-02
         0.26927E-02
         0.26927E-02
         0.26927E-02
         0.26927E-02
         0.26927E-02
         0.26927E-02
         0.26927E-02
         0.26927E-02
         0.26927E-02
         0.26927E-02
         0.26927E-02
         0.26927E-02
         0.26927E-02
         0.26927E-02
         0.26927E-02
         0.26927E-02
         0.26927E-02
         0.26927E-02
         0.26927E-02
         0.26927E-02
         0.26927E-02
         0.26927E-02
         0.26927E-02
         0.26927E-02
         0.26927E-02
         0.26927E-02
         0.26927E-02
         0.26927E-02
         0.26927E-02
         0.26927E-02
         0.26927E-02
         0.26927E-02
         0.26927E-02
         0.26927E-02
         0.26927E-02
         0.26927E-02
         0.26927E-02
         0.26927E-02
         0.26927E-02
         0.26927E-02
         0.26927E-02
         0.26927E-02
         0.26927E-02
         0.26927E-02
         0.26927E-02
         0.26927E-02
         0.26927E-02
         0.26927E-02
         0.26927E-02
         0.26927E-02
         0.26927E-02
         0.26927E-02
         0.26927E-02
         0.26927E-02
         0.26927E-02
         0.26927E-02
         0.26927E-02
         0.26927E-02
         0.26927E-02
         0.26927E-02
         0.26927E-02
         0.26927E-02
         0.26927E-02
         0.26927E-02
         0.26927E-02
         0.26927E-02
         0.26927E-02
         0.26927E-02
         0.26927E-02
         0.26927E-02
         0.26927E-02
         0.26927E-02
         0.26927E-02
         0.26927E-02
         0.26927E-02
         0.26927E-02
         0.26927E-02
         0.26927E-02
         0.26927E-02
         0.26927E-02
         0.26927E-02
         0.26927E-02
         0.26927E-02
         0.26927E-02
         0.26927E-02
         0.26927E-02
         0.26927E-02
         0.26927E-02
         0.26927E-02
         0.26927E-02
         0.26927E-02
         0.26927E-02
         0.26927E-02
         0.26927E-02
         0.26927E-02
         0.26927E-02
         0.26927E-02
         0.26927E-02
         0.26927E-02
         0.26927E-02
         0.26927E-02
         0.26927E-02
         0.26927E-02
         0.26927E-02
         0.26927E-02
         0.26927E-02
         0.26927E-02
         0.26927E-02
         0.26927E-02
         0.26927E-02
         0.26927E-02
         0.26927E-02
         0.26927E-02
         0.26927E-02
         0.26927E-02
         0.26927E-02
         0.26927E-02
         0.26927E-02
         0.26927E-02
         0.26927E-02
         0.26927E-02
         0.26927E-02
         0.26927E-02
         0.26927E-02
         0.26927E-02
         0.26927E-02
         0.26927E-02
         0.26927E-02
         0.26927E-02
         0.26927E-02
         0.26927E-02
         0.26927E-02
         0.26927E-02
         0.26927E-02
         0.26927E-02
         0.26927E-02
         0.26927E-02
         0.26927E-02
         0.26927E-02
         0.26927E-02
         0.26927E-02
         0.26927E-02
         0.26927E-02
         0.26927E-02
         0.26927E-02
         0.26927E-02
         0.26927E-02
         0.26927E-02
         0.26927E-02
         0.26927E-02
         0.26927E-02
         0.26927E-02
         0.26927E-02
         0.26927E-02
         0.26927E-02
         0.26927E-02
         0.26927E-02
         0.26927E-02
         0.26927E-02
         0.26927E-02
         0.26927E-02
         0.26927E-02
         0.26927E-02
         0.26927E-02
         0.26927E-02
         0.26927E-02
         0.26927E-02
         0.26927E-02
         0.26927E-02
         0.26927E-02
         0.26927E-02
         0.26927E-02
         0.26927E-02
         0.26927E-02
         0.26927E-02
         0.26927E-02
         0.26927E-02
         0.26927E-02
         0.26927E-02
         0.26927E-02
         0.26927E-02
         0.26927E-02
         0.26927E-02
         0.26927E-02
         0.26927E-02
         0.26927E-02
         0.26927E-02
         0.26927E-02
         0.26927E-02
         0.26927E-02
         0.26927E-02
         0.26927E-02
         0.26927E-02
         0.26927E-02
         0.26927E-02
         0.26927E-02
         0.26927E-02
         0.26927E-02
         0.26927E-02
         0.26927E-02
         0.26927E-02
         0.26927E-02
         0.26927E-02
         0.26927E-02
         0.26927E-02
         0.26927E-02
         0.26927E-02
         0.26927E-02
         0.26927E-02
         0.26927E-02
         0.26927E-02
         0.26927E-02
         0.26927E-02
         0.26927E-02
         0.26927E-02
         0.26927E-02
         0.26927E-02
         0.26927E-02
         0.26927E-02
         0.26927E-02
         0.26927E-02
         0.26927E-02
         0.26927E-02
         0.26927E-02
         0.26927E-02
         0.26927E-02
         0.26927E-02
         0.26927E-02
         0.26927E-02
         0.26927E-02
         0.26927E-02
         0.26927E-02
         0.26927E-02
         0.26927E-02
         0.26927E-02
         0.26927E-02
         0.26927E-02
         0.26927E-02
         0.26927E-02
         0.26927E-02
         0.26927E-02
         0.26927E-02
         0.26927E-02
         0.26927E-02
         0.26927E-02
         0.26927E-02
         0.26927E-02
         0.26927E-02
         0.26927E-02
         0.26927E-02
         0.26927E-02
         0.26927E-02
         0.26927E-02
         0.26927E-02
         0.26927E-02
         0.26927E-02
         0.26927E-02
         0.26927E-02
         0.26927E-02
         0.26927E-02
         0.26927E-02
         0.26927E-02
         0.26927E-02
         0.26927E-02
         0.26927E-02
         0.26927E-02
         0.26927E-02
         0.26927E-02
         0.26927E-02
         0.26927E-02
         0.26927E-02
         0.26927E-02
         0.26927E-02
         0.26927E-02
         0.26927E-02
         0.26927E-02
         0.26927E-02
         0.26927E-02
         0.26927E-02
         0.26927E-02
         0.26927E-02
         0.26927E-02
         0.26927E-02
         0.26927E-02
         0.26927E-02
         0.26927E-02
         0.26927E-02
         0.26927E-02
         0.26927E-02
         0.26927E-02
         0.26927E-02
         0.26927E-02
         0.26927E-02
         0.26927E-02
         0.26927E-02
         0.26927E-02
         0.26927E-02
         0.26927E-02
         0.26927E-02
         0.26927E-02
         0.26927E-02
         0.26927E-02
         0.26927E-02
         0.26927E-02
         0.26927E-02
         0.26927E-02
         0.26927E-02
         0.26927E-02
         0.26927E-02
         0.26927E-02
         0.26927E-02
         0.26927E-02
         0.26927E-02
         0.26927E-02
         0.26927E-02
         0.26927E-02
         0.26927E-02
         0.26927E-02
         0.26927E-02
         0.26927E-02
         0.26927E-02
         0.26927E-02
         0.26927E-02
         0.26927E-02
         0.26927E-02
         0.26927E-02
         0.26927E-02
         0.26927E-02
         0.26927E-02
         0.26927E-02
         0.26927E-02
         0.26927E-02
         0.26927E-02
         0.26927E-02
         0.26927E-02
         0.26927E-02
         0.26927E-02
         0.26927E-02
         0.26927E-02
         0.26927E-02
         0.26927E-02
         0.26927E-02
         0.26927E-02
         0.26927E-02
         0.26927E-02
         0.26927E-02
         0.26927E-02
         0.26927E-02
         0.26927E-02
         0.26927E-02
         0.26927E-02
         0.26927E-02
         0.26927E-02
         0.26927E-02
         0.26927E-02
         0.26927E-02
         0.26927E-02
         0.26927E-02
         0.26927E-02
         0.26927E-02
         0.26927E-02
         0.26927E-02
         0.26927E-02
         0.26927E-02
         0.26927E-02
         0.26927E-02
         0.26927E-02
         0.26927E-02
         0.26927E-02
         0.26927E-02
         0.26927E-02
         0.26927E-02
         0.26927E-02
         0.26927E-02
         0.26927E-02
         0.26927E-02
         0.26927E-02
         0.26927E-02
         0.26927E-02
         0.26927E-02
         0.26927E-02
         0.26927E-02
         0.26927E-02
         0.26927E-02
         0.26927E-02
         0.26927E-02
         0.26927E-02
         0.26927E-02
         0.26927E-02
         0.26927E-02
         0.26927E-02
         0.26927E-02
         0.26927E-02
         0.26927E-02
         0.26927E-02
         0.26927E-02
         0.26927E-02
         0.26927E-02
         0.26927E-02
         0.26927E-02
         0.26927E-02
         0.26927E-02
         0.26927E-02
         0.26927E-02
         0.26927E-02
         0.26927E-02
         0.26927E-02
         0.26927E-02
         0.26927E-02
         0.26927E-02
         0.26927E-02
         0.26927E-02
         0.26927E-02
         0.26927E-02
         0.26927E-02
         0.26927E-02
         0.26927E-02
         0.26927E-02
         0.26927E-02
         0.26927E-02
         0.26927E-02
         0.26927E-02
         0.26927E-02
         0.26927E-02
         0.26927E-02
         0.26927E-02
         0.26927E-02
         0.26927E-02
         0.26927E-02
         0.26927E-02
         0.26927E-02
         0.26927E-02
         0.26927E-02
         0.26927E-02
         0.26927E-02
         0.26927E-02
         0.26927E-02
         0.26927E-02
         0.26927E-02
         0.26927E-02
         0.26927E-02
         0.26927E-02
         0.26927E-02
         0.26927E-02
         0.26927E-02
         0.26927E-02
         0.26927E-02
         0.26927E-02
         0.26927E-02
         0.26927E-02
         0.26927E-02
         0.26927E-02
         0.26927E-02
         0.26927E-02
         0.26927E-02
         0.26927E-02
         0.26927E-02
         0.26927E-02
         0.26927E-02
         0.26927E-02
         0.26927E-02
         0.26927E-02
         0.26927E-02
         0.26927E-02
         0.26927E-02
         0.26927E-02
         0.26927E-02
         0.26927E-02
         0.26927E-02
         0.26927E-02
         0.26927E-02
         0.26927E-02
         0.26927E-02
         0.26927E-02
         0.26927E-02
         0.26927E-02
         0.26927E-02
         0.26927E-02
         0.26927E-02
         0.26927E-02
         0.26927E-02
         0.26927E-02
         0.26927E-02
         0.26927E-02
         0.26927E-02
         0.26927E-02
         0.26927E-02
         0.26927E-02
         0.26927E-02
         0.26927E-02
         0.26927E-02
         0.26927E-02
         0.26927E-02
         0.26927E-02
         0.26927E-02
         0.26927E-02
         0.26927E-02
         0.26927E-02
         0.26927E-02
         0.26927E-02
         0.26927E-02
         0.26927E-02
         0.26927E-02
         0.26927E-02
         0.26927E-02
         0.26927E-02
         0.26927E-02
         0.26927E-02
         0.26927E-02
         0.26927E-02
         0.26927E-02
         0.26927E-02
         0.26927E-02
         0.26927E-02
         0.26927E-02
         0.26927E-02
         0.26927E-02
         0.26927E-02
         0.26927E-02
         0.26927E-02
         0.26927E-02
         0.26927E-02
         0.26927E-02
         0.26927E-02
         0.26927E-02
         0.26927E-02
         0.26927E-02
         0.26927E-02
         0.26927E-02
         0.26927E-02
         0.26927E-02
         0.26927E-02
         0.26927E-02
         0.26927E-02
         0.26927E-02
         0.26927E-02
         0.26927E-02
         0.26927E-02
         0.26927E-02
         0.26927E-02
         0.26927E-02
         0.26927E-02
         0.26927E-02
         0.26927E-02
         0.26927E-02
         0.26927E-02
         0.26927E-02
         0.26927E-02
         0.26927E-02
         0.26927E-02
         0.26927E-02
         0.26927E-02
         0.26927E-02
         0.26927E-02
         0.26927E-02
         0.26927E-02
         0.26927E-02
         0.26927E-02
         0.26927E-02
         0.26927E-02
         0.26927E-02
         0.26927E-02
         0.26927E-02
         0.26927E-02
         0.26927E-02
         0.26927E-02
         0.26927E-02
         0.26927E-02
         0.26927E-02
         0.26927E-02
         0.26927E-02
         0.26927E-02
         0.26927E-02
         0.26927E-02
         0.26927E-02
         0.26927E-02
         0.26927E-02
         0.26927E-02
         0.26927E-02
         0.26927E-02
         0.26927E-02
         0.26927E-02
         0.26927E-02
         0.26927E-02
         0.26927E-02
         0.26927E-02
         0.26927E-02
         0.26927E-02
         0.26927E-02
         0.26927E-02
         0.26927E-02
         0.26927E-02
         0.26927E-02
         0.26927E-02
         0.26927E-02
         0.26927E-02
         0.26927E-02
         0.26927E-02
         0.26927E-02
         0.26927E-02
         0.26927E-02
         0.26927E-02
         0.26927E-02
         0.26927E-02
         0.26927E-02
         0.26927E-02
         0.26927E-02
         0.26927E-02
         0.26927E-02
         0.26927E-02
         0.26927E-02
         0.26927E-02
         0.26927E-02
         0.26927E-02
         0.26927E-02
         0.26927E-02
         0.26927E-02
         0.26927E-02
         0.26927E-02
         0.26927E-02
         0.26927E-02
         0.26927E-02
         0.26927E-02
         0.26927E-02
         0.26927E-02
         0.26927E-02
         0.26927E-02
         0.26927E-02
         0.26927E-02
         0.26927E-02
         0.26927E-02
         0.26927E-02
         0.26927E-02
         0.26927E-02
         0.26927E-02
         0.26927E-02
         0.26927E-02
         0.26927E-02
         0.26927E-02
         0.26927E-02
         0.26927E-02
         0.26927E-02
         0.26927E-02
         0.26927E-02
         0.26927E-02
         0.26927E-02
         0.26927E-02
         0.26927E-02
         0.26927E-02
         0.26927E-02
         0.26927E-02
         0.26927E-02
         0.26927E-02
         0.26927E-02
         0.26927E-02
         0.26927E-02
         0.26927E-02
         0.26927E-02
         0.26927E-02
         0.26927E-02
         0.26927E-02
         0.26927E-02
         0.26927E-02
         0.26927E-02
         0.26927E-02
         0.26927E-02
         0.26927E-02
         0.26927E-02
         0.26927E-02
         0.26927E-02
         0.26927E-02
         0.26927E-02
         0.26927E-02
         0.26927E-02
         0.26927E-02
         0.26927E-02
         0.26927E-02
         0.26927E-02
         0.26927E-02
         0.26927E-02
         0.26927E-02
         0.26927E-02
         0.26927E-02
         0.26927E-02
         0.26927E-02
         0.26927E-02
         0.26927E-02
         0.26927E-02
         0.26927E-02
         0.26927E-02
         0.26927E-02
         0.26927E-02
         0.26927E-02
         0.26927E-02
         0.26927E-02
         0.26927E-02
         0.26927E-02
         0.26927E-02
         0.26927E-02
         0.26927E-02
         0.26927E-02
         0.26927E-02
         0.26927E-02
         0.26927E-02
         0.26927E-02
         0.26927E-02
         0.26927E-02
         0.26927E-02
         0.26927E-02
         0.26927E-02
         0.26927E-02
         0.26927E-02
         0.26927E-02
         0.26927E-02
         0.26927E-02
         0.26927E-02
         0.26927E-02
         0.26927E-02
         0.26927E-02
         0.26927E-02
         0.26927E-02
         0.26927E-02
         0.26927E-02
         0.26927E-02
         0.26927E-02
         0.26927E-02
         0.26927E-02
         0.26927E-02
         0.26927E-02
         0.26927E-02
         0.26927E-02
         0.26927E-02
         0.26927E-02
         0.26927E-02
         0.26927E-02
         0.26927E-02
         0.26927E-02
         0.26927E-02
         0.26927E-02
         0.26927E-02
         0.26927E-02
         0.26927E-02
         0.26927E-02
         0.26927E-02
         0.26927E-02
         0.26927E-02
         0.26927E-02
         0.26927E-02
         0.26927E-02
         0.26927E-02
         0.26927E-02
         0.26927E-02
         0.26927E-02
         0.26927E-02
         0.26927E-02
         0.26927E-02
         0.26927E-02
         0.26927E-02
         0.26927E-02
         0.26927E-02
         0.26927E-02
         0.26927E-02
         0.26927E-02
         0.26927E-02
         0.26927E-02
         0.26927E-02
         0.26927E-02
         0.26927E-02
         0.26927E-02
         0.26927E-02
         0.26927E-02
         0.26927E-02
         0.26927E-02
         0.26927E-02
         0.26927E-02
         0.26927E-02
         0.26927E-02
         0.26927E-02
         0.26927E-02
         0.26927E-02
         0.26927E-02
         0.26927E-02
         0.26927E-02
         0.26927E-02
         0.26927E-02
         0.26927E-02
         0.26927E-02
         0.26927E-02
         0.26927E-02
         0.26927E-02
         0.26927E-02
         0.26927E-02
         0.26927E-02
         0.26927E-02
         0.26927E-02
         0.26927E-02
         0.26927E-02
         0.26927E-02
         0.26927E-02
         0.26927E-02
         0.26927E-02
         0.26927E-02
         0.26927E-02
         0.26927E-02
         0.26927E-02
         0.26927E-02
         0.26927E-02
         0.26927E-02
         0.26927E-02
         0.26927E-02
         0.26927E-02
         0.26927E-02
         0.26927E-02
         0.26927E-02
         0.26927E-02
         0.26927E-02
         0.26927E-02
         0.26927E-02
         0.26927E-02
         0.26927E-02
         0.26927E-02
         0.26927E-02
         0.26927E-02
         0.26927E-02
         0.26927E-02
         0.26927E-02
         0.26927E-02
         0.26927E-02
         0.26927E-02
         0.26927E-02
         0.26927E-02
         0.26927E-02
         0.26927E-02
         0.26927E-02
         0.26927E-02
         0.26927E-02
         0.26927E-02
         0.26927E-02
         0.26927E-02
         0.26927E-02
         0.26927E-02
         0.26927E-02
         0.26927E-02
         0.26927E-02
         0.26927E-02
         0.26927E-02
         0.26927E-02
         0.26927E-02
         0.26927E-02
         0.26927E-02
         0.26927E-02
         0.26927E-02
         0.26927E-02
         0.26927E-02
         0.26927E-02
         0.26927E-02
         0.26927E-02
         0.26927E-02
         0.26927E-02
         0.26927E-02
         0.26927E-02
         0.26927E-02
         0.26927E-02
         0.26927E-02
         0.26927E-02
         0.26927E-02
         0.26927E-02
         0.26927E-02
         0.26927E-02
         0.26927E-02
         0.26927E-02
         0.26927E-02
         0.26927E-02
         0.26927E-02
         0.26927E-02
         0.26927E-02
         0.26927E-02
         0.26927E-02
         0.26927E-02
         0.26927E-02
         0.26927E-02
         0.26927E-02
         0.26927E-02
         0.26927E-02
         0.26927E-02
         0.26927E-02
         0.26927E-02
         0.26927E-02
         0.26927E-02
         0.26927E-02
         0.26927E-02
         0.26927E-02
         0.26927E-02
         0.26927E-02
         0.26927E-02
         0.26927E-02
         0.26927E-02
         0.26927E-02
         0.26927E-02
         0.26927E-02
         0.26927E-02
         0.26927E-02
         0.26927E-02
         0.26927E-02
         0.26927E-02
         0.26927E-02
         0.26927E-02
         0.26927E-02
         0.26927E-02
         0.26927E-02
         0.26927E-02
         0.26927E-02
         0.26927E-02
         0.26927E-02
         0.26927E-02
         0.26927E-02
         0.26927E-02
         0.26927E-02
         0.26927E-02
         0.26927E-02
         0.26927E-02
         0.26927E-02
         0.26927E-02
         0.26927E-02
         0.26927E-02
         0.26927E-02
         0.26927E-02
         0.26927E-02
         0.26927E-02
         0.26927E-02
         0.26927E-02
         0.26927E-02
         0.26927E-02
         0.26927E-02
         0.26927E-02
         0.26927E-02
         0.26927E-02
         0.26927E-02
         0.26927E-02
         0.26927E-02
         0.26927E-02
         0.26927E-02
         0.26927E-02
         0.26927E-02
         0.26927E-02
         0.26927E-02
         0.26927E-02
         0.26927E-02
         0.26927E-02
         0.26927E-02
         0.26927E-02
         0.26927E-02
         0.26927E-02
         0.26927E-02
         0.26927E-02
         0.26927E-02
         0.26927E-02
         0.26927E-02
         0.26927E-02
         0.26927E-02
         0.26927E-02
         0.26927E-02
         0.26927E-02
         0.26927E-02
         0.26927E-02
         0.26927E-02
         0.26927E-02
         0.26927E-02
         0.26927E-02
         0.26927E-02
         0.26927E-02
         0.26927E-02
         0.26927E-02
         0.26927E-02
         0.26927E-02
         0.26927E-02
         0.26927E-02
         0.26927E-02
         0.26927E-02
         0.26927E-02
         0.26927E-02
         0.26927E-02
         0.26927E-02
         0.26927E-02
         0.26927E-02
         0.26927E-02
         0.26927E-02
         0.26927E-02
         0.26927E-02
         0.26927E-02
         0.26927E-02
         0.26927E-02
         0.26927E-02
         0.26927E-02
         0.26927E-02
         0.26927E-02
         0.26927E-02
         0.26927E-02
         0.26927E-02
         0.26927E-02
         0.26927E-02
         0.26927E-02
         0.26927E-02
         0.26927E-02
         0.26927E-02
         0.26927E-02
         0.26927E-02
         0.26927E-02
         0.26927E-02
         0.26927E-02
         0.26927E-02
         0.26927E-02
         0.26927E-02
         0.26927E-02
         0.26927E-02
         0.26927E-02
         0.26927E-02
         0.26927E-02
         0.26927E-02
         0.26927E-02
         0.26927E-02
         0.26927E-02
         0.26927E-02
         0.26927E-02
         0.26927E-02
         0.26927E-02
         0.26927E-02
         0.26927E-02
         0.26927E-02
         0.26927E-02
         0.26927E-02
         0.26927E-02
         0.26927E-02
         0.26927E-02
         0.26927E-02
         0.26927E-02
         0.26927E-02
         0.26927E-02
         0.26927E-02
         0.26927E-02
         0.26927E-02
         0.26927E-02
         0.26927E-02
         0.26927E-02
         0.26927E-02
         0.26927E-02
         0.26927E-02
         0.26927E-02
         0.26927E-02
         0.26927E-02
         0.26927E-02
         0.26927E-02
         0.26927E-02
         0.26927E-02
         0.26927E-02
         0.26927E-02
         0.26927E-02
         0.26927E-02
         0.26927E-02
         0.26927E-02
         0.26927E-02
         0.26927E-02
         0.26927E-02
         0.26927E-02
         0.26927E-02
         0.26927E-02
         0.26927E-02
         0.26927E-02
         0.26927E-02
         0.26927E-02
         0.26927E-02
         0.26927E-02
         0.26927E-02
         0.26927E-02
         0.26927E-02
         0.26927E-02
         0.26927E-02
         0.26927E-02
         0.26927E-02
         0.26927E-02
         0.26927E-02
         0.26927E-02
         0.26927E-02
         0.26927E-02
         0.26927E-02
         0.26927E-02
         0.26927E-02
         0.26927E-02
         0.26927E-02
         0.26927E-02
         0.26927E-02
         0.26927E-02
         0.26927E-02
         0.26927E-02
         0.26927E-02
         0.26927E-02
         0.26927E-02
         0.26927E-02
         0.26927E-02
         0.26927E-02
         0.26927E-02
         0.26927E-02
         0.26927E-02
         0.26927E-02
         0.26927E-02
         0.26927E-02
         0.26927E-02
         0.26927E-02
         0.26927E-02
         0.26927E-02
         0.26927E-02
         0.26927E-02
         0.26927E-02
         0.26927E-02
         0.26927E-02
         0.26927E-02
         0.26927E-02
         0.26927E-02
         0.26927E-02
         0.26927E-02
         0.26927E-02
         0.26927E-02
         0.26927E-02
         0.26927E-02
         0.26927E-02
         0.26927E-02
         0.26927E-02
         0.26927E-02
         0.26927E-02
         0.26927E-02
         0.26927E-02
         0.26927E-02
         0.26927E-02
         0.26927E-02
         0.26927E-02
         0.26927E-02
         0.26927E-02
         0.26927E-02
         0.26927E-02
         0.26927E-02
         0.26927E-02
         0.26927E-02
         0.26927E-02
         0.26927E-02
         0.26927E-02
         0.26927E-02
         0.26927E-02
         0.26927E-02
         0.26927E-02
         0.26927E-02
         0.26927E-02
         0.26927E-02
         0.26927E-02
         0.26927E-02
         0.26927E-02
         0.26927E-02
         0.26927E-02
         0.26927E-02
         0.26927E-02
         0.26927E-02
         0.26927E-02
         0.26927E-02
         0.26927E-02
         0.26927E-02
         0.26927E-02
         0.26927E-02
         0.26927E-02
         0.26927E-02
         0.26927E-02
         0.26927E-02
         0.26927E-02
         0.26927E-02
         0.26927E-02
         0.26927E-02
         0.26927E-02
         0.26927E-02
         0.26927E-02
         0.26927E-02
         0.26927E-02
         0.26927E-02
         0.26927E-02
         0.26927E-02
         0.26927E-02
         0.26927E-02
         0.26927E-02
         0.26927E-02
         0.26927E-02
         0.26927E-02
         0.26927E-02
         0.26927E-02
         0.26927E-02
         0.26927E-02
         0.26927E-02
         0.26927E-02
         0.26927E-02
         0.26927E-02
         0.26927E-02
         0.26927E-02
         0.26927E-02
         0.26927E-02
         0.26927E-02
         0.26927E-02
         0.26927E-02
         0.26927E-02
         0.26927E-02
         0.26927E-02
         0.26927E-02
         0.26927E-02
         0.26927E-02
         0.26927E-02
         0.26927E-02
         0.26927E-02
         0.26927E-02
         0.26927E-02
         0.26927E-02
         0.26927E-02
         0.26927E-02
         0.26927E-02
         0.26927E-02
         0.26927E-02
         0.26927E-02
         0.26927E-02
         0.26927E-02
         0.26927E-02
         0.26927E-02
         0.26927E-02
         0.26927E-02
         0.26927E-02
         0.26927E-02
         0.26927E-02
         0.26927E-02
         0.26927E-02
         0.26927E-02
         0.26927E-02
         0.26927E-02
         0.26927E-02
         0.26927E-02
         0.26927E-02
         0.26927E-02
         0.26927E-02
         0.26927E-02
         0.26927E-02
         0.26927E-02
         0.26927E-02
         0.26927E-02
         0.26927E-02
         0.26927E-02
         0.26927E-02
         0.26927E-02
         0.26927E-02
         0.26927E-02
         0.26927E-02
         0.26927E-02
         0.26927E-02
         0.26927E-02
         0.26927E-02
         0.26927E-02
         0.26927E-02
         0.26927E-02
         0.26927E-02
         0.26927E-02
         0.26927E-02
         0.26927E-02
         0.26927E-02
         0.26927E-02
         0.26927E-02
         0.26927E-02
         0.26927E-02
         0.26927E-02
         0.26927E-02
         0.26927E-02
         0.26927E-02
         0.26927E-02
         0.26927E-02
         0.26927E-02
         0.26927E-02
         0.26927E-02
         0.26927E-02
         0.26927E-02
         0.26927E-02
         0.26927E-02
         0.26927E-02
         0.26927E-02
         0.26927E-02
         0.26927E-02
         0.26927E-02
         0.26927E-02
         0.26927E-02
         0.26927E-02
         0.26927E-02
         0.26927E-02
         0.26927E-02
         0.26927E-02
         0.26927E-02
         0.26927E-02
         0.26927E-02
         0.26927E-02
         0.26927E-02
         0.26927E-02
         0.26927E-02
         0.26927E-02
         0.26927E-02
         0.26927E-02
         0.26927E-02
         0.26927E-02
         0.26927E-02
         0.26927E-02
         0.26927E-02
         0.26927E-02
         0.26927E-02
         0.26927E-02
         0.26927E-02
         0.26927E-02
         0.26927E-02
         0.26927E-02
         0.26927E-02
         0.26927E-02
         0.26927E-02
         0.26927E-02
         0.26927E-02
         0.26927E-02
         0.26927E-02
         0.26927E-02
         0.26927E-02
         0.26927E-02
         0.26927E-02
         0.26927E-02
         0.26927E-02
         0.26927E-02
         0.26927E-02
         0.26927E-02
         0.26927E-02
         0.26927E-02
         0.26927E-02
         0.26927E-02
         0.26927E-02
         0.26927E-02
         0.26927E-02
         0.26927E-02
         0.26927E-02
         0.26927E-02
         0.26927E-02
         0.26927E-02
         0.26927E-02
         0.26927E-02
         0.26927E-02
         0.26927E-02
         0.26927E-02
         0.26927E-02
         0.26927E-02
         0.26927E-02
         0.26927E-02
         0.26927E-02
         0.26927E-02
         0.26927E-02
         0.26927E-02
         0.26927E-02
         0.26927E-02
         0.26927E-02
         0.26927E-02
         0.26927E-02
         0.26927E-02
         0.26927E-02
         0.26927E-02
         0.26927E-02
         0.26927E-02
         0.26927E-02
         0.26927E-02
         0.26927E-02
         0.26927E-02
         0.26927E-02
         0.26927E-02
         0.26927E-02
         0.26927E-02
         0.26927E-02
         0.26927E-02
         0.26927E-02
         0.26927E-02
         0.26927E-02
         0.26927E-02
         0.26927E-02
         0.26927E-02
         0.26927E-02
         0.26927E-02
         0.26927E-02
         0.26927E-02
         0.26927E-02
         0.26927E-02
         0.26927E-02
         0.26927E-02
         0.26927E-02
         0.26927E-02
         0.26927E-02
         0.26927E-02
         0.26927E-02
         0.26927E-02
         0.26927E-02
         0.26927E-02
         0.26927E-02
         0.26927E-02
         0.26927E-02
         0.26927E-02
         0.26927E-02
         0.26927E-02
         0.26927E-02
         0.26927E-02
         0.26927E-02
         0.26927E-02
         0.26927E-02
         0.26927E-02
         0.26927E-02
         0.26927E-02
         0.26927E-02
         0.26927E-02
         0.26927E-02
         0.26927E-02
         0.26927E-02
         0.26927E-02
         0.26927E-02
         0.26927E-02
         0.26927E-02
         0.26927E-02
         0.26927E-02
         0.26927E-02
         0.26927E-02
         0.26927E-02
         0.26927E-02
         0.26927E-02
         0.26927E-02
         0.26927E-02
         0.26927E-02
         0.26927E-02
         0.26927E-02
         0.26927E-02
         0.26927E-02
         0.26927E-02
         0.26927E-02
         0.26927E-02
         0.26927E-02
         0.26927E-02
         0.26927E-02
         0.26927E-02
         0.26927E-02
         0.26927E-02
         0.26927E-02
         0.26927E-02
         0.26927E-02
         0.26927E-02
         0.26927E-02
         0.26927E-02
         0.26927E-02
         0.26927E-02
         0.26927E-02
         0.26927E-02
         0.26927E-02
         0.26927E-02
         0.26927E-02
         0.26927E-02
         0.26927E-02
         0.26927E-02
         0.26927E-02
         0.26927E-02
         0.26927E-02
         0.26927E-02
         0.26927E-02
         0.26927E-02
         0.26927E-02
         0.26927E-02
         0.26927E-02
         0.26927E-02
         0.26927E-02
         0.26927E-02
         0.26927E-02
         0.26927E-02
         0.26927E-02
         0.26927E-02
         0.26927E-02
         0.26927E-02
         0.26927E-02
         0.26927E-02
         0.26927E-02
         0.26927E-02
         0.26927E-02
         0.26927E-02
         0.26927E-02
         0.26927E-02
         0.26927E-02
         0.26927E-02
         0.26927E-02
         0.26927E-02
         0.26927E-02
         0.26927E-02
         0.26927E-02
         0.26927E-02
         0.26927E-02
         0.26927E-02
         0.26927E-02
         0.26927E-02
         0.26927E-02
         0.26927E-02
         0.26927E-02
         0.26927E-02
         0.26927E-02
         0.26927E-02
         0.26927E-02
         0.26927E-02
         0.26927E-02
         0.26927E-02
         0.26927E-02
         0.26927E-02
         0.26927E-02
         0.26927E-02
         0.26927E-02
         0.26927E-02
         0.26927E-02
         0.26927E-02
         0.26927E-02
         0.26927E-02
         0.26927E-02
         0.26927E-02
         0.26927E-02
         0.26927E-02
         0.26927E-02
         0.26927E-02
         0.26927E-02
         0.26927E-02
         0.26927E-02
         0.26927E-02
         0.26927E-02
         0.26927E-02
         0.26927E-02
         0.26927E-02
         0.26927E-02
         0.26927E-02
         0.26927E-02
         0.26927E-02
         0.26927E-02
         0.26927E-02
         0.26927E-02
         0.26927E-02
         0.26927E-02
         0.26927E-02
         0.26927E-02
         0.26927E-02
         0.26927E-02
         0.26927E-02
         0.26927E-02
         0.26927E-02
         0.26927E-02
         0.26927E-02
         0.26927E-02
         0.26927E-02
         0.26927E-02
         0.26927E-02
         0.26927E-02
         0.26927E-02
         0.26927E-02
         0.26927E-02
         0.26927E-02
         0.26927E-02
         0.26927E-02
         0.26927E-02
         0.26927E-02
         0.26927E-02
         0.26927E-02
         0.26927E-02
         0.26927E-02
         0.26927E-02
         0.26927E-02
         0.26927E-02
         0.26927E-02
         0.26927E-02
         0.26927E-02
         0.26927E-02
         0.26927E-02
         0.26928E-02
         0.26928E-02
         0.26928E-02
         0.26928E-02
         0.26928E-02
         0.26928E-02
         0.26928E-02
         0.26928E-02
         0.26928E-02
         0.26928E-02
         0.26928E-02
         0.26928E-02
         0.26928E-02
         0.26928E-02
         0.26928E-02
         0.26928E-02
         0.26928E-02
         0.26928E-02
         0.26928E-02
         0.26928E-02
         0.26928E-02
         0.26928E-02
         0.26928E-02
         0.26928E-02
         0.26928E-02
         0.26928E-02
         0.26928E-02
         0.26928E-02
         0.26928E-02
         0.26928E-02
         0.26928E-02
         0.26928E-02
         0.26928E-02
         0.26928E-02
         0.26928E-02
         0.26928E-02
         0.26928E-02
         0.26928E-02
         0.26928E-02
         0.26928E-02
         0.26928E-02
         0.26928E-02
         0.26928E-02
         0.26928E-02
         0.26928E-02
         0.26928E-02
         0.26928E-02
         0.26928E-02
         0.26928E-02
         0.26928E-02
         0.26928E-02
         0.26928E-02
         0.26928E-02
         0.26928E-02
         0.26928E-02
         0.26928E-02
         0.26928E-02
         0.26928E-02
         0.26928E-02
         0.26928E-02
         0.26928E-02
         0.26928E-02
         0.26928E-02
         0.26928E-02
         0.26928E-02
         0.26928E-02
         0.26928E-02
         0.26928E-02
         0.26928E-02
         0.26928E-02
         0.26928E-02
         0.26928E-02
         0.26928E-02
         0.26928E-02
         0.26928E-02
         0.26928E-02
         0.26928E-02
         0.26928E-02
         0.26928E-02
         0.26928E-02
         0.26928E-02
         0.26928E-02
         0.26928E-02
         0.26928E-02
         0.26928E-02
         0.26928E-02
         0.26928E-02
         0.26928E-02
         0.26928E-02
         0.26928E-02
         0.26928E-02
         0.26928E-02
         0.26928E-02
         0.26928E-02
         0.26928E-02
         0.26928E-02
         0.26928E-02
         0.26928E-02
         0.26928E-02
         0.26928E-02
         0.26928E-02
         0.26928E-02
         0.26928E-02
         0.26928E-02
         0.26928E-02
         0.26928E-02
         0.26928E-02
         0.26928E-02
         0.26928E-02
         0.26928E-02
         0.26928E-02
         0.26928E-02
         0.26928E-02
         0.26928E-02
         0.26928E-02
         0.26928E-02
         0.26928E-02
         0.26928E-02
         0.26928E-02
         0.26928E-02
         0.26928E-02
         0.26928E-02
         0.26928E-02
         0.26928E-02
         0.26928E-02
         0.26928E-02
         0.26928E-02
         0.26928E-02
         0.26928E-02
         0.26928E-02
         0.26928E-02
         0.26928E-02
         0.26928E-02
         0.26928E-02
         0.26928E-02
         0.26928E-02
         0.26928E-02
         0.26928E-02
         0.26928E-02
         0.26928E-02
         0.26928E-02
         0.26928E-02
         0.26928E-02
         0.26928E-02
         0.26928E-02
         0.26928E-02
         0.26928E-02
         0.26928E-02
         0.26928E-02
         0.26928E-02
         0.26928E-02
         0.26928E-02
         0.26928E-02
         0.26928E-02
         0.26928E-02
         0.26928E-02
  
SCALARS                   nodal_volume  double 1
LOOKUP_TABLE default
         0.91140E-09
         0.72412E-09
         0.77574E-09
         0.13316E-08
         0.45570E-09
         0.36211E-09
         0.38787E-09
         0.66566E-09
         0.71537E-09
         0.91211E-09
         0.35767E-09
         0.45600E-09
         0.51195E-09
         0.61532E-09
         0.25605E-09
         0.30776E-09
         0.10101E-08
         0.74536E-09
         0.50500E-09
         0.37281E-09
         0.30273E-09
         0.57012E-09
         0.62699E-09
         0.15144E-09
         0.28509E-09
         0.31352E-09
         0.51329E-09
         0.64933E-09
         0.25683E-09
         0.32471E-09
         0.12026E-08
         0.93909E-09
         0.11935E-08
         0.60122E-09
         0.46945E-09
         0.59663E-09
         0.70296E-09
         0.80270E-09
         0.35149E-09
         0.40134E-09
         0.75859E-09
         0.84013E-09
         0.37932E-09
         0.42007E-09
         0.64542E-09
         0.40086E-09
         0.32274E-09
         0.20045E-09
         0.76288E-09
         0.38153E-09
         0.63346E-09
         0.31675E-09
         0.66583E-09
         0.33318E-09
         0.68008E-09
         0.34022E-09
         0.58930E-09
         0.71738E-09
         0.29472E-09
         0.35874E-09
         0.90938E-09
         0.64302E-09
         0.45469E-09
         0.32154E-09
         0.10152E-08
         0.50747E-09
         0.88120E-09
         0.44042E-09
         0.40077E-09
         0.61872E-09
         0.20039E-09
         0.30940E-09
         0.70206E-09
         0.35106E-09
         0.74172E-09
         0.37089E-09
         0.71539E-09
         0.35770E-09
         0.56226E-09
         0.28113E-09
         0.35349E-09
         0.58452E-09
         0.17675E-09
         0.29229E-09
         0.77354E-09
         0.38679E-09
         0.62469E-09
         0.31238E-09
         0.54957E-09
         0.27483E-09
         0.36009E-09
         0.61365E-09
         0.18007E-09
         0.30685E-09
         0.83268E-09
         0.41635E-09
         0.87287E-09
         0.43642E-09
         0.70438E-09
         0.35217E-09
         0.43365E-09
         0.74413E-09
         0.21683E-09
         0.37198E-09
         0.27660E-09
         0.35144E-09
         0.13833E-09
         0.17573E-09
         0.32921E-09
         0.16465E-09
         0.38764E-09
         0.19382E-09
         0.37797E-09
         0.18897E-09
         0.36707E-09
         0.18352E-09
         0.39112E-09
         0.19552E-09
         0.41268E-09
         0.20627E-09
         0.38876E-09
         0.19433E-09
         0.30402E-09
         0.15200E-09
         0.24796E-09
         0.12398E-09
         0.31999E-09
         0.16000E-09
         0.42608E-09
         0.21303E-09
         0.46805E-09
         0.23401E-09
         0.44933E-09
         0.22466E-09
         0.40550E-09
         0.20276E-09
         0.36826E-09
         0.18414E-09
         0.29911E-09
         0.14956E-09
         0.25178E-09
         0.12591E-09
         0.32888E-09
         0.16445E-09
         0.43529E-09
         0.21765E-09
         0.44963E-09
         0.22482E-09
         0.36384E-09
         0.18194E-09
         0.29543E-09
         0.14774E-09
         0.36126E-09
         0.18063E-09
         0.42771E-09
         0.21386E-09
         0.91143E-09
         0.72396E-09
         0.77579E-09
         0.13322E-08
         0.71547E-09
         0.91237E-09
         0.51167E-09
         0.61494E-09
         0.10105E-08
         0.74486E-09
         0.30244E-09
         0.57001E-09
         0.62694E-09
         0.51257E-09
         0.64918E-09
         0.12029E-08
         0.93950E-09
         0.11941E-08
         0.70298E-09
         0.80279E-09
         0.75855E-09
         0.84015E-09
         0.64535E-09
         0.40081E-09
         0.76254E-09
         0.63339E-09
         0.66483E-09
         0.67941E-09
         0.58904E-09
         0.71721E-09
         0.90946E-09
         0.64293E-09
         0.10157E-08
         0.88199E-09
         0.40076E-09
         0.61859E-09
         0.70195E-09
         0.74166E-09
         0.71543E-09
         0.56228E-09
         0.35349E-09
         0.58443E-09
         0.77349E-09
         0.62459E-09
         0.54943E-09
         0.35999E-09
         0.61359E-09
         0.83268E-09
         0.87299E-09
         0.70451E-09
         0.43366E-09
         0.74449E-09
         0.27651E-09
         0.35143E-09
         0.32904E-09
         0.38765E-09
         0.37805E-09
         0.36714E-09
         0.39129E-09
         0.41297E-09
         0.38899E-09
         0.30408E-09
         0.24798E-09
         0.31999E-09
         0.42613E-09
         0.46815E-09
         0.44938E-09
         0.40548E-09
         0.36823E-09
         0.29908E-09
         0.25174E-09
         0.32885E-09
         0.43527E-09
         0.44962E-09
         0.36376E-09
         0.29536E-09
         0.36130E-09
         0.42769E-09
         0.91151E-09
         0.72383E-09
         0.77587E-09
         0.13329E-08
         0.71560E-09
         0.91267E-09
         0.51142E-09
         0.61459E-09
         0.10109E-08
         0.74439E-09
         0.30216E-09
         0.56992E-09
         0.62691E-09
         0.51187E-09
         0.64906E-09
         0.12033E-08
         0.93995E-09
         0.11947E-08
         0.70302E-09
         0.80291E-09
         0.75853E-09
         0.84020E-09
         0.64530E-09
         0.40078E-09
         0.76223E-09
         0.63335E-09
         0.66385E-09
         0.67875E-09
         0.58880E-09
         0.71706E-09
         0.90957E-09
         0.64286E-09
         0.10162E-08
         0.88281E-09
         0.40076E-09
         0.61849E-09
         0.70188E-09
         0.74162E-09
         0.71550E-09
         0.56232E-09
         0.35350E-09
         0.58436E-09
         0.77347E-09
         0.62452E-09
         0.54931E-09
         0.35990E-09
         0.61355E-09
         0.83270E-09
         0.87315E-09
         0.70467E-09
         0.43368E-09
         0.74487E-09
         0.27643E-09
         0.35143E-09
         0.32889E-09
         0.38767E-09
         0.37814E-09
         0.36723E-09
         0.39147E-09
         0.41328E-09
         0.38923E-09
         0.30416E-09
         0.24800E-09
         0.32001E-09
         0.42620E-09
         0.46826E-09
         0.44944E-09
         0.40548E-09
         0.36821E-09
         0.29906E-09
         0.25171E-09
         0.32883E-09
         0.43527E-09
         0.44963E-09
         0.36369E-09
         0.29530E-09
         0.36135E-09
         0.42769E-09
         0.91156E-09
         0.72368E-09
         0.77594E-09
         0.13335E-08
         0.71571E-09
         0.91295E-09
         0.51115E-09
         0.61422E-09
         0.10112E-08
         0.74389E-09
         0.30187E-09
         0.56982E-09
         0.62686E-09
         0.51116E-09
         0.64892E-09
         0.12036E-08
         0.94038E-09
         0.11953E-08
         0.70304E-09
         0.80300E-09
         0.75850E-09
         0.84023E-09
         0.64523E-09
         0.40073E-09
         0.76190E-09
         0.63330E-09
         0.66285E-09
         0.67809E-09
         0.58855E-09
         0.71689E-09
         0.90966E-09
         0.64278E-09
         0.10168E-08
         0.88361E-09
         0.40076E-09
         0.61837E-09
         0.70178E-09
         0.74156E-09
         0.71554E-09
         0.56234E-09
         0.35350E-09
         0.58428E-09
         0.77343E-09
         0.62442E-09
         0.54918E-09
         0.35981E-09
         0.61349E-09
         0.83271E-09
         0.87328E-09
         0.70481E-09
         0.43369E-09
         0.74524E-09
         0.27634E-09
         0.35142E-09
         0.32873E-09
         0.38768E-09
         0.37823E-09
         0.36731E-09
         0.39163E-09
         0.41358E-09
         0.38945E-09
         0.30422E-09
         0.24802E-09
         0.32001E-09
         0.42625E-09
         0.46837E-09
         0.44949E-09
         0.40546E-09
         0.36819E-09
         0.29904E-09
         0.25167E-09
         0.32881E-09
         0.43526E-09
         0.44963E-09
         0.36362E-09
         0.29523E-09
         0.36139E-09
         0.42768E-09
         0.91161E-09
         0.72353E-09
         0.77600E-09
         0.13341E-08
         0.71583E-09
         0.91323E-09
         0.51088E-09
         0.61386E-09
         0.10116E-08
         0.74341E-09
         0.30158E-09
         0.56972E-09
         0.62682E-09
         0.51045E-09
         0.64879E-09
         0.12040E-08
         0.94081E-09
         0.11959E-08
         0.70307E-09
         0.80310E-09
         0.75847E-09
         0.84027E-09
         0.64517E-09
         0.40069E-09
         0.76158E-09
         0.63325E-09
         0.66186E-09
         0.67742E-09
         0.58831E-09
         0.71673E-09
         0.90975E-09
         0.64270E-09
         0.10173E-08
         0.88441E-09
         0.40075E-09
         0.61825E-09
         0.70169E-09
         0.74151E-09
         0.71559E-09
         0.56237E-09
         0.35350E-09
         0.58420E-09
         0.77339E-09
         0.62433E-09
         0.54905E-09
         0.35972E-09
         0.61344E-09
         0.83272E-09
         0.87341E-09
         0.70496E-09
         0.43370E-09
         0.74562E-09
         0.27626E-09
         0.35142E-09
         0.32857E-09
         0.38770E-09
         0.37832E-09
         0.36739E-09
         0.39181E-09
         0.41387E-09
         0.38968E-09
         0.30429E-09
         0.24804E-09
         0.32002E-09
         0.42631E-09
         0.46847E-09
         0.44954E-09
         0.40545E-09
         0.36816E-09
         0.29901E-09
         0.25163E-09
         0.32878E-09
         0.43525E-09
         0.44963E-09
         0.36354E-09
         0.29517E-09
         0.36144E-09
         0.42766E-09
         0.91167E-09
         0.72338E-09
         0.77607E-09
         0.13348E-08
         0.71594E-09
         0.91351E-09
         0.51062E-09
         0.61349E-09
         0.10119E-08
         0.74292E-09
         0.30129E-09
         0.56962E-09
         0.62678E-09
         0.50974E-09
         0.64865E-09
         0.12044E-08
         0.94125E-09
         0.11965E-08
         0.70310E-09
         0.80321E-09
         0.75844E-09
         0.84031E-09
         0.64511E-09
         0.40065E-09
         0.76125E-09
         0.63320E-09
         0.66087E-09
         0.67676E-09
         0.58806E-09
         0.71657E-09
         0.90984E-09
         0.64263E-09
         0.10179E-08
         0.88522E-09
         0.40075E-09
         0.61813E-09
         0.70160E-09
         0.74146E-09
         0.71564E-09
         0.56240E-09
         0.35350E-09
         0.58412E-09
         0.77336E-09
         0.62425E-09
         0.54892E-09
         0.35963E-09
         0.61339E-09
         0.83274E-09
         0.87355E-09
         0.70511E-09
         0.43371E-09
         0.74599E-09
         0.27618E-09
         0.35141E-09
         0.32841E-09
         0.38771E-09
         0.37841E-09
         0.36747E-09
         0.39198E-09
         0.41417E-09
         0.38992E-09
         0.30436E-09
         0.24806E-09
         0.32003E-09
         0.42637E-09
         0.46858E-09
         0.44960E-09
         0.40544E-09
         0.36814E-09
         0.29899E-09
         0.25159E-09
         0.32876E-09
         0.43525E-09
         0.44963E-09
         0.36347E-09
         0.29511E-09
         0.36148E-09
         0.42766E-09
         0.91171E-09
         0.72323E-09
         0.77613E-09
         0.13354E-08
         0.71606E-09
         0.91379E-09
         0.51035E-09
         0.61313E-09
         0.10123E-08
         0.74243E-09
         0.30101E-09
         0.56952E-09
         0.62674E-09
         0.50903E-09
         0.64851E-09
         0.12047E-08
         0.94167E-09
         0.11971E-08
         0.70312E-09
         0.80331E-09
         0.75840E-09
         0.84034E-09
         0.64504E-09
         0.40061E-09
         0.76092E-09
         0.63314E-09
         0.65988E-09
         0.67609E-09
         0.58781E-09
         0.71641E-09
         0.90993E-09
         0.64255E-09
         0.10184E-08
         0.88601E-09
         0.40075E-09
         0.61801E-09
         0.70151E-09
         0.74140E-09
         0.71569E-09
         0.56243E-09
         0.35350E-09
         0.58404E-09
         0.77332E-09
         0.62416E-09
         0.54879E-09
         0.35953E-09
         0.61334E-09
         0.83274E-09
         0.87368E-09
         0.70525E-09
         0.43372E-09
         0.74636E-09
         0.27609E-09
         0.35141E-09
         0.32825E-09
         0.38772E-09
         0.37849E-09
         0.36754E-09
         0.39215E-09
         0.41447E-09
         0.39014E-09
         0.30443E-09
         0.24808E-09
         0.32004E-09
         0.42642E-09
         0.46868E-09
         0.44965E-09
         0.40543E-09
         0.36812E-09
         0.29897E-09
         0.25155E-09
         0.32874E-09
         0.43524E-09
         0.44963E-09
         0.36340E-09
         0.29504E-09
         0.36153E-09
         0.42764E-09
         0.91176E-09
         0.72308E-09
         0.77620E-09
         0.13360E-08
         0.71617E-09
         0.91407E-09
         0.51008E-09
         0.61276E-09
         0.10126E-08
         0.74195E-09
         0.30072E-09
         0.56942E-09
         0.62670E-09
         0.50832E-09
         0.64838E-09
         0.12051E-08
         0.94210E-09
         0.11977E-08
         0.70314E-09
         0.80341E-09
         0.75837E-09
         0.84038E-09
         0.64498E-09
         0.40056E-09
         0.76060E-09
         0.63309E-09
         0.65888E-09
         0.67542E-09
         0.58756E-09
         0.71624E-09
         0.91002E-09
         0.64247E-09
         0.10189E-08
         0.88682E-09
         0.40074E-09
         0.61790E-09
         0.70142E-09
         0.74135E-09
         0.71574E-09
         0.56245E-09
         0.35351E-09
         0.58396E-09
         0.77328E-09
         0.62407E-09
         0.54866E-09
         0.35944E-09
         0.61329E-09
         0.83275E-09
         0.87382E-09
         0.70539E-09
         0.43373E-09
         0.74673E-09
         0.27601E-09
         0.35140E-09
         0.32809E-09
         0.38774E-09
         0.37858E-09
         0.36762E-09
         0.39232E-09
         0.41477E-09
         0.39037E-09
         0.30450E-09
         0.24810E-09
         0.32005E-09
         0.42648E-09
         0.46879E-09
         0.44970E-09
         0.40541E-09
         0.36809E-09
         0.29894E-09
         0.25151E-09
         0.32871E-09
         0.43523E-09
         0.44963E-09
         0.36333E-09
         0.29497E-09
         0.36157E-09
         0.42763E-09
         0.91182E-09
         0.72293E-09
         0.77627E-09
         0.13367E-08
         0.71629E-09
         0.91436E-09
         0.50982E-09
         0.61240E-09
         0.10130E-08
         0.74146E-09
         0.30043E-09
         0.56932E-09
         0.62666E-09
         0.50762E-09
         0.64825E-09
         0.12054E-08
         0.94253E-09
         0.11983E-08
         0.70317E-09
         0.80351E-09
         0.75834E-09
         0.84041E-09
         0.64491E-09
         0.40053E-09
         0.76028E-09
         0.63304E-09
         0.65790E-09
         0.67476E-09
         0.58731E-09
         0.71609E-09
         0.91012E-09
         0.64239E-09
         0.10195E-08
         0.88762E-09
         0.40074E-09
         0.61778E-09
         0.70133E-09
         0.74130E-09
         0.71579E-09
         0.56249E-09
         0.35351E-09
         0.58388E-09
         0.77324E-09
         0.62398E-09
         0.54853E-09
         0.35935E-09
         0.61324E-09
         0.83277E-09
         0.87396E-09
         0.70554E-09
         0.43375E-09
         0.74711E-09
         0.27592E-09
         0.35140E-09
         0.32793E-09
         0.38775E-09
         0.37867E-09
         0.36770E-09
         0.39249E-09
         0.41507E-09
         0.39061E-09
         0.30457E-09
         0.24812E-09
         0.32006E-09
         0.42654E-09
         0.46890E-09
         0.44975E-09
         0.40540E-09
         0.36807E-09
         0.29892E-09
         0.25148E-09
         0.32869E-09
         0.43522E-09
         0.44963E-09
         0.36325E-09
         0.29491E-09
         0.36162E-09
         0.42762E-09
         0.91187E-09
         0.72278E-09
         0.77633E-09
         0.13373E-08
         0.71640E-09
         0.91463E-09
         0.50955E-09
         0.61204E-09
         0.10134E-08
         0.74098E-09
         0.30015E-09
         0.56922E-09
         0.62662E-09
         0.50691E-09
         0.64811E-09
         0.12058E-08
         0.94296E-09
         0.11989E-08
         0.70320E-09
         0.80361E-09
         0.75831E-09
         0.84045E-09
         0.64485E-09
         0.40048E-09
         0.75995E-09
         0.63298E-09
         0.65690E-09
         0.67409E-09
         0.58706E-09
         0.71592E-09
         0.91020E-09
         0.64231E-09
         0.10200E-08
         0.88843E-09
         0.40074E-09
         0.61766E-09
         0.70124E-09
         0.74124E-09
         0.71584E-09
         0.56251E-09
         0.35351E-09
         0.58380E-09
         0.77320E-09
         0.62389E-09
         0.54840E-09
         0.35926E-09
         0.61318E-09
         0.83277E-09
         0.87409E-09
         0.70568E-09
         0.43376E-09
         0.74748E-09
         0.27584E-09
         0.35139E-09
         0.32777E-09
         0.38777E-09
         0.37876E-09
         0.36778E-09
         0.39266E-09
         0.41536E-09
         0.39084E-09
         0.30464E-09
         0.24814E-09
         0.32006E-09
         0.42659E-09
         0.46900E-09
         0.44980E-09
         0.40539E-09
         0.36805E-09
         0.29890E-09
         0.25144E-09
         0.32867E-09
         0.43521E-09
         0.44963E-09
         0.36318E-09
         0.29485E-09
         0.36166E-09
         0.42761E-09
         0.91192E-09
         0.72263E-09
         0.77640E-09
         0.13380E-08
         0.71652E-09
         0.91491E-09
         0.50928E-09
         0.61167E-09
         0.10137E-08
         0.74049E-09
         0.29986E-09
         0.56912E-09
         0.62657E-09
         0.50620E-09
         0.64797E-09
         0.12061E-08
         0.94339E-09
         0.11995E-08
         0.70322E-09
         0.80371E-09
         0.75827E-09
         0.84048E-09
         0.64478E-09
         0.40044E-09
         0.75962E-09
         0.63293E-09
         0.65591E-09
         0.67343E-09
         0.58681E-09
         0.71576E-09
         0.91029E-09
         0.64223E-09
         0.10205E-08
         0.88923E-09
         0.40073E-09
         0.61754E-09
         0.70114E-09
         0.74119E-09
         0.71588E-09
         0.56254E-09
         0.35351E-09
         0.58372E-09
         0.77316E-09
         0.62380E-09
         0.54827E-09
         0.35917E-09
         0.61313E-09
         0.83278E-09
         0.87422E-09
         0.70582E-09
         0.43377E-09
         0.74785E-09
         0.27575E-09
         0.35138E-09
         0.32761E-09
         0.38778E-09
         0.37885E-09
         0.36786E-09
         0.39283E-09
         0.41566E-09
         0.39107E-09
         0.30470E-09
         0.24816E-09
         0.32007E-09
         0.42665E-09
         0.46911E-09
         0.44985E-09
         0.40538E-09
         0.36802E-09
         0.29887E-09
         0.25140E-09
         0.32864E-09
         0.43520E-09
         0.44963E-09
         0.36310E-09
         0.29478E-09
         0.36170E-09
         0.42760E-09
         0.91198E-09
         0.72248E-09
         0.77646E-09
         0.13386E-08
         0.71663E-09
         0.91520E-09
         0.50901E-09
         0.61131E-09
         0.10141E-08
         0.74000E-09
         0.29957E-09
         0.56902E-09
         0.62653E-09
         0.50549E-09
         0.64784E-09
         0.12065E-08
         0.94382E-09
         0.12002E-08
         0.70325E-09
         0.80381E-09
         0.75824E-09
         0.84052E-09
         0.64472E-09
         0.40040E-09
         0.75929E-09
         0.63288E-09
         0.65492E-09
         0.67276E-09
         0.58657E-09
         0.71560E-09
         0.91038E-09
         0.64216E-09
         0.10211E-08
         0.89003E-09
         0.40073E-09
         0.61742E-09
         0.70105E-09
         0.74114E-09
         0.71593E-09
         0.56257E-09
         0.35351E-09
         0.58364E-09
         0.77313E-09
         0.62371E-09
         0.54814E-09
         0.35908E-09
         0.61308E-09
         0.83280E-09
         0.87436E-09
         0.70597E-09
         0.43378E-09
         0.74823E-09
         0.27567E-09
         0.35138E-09
         0.32745E-09
         0.38779E-09
         0.37893E-09
         0.36794E-09
         0.39300E-09
         0.41596E-09
         0.39130E-09
         0.30477E-09
         0.24818E-09
         0.32008E-09
         0.42671E-09
         0.46921E-09
         0.44991E-09
         0.40537E-09
         0.36800E-09
         0.29885E-09
         0.25136E-09
         0.32862E-09
         0.43520E-09
         0.44963E-09
         0.36303E-09
         0.29472E-09
         0.36175E-09
         0.42759E-09
         0.91203E-09
         0.72233E-09
         0.77653E-09
         0.13392E-08
         0.71675E-09
         0.91547E-09
         0.50875E-09
         0.61094E-09
         0.10144E-08
         0.73952E-09
         0.29928E-09
         0.56892E-09
         0.62649E-09
         0.50478E-09
         0.64770E-09
         0.12068E-08
         0.94424E-09
         0.12008E-08
         0.70327E-09
         0.80391E-09
         0.75821E-09
         0.84055E-09
         0.64465E-09
         0.40035E-09
         0.75896E-09
         0.63282E-09
         0.65393E-09
         0.67210E-09
         0.58632E-09
         0.71543E-09
         0.91047E-09
         0.64208E-09
         0.10216E-08
         0.89084E-09
         0.40073E-09
         0.61730E-09
         0.70096E-09
         0.74108E-09
         0.71598E-09
         0.56259E-09
         0.35351E-09
         0.58356E-09
         0.77309E-09
         0.62362E-09
         0.54801E-09
         0.35898E-09
         0.61303E-09
         0.83281E-09
         0.87449E-09
         0.70611E-09
         0.43379E-09
         0.74860E-09
         0.27558E-09
         0.35137E-09
         0.32729E-09
         0.38781E-09
         0.37902E-09
         0.36802E-09
         0.39317E-09
         0.41625E-09
         0.39153E-09
         0.30484E-09
         0.24820E-09
         0.32009E-09
         0.42677E-09
         0.46932E-09
         0.44996E-09
         0.40536E-09
         0.36798E-09
         0.29883E-09
         0.25132E-09
         0.32859E-09
         0.43519E-09
         0.44963E-09
         0.36296E-09
         0.29465E-09
         0.36179E-09
         0.42758E-09
         0.91208E-09
         0.72218E-09
         0.77659E-09
         0.13399E-08
         0.71686E-09
         0.91576E-09
         0.50848E-09
         0.61058E-09
         0.10148E-08
         0.73903E-09
         0.29900E-09
         0.56882E-09
         0.62645E-09
         0.50408E-09
         0.64757E-09
         0.12072E-08
         0.94467E-09
         0.12014E-08
         0.70330E-09
         0.80401E-09
         0.75818E-09
         0.84059E-09
         0.64459E-09
         0.40031E-09
         0.75864E-09
         0.63277E-09
         0.65294E-09
         0.67143E-09
         0.58607E-09
         0.71527E-09
         0.91057E-09
         0.64200E-09
         0.10221E-08
         0.89164E-09
         0.40072E-09
         0.61719E-09
         0.70087E-09
         0.74103E-09
         0.71603E-09
         0.56262E-09
         0.35352E-09
         0.58348E-09
         0.77305E-09
         0.62354E-09
         0.54788E-09
         0.35889E-09
         0.61298E-09
         0.83282E-09
         0.87463E-09
         0.70626E-09
         0.43380E-09
         0.74897E-09
         0.27550E-09
         0.35137E-09
         0.32713E-09
         0.38782E-09
         0.37911E-09
         0.36810E-09
         0.39334E-09
         0.41655E-09
         0.39176E-09
         0.30491E-09
         0.24822E-09
         0.32010E-09
         0.42682E-09
         0.46942E-09
         0.45001E-09
         0.40534E-09
         0.36796E-09
         0.29881E-09
         0.25128E-09
         0.32857E-09
         0.43518E-09
         0.44963E-09
         0.36288E-09
         0.29459E-09
         0.36184E-09
         0.42757E-09
         0.91214E-09
         0.72204E-09
         0.77666E-09
         0.13405E-08
         0.71698E-09
         0.91604E-09
         0.50822E-09
         0.61022E-09
         0.10151E-08
         0.73855E-09
         0.29871E-09
         0.56872E-09
         0.62641E-09
         0.50337E-09
         0.64743E-09
         0.12075E-08
         0.94510E-09
         0.12020E-08
         0.70333E-09
         0.80411E-09
         0.75815E-09
         0.84063E-09
         0.64453E-09
         0.40027E-09
         0.75831E-09
         0.63272E-09
         0.65196E-09
         0.67077E-09
         0.58582E-09
         0.71511E-09
         0.91066E-09
         0.64192E-09
         0.10227E-08
         0.89245E-09
         0.40072E-09
         0.61707E-09
         0.70078E-09
         0.74098E-09
         0.71608E-09
         0.56265E-09
         0.35352E-09
         0.58340E-09
         0.77301E-09
         0.62345E-09
         0.54775E-09
         0.35880E-09
         0.61293E-09
         0.83283E-09
         0.87476E-09
         0.70641E-09
         0.43382E-09
         0.74935E-09
         0.27541E-09
         0.35136E-09
         0.32697E-09
         0.38784E-09
         0.37920E-09
         0.36818E-09
         0.39352E-09
         0.41685E-09
         0.39199E-09
         0.30498E-09
         0.24824E-09
         0.32011E-09
         0.42688E-09
         0.46953E-09
         0.45007E-09
         0.40533E-09
         0.36793E-09
         0.29878E-09
         0.25124E-09
         0.32855E-09
         0.43517E-09
         0.44963E-09
         0.36281E-09
         0.29452E-09
         0.36188E-09
         0.42756E-09
         0.91219E-09
         0.72188E-09
         0.77672E-09
         0.13412E-08
         0.71709E-09
         0.91632E-09
         0.50795E-09
         0.60986E-09
         0.10155E-08
         0.73806E-09
         0.29842E-09
         0.56862E-09
         0.62636E-09
         0.50266E-09
         0.64730E-09
         0.12079E-08
         0.94552E-09
         0.12026E-08
         0.70335E-09
         0.80421E-09
         0.75811E-09
         0.84066E-09
         0.64446E-09
         0.40023E-09
         0.75798E-09
         0.63267E-09
         0.65096E-09
         0.67010E-09
         0.58557E-09
         0.71494E-09
         0.91074E-09
         0.64184E-09
         0.10232E-08
         0.89325E-09
         0.40072E-09
         0.61695E-09
         0.70069E-09
         0.74092E-09
         0.71612E-09
         0.56268E-09
         0.35352E-09
         0.58332E-09
         0.77297E-09
         0.62336E-09
         0.54762E-09
         0.35871E-09
         0.61287E-09
         0.83284E-09
         0.87489E-09
         0.70655E-09
         0.43383E-09
         0.74972E-09
         0.27533E-09
         0.35136E-09
         0.32681E-09
         0.38785E-09
         0.37929E-09
         0.36825E-09
         0.39369E-09
         0.41715E-09
         0.39222E-09
         0.30505E-09
         0.24826E-09
         0.32011E-09
         0.42694E-09
         0.46963E-09
         0.45011E-09
         0.40532E-09
         0.36791E-09
         0.29876E-09
         0.25120E-09
         0.32853E-09
         0.43516E-09
         0.44962E-09
         0.36274E-09
         0.29445E-09
         0.36192E-09
         0.42755E-09
         0.91224E-09
         0.72173E-09
         0.77679E-09
         0.13418E-08
         0.71720E-09
         0.91660E-09
         0.50768E-09
         0.60949E-09
         0.10158E-08
         0.73758E-09
         0.29814E-09
         0.56852E-09
         0.62632E-09
         0.50195E-09
         0.64716E-09
         0.12082E-08
         0.94595E-09
         0.12032E-08
         0.70337E-09
         0.80431E-09
         0.75808E-09
         0.84069E-09
         0.64440E-09
         0.40018E-09
         0.75766E-09
         0.63262E-09
         0.64998E-09
         0.66943E-09
         0.58532E-09
         0.71478E-09
         0.91083E-09
         0.64176E-09
         0.10238E-08
         0.89406E-09
         0.40071E-09
         0.61683E-09
         0.70059E-09
         0.74087E-09
         0.71617E-09
         0.56270E-09
         0.35352E-09
         0.58324E-09
         0.77294E-09
         0.62327E-09
         0.54749E-09
         0.35861E-09
         0.61282E-09
         0.83284E-09
         0.87503E-09
         0.70669E-09
         0.43384E-09
         0.75009E-09
         0.27524E-09
         0.35135E-09
         0.32665E-09
         0.38786E-09
         0.37937E-09
         0.36833E-09
         0.39386E-09
         0.41745E-09
         0.39245E-09
         0.30512E-09
         0.24828E-09
         0.32012E-09
         0.42699E-09
         0.46974E-09
         0.45017E-09
         0.40531E-09
         0.36788E-09
         0.29873E-09
         0.25117E-09
         0.32850E-09
         0.43515E-09
         0.44962E-09
         0.36266E-09
         0.29439E-09
         0.36197E-09
         0.42754E-09
         0.91230E-09
         0.72159E-09
         0.77686E-09
         0.13425E-08
         0.71732E-09
         0.91688E-09
         0.50742E-09
         0.60913E-09
         0.10162E-08
         0.73710E-09
         0.29785E-09
         0.56842E-09
         0.62628E-09
         0.50125E-09
         0.64703E-09
         0.12086E-08
         0.94638E-09
         0.12038E-08
         0.70340E-09
         0.80441E-09
         0.75805E-09
         0.84073E-09
         0.64433E-09
         0.40014E-09
         0.75733E-09
         0.63257E-09
         0.64899E-09
         0.66877E-09
         0.58508E-09
         0.71462E-09
         0.91093E-09
         0.64169E-09
         0.10243E-08
         0.89487E-09
         0.40071E-09
         0.61671E-09
         0.70051E-09
         0.74082E-09
         0.71622E-09
         0.56273E-09
         0.35352E-09
         0.58316E-09
         0.77290E-09
         0.62318E-09
         0.54737E-09
         0.35852E-09
         0.61277E-09
         0.83286E-09
         0.87517E-09
         0.70684E-09
         0.43385E-09
         0.75047E-09
         0.27516E-09
         0.35135E-09
         0.32649E-09
         0.38788E-09
         0.37946E-09
         0.36841E-09
         0.39403E-09
         0.41775E-09
         0.39268E-09
         0.30519E-09
         0.24830E-09
         0.32013E-09
         0.42705E-09
         0.46985E-09
         0.45022E-09
         0.40530E-09
         0.36786E-09
         0.29871E-09
         0.25113E-09
         0.32848E-09
         0.43515E-09
         0.44962E-09
         0.36259E-09
         0.29433E-09
         0.36201E-09
         0.42753E-09
         0.91235E-09
         0.72143E-09
         0.77692E-09
         0.13431E-08
         0.71743E-09
         0.91716E-09
         0.50715E-09
         0.60877E-09
         0.10165E-08
         0.73661E-09
         0.29757E-09
         0.56832E-09
         0.62624E-09
         0.50054E-09
         0.64689E-09
         0.12089E-08
         0.94680E-09
         0.12044E-08
         0.70342E-09
         0.80450E-09
         0.75802E-09
         0.84076E-09
         0.64427E-09
         0.40010E-09
         0.75700E-09
         0.63251E-09
         0.64800E-09
         0.66810E-09
         0.58482E-09
         0.71445E-09
         0.91101E-09
         0.64161E-09
         0.10248E-08
         0.89567E-09
         0.40071E-09
         0.61659E-09
         0.70041E-09
         0.74077E-09
         0.71627E-09
         0.56276E-09
         0.35352E-09
         0.58308E-09
         0.77286E-09
         0.62309E-09
         0.54723E-09
         0.35843E-09
         0.61272E-09
         0.83287E-09
         0.87530E-09
         0.70698E-09
         0.43386E-09
         0.75084E-09
         0.27507E-09
         0.35134E-09
         0.32633E-09
         0.38789E-09
         0.37955E-09
         0.36849E-09
         0.39420E-09
         0.41804E-09
         0.39291E-09
         0.30525E-09
         0.24832E-09
         0.32014E-09
         0.42711E-09
         0.46995E-09
         0.45027E-09
         0.40528E-09
         0.36784E-09
         0.29869E-09
         0.25109E-09
         0.32845E-09
         0.43514E-09
         0.44962E-09
         0.36252E-09
         0.29426E-09
         0.36206E-09
         0.42751E-09
         0.91240E-09
         0.72128E-09
         0.77698E-09
         0.13437E-08
         0.71755E-09
         0.91744E-09
         0.50688E-09
         0.60841E-09
         0.10169E-08
         0.73612E-09
         0.29728E-09
         0.56822E-09
         0.62619E-09
         0.49984E-09
         0.64676E-09
         0.12093E-08
         0.94723E-09
         0.12050E-08
         0.70345E-09
         0.80460E-09
         0.75798E-09
         0.84080E-09
         0.64420E-09
         0.40006E-09
         0.75667E-09
         0.63246E-09
         0.64701E-09
         0.66744E-09
         0.58457E-09
         0.71429E-09
         0.91110E-09
         0.64153E-09
         0.10254E-08
         0.89648E-09
         0.40070E-09
         0.61647E-09
         0.70032E-09
         0.74071E-09
         0.71632E-09
         0.56279E-09
         0.35353E-09
         0.58300E-09
         0.77282E-09
         0.62300E-09
         0.54710E-09
         0.35834E-09
         0.61266E-09
         0.83288E-09
         0.87543E-09
         0.70713E-09
         0.43387E-09
         0.75122E-09
         0.27499E-09
         0.35133E-09
         0.32617E-09
         0.38790E-09
         0.37964E-09
         0.36857E-09
         0.39437E-09
         0.41834E-09
         0.39314E-09
         0.30532E-09
         0.24834E-09
         0.32014E-09
         0.42716E-09
         0.47005E-09
         0.45032E-09
         0.40527E-09
         0.36781E-09
         0.29866E-09
         0.25105E-09
         0.32843E-09
         0.43513E-09
         0.44962E-09
         0.36244E-09
         0.29419E-09
         0.36210E-09
         0.42750E-09
         0.91246E-09
         0.72114E-09
         0.77705E-09
         0.13444E-08
         0.71767E-09
         0.91773E-09
         0.50662E-09
         0.60805E-09
         0.10173E-08
         0.73564E-09
         0.29700E-09
         0.56812E-09
         0.62616E-09
         0.49914E-09
         0.64663E-09
         0.12097E-08
         0.94766E-09
         0.12056E-08
         0.70348E-09
         0.80471E-09
         0.75796E-09
         0.84084E-09
         0.64414E-09
         0.40002E-09
         0.75635E-09
         0.63241E-09
         0.64603E-09
         0.66678E-09
         0.58433E-09
         0.71413E-09
         0.91120E-09
         0.64146E-09
         0.10259E-08
         0.89729E-09
         0.40070E-09
         0.61636E-09
         0.70023E-09
         0.74067E-09
         0.71637E-09
         0.56282E-09
         0.35353E-09
         0.58293E-09
         0.77279E-09
         0.62291E-09
         0.54698E-09
         0.35825E-09
         0.61261E-09
         0.83289E-09
         0.87557E-09
         0.70728E-09
         0.43389E-09
         0.75160E-09
         0.27491E-09
         0.35133E-09
         0.32601E-09
         0.38792E-09
         0.37972E-09
         0.36865E-09
         0.39454E-09
         0.41864E-09
         0.39337E-09
         0.30539E-09
         0.24836E-09
         0.32015E-09
         0.42722E-09
         0.47016E-09
         0.45038E-09
         0.40526E-09
         0.36779E-09
         0.29864E-09
         0.25101E-09
         0.32841E-09
         0.43512E-09
         0.44962E-09
         0.36237E-09
         0.29413E-09
         0.36215E-09
         0.42750E-09
         0.91249E-09
         0.72097E-09
         0.77710E-09
         0.13450E-08
         0.71777E-09
         0.91799E-09
         0.50634E-09
         0.60767E-09
         0.10176E-08
         0.73514E-09
         0.29670E-09
         0.56801E-09
         0.62610E-09
         0.49842E-09
         0.64648E-09
         0.12100E-08
         0.94806E-09
         0.12062E-08
         0.70349E-09
         0.80479E-09
         0.75791E-09
         0.84086E-09
         0.64406E-09
         0.39997E-09
         0.75600E-09
         0.63234E-09
         0.64503E-09
         0.66610E-09
         0.58407E-09
         0.71395E-09
         0.91127E-09
         0.64136E-09
         0.10264E-08
         0.89808E-09
         0.40069E-09
         0.61622E-09
         0.70012E-09
         0.74060E-09
         0.71641E-09
         0.56283E-09
         0.35352E-09
         0.58283E-09
         0.77273E-09
         0.62281E-09
         0.54684E-09
         0.35815E-09
         0.61255E-09
         0.83288E-09
         0.87569E-09
         0.70741E-09
         0.43389E-09
         0.75195E-09
         0.27482E-09
         0.35132E-09
         0.32584E-09
         0.38793E-09
         0.37980E-09
         0.36872E-09
         0.39470E-09
         0.41893E-09
         0.39360E-09
         0.30545E-09
         0.24837E-09
         0.32016E-09
         0.42727E-09
         0.47026E-09
         0.45042E-09
         0.40524E-09
         0.36776E-09
         0.29861E-09
         0.25097E-09
         0.32838E-09
         0.43510E-09
         0.44961E-09
         0.36229E-09
         0.29406E-09
         0.36218E-09
         0.42748E-09
         0.91256E-09
         0.72083E-09
         0.77718E-09
         0.13457E-08
         0.71789E-09
         0.91829E-09
         0.50608E-09
         0.60732E-09
         0.10180E-08
         0.73467E-09
         0.29642E-09
         0.56792E-09
         0.62607E-09
         0.49772E-09
         0.64636E-09
         0.12103E-08
         0.94850E-09
         0.12068E-08
         0.70352E-09
         0.80490E-09
         0.75789E-09
         0.84091E-09
         0.64401E-09
         0.39993E-09
         0.75569E-09
         0.63230E-09
         0.64405E-09
         0.66544E-09
         0.58382E-09
         0.71379E-09
         0.91137E-09
         0.64129E-09
         0.10270E-08
         0.89890E-09
         0.40069E-09
         0.61611E-09
         0.70004E-09
         0.74056E-09
         0.71646E-09
         0.56287E-09
         0.35353E-09
         0.58276E-09
         0.77271E-09
         0.62273E-09
         0.54672E-09
         0.35806E-09
         0.61251E-09
         0.83291E-09
         0.87583E-09
         0.70756E-09
         0.43391E-09
         0.75234E-09
         0.27474E-09
         0.35132E-09
         0.32569E-09
         0.38794E-09
         0.37990E-09
         0.36881E-09
         0.39488E-09
         0.41923E-09
         0.39383E-09
         0.30553E-09
         0.24840E-09
         0.32017E-09
         0.42734E-09
         0.47037E-09
         0.45048E-09
         0.40524E-09
         0.36774E-09
         0.29859E-09
         0.25093E-09
         0.32836E-09
         0.43510E-09
         0.44962E-09
         0.36222E-09
         0.29400E-09
         0.36223E-09
         0.42747E-09
         0.45631E-09
         0.36039E-09
         0.38862E-09
         0.67302E-09
         0.35899E-09
         0.45923E-09
         0.25298E-09
         0.30358E-09
         0.50909E-09
         0.36723E-09
         0.14815E-09
         0.28394E-09
         0.31303E-09
         0.24869E-09
         0.32316E-09
         0.60528E-09
         0.47437E-09
         0.60357E-09
         0.35178E-09
         0.40249E-09
         0.37895E-09
         0.42048E-09
         0.32200E-09
         0.19996E-09
         0.37777E-09
         0.31615E-09
         0.32179E-09
         0.33257E-09
         0.29186E-09
         0.35687E-09
         0.45572E-09
         0.32064E-09
         0.51365E-09
         0.44967E-09
         0.20035E-09
         0.30804E-09
         0.35001E-09
         0.37028E-09
         0.35826E-09
         0.28145E-09
         0.17677E-09
         0.29137E-09
         0.38636E-09
         0.31135E-09
         0.27333E-09
         0.17901E-09
         0.30625E-09
         0.41647E-09
         0.43797E-09
         0.35383E-09
         0.21697E-09
         0.37628E-09
         0.13735E-09
         0.17566E-09
         0.16281E-09
         0.19398E-09
         0.18998E-09
         0.18443E-09
         0.19749E-09
         0.20970E-09
         0.19698E-09
         0.15279E-09
         0.12421E-09
         0.16009E-09
         0.21369E-09
         0.23522E-09
         0.22526E-09
         0.20262E-09
         0.18387E-09
         0.14930E-09
         0.12546E-09
         0.16418E-09
         0.21756E-09
         0.22482E-09
         0.18110E-09
         0.14699E-09
         0.18113E-09
         0.21374E-09
  
SCALARS               pre_disp_force_x  double 1
LOOKUP_TABLE default
         0.00000E+00
         0.00000E+00
         0.00000E+00
         0.00000E+00
         0.00000E+00
         0.00000E+00
         0.00000E+00
         0.00000E+00
         0.00000E+00
         0.00000E+00
         0.00000E+00
         0.00000E+00
         0.00000E+00
         0.00000E+00
         0.00000E+00
         0.00000E+00
         0.00000E+00
         0.00000E+00
         0.00000E+00
         0.00000E+00
         0.00000E+00
         0.00000E+00
         0.00000E+00
         0.00000E+00
         0.00000E+00
         0.00000E+00
         0.00000E+00
         0.00000E+00
         0.00000E+00
         0.00000E+00
         0.00000E+00
         0.00000E+00
         0.00000E+00
         0.00000E+00
         0.00000E+00
         0.00000E+00
         0.00000E+00
         0.00000E+00
         0.00000E+00
         0.00000E+00
         0.00000E+00
         0.00000E+00
         0.00000E+00
         0.00000E+00
         0.00000E+00
         0.00000E+00
         0.00000E+00
         0.00000E+00
         0.00000E+00
         0.00000E+00
         0.00000E+00
         0.00000E+00
         0.00000E+00
         0.00000E+00
         0.00000E+00
         0.00000E+00
         0.00000E+00
         0.00000E+00
         0.00000E+00
         0.00000E+00
         0.00000E+00
         0.00000E+00
         0.00000E+00
         0.00000E+00
         0.00000E+00
         0.00000E+00
         0.00000E+00
         0.00000E+00
         0.00000E+00
         0.00000E+00
         0.00000E+00
         0.00000E+00
         0.00000E+00
         0.00000E+00
         0.00000E+00
         0.00000E+00
         0.00000E+00
         0.00000E+00
         0.00000E+00
         0.00000E+00
         0.00000E+00
         0.00000E+00
         0.00000E+00
         0.00000E+00
         0.00000E+00
         0.00000E+00
         0.00000E+00
         0.00000E+00
         0.00000E+00
         0.00000E+00
         0.00000E+00
         0.00000E+00
         0.00000E+00
         0.00000E+00
         0.00000E+00
         0.00000E+00
         0.00000E+00
         0.00000E+00
         0.00000E+00
         0.00000E+00
         0.00000E+00
         0.00000E+00
         0.00000E+00
         0.00000E+00
         0.00000E+00
         0.00000E+00
         0.00000E+00
         0.00000E+00
         0.00000E+00
         0.00000E+00
         0.00000E+00
         0.00000E+00
         0.00000E+00
         0.00000E+00
         0.00000E+00
         0.00000E+00
         0.00000E+00
         0.00000E+00
         0.00000E+00
         0.00000E+00
         0.00000E+00
         0.00000E+00
         0.00000E+00
         0.00000E+00
         0.00000E+00
         0.00000E+00
         0.00000E+00
         0.00000E+00
         0.00000E+00
         0.00000E+00
         0.00000E+00
         0.00000E+00
         0.00000E+00
         0.00000E+00
         0.00000E+00
         0.00000E+00
         0.00000E+00
         0.00000E+00
         0.00000E+00
         0.00000E+00
         0.00000E+00
         0.00000E+00
         0.00000E+00
         0.00000E+00
         0.00000E+00
         0.00000E+00
         0.00000E+00
         0.00000E+00
         0.00000E+00
         0.00000E+00
         0.00000E+00
         0.00000E+00
         0.00000E+00
         0.00000E+00
         0.00000E+00
         0.00000E+00
         0.00000E+00
         0.00000E+00
         0.00000E+00
         0.00000E+00
         0.00000E+00
         0.00000E+00
         0.00000E+00
         0.00000E+00
         0.00000E+00
         0.00000E+00
         0.00000E+00
         0.00000E+00
         0.00000E+00
         0.00000E+00
         0.00000E+00
         0.00000E+00
         0.00000E+00
         0.00000E+00
         0.00000E+00
         0.00000E+00
         0.00000E+00
         0.00000E+00
         0.00000E+00
         0.00000E+00
         0.00000E+00
         0.00000E+00
         0.00000E+00
         0.00000E+00
         0.00000E+00
         0.00000E+00
         0.00000E+00
         0.00000E+00
         0.00000E+00
         0.00000E+00
         0.00000E+00
         0.00000E+00
         0.00000E+00
         0.00000E+00
         0.00000E+00
         0.00000E+00
         0.00000E+00
         0.00000E+00
         0.00000E+00
         0.00000E+00
         0.00000E+00
         0.00000E+00
         0.00000E+00
         0.00000E+00
         0.00000E+00
         0.00000E+00
         0.00000E+00
         0.00000E+00
         0.00000E+00
         0.00000E+00
         0.00000E+00
         0.00000E+00
         0.00000E+00
         0.00000E+00
         0.00000E+00
         0.00000E+00
         0.00000E+00
         0.00000E+00
         0.00000E+00
         0.00000E+00
         0.00000E+00
         0.00000E+00
         0.00000E+00
         0.00000E+00
         0.00000E+00
         0.00000E+00
         0.00000E+00
         0.00000E+00
         0.00000E+00
         0.00000E+00
         0.00000E+00
         0.00000E+00
         0.00000E+00
         0.00000E+00
         0.00000E+00
         0.00000E+00
         0.00000E+00
         0.00000E+00
         0.00000E+00
         0.00000E+00
         0.00000E+00
         0.00000E+00
         0.00000E+00
         0.00000E+00
         0.00000E+00
         0.00000E+00
         0.00000E+00
         0.00000E+00
         0.00000E+00
         0.00000E+00
         0.00000E+00
         0.00000E+00
         0.00000E+00
         0.00000E+00
         0.00000E+00
         0.00000E+00
         0.00000E+00
         0.00000E+00
         0.00000E+00
         0.00000E+00
         0.00000E+00
         0.00000E+00
         0.00000E+00
         0.00000E+00
         0.00000E+00
         0.00000E+00
         0.00000E+00
         0.00000E+00
         0.00000E+00
         0.00000E+00
         0.00000E+00
         0.00000E+00
         0.00000E+00
         0.00000E+00
         0.00000E+00
         0.00000E+00
         0.00000E+00
         0.00000E+00
         0.00000E+00
         0.00000E+00
         0.00000E+00
         0.00000E+00
         0.00000E+00
         0.00000E+00
         0.00000E+00
         0.00000E+00
         0.00000E+00
         0.00000E+00
         0.00000E+00
         0.00000E+00
         0.00000E+00
         0.00000E+00
         0.00000E+00
         0.00000E+00
         0.00000E+00
         0.00000E+00
         0.00000E+00
         0.00000E+00
         0.00000E+00
         0.00000E+00
         0.00000E+00
         0.00000E+00
         0.00000E+00
         0.00000E+00
         0.00000E+00
         0.00000E+00
         0.00000E+00
         0.00000E+00
         0.00000E+00
         0.00000E+00
         0.00000E+00
         0.00000E+00
         0.00000E+00
         0.00000E+00
         0.00000E+00
         0.00000E+00
         0.00000E+00
         0.00000E+00
         0.00000E+00
         0.00000E+00
         0.00000E+00
         0.00000E+00
         0.00000E+00
         0.00000E+00
         0.00000E+00
         0.00000E+00
         0.00000E+00
         0.00000E+00
         0.00000E+00
         0.00000E+00
         0.00000E+00
         0.00000E+00
         0.00000E+00
         0.00000E+00
         0.00000E+00
         0.00000E+00
         0.00000E+00
         0.00000E+00
         0.00000E+00
         0.00000E+00
         0.00000E+00
         0.00000E+00
         0.00000E+00
         0.00000E+00
         0.00000E+00
         0.00000E+00
         0.00000E+00
         0.00000E+00
         0.00000E+00
         0.00000E+00
         0.00000E+00
         0.00000E+00
         0.00000E+00
         0.00000E+00
         0.00000E+00
         0.00000E+00
         0.00000E+00
         0.00000E+00
         0.00000E+00
         0.00000E+00
         0.00000E+00
         0.00000E+00
         0.00000E+00
         0.00000E+00
         0.00000E+00
         0.00000E+00
         0.00000E+00
         0.00000E+00
         0.00000E+00
         0.00000E+00
         0.00000E+00
         0.00000E+00
         0.00000E+00
         0.00000E+00
         0.00000E+00
         0.00000E+00
         0.00000E+00
         0.00000E+00
         0.00000E+00
         0.00000E+00
         0.00000E+00
         0.00000E+00
         0.00000E+00
         0.00000E+00
         0.00000E+00
         0.00000E+00
         0.00000E+00
         0.00000E+00
         0.00000E+00
         0.00000E+00
         0.00000E+00
         0.00000E+00
         0.00000E+00
         0.00000E+00
         0.00000E+00
         0.00000E+00
         0.00000E+00
         0.00000E+00
         0.00000E+00
         0.00000E+00
         0.00000E+00
         0.00000E+00
         0.00000E+00
         0.00000E+00
         0.00000E+00
         0.00000E+00
         0.00000E+00
         0.00000E+00
         0.00000E+00
         0.00000E+00
         0.00000E+00
         0.00000E+00
         0.00000E+00
         0.00000E+00
         0.00000E+00
         0.00000E+00
         0.00000E+00
         0.00000E+00
         0.00000E+00
         0.00000E+00
         0.00000E+00
         0.00000E+00
         0.00000E+00
         0.00000E+00
         0.00000E+00
         0.00000E+00
         0.00000E+00
         0.00000E+00
         0.00000E+00
         0.00000E+00
         0.00000E+00
         0.00000E+00
         0.00000E+00
         0.00000E+00
         0.00000E+00
         0.00000E+00
         0.00000E+00
         0.00000E+00
         0.00000E+00
         0.00000E+00
         0.00000E+00
         0.00000E+00
         0.00000E+00
         0.00000E+00
         0.00000E+00
         0.00000E+00
         0.00000E+00
         0.00000E+00
         0.00000E+00
         0.00000E+00
         0.00000E+00
         0.00000E+00
         0.00000E+00
         0.00000E+00
         0.00000E+00
         0.00000E+00
         0.00000E+00
         0.00000E+00
         0.00000E+00
         0.00000E+00
         0.00000E+00
         0.00000E+00
         0.00000E+00
         0.00000E+00
         0.00000E+00
         0.00000E+00
         0.00000E+00
         0.00000E+00
         0.00000E+00
         0.00000E+00
         0.00000E+00
         0.00000E+00
         0.00000E+00
         0.00000E+00
         0.00000E+00
         0.00000E+00
         0.00000E+00
         0.00000E+00
         0.00000E+00
         0.00000E+00
         0.00000E+00
         0.00000E+00
         0.00000E+00
         0.00000E+00
         0.00000E+00
         0.00000E+00
         0.00000E+00
         0.00000E+00
         0.00000E+00
         0.00000E+00
         0.00000E+00
         0.00000E+00
         0.00000E+00
         0.00000E+00
         0.00000E+00
         0.00000E+00
         0.00000E+00
         0.00000E+00
         0.00000E+00
         0.00000E+00
         0.00000E+00
         0.00000E+00
         0.00000E+00
         0.00000E+00
         0.00000E+00
         0.00000E+00
         0.00000E+00
         0.00000E+00
         0.00000E+00
         0.00000E+00
         0.00000E+00
         0.00000E+00
         0.00000E+00
         0.00000E+00
         0.00000E+00
         0.00000E+00
         0.00000E+00
         0.00000E+00
         0.00000E+00
         0.00000E+00
         0.00000E+00
         0.00000E+00
         0.00000E+00
         0.00000E+00
         0.00000E+00
         0.00000E+00
         0.00000E+00
         0.00000E+00
         0.00000E+00
         0.00000E+00
         0.00000E+00
         0.00000E+00
         0.00000E+00
         0.00000E+00
         0.00000E+00
         0.00000E+00
         0.00000E+00
         0.00000E+00
         0.00000E+00
         0.00000E+00
         0.00000E+00
         0.00000E+00
         0.00000E+00
         0.00000E+00
         0.00000E+00
         0.00000E+00
         0.00000E+00
         0.00000E+00
         0.00000E+00
         0.00000E+00
         0.00000E+00
         0.00000E+00
         0.00000E+00
         0.00000E+00
         0.00000E+00
         0.00000E+00
         0.00000E+00
         0.00000E+00
         0.00000E+00
         0.00000E+00
         0.00000E+00
         0.00000E+00
         0.00000E+00
         0.00000E+00
         0.00000E+00
         0.00000E+00
         0.00000E+00
         0.00000E+00
         0.00000E+00
         0.00000E+00
         0.00000E+00
         0.00000E+00
         0.00000E+00
         0.00000E+00
         0.00000E+00
         0.00000E+00
         0.00000E+00
         0.00000E+00
         0.00000E+00
         0.00000E+00
         0.00000E+00
         0.00000E+00
         0.00000E+00
         0.00000E+00
         0.00000E+00
         0.00000E+00
         0.00000E+00
         0.00000E+00
         0.00000E+00
         0.00000E+00
         0.00000E+00
         0.00000E+00
         0.00000E+00
         0.00000E+00
         0.00000E+00
         0.00000E+00
         0.00000E+00
         0.00000E+00
         0.00000E+00
         0.00000E+00
         0.00000E+00
         0.00000E+00
         0.00000E+00
         0.00000E+00
         0.00000E+00
         0.00000E+00
         0.00000E+00
         0.00000E+00
         0.00000E+00
         0.00000E+00
         0.00000E+00
         0.00000E+00
         0.00000E+00
         0.00000E+00
         0.00000E+00
         0.00000E+00
         0.00000E+00
         0.00000E+00
         0.00000E+00
         0.00000E+00
         0.00000E+00
         0.00000E+00
         0.00000E+00
         0.00000E+00
         0.00000E+00
         0.00000E+00
         0.00000E+00
         0.00000E+00
         0.00000E+00
         0.00000E+00
         0.00000E+00
         0.00000E+00
         0.00000E+00
         0.00000E+00
         0.00000E+00
         0.00000E+00
         0.00000E+00
         0.00000E+00
         0.00000E+00
         0.00000E+00
         0.00000E+00
         0.00000E+00
         0.00000E+00
         0.00000E+00
         0.00000E+00
         0.00000E+00
         0.00000E+00
         0.00000E+00
         0.00000E+00
         0.00000E+00
         0.00000E+00
         0.00000E+00
         0.00000E+00
         0.00000E+00
         0.00000E+00
         0.00000E+00
         0.00000E+00
         0.00000E+00
         0.00000E+00
         0.00000E+00
         0.00000E+00
         0.00000E+00
         0.00000E+00
         0.00000E+00
         0.00000E+00
         0.00000E+00
         0.00000E+00
         0.00000E+00
         0.00000E+00
         0.00000E+00
         0.00000E+00
         0.00000E+00
         0.00000E+00
         0.00000E+00
         0.00000E+00
         0.00000E+00
         0.00000E+00
         0.00000E+00
         0.00000E+00
         0.00000E+00
         0.00000E+00
         0.00000E+00
         0.00000E+00
         0.00000E+00
         0.00000E+00
         0.00000E+00
         0.00000E+00
         0.00000E+00
         0.00000E+00
         0.00000E+00
         0.00000E+00
         0.00000E+00
         0.00000E+00
         0.00000E+00
         0.00000E+00
         0.00000E+00
         0.00000E+00
         0.00000E+00
         0.00000E+00
         0.00000E+00
         0.00000E+00
         0.00000E+00
         0.00000E+00
         0.00000E+00
         0.00000E+00
         0.00000E+00
         0.00000E+00
         0.00000E+00
         0.00000E+00
         0.00000E+00
         0.00000E+00
         0.00000E+00
         0.00000E+00
         0.00000E+00
         0.00000E+00
         0.00000E+00
         0.00000E+00
         0.00000E+00
         0.00000E+00
         0.00000E+00
         0.00000E+00
         0.00000E+00
         0.00000E+00
         0.00000E+00
         0.00000E+00
         0.00000E+00
         0.00000E+00
         0.00000E+00
         0.00000E+00
         0.00000E+00
         0.00000E+00
         0.00000E+00
         0.00000E+00
         0.00000E+00
         0.00000E+00
         0.00000E+00
         0.00000E+00
         0.00000E+00
         0.00000E+00
         0.00000E+00
         0.00000E+00
         0.00000E+00
         0.00000E+00
         0.00000E+00
         0.00000E+00
         0.00000E+00
         0.00000E+00
         0.00000E+00
         0.00000E+00
         0.00000E+00
         0.00000E+00
         0.00000E+00
         0.00000E+00
         0.00000E+00
         0.00000E+00
         0.00000E+00
         0.00000E+00
         0.00000E+00
         0.00000E+00
         0.00000E+00
         0.00000E+00
         0.00000E+00
         0.00000E+00
         0.00000E+00
         0.00000E+00
         0.00000E+00
         0.00000E+00
         0.00000E+00
         0.00000E+00
         0.00000E+00
         0.00000E+00
         0.00000E+00
         0.00000E+00
         0.00000E+00
         0.00000E+00
         0.00000E+00
         0.00000E+00
         0.00000E+00
         0.00000E+00
         0.00000E+00
         0.00000E+00
         0.00000E+00
         0.00000E+00
         0.00000E+00
         0.00000E+00
         0.00000E+00
         0.00000E+00
         0.00000E+00
         0.00000E+00
         0.00000E+00
         0.00000E+00
         0.00000E+00
         0.00000E+00
         0.00000E+00
         0.00000E+00
         0.00000E+00
         0.00000E+00
         0.00000E+00
         0.00000E+00
         0.00000E+00
         0.00000E+00
         0.00000E+00
         0.00000E+00
         0.00000E+00
         0.00000E+00
         0.00000E+00
         0.00000E+00
         0.00000E+00
         0.00000E+00
         0.00000E+00
         0.00000E+00
         0.00000E+00
         0.00000E+00
         0.00000E+00
         0.00000E+00
         0.00000E+00
         0.00000E+00
         0.00000E+00
         0.00000E+00
         0.00000E+00
         0.00000E+00
         0.00000E+00
         0.00000E+00
         0.00000E+00
         0.00000E+00
         0.00000E+00
         0.00000E+00
         0.00000E+00
         0.00000E+00
         0.00000E+00
         0.00000E+00
         0.00000E+00
         0.00000E+00
         0.00000E+00
         0.00000E+00
         0.00000E+00
         0.00000E+00
         0.00000E+00
         0.00000E+00
         0.00000E+00
         0.00000E+00
         0.00000E+00
         0.00000E+00
         0.00000E+00
         0.00000E+00
         0.00000E+00
         0.00000E+00
         0.00000E+00
         0.00000E+00
         0.00000E+00
         0.00000E+00
         0.00000E+00
         0.00000E+00
         0.00000E+00
         0.00000E+00
         0.00000E+00
         0.00000E+00
         0.00000E+00
         0.00000E+00
         0.00000E+00
         0.00000E+00
         0.00000E+00
         0.00000E+00
         0.00000E+00
         0.00000E+00
         0.00000E+00
         0.00000E+00
         0.00000E+00
         0.00000E+00
         0.00000E+00
         0.00000E+00
         0.00000E+00
         0.00000E+00
         0.00000E+00
         0.00000E+00
         0.00000E+00
         0.00000E+00
         0.00000E+00
         0.00000E+00
         0.00000E+00
         0.00000E+00
         0.00000E+00
         0.00000E+00
         0.00000E+00
         0.00000E+00
         0.00000E+00
         0.00000E+00
         0.00000E+00
         0.00000E+00
         0.00000E+00
         0.00000E+00
         0.00000E+00
         0.00000E+00
         0.00000E+00
         0.00000E+00
         0.00000E+00
         0.00000E+00
         0.00000E+00
         0.00000E+00
         0.00000E+00
         0.00000E+00
         0.00000E+00
         0.00000E+00
         0.00000E+00
         0.00000E+00
         0.00000E+00
         0.00000E+00
         0.00000E+00
         0.00000E+00
         0.00000E+00
         0.00000E+00
         0.00000E+00
         0.00000E+00
         0.00000E+00
         0.00000E+00
         0.00000E+00
         0.00000E+00
         0.00000E+00
         0.00000E+00
         0.00000E+00
         0.00000E+00
         0.00000E+00
         0.00000E+00
         0.00000E+00
         0.00000E+00
         0.00000E+00
         0.00000E+00
         0.00000E+00
         0.00000E+00
         0.00000E+00
         0.00000E+00
         0.00000E+00
         0.00000E+00
         0.00000E+00
         0.00000E+00
         0.00000E+00
         0.00000E+00
         0.00000E+00
         0.00000E+00
         0.00000E+00
         0.00000E+00
         0.00000E+00
         0.00000E+00
         0.00000E+00
         0.00000E+00
         0.00000E+00
         0.00000E+00
         0.00000E+00
         0.00000E+00
         0.00000E+00
         0.00000E+00
         0.00000E+00
         0.00000E+00
         0.00000E+00
         0.00000E+00
         0.00000E+00
         0.00000E+00
         0.00000E+00
         0.00000E+00
         0.00000E+00
         0.00000E+00
         0.00000E+00
         0.00000E+00
         0.00000E+00
         0.00000E+00
         0.00000E+00
         0.00000E+00
         0.00000E+00
         0.00000E+00
         0.00000E+00
         0.00000E+00
         0.00000E+00
         0.00000E+00
         0.00000E+00
         0.00000E+00
         0.00000E+00
         0.00000E+00
         0.00000E+00
         0.00000E+00
         0.00000E+00
         0.00000E+00
         0.00000E+00
         0.00000E+00
         0.00000E+00
         0.00000E+00
         0.00000E+00
         0.00000E+00
         0.00000E+00
         0.00000E+00
         0.00000E+00
         0.00000E+00
         0.00000E+00
         0.00000E+00
         0.00000E+00
         0.00000E+00
         0.00000E+00
         0.00000E+00
         0.00000E+00
         0.00000E+00
         0.00000E+00
         0.00000E+00
         0.00000E+00
         0.00000E+00
         0.00000E+00
         0.00000E+00
         0.00000E+00
         0.00000E+00
         0.00000E+00
         0.00000E+00
         0.00000E+00
         0.00000E+00
         0.00000E+00
         0.00000E+00
         0.00000E+00
         0.00000E+00
         0.00000E+00
         0.00000E+00
         0.00000E+00
         0.00000E+00
         0.00000E+00
         0.00000E+00
         0.00000E+00
         0.00000E+00
         0.00000E+00
         0.00000E+00
         0.00000E+00
         0.00000E+00
         0.00000E+00
         0.00000E+00
         0.00000E+00
         0.00000E+00
         0.00000E+00
         0.00000E+00
         0.00000E+00
         0.00000E+00
         0.00000E+00
         0.00000E+00
         0.00000E+00
         0.00000E+00
         0.00000E+00
         0.00000E+00
         0.00000E+00
         0.00000E+00
         0.00000E+00
         0.00000E+00
         0.00000E+00
         0.00000E+00
         0.00000E+00
         0.00000E+00
         0.00000E+00
         0.00000E+00
         0.00000E+00
         0.00000E+00
         0.00000E+00
         0.00000E+00
         0.00000E+00
         0.00000E+00
         0.00000E+00
         0.00000E+00
         0.00000E+00
         0.00000E+00
         0.00000E+00
         0.00000E+00
         0.00000E+00
         0.00000E+00
         0.00000E+00
         0.00000E+00
         0.00000E+00
         0.00000E+00
         0.00000E+00
         0.00000E+00
         0.00000E+00
         0.00000E+00
         0.00000E+00
         0.00000E+00
         0.00000E+00
         0.00000E+00
         0.00000E+00
         0.00000E+00
         0.00000E+00
         0.00000E+00
         0.00000E+00
         0.00000E+00
         0.00000E+00
         0.00000E+00
         0.00000E+00
         0.00000E+00
         0.00000E+00
         0.00000E+00
         0.00000E+00
         0.00000E+00
         0.00000E+00
         0.00000E+00
         0.00000E+00
         0.00000E+00
         0.00000E+00
         0.00000E+00
         0.00000E+00
         0.00000E+00
         0.00000E+00
         0.00000E+00
         0.00000E+00
         0.00000E+00
         0.00000E+00
         0.00000E+00
         0.00000E+00
         0.00000E+00
         0.00000E+00
         0.00000E+00
         0.00000E+00
         0.00000E+00
         0.00000E+00
         0.00000E+00
         0.00000E+00
         0.00000E+00
         0.00000E+00
         0.00000E+00
         0.00000E+00
         0.00000E+00
         0.00000E+00
         0.00000E+00
         0.00000E+00
         0.00000E+00
         0.00000E+00
         0.00000E+00
         0.00000E+00
         0.00000E+00
         0.00000E+00
         0.00000E+00
         0.00000E+00
         0.00000E+00
         0.00000E+00
         0.00000E+00
         0.00000E+00
         0.00000E+00
         0.00000E+00
         0.00000E+00
         0.00000E+00
         0.00000E+00
         0.00000E+00
         0.00000E+00
         0.00000E+00
         0.00000E+00
         0.00000E+00
         0.00000E+00
         0.00000E+00
         0.00000E+00
         0.00000E+00
         0.00000E+00
         0.00000E+00
         0.00000E+00
         0.00000E+00
         0.00000E+00
         0.00000E+00
         0.00000E+00
         0.00000E+00
         0.00000E+00
         0.00000E+00
         0.00000E+00
         0.00000E+00
         0.00000E+00
         0.00000E+00
         0.00000E+00
         0.00000E+00
         0.00000E+00
         0.00000E+00
         0.00000E+00
         0.00000E+00
         0.00000E+00
         0.00000E+00
         0.00000E+00
         0.00000E+00
         0.00000E+00
         0.00000E+00
         0.00000E+00
         0.00000E+00
         0.00000E+00
         0.00000E+00
         0.00000E+00
         0.00000E+00
         0.00000E+00
         0.00000E+00
         0.00000E+00
         0.00000E+00
         0.00000E+00
         0.00000E+00
         0.00000E+00
         0.00000E+00
         0.00000E+00
         0.00000E+00
         0.00000E+00
         0.00000E+00
         0.00000E+00
         0.00000E+00
         0.00000E+00
         0.00000E+00
         0.00000E+00
         0.00000E+00
         0.00000E+00
         0.00000E+00
         0.00000E+00
         0.00000E+00
         0.00000E+00
         0.00000E+00
         0.00000E+00
         0.00000E+00
         0.00000E+00
         0.00000E+00
         0.00000E+00
         0.00000E+00
         0.00000E+00
         0.00000E+00
         0.00000E+00
         0.00000E+00
         0.00000E+00
         0.00000E+00
         0.00000E+00
         0.00000E+00
         0.00000E+00
         0.00000E+00
         0.00000E+00
         0.00000E+00
         0.00000E+00
         0.00000E+00
         0.00000E+00
         0.00000E+00
         0.00000E+00
         0.00000E+00
         0.00000E+00
         0.00000E+00
         0.00000E+00
         0.00000E+00
         0.00000E+00
         0.00000E+00
         0.00000E+00
         0.00000E+00
         0.00000E+00
         0.00000E+00
         0.00000E+00
         0.00000E+00
         0.00000E+00
         0.00000E+00
         0.00000E+00
         0.00000E+00
         0.00000E+00
         0.00000E+00
         0.00000E+00
         0.00000E+00
         0.00000E+00
         0.00000E+00
         0.00000E+00
         0.00000E+00
         0.00000E+00
         0.00000E+00
         0.00000E+00
         0.00000E+00
         0.00000E+00
         0.00000E+00
         0.00000E+00
         0.00000E+00
         0.00000E+00
         0.00000E+00
         0.00000E+00
         0.00000E+00
         0.00000E+00
         0.00000E+00
         0.00000E+00
         0.00000E+00
         0.00000E+00
         0.00000E+00
         0.00000E+00
         0.00000E+00
         0.00000E+00
         0.00000E+00
         0.00000E+00
         0.00000E+00
         0.00000E+00
         0.00000E+00
         0.00000E+00
         0.00000E+00
         0.00000E+00
         0.00000E+00
         0.00000E+00
         0.00000E+00
         0.00000E+00
         0.00000E+00
         0.00000E+00
         0.00000E+00
         0.00000E+00
         0.00000E+00
         0.00000E+00
         0.00000E+00
         0.00000E+00
         0.00000E+00
         0.00000E+00
         0.00000E+00
         0.00000E+00
         0.00000E+00
         0.00000E+00
         0.00000E+00
         0.00000E+00
         0.00000E+00
         0.00000E+00
         0.00000E+00
         0.00000E+00
         0.00000E+00
         0.00000E+00
         0.00000E+00
         0.00000E+00
         0.00000E+00
         0.00000E+00
         0.00000E+00
         0.00000E+00
         0.00000E+00
         0.00000E+00
         0.00000E+00
         0.00000E+00
         0.00000E+00
         0.00000E+00
         0.00000E+00
         0.00000E+00
         0.00000E+00
         0.00000E+00
         0.00000E+00
         0.00000E+00
         0.00000E+00
         0.00000E+00
         0.00000E+00
         0.00000E+00
         0.00000E+00
         0.00000E+00
         0.00000E+00
         0.00000E+00
         0.00000E+00
         0.00000E+00
         0.00000E+00
         0.00000E+00
         0.00000E+00
         0.00000E+00
         0.00000E+00
         0.00000E+00
         0.00000E+00
         0.00000E+00
         0.00000E+00
         0.00000E+00
         0.00000E+00
         0.00000E+00
         0.00000E+00
         0.00000E+00
         0.00000E+00
         0.00000E+00
         0.00000E+00
         0.00000E+00
         0.00000E+00
         0.00000E+00
         0.00000E+00
         0.00000E+00
         0.00000E+00
         0.00000E+00
         0.00000E+00
         0.00000E+00
         0.00000E+00
         0.00000E+00
         0.00000E+00
         0.00000E+00
         0.00000E+00
         0.00000E+00
         0.00000E+00
         0.00000E+00
         0.00000E+00
         0.00000E+00
         0.00000E+00
         0.00000E+00
         0.00000E+00
         0.00000E+00
         0.00000E+00
         0.00000E+00
         0.00000E+00
         0.00000E+00
         0.00000E+00
         0.00000E+00
         0.00000E+00
         0.00000E+00
         0.00000E+00
         0.00000E+00
         0.00000E+00
         0.00000E+00
         0.00000E+00
         0.00000E+00
         0.00000E+00
         0.00000E+00
         0.00000E+00
         0.00000E+00
         0.00000E+00
         0.00000E+00
         0.00000E+00
         0.00000E+00
         0.00000E+00
         0.00000E+00
         0.00000E+00
         0.00000E+00
         0.00000E+00
         0.00000E+00
         0.00000E+00
         0.00000E+00
         0.00000E+00
         0.00000E+00
         0.00000E+00
         0.00000E+00
         0.00000E+00
         0.00000E+00
         0.00000E+00
         0.00000E+00
         0.00000E+00
         0.00000E+00
         0.00000E+00
         0.00000E+00
         0.00000E+00
         0.00000E+00
         0.00000E+00
         0.00000E+00
         0.00000E+00
         0.00000E+00
         0.00000E+00
         0.00000E+00
         0.00000E+00
         0.00000E+00
         0.00000E+00
         0.00000E+00
         0.00000E+00
         0.00000E+00
         0.00000E+00
         0.00000E+00
         0.00000E+00
         0.00000E+00
         0.00000E+00
         0.00000E+00
         0.00000E+00
         0.00000E+00
         0.00000E+00
         0.00000E+00
         0.00000E+00
         0.00000E+00
         0.00000E+00
         0.00000E+00
         0.00000E+00
         0.00000E+00
         0.00000E+00
         0.00000E+00
         0.00000E+00
         0.00000E+00
         0.00000E+00
         0.00000E+00
         0.00000E+00
         0.00000E+00
         0.00000E+00
         0.00000E+00
         0.00000E+00
         0.00000E+00
         0.00000E+00
         0.00000E+00
         0.00000E+00
         0.00000E+00
         0.00000E+00
         0.00000E+00
         0.00000E+00
         0.00000E+00
         0.00000E+00
         0.00000E+00
         0.00000E+00
         0.00000E+00
         0.00000E+00
         0.00000E+00
         0.00000E+00
         0.00000E+00
         0.00000E+00
         0.00000E+00
         0.00000E+00
         0.00000E+00
         0.00000E+00
         0.00000E+00
         0.00000E+00
         0.00000E+00
         0.00000E+00
         0.00000E+00
         0.00000E+00
         0.00000E+00
         0.00000E+00
         0.00000E+00
         0.00000E+00
         0.00000E+00
         0.00000E+00
         0.00000E+00
         0.00000E+00
         0.00000E+00
         0.00000E+00
         0.00000E+00
         0.00000E+00
         0.00000E+00
         0.00000E+00
         0.00000E+00
         0.00000E+00
         0.00000E+00
         0.00000E+00
         0.00000E+00
         0.00000E+00
         0.00000E+00
         0.00000E+00
         0.00000E+00
         0.00000E+00
         0.00000E+00
         0.00000E+00
         0.00000E+00
         0.00000E+00
         0.00000E+00
         0.00000E+00
         0.00000E+00
         0.00000E+00
         0.00000E+00
         0.00000E+00
         0.00000E+00
         0.00000E+00
         0.00000E+00
         0.00000E+00
         0.00000E+00
         0.00000E+00
         0.00000E+00
         0.00000E+00
         0.00000E+00
         0.00000E+00
         0.00000E+00
         0.00000E+00
         0.00000E+00
         0.00000E+00
         0.00000E+00
         0.00000E+00
         0.00000E+00
         0.00000E+00
         0.00000E+00
         0.00000E+00
         0.00000E+00
         0.00000E+00
         0.00000E+00
         0.00000E+00
         0.00000E+00
         0.00000E+00
         0.00000E+00
         0.00000E+00
         0.00000E+00
         0.00000E+00
         0.00000E+00
         0.00000E+00
         0.00000E+00
         0.00000E+00
         0.00000E+00
         0.00000E+00
         0.00000E+00
         0.00000E+00
         0.00000E+00
         0.00000E+00
         0.00000E+00
         0.00000E+00
         0.00000E+00
         0.00000E+00
         0.00000E+00
         0.00000E+00
         0.00000E+00
         0.00000E+00
         0.00000E+00
         0.00000E+00
         0.00000E+00
         0.00000E+00
         0.00000E+00
         0.00000E+00
         0.00000E+00
         0.00000E+00
         0.00000E+00
         0.00000E+00
         0.00000E+00
         0.00000E+00
         0.00000E+00
         0.00000E+00
         0.00000E+00
         0.00000E+00
         0.00000E+00
         0.00000E+00
         0.00000E+00
         0.00000E+00
         0.00000E+00
         0.00000E+00
         0.00000E+00
         0.00000E+00
         0.00000E+00
         0.00000E+00
         0.00000E+00
         0.00000E+00
         0.00000E+00
         0.00000E+00
         0.00000E+00
         0.00000E+00
         0.00000E+00
         0.00000E+00
         0.00000E+00
         0.00000E+00
         0.00000E+00
         0.00000E+00
         0.00000E+00
         0.00000E+00
         0.00000E+00
         0.00000E+00
         0.00000E+00
         0.00000E+00
         0.00000E+00
         0.00000E+00
         0.00000E+00
         0.00000E+00
         0.00000E+00
         0.00000E+00
         0.00000E+00
         0.00000E+00
         0.00000E+00
         0.00000E+00
         0.00000E+00
         0.00000E+00
         0.00000E+00
         0.00000E+00
         0.00000E+00
         0.00000E+00
         0.00000E+00
         0.00000E+00
         0.00000E+00
         0.00000E+00
         0.00000E+00
         0.00000E+00
         0.00000E+00
         0.00000E+00
         0.00000E+00
         0.00000E+00
         0.00000E+00
         0.00000E+00
         0.00000E+00
         0.00000E+00
         0.00000E+00
         0.00000E+00
         0.00000E+00
         0.00000E+00
         0.00000E+00
         0.00000E+00
         0.00000E+00
         0.00000E+00
         0.00000E+00
         0.00000E+00
         0.00000E+00
         0.00000E+00
         0.00000E+00
         0.00000E+00
         0.00000E+00
         0.00000E+00
         0.00000E+00
         0.00000E+00
         0.00000E+00
         0.00000E+00
         0.00000E+00
         0.00000E+00
         0.00000E+00
         0.00000E+00
         0.00000E+00
         0.00000E+00
         0.00000E+00
         0.00000E+00
         0.00000E+00
         0.00000E+00
         0.00000E+00
         0.00000E+00
         0.00000E+00
         0.00000E+00
         0.00000E+00
         0.00000E+00
         0.00000E+00
         0.00000E+00
         0.00000E+00
         0.00000E+00
         0.00000E+00
         0.00000E+00
         0.00000E+00
         0.00000E+00
         0.00000E+00
         0.00000E+00
         0.00000E+00
         0.00000E+00
         0.00000E+00
         0.00000E+00
         0.00000E+00
         0.00000E+00
         0.00000E+00
         0.00000E+00
         0.00000E+00
         0.00000E+00
         0.00000E+00
         0.00000E+00
         0.00000E+00
         0.00000E+00
         0.00000E+00
         0.00000E+00
         0.00000E+00
         0.00000E+00
         0.00000E+00
         0.00000E+00
         0.00000E+00
         0.00000E+00
         0.00000E+00
         0.00000E+00
         0.00000E+00
         0.00000E+00
         0.00000E+00
         0.00000E+00
         0.00000E+00
         0.00000E+00
         0.00000E+00
         0.00000E+00
         0.00000E+00
         0.00000E+00
         0.00000E+00
         0.00000E+00
         0.00000E+00
         0.00000E+00
         0.00000E+00
         0.00000E+00
         0.00000E+00
         0.00000E+00
         0.00000E+00
         0.00000E+00
         0.00000E+00
         0.00000E+00
         0.00000E+00
         0.00000E+00
         0.00000E+00
         0.00000E+00
         0.00000E+00
         0.00000E+00
         0.00000E+00
         0.00000E+00
         0.00000E+00
         0.00000E+00
         0.00000E+00
         0.00000E+00
         0.00000E+00
         0.00000E+00
         0.00000E+00
         0.00000E+00
         0.00000E+00
         0.00000E+00
         0.00000E+00
         0.00000E+00
         0.00000E+00
         0.00000E+00
         0.00000E+00
         0.00000E+00
         0.00000E+00
         0.00000E+00
         0.00000E+00
         0.00000E+00
         0.00000E+00
         0.00000E+00
         0.00000E+00
         0.00000E+00
         0.00000E+00
         0.00000E+00
         0.00000E+00
         0.00000E+00
         0.00000E+00
         0.00000E+00
         0.00000E+00
         0.00000E+00
         0.00000E+00
         0.00000E+00
         0.00000E+00
         0.00000E+00
         0.00000E+00
         0.00000E+00
         0.00000E+00
         0.00000E+00
         0.00000E+00
         0.00000E+00
         0.00000E+00
         0.00000E+00
         0.00000E+00
         0.00000E+00
         0.00000E+00
         0.00000E+00
         0.00000E+00
         0.00000E+00
         0.00000E+00
         0.00000E+00
         0.00000E+00
         0.00000E+00
         0.00000E+00
         0.00000E+00
         0.00000E+00
         0.00000E+00
         0.00000E+00
         0.00000E+00
         0.00000E+00
         0.00000E+00
         0.00000E+00
         0.00000E+00
         0.00000E+00
         0.00000E+00
         0.00000E+00
         0.00000E+00
         0.00000E+00
         0.00000E+00
         0.00000E+00
         0.00000E+00
         0.00000E+00
         0.00000E+00
         0.00000E+00
         0.00000E+00
         0.00000E+00
         0.00000E+00
         0.00000E+00
         0.00000E+00
         0.00000E+00
         0.00000E+00
         0.00000E+00
         0.00000E+00
         0.00000E+00
         0.00000E+00
         0.00000E+00
         0.00000E+00
         0.00000E+00
         0.00000E+00
         0.00000E+00
         0.00000E+00
         0.00000E+00
         0.00000E+00
         0.00000E+00
         0.00000E+00
         0.00000E+00
         0.00000E+00
         0.00000E+00
         0.00000E+00
         0.00000E+00
         0.00000E+00
         0.00000E+00
         0.00000E+00
         0.00000E+00
         0.00000E+00
         0.00000E+00
         0.00000E+00
         0.00000E+00
         0.00000E+00
         0.00000E+00
         0.00000E+00
         0.00000E+00
         0.00000E+00
         0.00000E+00
         0.00000E+00
         0.00000E+00
         0.00000E+00
         0.00000E+00
         0.00000E+00
         0.00000E+00
         0.00000E+00
         0.00000E+00
         0.00000E+00
         0.00000E+00
         0.00000E+00
         0.00000E+00
         0.00000E+00
         0.00000E+00
         0.00000E+00
         0.00000E+00
         0.00000E+00
         0.00000E+00
         0.00000E+00
         0.00000E+00
         0.00000E+00
         0.00000E+00
         0.00000E+00
         0.00000E+00
         0.00000E+00
         0.00000E+00
         0.00000E+00
         0.00000E+00
         0.00000E+00
         0.00000E+00
         0.00000E+00
         0.00000E+00
         0.00000E+00
         0.00000E+00
         0.00000E+00
         0.00000E+00
         0.00000E+00
         0.00000E+00
         0.00000E+00
         0.00000E+00
         0.00000E+00
         0.00000E+00
         0.00000E+00
         0.00000E+00
         0.00000E+00
         0.00000E+00
         0.00000E+00
         0.00000E+00
         0.00000E+00
         0.00000E+00
         0.00000E+00
         0.00000E+00
         0.00000E+00
         0.00000E+00
         0.00000E+00
         0.00000E+00
         0.00000E+00
         0.00000E+00
         0.00000E+00
         0.00000E+00
         0.00000E+00
         0.00000E+00
         0.00000E+00
         0.00000E+00
         0.00000E+00
         0.00000E+00
         0.00000E+00
         0.00000E+00
         0.00000E+00
         0.00000E+00
         0.00000E+00
         0.00000E+00
         0.00000E+00
         0.00000E+00
         0.00000E+00
         0.00000E+00
         0.00000E+00
         0.00000E+00
         0.00000E+00
         0.00000E+00
         0.00000E+00
         0.00000E+00
         0.00000E+00
         0.00000E+00
         0.00000E+00
         0.00000E+00
         0.00000E+00
         0.00000E+00
         0.00000E+00
         0.00000E+00
         0.00000E+00
         0.00000E+00
         0.00000E+00
  
SCALARS               pre_disp_force_y  double 1
LOOKUP_TABLE default
         0.00000E+00
         0.00000E+00
         0.00000E+00
         0.00000E+00
         0.00000E+00
         0.00000E+00
         0.00000E+00
         0.00000E+00
         0.00000E+00
         0.00000E+00
         0.00000E+00
         0.00000E+00
         0.00000E+00
         0.00000E+00
         0.00000E+00
         0.00000E+00
         0.00000E+00
         0.00000E+00
         0.00000E+00
         0.00000E+00
         0.00000E+00
         0.00000E+00
         0.00000E+00
         0.00000E+00
         0.00000E+00
         0.00000E+00
         0.00000E+00
         0.00000E+00
         0.00000E+00
         0.00000E+00
         0.00000E+00
         0.00000E+00
         0.00000E+00
         0.00000E+00
         0.00000E+00
         0.00000E+00
         0.00000E+00
         0.00000E+00
         0.00000E+00
         0.00000E+00
         0.00000E+00
         0.00000E+00
         0.00000E+00
         0.00000E+00
         0.00000E+00
         0.00000E+00
         0.00000E+00
         0.00000E+00
         0.00000E+00
         0.00000E+00
         0.00000E+00
         0.00000E+00
         0.00000E+00
         0.00000E+00
         0.00000E+00
         0.00000E+00
         0.00000E+00
         0.00000E+00
         0.00000E+00
         0.00000E+00
         0.00000E+00
         0.00000E+00
         0.00000E+00
         0.00000E+00
         0.00000E+00
         0.00000E+00
         0.00000E+00
         0.00000E+00
         0.00000E+00
         0.00000E+00
         0.00000E+00
         0.00000E+00
         0.00000E+00
         0.00000E+00
         0.00000E+00
         0.00000E+00
         0.00000E+00
         0.00000E+00
         0.00000E+00
         0.00000E+00
         0.00000E+00
         0.00000E+00
         0.00000E+00
         0.00000E+00
         0.00000E+00
         0.00000E+00
         0.00000E+00
         0.00000E+00
         0.00000E+00
         0.00000E+00
         0.00000E+00
         0.00000E+00
         0.00000E+00
         0.00000E+00
         0.00000E+00
         0.00000E+00
         0.00000E+00
         0.00000E+00
         0.00000E+00
         0.00000E+00
         0.00000E+00
         0.00000E+00
         0.00000E+00
         0.00000E+00
         0.00000E+00
         0.00000E+00
         0.00000E+00
         0.00000E+00
         0.00000E+00
         0.00000E+00
         0.00000E+00
         0.00000E+00
         0.00000E+00
         0.00000E+00
         0.00000E+00
         0.00000E+00
         0.00000E+00
         0.00000E+00
         0.00000E+00
         0.00000E+00
         0.00000E+00
         0.00000E+00
         0.00000E+00
         0.00000E+00
         0.00000E+00
         0.00000E+00
         0.00000E+00
         0.00000E+00
         0.00000E+00
         0.00000E+00
         0.00000E+00
         0.00000E+00
         0.00000E+00
         0.00000E+00
         0.00000E+00
         0.00000E+00
         0.00000E+00
         0.00000E+00
         0.00000E+00
         0.00000E+00
         0.00000E+00
         0.00000E+00
         0.00000E+00
         0.00000E+00
         0.00000E+00
         0.00000E+00
         0.00000E+00
         0.00000E+00
         0.00000E+00
         0.00000E+00
         0.00000E+00
         0.00000E+00
         0.00000E+00
         0.00000E+00
         0.00000E+00
         0.00000E+00
         0.00000E+00
         0.00000E+00
         0.00000E+00
         0.00000E+00
         0.00000E+00
         0.00000E+00
         0.00000E+00
         0.00000E+00
         0.00000E+00
         0.00000E+00
         0.00000E+00
         0.00000E+00
         0.00000E+00
         0.00000E+00
         0.00000E+00
         0.00000E+00
         0.00000E+00
         0.00000E+00
         0.00000E+00
         0.00000E+00
         0.00000E+00
         0.00000E+00
         0.00000E+00
         0.00000E+00
         0.00000E+00
         0.00000E+00
         0.00000E+00
         0.00000E+00
         0.00000E+00
         0.00000E+00
         0.00000E+00
         0.00000E+00
         0.00000E+00
         0.00000E+00
         0.00000E+00
         0.00000E+00
         0.00000E+00
         0.00000E+00
         0.00000E+00
         0.00000E+00
         0.00000E+00
         0.00000E+00
         0.00000E+00
         0.00000E+00
         0.00000E+00
         0.00000E+00
         0.00000E+00
         0.00000E+00
         0.00000E+00
         0.00000E+00
         0.00000E+00
         0.00000E+00
         0.00000E+00
         0.00000E+00
         0.00000E+00
         0.00000E+00
         0.00000E+00
         0.00000E+00
         0.00000E+00
         0.00000E+00
         0.00000E+00
         0.00000E+00
         0.00000E+00
         0.00000E+00
         0.00000E+00
         0.00000E+00
         0.00000E+00
         0.00000E+00
         0.00000E+00
         0.00000E+00
         0.00000E+00
         0.00000E+00
         0.00000E+00
         0.00000E+00
         0.00000E+00
         0.00000E+00
         0.00000E+00
         0.00000E+00
         0.00000E+00
         0.00000E+00
         0.00000E+00
         0.00000E+00
         0.00000E+00
         0.00000E+00
         0.00000E+00
         0.00000E+00
         0.00000E+00
         0.00000E+00
         0.00000E+00
         0.00000E+00
         0.00000E+00
         0.00000E+00
         0.00000E+00
         0.00000E+00
         0.00000E+00
         0.00000E+00
         0.00000E+00
         0.00000E+00
         0.00000E+00
         0.00000E+00
         0.00000E+00
         0.00000E+00
         0.00000E+00
         0.00000E+00
         0.00000E+00
         0.00000E+00
         0.00000E+00
         0.00000E+00
         0.00000E+00
         0.00000E+00
         0.00000E+00
         0.00000E+00
         0.00000E+00
         0.00000E+00
         0.00000E+00
         0.00000E+00
         0.00000E+00
         0.00000E+00
         0.00000E+00
         0.00000E+00
         0.00000E+00
         0.00000E+00
         0.00000E+00
         0.00000E+00
         0.00000E+00
         0.00000E+00
         0.00000E+00
         0.00000E+00
         0.00000E+00
         0.00000E+00
         0.00000E+00
         0.00000E+00
         0.00000E+00
         0.00000E+00
         0.00000E+00
         0.00000E+00
         0.00000E+00
         0.00000E+00
         0.00000E+00
         0.00000E+00
         0.00000E+00
         0.00000E+00
         0.00000E+00
         0.00000E+00
         0.00000E+00
         0.00000E+00
         0.00000E+00
         0.00000E+00
         0.00000E+00
         0.00000E+00
         0.00000E+00
         0.00000E+00
         0.00000E+00
         0.00000E+00
         0.00000E+00
         0.00000E+00
         0.00000E+00
         0.00000E+00
         0.00000E+00
         0.00000E+00
         0.00000E+00
         0.00000E+00
         0.00000E+00
         0.00000E+00
         0.00000E+00
         0.00000E+00
         0.00000E+00
         0.00000E+00
         0.00000E+00
         0.00000E+00
         0.00000E+00
         0.00000E+00
         0.00000E+00
         0.00000E+00
         0.00000E+00
         0.00000E+00
         0.00000E+00
         0.00000E+00
         0.00000E+00
         0.00000E+00
         0.00000E+00
         0.00000E+00
         0.00000E+00
         0.00000E+00
         0.00000E+00
         0.00000E+00
         0.00000E+00
         0.00000E+00
         0.00000E+00
         0.00000E+00
         0.00000E+00
         0.00000E+00
         0.00000E+00
         0.00000E+00
         0.00000E+00
         0.00000E+00
         0.00000E+00
         0.00000E+00
         0.00000E+00
         0.00000E+00
         0.00000E+00
         0.00000E+00
         0.00000E+00
         0.00000E+00
         0.00000E+00
         0.00000E+00
         0.00000E+00
         0.00000E+00
         0.00000E+00
         0.00000E+00
         0.00000E+00
         0.00000E+00
         0.00000E+00
         0.00000E+00
         0.00000E+00
         0.00000E+00
         0.00000E+00
         0.00000E+00
         0.00000E+00
         0.00000E+00
         0.00000E+00
         0.00000E+00
         0.00000E+00
         0.00000E+00
         0.00000E+00
         0.00000E+00
         0.00000E+00
         0.00000E+00
         0.00000E+00
         0.00000E+00
         0.00000E+00
         0.00000E+00
         0.00000E+00
         0.00000E+00
         0.00000E+00
         0.00000E+00
         0.00000E+00
         0.00000E+00
         0.00000E+00
         0.00000E+00
         0.00000E+00
         0.00000E+00
         0.00000E+00
         0.00000E+00
         0.00000E+00
         0.00000E+00
         0.00000E+00
         0.00000E+00
         0.00000E+00
         0.00000E+00
         0.00000E+00
         0.00000E+00
         0.00000E+00
         0.00000E+00
         0.00000E+00
         0.00000E+00
         0.00000E+00
         0.00000E+00
         0.00000E+00
         0.00000E+00
         0.00000E+00
         0.00000E+00
         0.00000E+00
         0.00000E+00
         0.00000E+00
         0.00000E+00
         0.00000E+00
         0.00000E+00
         0.00000E+00
         0.00000E+00
         0.00000E+00
         0.00000E+00
         0.00000E+00
         0.00000E+00
         0.00000E+00
         0.00000E+00
         0.00000E+00
         0.00000E+00
         0.00000E+00
         0.00000E+00
         0.00000E+00
         0.00000E+00
         0.00000E+00
         0.00000E+00
         0.00000E+00
         0.00000E+00
         0.00000E+00
         0.00000E+00
         0.00000E+00
         0.00000E+00
         0.00000E+00
         0.00000E+00
         0.00000E+00
         0.00000E+00
         0.00000E+00
         0.00000E+00
         0.00000E+00
         0.00000E+00
         0.00000E+00
         0.00000E+00
         0.00000E+00
         0.00000E+00
         0.00000E+00
         0.00000E+00
         0.00000E+00
         0.00000E+00
         0.00000E+00
         0.00000E+00
         0.00000E+00
         0.00000E+00
         0.00000E+00
         0.00000E+00
         0.00000E+00
         0.00000E+00
         0.00000E+00
         0.00000E+00
         0.00000E+00
         0.00000E+00
         0.00000E+00
         0.00000E+00
         0.00000E+00
         0.00000E+00
         0.00000E+00
         0.00000E+00
         0.00000E+00
         0.00000E+00
         0.00000E+00
         0.00000E+00
         0.00000E+00
         0.00000E+00
         0.00000E+00
         0.00000E+00
         0.00000E+00
         0.00000E+00
         0.00000E+00
         0.00000E+00
         0.00000E+00
         0.00000E+00
         0.00000E+00
         0.00000E+00
         0.00000E+00
         0.00000E+00
         0.00000E+00
         0.00000E+00
         0.00000E+00
         0.00000E+00
         0.00000E+00
         0.00000E+00
         0.00000E+00
         0.00000E+00
         0.00000E+00
         0.00000E+00
         0.00000E+00
         0.00000E+00
         0.00000E+00
         0.00000E+00
         0.00000E+00
         0.00000E+00
         0.00000E+00
         0.00000E+00
         0.00000E+00
         0.00000E+00
         0.00000E+00
         0.00000E+00
         0.00000E+00
         0.00000E+00
         0.00000E+00
         0.00000E+00
         0.00000E+00
         0.00000E+00
         0.00000E+00
         0.00000E+00
         0.00000E+00
         0.00000E+00
         0.00000E+00
         0.00000E+00
         0.00000E+00
         0.00000E+00
         0.00000E+00
         0.00000E+00
         0.00000E+00
         0.00000E+00
         0.00000E+00
         0.00000E+00
         0.00000E+00
         0.00000E+00
         0.00000E+00
         0.00000E+00
         0.00000E+00
         0.00000E+00
         0.00000E+00
         0.00000E+00
         0.00000E+00
         0.00000E+00
         0.00000E+00
         0.00000E+00
         0.00000E+00
         0.00000E+00
         0.00000E+00
         0.00000E+00
         0.00000E+00
         0.00000E+00
         0.00000E+00
         0.00000E+00
         0.00000E+00
         0.00000E+00
         0.00000E+00
         0.00000E+00
         0.00000E+00
         0.00000E+00
         0.00000E+00
         0.00000E+00
         0.00000E+00
         0.00000E+00
         0.00000E+00
         0.00000E+00
         0.00000E+00
         0.00000E+00
         0.00000E+00
         0.00000E+00
         0.00000E+00
         0.00000E+00
         0.00000E+00
         0.00000E+00
         0.00000E+00
         0.00000E+00
         0.00000E+00
         0.00000E+00
         0.00000E+00
         0.00000E+00
         0.00000E+00
         0.00000E+00
         0.00000E+00
         0.00000E+00
         0.00000E+00
         0.00000E+00
         0.00000E+00
         0.00000E+00
         0.00000E+00
         0.00000E+00
         0.00000E+00
         0.00000E+00
         0.00000E+00
         0.00000E+00
         0.00000E+00
         0.00000E+00
         0.00000E+00
         0.00000E+00
         0.00000E+00
         0.00000E+00
         0.00000E+00
         0.00000E+00
         0.00000E+00
         0.00000E+00
         0.00000E+00
         0.00000E+00
         0.00000E+00
         0.00000E+00
         0.00000E+00
         0.00000E+00
         0.00000E+00
         0.00000E+00
         0.00000E+00
         0.00000E+00
         0.00000E+00
         0.00000E+00
         0.00000E+00
         0.00000E+00
         0.00000E+00
         0.00000E+00
         0.00000E+00
         0.00000E+00
         0.00000E+00
         0.00000E+00
         0.00000E+00
         0.00000E+00
         0.00000E+00
         0.00000E+00
         0.00000E+00
         0.00000E+00
         0.00000E+00
         0.00000E+00
         0.00000E+00
         0.00000E+00
         0.00000E+00
         0.00000E+00
         0.00000E+00
         0.00000E+00
         0.00000E+00
         0.00000E+00
         0.00000E+00
         0.00000E+00
         0.00000E+00
         0.00000E+00
         0.00000E+00
         0.00000E+00
         0.00000E+00
         0.00000E+00
         0.00000E+00
         0.00000E+00
         0.00000E+00
         0.00000E+00
         0.00000E+00
         0.00000E+00
         0.00000E+00
         0.00000E+00
         0.00000E+00
         0.00000E+00
         0.00000E+00
         0.00000E+00
         0.00000E+00
         0.00000E+00
         0.00000E+00
         0.00000E+00
         0.00000E+00
         0.00000E+00
         0.00000E+00
         0.00000E+00
         0.00000E+00
         0.00000E+00
         0.00000E+00
         0.00000E+00
         0.00000E+00
         0.00000E+00
         0.00000E+00
         0.00000E+00
         0.00000E+00
         0.00000E+00
         0.00000E+00
         0.00000E+00
         0.00000E+00
         0.00000E+00
         0.00000E+00
         0.00000E+00
         0.00000E+00
         0.00000E+00
         0.00000E+00
         0.00000E+00
         0.00000E+00
         0.00000E+00
         0.00000E+00
         0.00000E+00
         0.00000E+00
         0.00000E+00
         0.00000E+00
         0.00000E+00
         0.00000E+00
         0.00000E+00
         0.00000E+00
         0.00000E+00
         0.00000E+00
         0.00000E+00
         0.00000E+00
         0.00000E+00
         0.00000E+00
         0.00000E+00
         0.00000E+00
         0.00000E+00
         0.00000E+00
         0.00000E+00
         0.00000E+00
         0.00000E+00
         0.00000E+00
         0.00000E+00
         0.00000E+00
         0.00000E+00
         0.00000E+00
         0.00000E+00
         0.00000E+00
         0.00000E+00
         0.00000E+00
         0.00000E+00
         0.00000E+00
         0.00000E+00
         0.00000E+00
         0.00000E+00
         0.00000E+00
         0.00000E+00
         0.00000E+00
         0.00000E+00
         0.00000E+00
         0.00000E+00
         0.00000E+00
         0.00000E+00
         0.00000E+00
         0.00000E+00
         0.00000E+00
         0.00000E+00
         0.00000E+00
         0.00000E+00
         0.00000E+00
         0.00000E+00
         0.00000E+00
         0.00000E+00
         0.00000E+00
         0.00000E+00
         0.00000E+00
         0.00000E+00
         0.00000E+00
         0.00000E+00
         0.00000E+00
         0.00000E+00
         0.00000E+00
         0.00000E+00
         0.00000E+00
         0.00000E+00
         0.00000E+00
         0.00000E+00
         0.00000E+00
         0.00000E+00
         0.00000E+00
         0.00000E+00
         0.00000E+00
         0.00000E+00
         0.00000E+00
         0.00000E+00
         0.00000E+00
         0.00000E+00
         0.00000E+00
         0.00000E+00
         0.00000E+00
         0.00000E+00
         0.00000E+00
         0.00000E+00
         0.00000E+00
         0.00000E+00
         0.00000E+00
         0.00000E+00
         0.00000E+00
         0.00000E+00
         0.00000E+00
         0.00000E+00
         0.00000E+00
         0.00000E+00
         0.00000E+00
         0.00000E+00
         0.00000E+00
         0.00000E+00
         0.00000E+00
         0.00000E+00
         0.00000E+00
         0.00000E+00
         0.00000E+00
         0.00000E+00
         0.00000E+00
         0.00000E+00
         0.00000E+00
         0.00000E+00
         0.00000E+00
         0.00000E+00
         0.00000E+00
         0.00000E+00
         0.00000E+00
         0.00000E+00
         0.00000E+00
         0.00000E+00
         0.00000E+00
         0.00000E+00
         0.00000E+00
         0.00000E+00
         0.00000E+00
         0.00000E+00
         0.00000E+00
         0.00000E+00
         0.00000E+00
         0.00000E+00
         0.00000E+00
         0.00000E+00
         0.00000E+00
         0.00000E+00
         0.00000E+00
         0.00000E+00
         0.00000E+00
         0.00000E+00
         0.00000E+00
         0.00000E+00
         0.00000E+00
         0.00000E+00
         0.00000E+00
         0.00000E+00
         0.00000E+00
         0.00000E+00
         0.00000E+00
         0.00000E+00
         0.00000E+00
         0.00000E+00
         0.00000E+00
         0.00000E+00
         0.00000E+00
         0.00000E+00
         0.00000E+00
         0.00000E+00
         0.00000E+00
         0.00000E+00
         0.00000E+00
         0.00000E+00
         0.00000E+00
         0.00000E+00
         0.00000E+00
         0.00000E+00
         0.00000E+00
         0.00000E+00
         0.00000E+00
         0.00000E+00
         0.00000E+00
         0.00000E+00
         0.00000E+00
         0.00000E+00
         0.00000E+00
         0.00000E+00
         0.00000E+00
         0.00000E+00
         0.00000E+00
         0.00000E+00
         0.00000E+00
         0.00000E+00
         0.00000E+00
         0.00000E+00
         0.00000E+00
         0.00000E+00
         0.00000E+00
         0.00000E+00
         0.00000E+00
         0.00000E+00
         0.00000E+00
         0.00000E+00
         0.00000E+00
         0.00000E+00
         0.00000E+00
         0.00000E+00
         0.00000E+00
         0.00000E+00
         0.00000E+00
         0.00000E+00
         0.00000E+00
         0.00000E+00
         0.00000E+00
         0.00000E+00
         0.00000E+00
         0.00000E+00
         0.00000E+00
         0.00000E+00
         0.00000E+00
         0.00000E+00
         0.00000E+00
         0.00000E+00
         0.00000E+00
         0.00000E+00
         0.00000E+00
         0.00000E+00
         0.00000E+00
         0.00000E+00
         0.00000E+00
         0.00000E+00
         0.00000E+00
         0.00000E+00
         0.00000E+00
         0.00000E+00
         0.00000E+00
         0.00000E+00
         0.00000E+00
         0.00000E+00
         0.00000E+00
         0.00000E+00
         0.00000E+00
         0.00000E+00
         0.00000E+00
         0.00000E+00
         0.00000E+00
         0.00000E+00
         0.00000E+00
         0.00000E+00
         0.00000E+00
         0.00000E+00
         0.00000E+00
         0.00000E+00
         0.00000E+00
         0.00000E+00
         0.00000E+00
         0.00000E+00
         0.00000E+00
         0.00000E+00
         0.00000E+00
         0.00000E+00
         0.00000E+00
         0.00000E+00
         0.00000E+00
         0.00000E+00
         0.00000E+00
         0.00000E+00
         0.00000E+00
         0.00000E+00
         0.00000E+00
         0.00000E+00
         0.00000E+00
         0.00000E+00
         0.00000E+00
         0.00000E+00
         0.00000E+00
         0.00000E+00
         0.00000E+00
         0.00000E+00
         0.00000E+00
         0.00000E+00
         0.00000E+00
         0.00000E+00
         0.00000E+00
         0.00000E+00
         0.00000E+00
         0.00000E+00
         0.00000E+00
         0.00000E+00
         0.00000E+00
         0.00000E+00
         0.00000E+00
         0.00000E+00
         0.00000E+00
         0.00000E+00
         0.00000E+00
         0.00000E+00
         0.00000E+00
         0.00000E+00
         0.00000E+00
         0.00000E+00
         0.00000E+00
         0.00000E+00
         0.00000E+00
         0.00000E+00
         0.00000E+00
         0.00000E+00
         0.00000E+00
         0.00000E+00
         0.00000E+00
         0.00000E+00
         0.00000E+00
         0.00000E+00
         0.00000E+00
         0.00000E+00
         0.00000E+00
         0.00000E+00
         0.00000E+00
         0.00000E+00
         0.00000E+00
         0.00000E+00
         0.00000E+00
         0.00000E+00
         0.00000E+00
         0.00000E+00
         0.00000E+00
         0.00000E+00
         0.00000E+00
         0.00000E+00
         0.00000E+00
         0.00000E+00
         0.00000E+00
         0.00000E+00
         0.00000E+00
         0.00000E+00
         0.00000E+00
         0.00000E+00
         0.00000E+00
         0.00000E+00
         0.00000E+00
         0.00000E+00
         0.00000E+00
         0.00000E+00
         0.00000E+00
         0.00000E+00
         0.00000E+00
         0.00000E+00
         0.00000E+00
         0.00000E+00
         0.00000E+00
         0.00000E+00
         0.00000E+00
         0.00000E+00
         0.00000E+00
         0.00000E+00
         0.00000E+00
         0.00000E+00
         0.00000E+00
         0.00000E+00
         0.00000E+00
         0.00000E+00
         0.00000E+00
         0.00000E+00
         0.00000E+00
         0.00000E+00
         0.00000E+00
         0.00000E+00
         0.00000E+00
         0.00000E+00
         0.00000E+00
         0.00000E+00
         0.00000E+00
         0.00000E+00
         0.00000E+00
         0.00000E+00
         0.00000E+00
         0.00000E+00
         0.00000E+00
         0.00000E+00
         0.00000E+00
         0.00000E+00
         0.00000E+00
         0.00000E+00
         0.00000E+00
         0.00000E+00
         0.00000E+00
         0.00000E+00
         0.00000E+00
         0.00000E+00
         0.00000E+00
         0.00000E+00
         0.00000E+00
         0.00000E+00
         0.00000E+00
         0.00000E+00
         0.00000E+00
         0.00000E+00
         0.00000E+00
         0.00000E+00
         0.00000E+00
         0.00000E+00
         0.00000E+00
         0.00000E+00
         0.00000E+00
         0.00000E+00
         0.00000E+00
         0.00000E+00
         0.00000E+00
         0.00000E+00
         0.00000E+00
         0.00000E+00
         0.00000E+00
         0.00000E+00
         0.00000E+00
         0.00000E+00
         0.00000E+00
         0.00000E+00
         0.00000E+00
         0.00000E+00
         0.00000E+00
         0.00000E+00
         0.00000E+00
         0.00000E+00
         0.00000E+00
         0.00000E+00
         0.00000E+00
         0.00000E+00
         0.00000E+00
         0.00000E+00
         0.00000E+00
         0.00000E+00
         0.00000E+00
         0.00000E+00
         0.00000E+00
         0.00000E+00
         0.00000E+00
         0.00000E+00
         0.00000E+00
         0.00000E+00
         0.00000E+00
         0.00000E+00
         0.00000E+00
         0.00000E+00
         0.00000E+00
         0.00000E+00
         0.00000E+00
         0.00000E+00
         0.00000E+00
         0.00000E+00
         0.00000E+00
         0.00000E+00
         0.00000E+00
         0.00000E+00
         0.00000E+00
         0.00000E+00
         0.00000E+00
         0.00000E+00
         0.00000E+00
         0.00000E+00
         0.00000E+00
         0.00000E+00
         0.00000E+00
         0.00000E+00
         0.00000E+00
         0.00000E+00
         0.00000E+00
         0.00000E+00
         0.00000E+00
         0.00000E+00
         0.00000E+00
         0.00000E+00
         0.00000E+00
         0.00000E+00
         0.00000E+00
         0.00000E+00
         0.00000E+00
         0.00000E+00
         0.00000E+00
         0.00000E+00
         0.00000E+00
         0.00000E+00
         0.00000E+00
         0.00000E+00
         0.00000E+00
         0.00000E+00
         0.00000E+00
         0.00000E+00
         0.00000E+00
         0.00000E+00
         0.00000E+00
         0.00000E+00
         0.00000E+00
         0.00000E+00
         0.00000E+00
         0.00000E+00
         0.00000E+00
         0.00000E+00
         0.00000E+00
         0.00000E+00
         0.00000E+00
         0.00000E+00
         0.00000E+00
         0.00000E+00
         0.00000E+00
         0.00000E+00
         0.00000E+00
         0.00000E+00
         0.00000E+00
         0.00000E+00
         0.00000E+00
         0.00000E+00
         0.00000E+00
         0.00000E+00
         0.00000E+00
         0.00000E+00
         0.00000E+00
         0.00000E+00
         0.00000E+00
         0.00000E+00
         0.00000E+00
         0.00000E+00
         0.00000E+00
         0.00000E+00
         0.00000E+00
         0.00000E+00
         0.00000E+00
         0.00000E+00
         0.00000E+00
         0.00000E+00
         0.00000E+00
         0.00000E+00
         0.00000E+00
         0.00000E+00
         0.00000E+00
         0.00000E+00
         0.00000E+00
         0.00000E+00
         0.00000E+00
         0.00000E+00
         0.00000E+00
         0.00000E+00
         0.00000E+00
         0.00000E+00
         0.00000E+00
         0.00000E+00
         0.00000E+00
         0.00000E+00
         0.00000E+00
         0.00000E+00
         0.00000E+00
         0.00000E+00
         0.00000E+00
         0.00000E+00
         0.00000E+00
         0.00000E+00
         0.00000E+00
         0.00000E+00
         0.00000E+00
         0.00000E+00
         0.00000E+00
         0.00000E+00
         0.00000E+00
         0.00000E+00
         0.00000E+00
         0.00000E+00
         0.00000E+00
         0.00000E+00
         0.00000E+00
         0.00000E+00
         0.00000E+00
         0.00000E+00
         0.00000E+00
         0.00000E+00
         0.00000E+00
         0.00000E+00
         0.00000E+00
         0.00000E+00
         0.00000E+00
         0.00000E+00
         0.00000E+00
         0.00000E+00
         0.00000E+00
         0.00000E+00
         0.00000E+00
         0.00000E+00
         0.00000E+00
         0.00000E+00
         0.00000E+00
         0.00000E+00
         0.00000E+00
         0.00000E+00
         0.00000E+00
         0.00000E+00
         0.00000E+00
         0.00000E+00
         0.00000E+00
         0.00000E+00
         0.00000E+00
         0.00000E+00
         0.00000E+00
         0.00000E+00
         0.00000E+00
         0.00000E+00
         0.00000E+00
         0.00000E+00
         0.00000E+00
         0.00000E+00
         0.00000E+00
         0.00000E+00
         0.00000E+00
         0.00000E+00
         0.00000E+00
         0.00000E+00
         0.00000E+00
         0.00000E+00
         0.00000E+00
         0.00000E+00
         0.00000E+00
         0.00000E+00
         0.00000E+00
         0.00000E+00
         0.00000E+00
         0.00000E+00
         0.00000E+00
         0.00000E+00
         0.00000E+00
         0.00000E+00
         0.00000E+00
         0.00000E+00
         0.00000E+00
         0.00000E+00
         0.00000E+00
         0.00000E+00
         0.00000E+00
         0.00000E+00
         0.00000E+00
         0.00000E+00
         0.00000E+00
         0.00000E+00
         0.00000E+00
         0.00000E+00
         0.00000E+00
         0.00000E+00
         0.00000E+00
         0.00000E+00
         0.00000E+00
         0.00000E+00
         0.00000E+00
         0.00000E+00
         0.00000E+00
         0.00000E+00
         0.00000E+00
         0.00000E+00
         0.00000E+00
         0.00000E+00
         0.00000E+00
         0.00000E+00
         0.00000E+00
         0.00000E+00
         0.00000E+00
         0.00000E+00
         0.00000E+00
         0.00000E+00
         0.00000E+00
         0.00000E+00
         0.00000E+00
         0.00000E+00
         0.00000E+00
         0.00000E+00
         0.00000E+00
         0.00000E+00
         0.00000E+00
         0.00000E+00
         0.00000E+00
         0.00000E+00
         0.00000E+00
         0.00000E+00
         0.00000E+00
         0.00000E+00
         0.00000E+00
         0.00000E+00
         0.00000E+00
         0.00000E+00
         0.00000E+00
         0.00000E+00
         0.00000E+00
         0.00000E+00
         0.00000E+00
         0.00000E+00
         0.00000E+00
         0.00000E+00
         0.00000E+00
         0.00000E+00
         0.00000E+00
         0.00000E+00
         0.00000E+00
         0.00000E+00
         0.00000E+00
         0.00000E+00
         0.00000E+00
         0.00000E+00
         0.00000E+00
         0.00000E+00
         0.00000E+00
         0.00000E+00
         0.00000E+00
         0.00000E+00
         0.00000E+00
         0.00000E+00
         0.00000E+00
         0.00000E+00
         0.00000E+00
         0.00000E+00
         0.00000E+00
         0.00000E+00
         0.00000E+00
         0.00000E+00
         0.00000E+00
         0.00000E+00
         0.00000E+00
         0.00000E+00
         0.00000E+00
         0.00000E+00
         0.00000E+00
         0.00000E+00
         0.00000E+00
         0.00000E+00
         0.00000E+00
         0.00000E+00
         0.00000E+00
         0.00000E+00
         0.00000E+00
         0.00000E+00
         0.00000E+00
         0.00000E+00
         0.00000E+00
         0.00000E+00
         0.00000E+00
         0.00000E+00
         0.00000E+00
         0.00000E+00
         0.00000E+00
         0.00000E+00
         0.00000E+00
         0.00000E+00
         0.00000E+00
         0.00000E+00
         0.00000E+00
         0.00000E+00
         0.00000E+00
         0.00000E+00
         0.00000E+00
         0.00000E+00
         0.00000E+00
         0.00000E+00
         0.00000E+00
         0.00000E+00
         0.00000E+00
         0.00000E+00
         0.00000E+00
         0.00000E+00
         0.00000E+00
         0.00000E+00
         0.00000E+00
         0.00000E+00
         0.00000E+00
         0.00000E+00
         0.00000E+00
         0.00000E+00
         0.00000E+00
         0.00000E+00
         0.00000E+00
         0.00000E+00
         0.00000E+00
         0.00000E+00
         0.00000E+00
         0.00000E+00
         0.00000E+00
         0.00000E+00
         0.00000E+00
         0.00000E+00
         0.00000E+00
         0.00000E+00
         0.00000E+00
         0.00000E+00
         0.00000E+00
         0.00000E+00
         0.00000E+00
         0.00000E+00
         0.00000E+00
         0.00000E+00
         0.00000E+00
         0.00000E+00
         0.00000E+00
         0.00000E+00
         0.00000E+00
         0.00000E+00
         0.00000E+00
         0.00000E+00
         0.00000E+00
         0.00000E+00
         0.00000E+00
         0.00000E+00
         0.00000E+00
         0.00000E+00
         0.00000E+00
         0.00000E+00
         0.00000E+00
         0.00000E+00
         0.00000E+00
         0.00000E+00
         0.00000E+00
         0.00000E+00
         0.00000E+00
         0.00000E+00
         0.00000E+00
         0.00000E+00
         0.00000E+00
         0.00000E+00
         0.00000E+00
         0.00000E+00
         0.00000E+00
         0.00000E+00
         0.00000E+00
         0.00000E+00
         0.00000E+00
         0.00000E+00
         0.00000E+00
         0.00000E+00
         0.00000E+00
         0.00000E+00
         0.00000E+00
         0.00000E+00
         0.00000E+00
         0.00000E+00
         0.00000E+00
         0.00000E+00
         0.00000E+00
         0.00000E+00
         0.00000E+00
         0.00000E+00
         0.00000E+00
         0.00000E+00
         0.00000E+00
         0.00000E+00
         0.00000E+00
         0.00000E+00
         0.00000E+00
         0.00000E+00
         0.00000E+00
         0.00000E+00
         0.00000E+00
         0.00000E+00
         0.00000E+00
         0.00000E+00
         0.00000E+00
         0.00000E+00
         0.00000E+00
         0.00000E+00
         0.00000E+00
         0.00000E+00
         0.00000E+00
         0.00000E+00
         0.00000E+00
         0.00000E+00
         0.00000E+00
         0.00000E+00
         0.00000E+00
         0.00000E+00
         0.00000E+00
         0.00000E+00
         0.00000E+00
         0.00000E+00
         0.00000E+00
         0.00000E+00
         0.00000E+00
         0.00000E+00
         0.00000E+00
         0.00000E+00
         0.00000E+00
         0.00000E+00
         0.00000E+00
         0.00000E+00
         0.00000E+00
         0.00000E+00
         0.00000E+00
         0.00000E+00
         0.00000E+00
         0.00000E+00
         0.00000E+00
         0.00000E+00
         0.00000E+00
         0.00000E+00
         0.00000E+00
         0.00000E+00
         0.00000E+00
         0.00000E+00
         0.00000E+00
         0.00000E+00
         0.00000E+00
         0.00000E+00
         0.00000E+00
         0.00000E+00
         0.00000E+00
         0.00000E+00
         0.00000E+00
         0.00000E+00
         0.00000E+00
         0.00000E+00
         0.00000E+00
         0.00000E+00
         0.00000E+00
         0.00000E+00
         0.00000E+00
         0.00000E+00
         0.00000E+00
         0.00000E+00
         0.00000E+00
         0.00000E+00
         0.00000E+00
         0.00000E+00
         0.00000E+00
         0.00000E+00
         0.00000E+00
         0.00000E+00
         0.00000E+00
         0.00000E+00
         0.00000E+00
         0.00000E+00
         0.00000E+00
         0.00000E+00
         0.00000E+00
         0.00000E+00
         0.00000E+00
         0.00000E+00
         0.00000E+00
         0.00000E+00
         0.00000E+00
         0.00000E+00
         0.00000E+00
         0.00000E+00
         0.00000E+00
         0.00000E+00
         0.00000E+00
         0.00000E+00
         0.00000E+00
         0.00000E+00
         0.00000E+00
         0.00000E+00
         0.00000E+00
         0.00000E+00
         0.00000E+00
         0.00000E+00
         0.00000E+00
         0.00000E+00
         0.00000E+00
         0.00000E+00
         0.00000E+00
         0.00000E+00
         0.00000E+00
         0.00000E+00
         0.00000E+00
         0.00000E+00
         0.00000E+00
         0.00000E+00
         0.00000E+00
         0.00000E+00
         0.00000E+00
         0.00000E+00
         0.00000E+00
         0.00000E+00
         0.00000E+00
         0.00000E+00
         0.00000E+00
         0.00000E+00
         0.00000E+00
         0.00000E+00
         0.00000E+00
         0.00000E+00
         0.00000E+00
         0.00000E+00
         0.00000E+00
         0.00000E+00
         0.00000E+00
         0.00000E+00
         0.00000E+00
         0.00000E+00
         0.00000E+00
         0.00000E+00
         0.00000E+00
         0.00000E+00
         0.00000E+00
         0.00000E+00
         0.00000E+00
         0.00000E+00
         0.00000E+00
         0.00000E+00
         0.00000E+00
         0.00000E+00
         0.00000E+00
         0.00000E+00
         0.00000E+00
         0.00000E+00
         0.00000E+00
         0.00000E+00
         0.00000E+00
         0.00000E+00
         0.00000E+00
         0.00000E+00
         0.00000E+00
         0.00000E+00
         0.00000E+00
         0.00000E+00
         0.00000E+00
         0.00000E+00
         0.00000E+00
         0.00000E+00
         0.00000E+00
         0.00000E+00
         0.00000E+00
         0.00000E+00
         0.00000E+00
         0.00000E+00
         0.00000E+00
         0.00000E+00
         0.00000E+00
         0.00000E+00
         0.00000E+00
         0.00000E+00
         0.00000E+00
         0.00000E+00
         0.00000E+00
         0.00000E+00
         0.00000E+00
         0.00000E+00
         0.00000E+00
         0.00000E+00
         0.00000E+00
         0.00000E+00
         0.00000E+00
         0.00000E+00
         0.00000E+00
         0.00000E+00
         0.00000E+00
         0.00000E+00
         0.00000E+00
         0.00000E+00
         0.00000E+00
         0.00000E+00
         0.00000E+00
         0.00000E+00
         0.00000E+00
         0.00000E+00
         0.00000E+00
         0.00000E+00
         0.00000E+00
         0.00000E+00
         0.00000E+00
         0.00000E+00
         0.00000E+00
         0.00000E+00
         0.00000E+00
         0.00000E+00
         0.00000E+00
         0.00000E+00
         0.00000E+00
         0.00000E+00
         0.00000E+00
         0.00000E+00
         0.00000E+00
         0.00000E+00
         0.00000E+00
         0.00000E+00
         0.00000E+00
         0.00000E+00
         0.00000E+00
         0.00000E+00
         0.00000E+00
         0.00000E+00
         0.00000E+00
         0.00000E+00
         0.00000E+00
         0.00000E+00
         0.00000E+00
         0.00000E+00
         0.00000E+00
         0.00000E+00
         0.00000E+00
         0.00000E+00
         0.00000E+00
         0.00000E+00
         0.00000E+00
         0.00000E+00
         0.00000E+00
         0.00000E+00
         0.00000E+00
         0.00000E+00
         0.00000E+00
         0.00000E+00
         0.00000E+00
         0.00000E+00
         0.00000E+00
         0.00000E+00
         0.00000E+00
         0.00000E+00
         0.00000E+00
         0.00000E+00
         0.00000E+00
         0.00000E+00
         0.00000E+00
         0.00000E+00
         0.00000E+00
         0.00000E+00
         0.00000E+00
         0.00000E+00
         0.00000E+00
         0.00000E+00
         0.00000E+00
         0.00000E+00
         0.00000E+00
         0.00000E+00
         0.00000E+00
         0.00000E+00
         0.00000E+00
         0.00000E+00
         0.00000E+00
         0.00000E+00
         0.00000E+00
         0.00000E+00
         0.00000E+00
         0.00000E+00
         0.00000E+00
         0.00000E+00
         0.00000E+00
         0.00000E+00
         0.00000E+00
         0.00000E+00
         0.00000E+00
         0.00000E+00
         0.00000E+00
         0.00000E+00
         0.00000E+00
         0.00000E+00
         0.00000E+00
         0.00000E+00
         0.00000E+00
         0.00000E+00
         0.00000E+00
         0.00000E+00
         0.00000E+00
         0.00000E+00
         0.00000E+00
         0.00000E+00
         0.00000E+00
         0.00000E+00
         0.00000E+00
         0.00000E+00
         0.00000E+00
         0.00000E+00
         0.00000E+00
         0.00000E+00
         0.00000E+00
         0.00000E+00
         0.00000E+00
         0.00000E+00
         0.00000E+00
         0.00000E+00
         0.00000E+00
         0.00000E+00
         0.00000E+00
         0.00000E+00
         0.00000E+00
         0.00000E+00
         0.00000E+00
         0.00000E+00
         0.00000E+00
         0.00000E+00
         0.00000E+00
         0.00000E+00
         0.00000E+00
         0.00000E+00
         0.00000E+00
         0.00000E+00
         0.00000E+00
         0.00000E+00
         0.00000E+00
         0.00000E+00
         0.00000E+00
         0.00000E+00
         0.00000E+00
         0.00000E+00
         0.00000E+00
         0.00000E+00
         0.00000E+00
         0.00000E+00
         0.00000E+00
         0.00000E+00
         0.00000E+00
         0.00000E+00
         0.00000E+00
         0.00000E+00
         0.00000E+00
         0.00000E+00
         0.00000E+00
         0.00000E+00
         0.00000E+00
         0.00000E+00
         0.00000E+00
         0.00000E+00
         0.00000E+00
         0.00000E+00
         0.00000E+00
         0.00000E+00
         0.00000E+00
         0.00000E+00
         0.00000E+00
         0.00000E+00
         0.00000E+00
         0.00000E+00
         0.00000E+00
         0.00000E+00
         0.00000E+00
         0.00000E+00
         0.00000E+00
         0.00000E+00
         0.00000E+00
         0.00000E+00
         0.00000E+00
         0.00000E+00
         0.00000E+00
         0.00000E+00
         0.00000E+00
         0.00000E+00
         0.00000E+00
         0.00000E+00
         0.00000E+00
         0.00000E+00
         0.00000E+00
         0.00000E+00
         0.00000E+00
         0.00000E+00
         0.00000E+00
         0.00000E+00
         0.00000E+00
         0.00000E+00
         0.00000E+00
         0.00000E+00
         0.00000E+00
         0.00000E+00
         0.00000E+00
         0.00000E+00
         0.00000E+00
         0.00000E+00
         0.00000E+00
         0.00000E+00
         0.00000E+00
         0.00000E+00
         0.00000E+00
         0.00000E+00
         0.00000E+00
         0.00000E+00
         0.00000E+00
         0.00000E+00
         0.00000E+00
         0.00000E+00
         0.00000E+00
         0.00000E+00
         0.00000E+00
         0.00000E+00
         0.00000E+00
         0.00000E+00
  
SCALARS               pre_disp_force_z  double 1
LOOKUP_TABLE default
         0.00000E+00
         0.00000E+00
         0.00000E+00
         0.00000E+00
        -0.00000E+00
        -0.00000E+00
        -0.00000E+00
        -0.00000E+00
         0.00000E+00
         0.00000E+00
        -0.00000E+00
        -0.00000E+00
         0.00000E+00
         0.00000E+00
        -0.00000E+00
        -0.00000E+00
         0.00000E+00
         0.00000E+00
        -0.00000E+00
        -0.00000E+00
         0.00000E+00
         0.00000E+00
         0.00000E+00
        -0.00000E+00
        -0.00000E+00
        -0.00000E+00
         0.00000E+00
         0.00000E+00
        -0.00000E+00
        -0.00000E+00
         0.00000E+00
         0.00000E+00
         0.00000E+00
        -0.00000E+00
        -0.00000E+00
        -0.00000E+00
         0.00000E+00
         0.00000E+00
        -0.00000E+00
        -0.00000E+00
         0.00000E+00
         0.00000E+00
        -0.00000E+00
        -0.00000E+00
         0.00000E+00
         0.00000E+00
        -0.00000E+00
        -0.00000E+00
         0.00000E+00
        -0.00000E+00
         0.00000E+00
        -0.00000E+00
         0.00000E+00
        -0.00000E+00
         0.00000E+00
        -0.00000E+00
         0.00000E+00
         0.00000E+00
        -0.00000E+00
        -0.00000E+00
         0.00000E+00
         0.00000E+00
        -0.00000E+00
        -0.00000E+00
         0.00000E+00
        -0.00000E+00
         0.00000E+00
        -0.00000E+00
         0.00000E+00
         0.00000E+00
        -0.00000E+00
        -0.00000E+00
         0.00000E+00
        -0.00000E+00
         0.00000E+00
        -0.00000E+00
         0.00000E+00
        -0.00000E+00
         0.00000E+00
        -0.00000E+00
         0.00000E+00
         0.00000E+00
        -0.00000E+00
        -0.00000E+00
         0.00000E+00
        -0.00000E+00
         0.00000E+00
        -0.00000E+00
         0.00000E+00
        -0.00000E+00
         0.00000E+00
         0.00000E+00
        -0.00000E+00
        -0.00000E+00
         0.00000E+00
        -0.00000E+00
         0.00000E+00
        -0.00000E+00
         0.00000E+00
        -0.00000E+00
         0.00000E+00
         0.00000E+00
        -0.00000E+00
        -0.00000E+00
         0.00000E+00
         0.00000E+00
        -0.00000E+00
        -0.00000E+00
         0.00000E+00
        -0.00000E+00
         0.00000E+00
        -0.00000E+00
         0.00000E+00
        -0.00000E+00
         0.00000E+00
        -0.00000E+00
         0.00000E+00
        -0.00000E+00
         0.00000E+00
        -0.00000E+00
         0.00000E+00
        -0.00000E+00
         0.00000E+00
        -0.00000E+00
         0.00000E+00
        -0.00000E+00
         0.00000E+00
        -0.00000E+00
         0.00000E+00
        -0.00000E+00
         0.00000E+00
        -0.00000E+00
         0.00000E+00
        -0.00000E+00
         0.00000E+00
        -0.00000E+00
         0.00000E+00
        -0.00000E+00
         0.00000E+00
        -0.00000E+00
         0.00000E+00
        -0.00000E+00
         0.00000E+00
        -0.00000E+00
         0.00000E+00
        -0.00000E+00
         0.00000E+00
        -0.00000E+00
         0.00000E+00
        -0.00000E+00
         0.00000E+00
        -0.00000E+00
         0.00000E+00
        -0.00000E+00
         0.00000E+00
        -0.00000E+00
         0.00000E+00
         0.00000E+00
         0.00000E+00
         0.00000E+00
         0.00000E+00
         0.00000E+00
         0.00000E+00
         0.00000E+00
         0.00000E+00
         0.00000E+00
         0.00000E+00
         0.00000E+00
         0.00000E+00
         0.00000E+00
         0.00000E+00
         0.00000E+00
         0.00000E+00
         0.00000E+00
         0.00000E+00
         0.00000E+00
         0.00000E+00
         0.00000E+00
         0.00000E+00
         0.00000E+00
         0.00000E+00
         0.00000E+00
         0.00000E+00
         0.00000E+00
         0.00000E+00
         0.00000E+00
         0.00000E+00
         0.00000E+00
         0.00000E+00
         0.00000E+00
         0.00000E+00
         0.00000E+00
         0.00000E+00
         0.00000E+00
         0.00000E+00
         0.00000E+00
         0.00000E+00
         0.00000E+00
         0.00000E+00
         0.00000E+00
         0.00000E+00
         0.00000E+00
         0.00000E+00
         0.00000E+00
         0.00000E+00
         0.00000E+00
         0.00000E+00
         0.00000E+00
         0.00000E+00
         0.00000E+00
         0.00000E+00
         0.00000E+00
         0.00000E+00
         0.00000E+00
         0.00000E+00
         0.00000E+00
         0.00000E+00
         0.00000E+00
         0.00000E+00
         0.00000E+00
         0.00000E+00
         0.00000E+00
         0.00000E+00
         0.00000E+00
         0.00000E+00
         0.00000E+00
         0.00000E+00
         0.00000E+00
         0.00000E+00
         0.00000E+00
         0.00000E+00
         0.00000E+00
         0.00000E+00
         0.00000E+00
         0.00000E+00
         0.00000E+00
         0.00000E+00
         0.00000E+00
         0.00000E+00
         0.00000E+00
         0.00000E+00
         0.00000E+00
         0.00000E+00
         0.00000E+00
         0.00000E+00
         0.00000E+00
         0.00000E+00
         0.00000E+00
         0.00000E+00
         0.00000E+00
         0.00000E+00
         0.00000E+00
         0.00000E+00
         0.00000E+00
         0.00000E+00
         0.00000E+00
         0.00000E+00
         0.00000E+00
         0.00000E+00
         0.00000E+00
         0.00000E+00
         0.00000E+00
         0.00000E+00
         0.00000E+00
         0.00000E+00
         0.00000E+00
         0.00000E+00
         0.00000E+00
         0.00000E+00
         0.00000E+00
         0.00000E+00
         0.00000E+00
         0.00000E+00
         0.00000E+00
         0.00000E+00
         0.00000E+00
         0.00000E+00
         0.00000E+00
         0.00000E+00
         0.00000E+00
         0.00000E+00
         0.00000E+00
         0.00000E+00
         0.00000E+00
         0.00000E+00
         0.00000E+00
         0.00000E+00
         0.00000E+00
         0.00000E+00
         0.00000E+00
         0.00000E+00
         0.00000E+00
         0.00000E+00
         0.00000E+00
         0.00000E+00
         0.00000E+00
         0.00000E+00
         0.00000E+00
         0.00000E+00
         0.00000E+00
         0.00000E+00
         0.00000E+00
         0.00000E+00
         0.00000E+00
         0.00000E+00
         0.00000E+00
         0.00000E+00
         0.00000E+00
         0.00000E+00
         0.00000E+00
         0.00000E+00
         0.00000E+00
         0.00000E+00
         0.00000E+00
         0.00000E+00
         0.00000E+00
         0.00000E+00
         0.00000E+00
         0.00000E+00
         0.00000E+00
         0.00000E+00
         0.00000E+00
         0.00000E+00
         0.00000E+00
         0.00000E+00
         0.00000E+00
         0.00000E+00
         0.00000E+00
         0.00000E+00
         0.00000E+00
         0.00000E+00
         0.00000E+00
         0.00000E+00
         0.00000E+00
         0.00000E+00
         0.00000E+00
         0.00000E+00
         0.00000E+00
         0.00000E+00
         0.00000E+00
         0.00000E+00
         0.00000E+00
         0.00000E+00
         0.00000E+00
         0.00000E+00
         0.00000E+00
         0.00000E+00
         0.00000E+00
         0.00000E+00
         0.00000E+00
         0.00000E+00
         0.00000E+00
         0.00000E+00
         0.00000E+00
         0.00000E+00
         0.00000E+00
         0.00000E+00
         0.00000E+00
         0.00000E+00
         0.00000E+00
         0.00000E+00
         0.00000E+00
         0.00000E+00
         0.00000E+00
         0.00000E+00
         0.00000E+00
         0.00000E+00
         0.00000E+00
         0.00000E+00
         0.00000E+00
         0.00000E+00
         0.00000E+00
         0.00000E+00
         0.00000E+00
         0.00000E+00
         0.00000E+00
         0.00000E+00
         0.00000E+00
         0.00000E+00
         0.00000E+00
         0.00000E+00
         0.00000E+00
         0.00000E+00
         0.00000E+00
         0.00000E+00
         0.00000E+00
         0.00000E+00
         0.00000E+00
         0.00000E+00
         0.00000E+00
         0.00000E+00
         0.00000E+00
         0.00000E+00
         0.00000E+00
         0.00000E+00
         0.00000E+00
         0.00000E+00
         0.00000E+00
         0.00000E+00
         0.00000E+00
         0.00000E+00
         0.00000E+00
         0.00000E+00
         0.00000E+00
         0.00000E+00
         0.00000E+00
         0.00000E+00
         0.00000E+00
         0.00000E+00
         0.00000E+00
         0.00000E+00
         0.00000E+00
         0.00000E+00
         0.00000E+00
         0.00000E+00
         0.00000E+00
         0.00000E+00
         0.00000E+00
         0.00000E+00
         0.00000E+00
         0.00000E+00
         0.00000E+00
         0.00000E+00
         0.00000E+00
         0.00000E+00
         0.00000E+00
         0.00000E+00
         0.00000E+00
         0.00000E+00
         0.00000E+00
         0.00000E+00
         0.00000E+00
         0.00000E+00
         0.00000E+00
         0.00000E+00
         0.00000E+00
         0.00000E+00
         0.00000E+00
         0.00000E+00
         0.00000E+00
         0.00000E+00
         0.00000E+00
         0.00000E+00
         0.00000E+00
         0.00000E+00
         0.00000E+00
         0.00000E+00
         0.00000E+00
         0.00000E+00
         0.00000E+00
         0.00000E+00
         0.00000E+00
         0.00000E+00
         0.00000E+00
         0.00000E+00
         0.00000E+00
         0.00000E+00
         0.00000E+00
         0.00000E+00
         0.00000E+00
         0.00000E+00
         0.00000E+00
         0.00000E+00
         0.00000E+00
         0.00000E+00
         0.00000E+00
         0.00000E+00
         0.00000E+00
         0.00000E+00
         0.00000E+00
         0.00000E+00
         0.00000E+00
         0.00000E+00
         0.00000E+00
         0.00000E+00
         0.00000E+00
         0.00000E+00
         0.00000E+00
         0.00000E+00
         0.00000E+00
         0.00000E+00
         0.00000E+00
         0.00000E+00
         0.00000E+00
         0.00000E+00
         0.00000E+00
         0.00000E+00
         0.00000E+00
         0.00000E+00
         0.00000E+00
         0.00000E+00
         0.00000E+00
         0.00000E+00
         0.00000E+00
         0.00000E+00
         0.00000E+00
         0.00000E+00
         0.00000E+00
         0.00000E+00
         0.00000E+00
         0.00000E+00
         0.00000E+00
         0.00000E+00
         0.00000E+00
         0.00000E+00
         0.00000E+00
         0.00000E+00
         0.00000E+00
         0.00000E+00
         0.00000E+00
         0.00000E+00
         0.00000E+00
         0.00000E+00
         0.00000E+00
         0.00000E+00
         0.00000E+00
         0.00000E+00
         0.00000E+00
         0.00000E+00
         0.00000E+00
         0.00000E+00
         0.00000E+00
         0.00000E+00
         0.00000E+00
         0.00000E+00
         0.00000E+00
         0.00000E+00
         0.00000E+00
         0.00000E+00
         0.00000E+00
         0.00000E+00
         0.00000E+00
         0.00000E+00
         0.00000E+00
         0.00000E+00
         0.00000E+00
         0.00000E+00
         0.00000E+00
         0.00000E+00
         0.00000E+00
         0.00000E+00
         0.00000E+00
         0.00000E+00
         0.00000E+00
         0.00000E+00
         0.00000E+00
         0.00000E+00
         0.00000E+00
         0.00000E+00
         0.00000E+00
         0.00000E+00
         0.00000E+00
         0.00000E+00
         0.00000E+00
         0.00000E+00
         0.00000E+00
         0.00000E+00
         0.00000E+00
         0.00000E+00
         0.00000E+00
         0.00000E+00
         0.00000E+00
         0.00000E+00
         0.00000E+00
         0.00000E+00
         0.00000E+00
         0.00000E+00
         0.00000E+00
         0.00000E+00
         0.00000E+00
         0.00000E+00
         0.00000E+00
         0.00000E+00
         0.00000E+00
         0.00000E+00
         0.00000E+00
         0.00000E+00
         0.00000E+00
         0.00000E+00
         0.00000E+00
         0.00000E+00
         0.00000E+00
         0.00000E+00
         0.00000E+00
         0.00000E+00
         0.00000E+00
         0.00000E+00
         0.00000E+00
         0.00000E+00
         0.00000E+00
         0.00000E+00
         0.00000E+00
         0.00000E+00
         0.00000E+00
         0.00000E+00
         0.00000E+00
         0.00000E+00
         0.00000E+00
         0.00000E+00
         0.00000E+00
         0.00000E+00
         0.00000E+00
         0.00000E+00
         0.00000E+00
         0.00000E+00
         0.00000E+00
         0.00000E+00
         0.00000E+00
         0.00000E+00
         0.00000E+00
         0.00000E+00
         0.00000E+00
         0.00000E+00
         0.00000E+00
         0.00000E+00
         0.00000E+00
         0.00000E+00
         0.00000E+00
         0.00000E+00
         0.00000E+00
         0.00000E+00
         0.00000E+00
         0.00000E+00
         0.00000E+00
         0.00000E+00
         0.00000E+00
         0.00000E+00
         0.00000E+00
         0.00000E+00
         0.00000E+00
         0.00000E+00
         0.00000E+00
         0.00000E+00
         0.00000E+00
         0.00000E+00
         0.00000E+00
         0.00000E+00
         0.00000E+00
         0.00000E+00
         0.00000E+00
         0.00000E+00
         0.00000E+00
         0.00000E+00
         0.00000E+00
         0.00000E+00
         0.00000E+00
         0.00000E+00
         0.00000E+00
         0.00000E+00
         0.00000E+00
         0.00000E+00
         0.00000E+00
         0.00000E+00
         0.00000E+00
         0.00000E+00
         0.00000E+00
         0.00000E+00
         0.00000E+00
         0.00000E+00
         0.00000E+00
         0.00000E+00
         0.00000E+00
         0.00000E+00
         0.00000E+00
         0.00000E+00
         0.00000E+00
         0.00000E+00
         0.00000E+00
         0.00000E+00
         0.00000E+00
         0.00000E+00
         0.00000E+00
         0.00000E+00
         0.00000E+00
         0.00000E+00
         0.00000E+00
         0.00000E+00
         0.00000E+00
         0.00000E+00
         0.00000E+00
         0.00000E+00
         0.00000E+00
         0.00000E+00
         0.00000E+00
         0.00000E+00
         0.00000E+00
         0.00000E+00
         0.00000E+00
         0.00000E+00
         0.00000E+00
         0.00000E+00
         0.00000E+00
         0.00000E+00
         0.00000E+00
         0.00000E+00
         0.00000E+00
         0.00000E+00
         0.00000E+00
         0.00000E+00
         0.00000E+00
         0.00000E+00
         0.00000E+00
         0.00000E+00
         0.00000E+00
         0.00000E+00
         0.00000E+00
         0.00000E+00
         0.00000E+00
         0.00000E+00
         0.00000E+00
         0.00000E+00
         0.00000E+00
         0.00000E+00
         0.00000E+00
         0.00000E+00
         0.00000E+00
         0.00000E+00
         0.00000E+00
         0.00000E+00
         0.00000E+00
         0.00000E+00
         0.00000E+00
         0.00000E+00
         0.00000E+00
         0.00000E+00
         0.00000E+00
         0.00000E+00
         0.00000E+00
         0.00000E+00
         0.00000E+00
         0.00000E+00
         0.00000E+00
         0.00000E+00
         0.00000E+00
         0.00000E+00
         0.00000E+00
         0.00000E+00
         0.00000E+00
         0.00000E+00
         0.00000E+00
         0.00000E+00
         0.00000E+00
         0.00000E+00
         0.00000E+00
         0.00000E+00
         0.00000E+00
         0.00000E+00
         0.00000E+00
         0.00000E+00
         0.00000E+00
         0.00000E+00
         0.00000E+00
         0.00000E+00
         0.00000E+00
         0.00000E+00
         0.00000E+00
         0.00000E+00
         0.00000E+00
         0.00000E+00
         0.00000E+00
         0.00000E+00
         0.00000E+00
         0.00000E+00
         0.00000E+00
         0.00000E+00
         0.00000E+00
         0.00000E+00
         0.00000E+00
         0.00000E+00
         0.00000E+00
         0.00000E+00
         0.00000E+00
         0.00000E+00
         0.00000E+00
         0.00000E+00
         0.00000E+00
         0.00000E+00
         0.00000E+00
         0.00000E+00
         0.00000E+00
         0.00000E+00
         0.00000E+00
         0.00000E+00
         0.00000E+00
         0.00000E+00
         0.00000E+00
         0.00000E+00
         0.00000E+00
         0.00000E+00
         0.00000E+00
         0.00000E+00
         0.00000E+00
         0.00000E+00
         0.00000E+00
         0.00000E+00
         0.00000E+00
         0.00000E+00
         0.00000E+00
         0.00000E+00
         0.00000E+00
         0.00000E+00
         0.00000E+00
         0.00000E+00
         0.00000E+00
         0.00000E+00
         0.00000E+00
         0.00000E+00
         0.00000E+00
         0.00000E+00
         0.00000E+00
         0.00000E+00
         0.00000E+00
         0.00000E+00
         0.00000E+00
         0.00000E+00
         0.00000E+00
         0.00000E+00
         0.00000E+00
         0.00000E+00
         0.00000E+00
         0.00000E+00
         0.00000E+00
         0.00000E+00
         0.00000E+00
         0.00000E+00
         0.00000E+00
         0.00000E+00
         0.00000E+00
         0.00000E+00
         0.00000E+00
         0.00000E+00
         0.00000E+00
         0.00000E+00
         0.00000E+00
         0.00000E+00
         0.00000E+00
         0.00000E+00
         0.00000E+00
         0.00000E+00
         0.00000E+00
         0.00000E+00
         0.00000E+00
         0.00000E+00
         0.00000E+00
         0.00000E+00
         0.00000E+00
         0.00000E+00
         0.00000E+00
         0.00000E+00
         0.00000E+00
         0.00000E+00
         0.00000E+00
         0.00000E+00
         0.00000E+00
         0.00000E+00
         0.00000E+00
         0.00000E+00
         0.00000E+00
         0.00000E+00
         0.00000E+00
         0.00000E+00
         0.00000E+00
         0.00000E+00
         0.00000E+00
         0.00000E+00
         0.00000E+00
         0.00000E+00
         0.00000E+00
         0.00000E+00
         0.00000E+00
         0.00000E+00
         0.00000E+00
         0.00000E+00
         0.00000E+00
         0.00000E+00
         0.00000E+00
         0.00000E+00
         0.00000E+00
         0.00000E+00
         0.00000E+00
         0.00000E+00
         0.00000E+00
         0.00000E+00
         0.00000E+00
         0.00000E+00
         0.00000E+00
         0.00000E+00
         0.00000E+00
         0.00000E+00
         0.00000E+00
         0.00000E+00
         0.00000E+00
         0.00000E+00
         0.00000E+00
         0.00000E+00
         0.00000E+00
         0.00000E+00
         0.00000E+00
         0.00000E+00
         0.00000E+00
         0.00000E+00
         0.00000E+00
         0.00000E+00
         0.00000E+00
         0.00000E+00
         0.00000E+00
         0.00000E+00
         0.00000E+00
         0.00000E+00
         0.00000E+00
         0.00000E+00
         0.00000E+00
         0.00000E+00
         0.00000E+00
         0.00000E+00
         0.00000E+00
         0.00000E+00
         0.00000E+00
         0.00000E+00
         0.00000E+00
         0.00000E+00
         0.00000E+00
         0.00000E+00
         0.00000E+00
         0.00000E+00
         0.00000E+00
         0.00000E+00
         0.00000E+00
         0.00000E+00
         0.00000E+00
         0.00000E+00
         0.00000E+00
         0.00000E+00
         0.00000E+00
         0.00000E+00
         0.00000E+00
         0.00000E+00
         0.00000E+00
         0.00000E+00
         0.00000E+00
         0.00000E+00
         0.00000E+00
         0.00000E+00
         0.00000E+00
         0.00000E+00
         0.00000E+00
         0.00000E+00
         0.00000E+00
         0.00000E+00
         0.00000E+00
         0.00000E+00
         0.00000E+00
         0.00000E+00
         0.00000E+00
         0.00000E+00
         0.00000E+00
         0.00000E+00
         0.00000E+00
         0.00000E+00
         0.00000E+00
         0.00000E+00
         0.00000E+00
         0.00000E+00
         0.00000E+00
         0.00000E+00
         0.00000E+00
         0.00000E+00
         0.00000E+00
         0.00000E+00
         0.00000E+00
         0.00000E+00
         0.00000E+00
         0.00000E+00
         0.00000E+00
         0.00000E+00
         0.00000E+00
         0.00000E+00
         0.00000E+00
         0.00000E+00
         0.00000E+00
         0.00000E+00
         0.00000E+00
         0.00000E+00
         0.00000E+00
         0.00000E+00
         0.00000E+00
         0.00000E+00
         0.00000E+00
         0.00000E+00
         0.00000E+00
         0.00000E+00
         0.00000E+00
         0.00000E+00
         0.00000E+00
         0.00000E+00
         0.00000E+00
         0.00000E+00
         0.00000E+00
         0.00000E+00
         0.00000E+00
         0.00000E+00
         0.00000E+00
         0.00000E+00
         0.00000E+00
         0.00000E+00
         0.00000E+00
         0.00000E+00
         0.00000E+00
         0.00000E+00
         0.00000E+00
         0.00000E+00
         0.00000E+00
         0.00000E+00
         0.00000E+00
         0.00000E+00
         0.00000E+00
         0.00000E+00
         0.00000E+00
         0.00000E+00
         0.00000E+00
         0.00000E+00
         0.00000E+00
         0.00000E+00
         0.00000E+00
         0.00000E+00
         0.00000E+00
         0.00000E+00
         0.00000E+00
         0.00000E+00
         0.00000E+00
         0.00000E+00
         0.00000E+00
         0.00000E+00
         0.00000E+00
         0.00000E+00
         0.00000E+00
         0.00000E+00
         0.00000E+00
         0.00000E+00
         0.00000E+00
         0.00000E+00
         0.00000E+00
         0.00000E+00
         0.00000E+00
         0.00000E+00
         0.00000E+00
         0.00000E+00
         0.00000E+00
         0.00000E+00
         0.00000E+00
         0.00000E+00
         0.00000E+00
         0.00000E+00
         0.00000E+00
         0.00000E+00
         0.00000E+00
         0.00000E+00
         0.00000E+00
         0.00000E+00
         0.00000E+00
         0.00000E+00
         0.00000E+00
         0.00000E+00
         0.00000E+00
         0.00000E+00
         0.00000E+00
         0.00000E+00
         0.00000E+00
         0.00000E+00
         0.00000E+00
         0.00000E+00
         0.00000E+00
         0.00000E+00
         0.00000E+00
         0.00000E+00
         0.00000E+00
         0.00000E+00
         0.00000E+00
         0.00000E+00
         0.00000E+00
         0.00000E+00
         0.00000E+00
         0.00000E+00
         0.00000E+00
         0.00000E+00
         0.00000E+00
         0.00000E+00
         0.00000E+00
         0.00000E+00
         0.00000E+00
         0.00000E+00
         0.00000E+00
         0.00000E+00
         0.00000E+00
         0.00000E+00
         0.00000E+00
         0.00000E+00
         0.00000E+00
         0.00000E+00
         0.00000E+00
         0.00000E+00
         0.00000E+00
         0.00000E+00
         0.00000E+00
         0.00000E+00
         0.00000E+00
         0.00000E+00
         0.00000E+00
         0.00000E+00
         0.00000E+00
         0.00000E+00
         0.00000E+00
         0.00000E+00
         0.00000E+00
         0.00000E+00
         0.00000E+00
         0.00000E+00
         0.00000E+00
         0.00000E+00
         0.00000E+00
         0.00000E+00
         0.00000E+00
         0.00000E+00
         0.00000E+00
         0.00000E+00
         0.00000E+00
         0.00000E+00
         0.00000E+00
         0.00000E+00
         0.00000E+00
         0.00000E+00
         0.00000E+00
         0.00000E+00
         0.00000E+00
         0.00000E+00
         0.00000E+00
         0.00000E+00
         0.00000E+00
         0.00000E+00
         0.00000E+00
         0.00000E+00
         0.00000E+00
         0.00000E+00
         0.00000E+00
         0.00000E+00
         0.00000E+00
         0.00000E+00
         0.00000E+00
         0.00000E+00
         0.00000E+00
         0.00000E+00
         0.00000E+00
         0.00000E+00
         0.00000E+00
         0.00000E+00
         0.00000E+00
         0.00000E+00
         0.00000E+00
         0.00000E+00
         0.00000E+00
         0.00000E+00
         0.00000E+00
         0.00000E+00
         0.00000E+00
         0.00000E+00
         0.00000E+00
         0.00000E+00
         0.00000E+00
         0.00000E+00
         0.00000E+00
         0.00000E+00
         0.00000E+00
         0.00000E+00
         0.00000E+00
         0.00000E+00
         0.00000E+00
         0.00000E+00
         0.00000E+00
         0.00000E+00
         0.00000E+00
         0.00000E+00
         0.00000E+00
         0.00000E+00
         0.00000E+00
         0.00000E+00
         0.00000E+00
         0.00000E+00
         0.00000E+00
         0.00000E+00
         0.00000E+00
         0.00000E+00
         0.00000E+00
         0.00000E+00
         0.00000E+00
         0.00000E+00
         0.00000E+00
         0.00000E+00
         0.00000E+00
         0.00000E+00
         0.00000E+00
         0.00000E+00
         0.00000E+00
         0.00000E+00
         0.00000E+00
         0.00000E+00
         0.00000E+00
         0.00000E+00
         0.00000E+00
         0.00000E+00
         0.00000E+00
         0.00000E+00
         0.00000E+00
         0.00000E+00
         0.00000E+00
         0.00000E+00
         0.00000E+00
         0.00000E+00
         0.00000E+00
         0.00000E+00
         0.00000E+00
         0.00000E+00
         0.00000E+00
         0.00000E+00
         0.00000E+00
         0.00000E+00
         0.00000E+00
         0.00000E+00
         0.00000E+00
         0.00000E+00
         0.00000E+00
         0.00000E+00
         0.00000E+00
         0.00000E+00
         0.00000E+00
         0.00000E+00
         0.00000E+00
         0.00000E+00
         0.00000E+00
         0.00000E+00
         0.00000E+00
         0.00000E+00
         0.00000E+00
         0.00000E+00
         0.00000E+00
         0.00000E+00
         0.00000E+00
         0.00000E+00
         0.00000E+00
         0.00000E+00
         0.00000E+00
         0.00000E+00
         0.00000E+00
         0.00000E+00
         0.00000E+00
         0.00000E+00
         0.00000E+00
         0.00000E+00
         0.00000E+00
         0.00000E+00
         0.00000E+00
         0.00000E+00
         0.00000E+00
         0.00000E+00
         0.00000E+00
         0.00000E+00
         0.00000E+00
         0.00000E+00
         0.00000E+00
         0.00000E+00
         0.00000E+00
         0.00000E+00
         0.00000E+00
         0.00000E+00
         0.00000E+00
         0.00000E+00
         0.00000E+00
         0.00000E+00
         0.00000E+00
         0.00000E+00
         0.00000E+00
         0.00000E+00
         0.00000E+00
         0.00000E+00
         0.00000E+00
         0.00000E+00
         0.00000E+00
         0.00000E+00
         0.00000E+00
         0.00000E+00
         0.00000E+00
         0.00000E+00
         0.00000E+00
         0.00000E+00
         0.00000E+00
         0.00000E+00
         0.00000E+00
         0.00000E+00
         0.00000E+00
         0.00000E+00
         0.00000E+00
         0.00000E+00
         0.00000E+00
         0.00000E+00
         0.00000E+00
         0.00000E+00
         0.00000E+00
         0.00000E+00
         0.00000E+00
         0.00000E+00
         0.00000E+00
         0.00000E+00
         0.00000E+00
         0.00000E+00
         0.00000E+00
         0.00000E+00
         0.00000E+00
         0.00000E+00
         0.00000E+00
         0.00000E+00
         0.00000E+00
         0.00000E+00
         0.00000E+00
         0.00000E+00
         0.00000E+00
         0.00000E+00
         0.00000E+00
         0.00000E+00
         0.00000E+00
         0.00000E+00
         0.00000E+00
         0.00000E+00
         0.00000E+00
         0.00000E+00
         0.00000E+00
         0.00000E+00
         0.00000E+00
         0.00000E+00
         0.00000E+00
         0.00000E+00
         0.00000E+00
         0.00000E+00
         0.00000E+00
         0.00000E+00
         0.00000E+00
         0.00000E+00
         0.00000E+00
         0.00000E+00
         0.00000E+00
         0.00000E+00
         0.00000E+00
         0.00000E+00
         0.00000E+00
         0.00000E+00
         0.00000E+00
         0.00000E+00
         0.00000E+00
         0.00000E+00
         0.00000E+00
         0.00000E+00
         0.00000E+00
         0.00000E+00
         0.00000E+00
         0.00000E+00
         0.00000E+00
         0.00000E+00
         0.00000E+00
         0.00000E+00
         0.00000E+00
         0.00000E+00
         0.00000E+00
         0.00000E+00
         0.00000E+00
         0.00000E+00
         0.00000E+00
         0.00000E+00
         0.00000E+00
         0.00000E+00
         0.00000E+00
         0.00000E+00
         0.00000E+00
         0.00000E+00
         0.00000E+00
         0.00000E+00
         0.00000E+00
         0.00000E+00
         0.00000E+00
         0.00000E+00
         0.00000E+00
         0.00000E+00
         0.00000E+00
         0.00000E+00
         0.00000E+00
         0.00000E+00
         0.00000E+00
         0.00000E+00
         0.00000E+00
         0.00000E+00
         0.00000E+00
         0.00000E+00
         0.00000E+00
         0.00000E+00
         0.00000E+00
         0.00000E+00
         0.00000E+00
         0.00000E+00
         0.00000E+00
         0.00000E+00
         0.00000E+00
         0.00000E+00
         0.00000E+00
         0.00000E+00
         0.00000E+00
         0.00000E+00
         0.00000E+00
         0.00000E+00
         0.00000E+00
         0.00000E+00
         0.00000E+00
         0.00000E+00
         0.00000E+00
         0.00000E+00
         0.00000E+00
         0.00000E+00
         0.00000E+00
         0.00000E+00
         0.00000E+00
         0.00000E+00
         0.00000E+00
         0.00000E+00
         0.00000E+00
         0.00000E+00
         0.00000E+00
         0.00000E+00
         0.00000E+00
         0.00000E+00
         0.00000E+00
         0.00000E+00
         0.00000E+00
         0.00000E+00
         0.00000E+00
         0.00000E+00
         0.00000E+00
         0.00000E+00
         0.00000E+00
         0.00000E+00
         0.00000E+00
         0.00000E+00
         0.00000E+00
         0.00000E+00
         0.00000E+00
         0.00000E+00
         0.00000E+00
         0.00000E+00
         0.00000E+00
         0.00000E+00
         0.00000E+00
         0.00000E+00
         0.00000E+00
         0.00000E+00
         0.00000E+00
         0.00000E+00
         0.00000E+00
         0.00000E+00
         0.00000E+00
         0.00000E+00
         0.00000E+00
         0.00000E+00
         0.00000E+00
         0.00000E+00
         0.00000E+00
         0.00000E+00
         0.00000E+00
         0.00000E+00
         0.00000E+00
         0.00000E+00
         0.00000E+00
         0.00000E+00
         0.00000E+00
         0.00000E+00
         0.00000E+00
         0.00000E+00
         0.00000E+00
         0.00000E+00
         0.00000E+00
         0.00000E+00
         0.00000E+00
         0.00000E+00
         0.00000E+00
         0.00000E+00
         0.00000E+00
         0.00000E+00
         0.00000E+00
         0.00000E+00
         0.00000E+00
         0.00000E+00
         0.00000E+00
         0.00000E+00
         0.00000E+00
         0.00000E+00
         0.00000E+00
         0.00000E+00
         0.00000E+00
         0.00000E+00
         0.00000E+00
         0.00000E+00
         0.00000E+00
         0.00000E+00
         0.00000E+00
         0.00000E+00
         0.00000E+00
         0.00000E+00
         0.00000E+00
         0.00000E+00
         0.00000E+00
         0.00000E+00
         0.00000E+00
         0.00000E+00
         0.00000E+00
         0.00000E+00
         0.00000E+00
         0.00000E+00
         0.00000E+00
         0.00000E+00
         0.00000E+00
         0.00000E+00
         0.00000E+00
         0.00000E+00
         0.00000E+00
         0.00000E+00
         0.00000E+00
         0.00000E+00
         0.00000E+00
         0.00000E+00
         0.00000E+00
         0.00000E+00
         0.00000E+00
         0.00000E+00
         0.00000E+00
         0.00000E+00
         0.00000E+00
         0.00000E+00
         0.00000E+00
         0.00000E+00
         0.00000E+00
         0.00000E+00
         0.00000E+00
         0.00000E+00
         0.00000E+00
         0.00000E+00
         0.00000E+00
         0.00000E+00
         0.00000E+00
         0.00000E+00
         0.00000E+00
         0.00000E+00
         0.00000E+00
         0.00000E+00
         0.00000E+00
         0.00000E+00
         0.00000E+00
         0.00000E+00
         0.00000E+00
         0.00000E+00
         0.00000E+00
         0.00000E+00
         0.00000E+00
         0.00000E+00
         0.00000E+00
         0.00000E+00
         0.00000E+00
         0.00000E+00
         0.00000E+00
         0.00000E+00
         0.00000E+00
         0.00000E+00
         0.00000E+00
         0.00000E+00
         0.00000E+00
         0.00000E+00
         0.00000E+00
         0.00000E+00
         0.00000E+00
         0.00000E+00
         0.00000E+00
         0.00000E+00
         0.00000E+00
         0.00000E+00
         0.00000E+00
         0.00000E+00
         0.00000E+00
         0.00000E+00
         0.00000E+00
         0.00000E+00
         0.00000E+00
         0.00000E+00
         0.00000E+00
         0.00000E+00
         0.00000E+00
         0.00000E+00
         0.00000E+00
         0.00000E+00
         0.00000E+00
         0.00000E+00
         0.00000E+00
         0.00000E+00
         0.00000E+00
         0.00000E+00
         0.00000E+00
         0.00000E+00
         0.00000E+00
         0.00000E+00
         0.00000E+00
         0.00000E+00
         0.00000E+00
         0.00000E+00
         0.00000E+00
         0.00000E+00
         0.00000E+00
         0.00000E+00
         0.00000E+00
         0.00000E+00
         0.00000E+00
         0.00000E+00
         0.00000E+00
         0.00000E+00
         0.00000E+00
         0.00000E+00
         0.00000E+00
         0.00000E+00
         0.00000E+00
         0.00000E+00
         0.00000E+00
         0.00000E+00
         0.00000E+00
         0.00000E+00
         0.00000E+00
         0.00000E+00
         0.00000E+00
         0.00000E+00
         0.00000E+00
         0.00000E+00
         0.00000E+00
         0.00000E+00
         0.00000E+00
         0.00000E+00
         0.00000E+00
         0.00000E+00
         0.00000E+00
         0.00000E+00
         0.00000E+00
         0.00000E+00
         0.00000E+00
         0.00000E+00
         0.00000E+00
         0.00000E+00
         0.00000E+00
         0.00000E+00
         0.00000E+00
         0.00000E+00
         0.00000E+00
         0.00000E+00
         0.00000E+00
         0.00000E+00
         0.00000E+00
         0.00000E+00
         0.00000E+00
         0.00000E+00
         0.00000E+00
         0.00000E+00
         0.00000E+00
         0.00000E+00
         0.00000E+00
         0.00000E+00
         0.00000E+00
         0.00000E+00
         0.00000E+00
         0.00000E+00
         0.00000E+00
         0.00000E+00
         0.00000E+00
         0.00000E+00
         0.00000E+00
         0.00000E+00
         0.00000E+00
         0.00000E+00
         0.00000E+00
         0.00000E+00
         0.00000E+00
         0.00000E+00
         0.00000E+00
         0.00000E+00
         0.00000E+00
         0.00000E+00
         0.00000E+00
         0.00000E+00
         0.00000E+00
         0.00000E+00
         0.00000E+00
         0.00000E+00
         0.00000E+00
         0.00000E+00
         0.00000E+00
         0.00000E+00
         0.00000E+00
         0.00000E+00
         0.00000E+00
         0.00000E+00
         0.00000E+00
         0.00000E+00
         0.00000E+00
         0.00000E+00
         0.00000E+00
         0.00000E+00
         0.00000E+00
         0.00000E+00
         0.00000E+00
         0.00000E+00
         0.00000E+00
         0.00000E+00
         0.00000E+00
         0.00000E+00
         0.00000E+00
         0.00000E+00
         0.00000E+00
         0.00000E+00
         0.00000E+00
         0.00000E+00
         0.00000E+00
         0.00000E+00
         0.00000E+00
         0.00000E+00
         0.00000E+00
         0.00000E+00
         0.00000E+00
         0.00000E+00
         0.00000E+00
         0.00000E+00
         0.00000E+00
         0.00000E+00
         0.00000E+00
         0.00000E+00
         0.00000E+00
         0.00000E+00
         0.00000E+00
         0.00000E+00
         0.00000E+00
         0.00000E+00
         0.00000E+00
         0.00000E+00
         0.00000E+00
         0.00000E+00
         0.00000E+00
         0.00000E+00
         0.00000E+00
         0.00000E+00
         0.00000E+00
         0.00000E+00
         0.00000E+00
         0.00000E+00
         0.00000E+00
         0.00000E+00
         0.00000E+00
         0.00000E+00
         0.00000E+00
         0.00000E+00
         0.00000E+00
         0.00000E+00
         0.00000E+00
         0.00000E+00
         0.00000E+00
         0.00000E+00
         0.00000E+00
         0.00000E+00
         0.00000E+00
         0.00000E+00
         0.00000E+00
         0.00000E+00
         0.00000E+00
         0.00000E+00
         0.00000E+00
         0.00000E+00
         0.00000E+00
         0.00000E+00
         0.00000E+00
         0.00000E+00
         0.00000E+00
         0.00000E+00
         0.00000E+00
         0.00000E+00
         0.00000E+00
         0.00000E+00
         0.00000E+00
         0.00000E+00
         0.00000E+00
         0.00000E+00
         0.00000E+00
         0.00000E+00
         0.00000E+00
         0.00000E+00
         0.00000E+00
         0.00000E+00
         0.00000E+00
         0.00000E+00
         0.00000E+00
         0.00000E+00
         0.00000E+00
         0.00000E+00
         0.00000E+00
         0.00000E+00
         0.00000E+00
         0.00000E+00
         0.00000E+00
         0.00000E+00
         0.00000E+00
         0.00000E+00
         0.00000E+00
         0.00000E+00
         0.00000E+00
         0.00000E+00
         0.00000E+00
         0.00000E+00
         0.00000E+00
         0.00000E+00
         0.00000E+00
         0.00000E+00
         0.00000E+00
         0.00000E+00
         0.00000E+00
         0.00000E+00
         0.00000E+00
         0.00000E+00
         0.00000E+00
         0.00000E+00
         0.00000E+00
         0.00000E+00
         0.00000E+00
         0.00000E+00
         0.00000E+00
         0.00000E+00
         0.00000E+00
         0.00000E+00
         0.00000E+00
         0.00000E+00
         0.00000E+00
         0.00000E+00
         0.00000E+00
         0.00000E+00
         0.00000E+00
         0.00000E+00
         0.00000E+00
         0.00000E+00
         0.00000E+00
         0.00000E+00
         0.00000E+00
         0.00000E+00
         0.00000E+00
         0.00000E+00
         0.00000E+00
         0.00000E+00
         0.00000E+00
         0.00000E+00
         0.00000E+00
         0.00000E+00
         0.00000E+00
         0.00000E+00
         0.00000E+00
         0.00000E+00
         0.00000E+00
         0.00000E+00
         0.00000E+00
         0.00000E+00
         0.00000E+00
         0.00000E+00
         0.00000E+00
         0.00000E+00
         0.00000E+00
         0.00000E+00
         0.00000E+00
         0.00000E+00
         0.00000E+00
         0.00000E+00
         0.00000E+00
         0.00000E+00
         0.00000E+00
         0.00000E+00
         0.00000E+00
         0.00000E+00
         0.00000E+00
         0.00000E+00
         0.00000E+00
         0.00000E+00
         0.00000E+00
         0.00000E+00
         0.00000E+00
         0.00000E+00
         0.00000E+00
         0.00000E+00
         0.00000E+00
         0.00000E+00
         0.00000E+00
         0.00000E+00
         0.00000E+00
         0.00000E+00
         0.00000E+00
         0.00000E+00
         0.00000E+00
         0.00000E+00
         0.00000E+00
         0.00000E+00
         0.00000E+00
         0.00000E+00
         0.00000E+00
         0.00000E+00
         0.00000E+00
         0.00000E+00
         0.00000E+00
         0.00000E+00
         0.00000E+00
         0.00000E+00
         0.00000E+00
         0.00000E+00
         0.00000E+00
         0.00000E+00
         0.00000E+00
         0.00000E+00
         0.00000E+00
         0.00000E+00
         0.00000E+00
         0.00000E+00
         0.00000E+00
         0.00000E+00
         0.00000E+00
         0.00000E+00
         0.00000E+00
         0.00000E+00
         0.00000E+00
         0.00000E+00
         0.00000E+00
         0.00000E+00
         0.00000E+00
         0.00000E+00
         0.00000E+00
         0.00000E+00
         0.00000E+00
         0.00000E+00
         0.00000E+00
         0.00000E+00
         0.00000E+00
         0.00000E+00
         0.00000E+00
  
SCALARS                      stress_xx  double 1
LOOKUP_TABLE default
         0.13106E+13
         0.12939E+13
         0.13045E+13
         0.13235E+13
        -0.18951E+03
        -0.21250E+03
        -0.20348E+03
        -0.18485E+03
         0.12934E+13
         0.12990E+13
        -0.19109E+03
        -0.18493E+03
         0.12698E+13
         0.12689E+13
        -0.22706E+03
        -0.21349E+03
         0.13207E+13
         0.12702E+13
        -0.16777E+03
        -0.18608E+03
         0.12516E+13
         0.12371E+13
         0.12601E+13
        -0.22504E+03
        -0.19653E+03
        -0.20294E+03
         0.12377E+13
         0.12166E+13
        -0.21589E+03
        -0.18207E+03
         0.13198E+13
         0.12978E+13
         0.13411E+13
        -0.18423E+03
        -0.17127E+03
        -0.16652E+03
         0.13071E+13
         0.12791E+13
        -0.19491E+03
        -0.17786E+03
         0.12960E+13
         0.12744E+13
        -0.16846E+03
        -0.14913E+03
         0.13143E+13
         0.13224E+13
        -0.18461E+03
        -0.20627E+03
         0.12570E+13
        -0.18034E+03
         0.13208E+13
        -0.21191E+03
         0.12316E+13
        -0.19045E+03
         0.12250E+13
        -0.18268E+03
         0.12251E+13
         0.12486E+13
        -0.18613E+03
        -0.18127E+03
         0.13193E+13
         0.13109E+13
        -0.18664E+03
        -0.21100E+03
         0.13246E+13
        -0.18010E+03
         0.13146E+13
        -0.19655E+03
         0.12882E+13
         0.12855E+13
        -0.18920E+03
        -0.19825E+03
         0.12795E+13
        -0.19991E+03
         0.12090E+13
        -0.15794E+03
         0.12053E+13
        -0.15331E+03
         0.12072E+13
        -0.16165E+03
         0.12174E+13
         0.12280E+13
        -0.15402E+03
        -0.16057E+03
         0.12494E+13
        -0.14955E+03
         0.13139E+13
        -0.19611E+03
         0.13038E+13
        -0.20072E+03
         0.12956E+13
         0.12910E+13
        -0.19275E+03
        -0.19500E+03
         0.12966E+13
        -0.17712E+03
         0.13006E+13
        -0.17459E+03
         0.12970E+13
        -0.18690E+03
         0.12957E+13
         0.12994E+13
        -0.18329E+03
        -0.18866E+03
         0.12758E+13
         0.12854E+13
        -0.14230E+03
        -0.13385E+03
         0.12740E+13
        -0.13588E+03
         0.12850E+13
        -0.13029E+03
         0.12742E+13
        -0.12847E+03
         0.12501E+13
        -0.12141E+03
         0.12267E+13
        -0.10786E+03
         0.12127E+13
        -0.97120E+02
         0.12112E+13
        -0.96446E+02
         0.12117E+13
        -0.10459E+03
         0.12269E+13
        -0.10992E+03
         0.12553E+13
        -0.10037E+03
         0.12864E+13
        -0.90473E+02
         0.13046E+13
        -0.90369E+02
         0.13226E+13
        -0.10101E+03
         0.13344E+13
        -0.11518E+03
         0.13340E+13
        -0.12373E+03
         0.13052E+13
        -0.13363E+03
         0.12850E+13
        -0.14317E+03
         0.12781E+13
        -0.13115E+03
         0.12889E+13
        -0.11505E+03
         0.12946E+13
        -0.11470E+03
         0.12851E+13
        -0.12549E+03
         0.12853E+13
        -0.13379E+03
         0.12924E+13
        -0.12696E+03
         0.13016E+13
        -0.12274E+03
        -0.27898E+11
        -0.27196E+11
        -0.27293E+11
        -0.28186E+11
        -0.26480E+11
        -0.27375E+11
        -0.26256E+11
        -0.26852E+11
        -0.28050E+11
        -0.27318E+11
        -0.25591E+11
        -0.25383E+11
        -0.25933E+11
        -0.25970E+11
        -0.25617E+11
        -0.28145E+11
        -0.27984E+11
        -0.28430E+11
        -0.27118E+11
        -0.27368E+11
        -0.27009E+11
        -0.27248E+11
        -0.26802E+11
        -0.26919E+11
        -0.27348E+11
        -0.27318E+11
        -0.26576E+11
        -0.26645E+11
        -0.26071E+11
        -0.26930E+11
        -0.28066E+11
        -0.27186E+11
        -0.28060E+11
        -0.27490E+11
        -0.25237E+11
        -0.25997E+11
        -0.26345E+11
        -0.25934E+11
        -0.25880E+11
        -0.25182E+11
        -0.24656E+11
        -0.25911E+11
        -0.27024E+11
        -0.26878E+11
        -0.26312E+11
        -0.25265E+11
        -0.26162E+11
        -0.27069E+11
        -0.27008E+11
        -0.26308E+11
        -0.25558E+11
        -0.26561E+11
        -0.23320E+11
        -0.24332E+11
        -0.24168E+11
        -0.24399E+11
        -0.24340E+11
        -0.23801E+11
        -0.23232E+11
        -0.23044E+11
        -0.23126E+11
        -0.23068E+11
        -0.22820E+11
        -0.24289E+11
        -0.24815E+11
        -0.25014E+11
        -0.25347E+11
        -0.25597E+11
        -0.25585E+11
        -0.25159E+11
        -0.23664E+11
        -0.24030E+11
        -0.24548E+11
        -0.24542E+11
        -0.24453E+11
        -0.23955E+11
        -0.24685E+11
        -0.24949E+11
         0.14551E+07
         0.65139E+06
         0.82905E+06
         0.89361E+06
         0.58314E+06
         0.10797E+07
        -0.55123E+06
        -0.10968E+07
         0.18460E+07
        -0.12123E+07
        -0.14408E+07
        -0.48233E+05
         0.54513E+04
        -0.41430E+07
        -0.12845E+07
        -0.18523E+06
         0.35760E+06
         0.78358E+06
        -0.15194E+05
        -0.24856E+06
        -0.12613E+07
        -0.47658E+06
        -0.18893E+07
        -0.80469E+06
        -0.13901E+07
        -0.22448E+06
        -0.53427E+07
        -0.28676E+07
        -0.18050E+07
        -0.13365E+07
        -0.82525E+05
        -0.55325E+06
         0.84743E+06
         0.15033E+07
        -0.10075E+07
        -0.70732E+06
        -0.25743E+06
        -0.16105E+07
        -0.10931E+07
        -0.66223E+06
        -0.76860E+06
        -0.14382E+07
        -0.11951E+07
        -0.15548E+07
        -0.11813E+07
        -0.54492E+06
        -0.19745E+06
        -0.19169E+06
         0.78130E+06
         0.12850E+07
         0.62594E+06
         0.84399E+06
        -0.32242E+07
        -0.41476E+06
        -0.18322E+07
         0.63977E+06
         0.27256E+07
         0.42070E+07
         0.34688E+07
         0.37845E+07
         0.30186E+07
         0.16565E+07
         0.59882E+06
        -0.25488E+06
        -0.11155E+07
         0.96799E+04
        -0.19264E+07
        -0.32011E+07
        -0.26896E+07
        -0.23850E+07
        -0.13172E+07
         0.74293E+06
         0.75100E+06
         0.85434E+05
        -0.10707E+07
        -0.16333E+07
        -0.90867E+06
         0.18787E+06
         0.13668E+07
         0.56522E+06
         0.74464E+06
         0.82420E+06
         0.47859E+06
         0.98577E+06
        -0.63490E+06
        -0.11970E+07
         0.17578E+07
        -0.13214E+07
        -0.15404E+07
        -0.18515E+06
        -0.11300E+06
        -0.42488E+07
        -0.14202E+07
        -0.27824E+06
         0.26823E+06
         0.72403E+06
        -0.11243E+06
        -0.33354E+06
        -0.13784E+07
        -0.59080E+06
        -0.20099E+07
        -0.89749E+06
        -0.15053E+07
        -0.30365E+06
        -0.54465E+07
        -0.29507E+07
        -0.19014E+07
        -0.14559E+07
        -0.17083E+06
        -0.63466E+06
         0.77653E+06
         0.14345E+07
        -0.11275E+07
        -0.80794E+06
        -0.36093E+06
        -0.17477E+07
        -0.12205E+07
        -0.78757E+06
        -0.90368E+06
        -0.15702E+07
        -0.13203E+07
        -0.16703E+07
        -0.12901E+07
        -0.66581E+06
        -0.30641E+06
        -0.29374E+06
         0.69035E+06
         0.11920E+07
         0.51556E+06
         0.74508E+06
        -0.34441E+07
        -0.62920E+06
        -0.20432E+07
         0.43753E+06
         0.25117E+07
         0.39688E+07
         0.32309E+07
         0.35438E+07
         0.27755E+07
         0.14079E+07
         0.35138E+06
        -0.48363E+06
        -0.13066E+07
        -0.16883E+06
        -0.21135E+07
        -0.34008E+07
        -0.28935E+07
        -0.25981E+07
        -0.15312E+07
         0.51664E+06
         0.53746E+06
        -0.10751E+06
        -0.12638E+07
        -0.18312E+07
        -0.11086E+07
        -0.15779E+05
         0.13873E+07
         0.58211E+06
         0.76256E+06
         0.84394E+06
         0.50682E+06
         0.10119E+07
        -0.62041E+06
        -0.11731E+07
         0.17730E+07
        -0.13163E+07
        -0.15191E+07
        -0.15911E+06
        -0.90735E+05
        -0.42202E+07
        -0.13866E+07
        -0.29742E+06
         0.26362E+06
         0.74223E+06
        -0.13631E+06
        -0.34928E+06
        -0.13975E+07
        -0.59809E+06
        -0.20890E+07
        -0.96447E+06
        -0.15553E+07
        -0.35926E+06
        -0.54262E+07
        -0.29598E+07
        -0.19434E+07
        -0.15393E+07
        -0.17149E+06
        -0.65321E+06
         0.79822E+06
         0.14579E+07
        -0.10965E+07
        -0.78208E+06
        -0.33776E+06
        -0.17245E+07
        -0.12007E+07
        -0.78128E+06
        -0.90717E+06
        -0.16183E+07
        -0.13877E+07
        -0.17475E+07
        -0.13085E+07
        -0.64906E+06
        -0.28652E+06
        -0.27122E+06
         0.71537E+06
         0.12206E+07
         0.54714E+06
         0.77331E+06
        -0.33785E+07
        -0.57034E+06
        -0.19780E+07
         0.48765E+06
         0.25490E+07
         0.40058E+07
         0.32781E+07
         0.35911E+07
         0.28235E+07
         0.14577E+07
         0.38066E+06
        -0.48470E+06
        -0.13035E+07
        -0.13592E+06
        -0.20918E+07
        -0.34413E+07
        -0.29374E+07
        -0.25868E+07
        -0.14723E+07
         0.58470E+06
         0.59842E+06
        -0.45932E+05
        -0.11945E+07
        -0.17730E+07
        -0.10614E+07
         0.29779E+05
         0.13747E+07
         0.57478E+06
         0.75548E+06
         0.83372E+06
         0.49757E+06
         0.10044E+07
        -0.62961E+06
        -0.11854E+07
         0.17479E+07
        -0.13628E+07
        -0.15286E+07
        -0.17338E+06
        -0.10044E+06
        -0.42308E+07
        -0.14032E+07
        -0.37161E+06
         0.21087E+06
         0.73294E+06
        -0.22131E+06
        -0.42052E+06
        -0.14863E+07
        -0.67699E+06
        -0.22731E+07
        -0.11142E+07
        -0.16922E+07
        -0.48552E+06
        -0.54545E+07
        -0.30268E+07
        -0.20608E+07
        -0.17395E+07
        -0.21492E+06
        -0.72673E+06
         0.78907E+06
         0.14472E+07
        -0.11122E+07
        -0.79186E+06
        -0.34585E+06
        -0.17502E+07
        -0.12325E+07
        -0.83857E+06
        -0.98370E+06
        -0.17678E+07
        -0.15707E+07
        -0.19298E+07
        -0.13984E+07
        -0.69767E+06
        -0.32148E+06
        -0.29051E+06
         0.69999E+06
         0.12030E+07
         0.53068E+06
         0.76266E+06
        -0.34092E+07
        -0.59138E+06
        -0.20112E+07
         0.45847E+06
         0.25294E+07
         0.39832E+07
         0.32402E+07
         0.35499E+07
         0.27839E+07
         0.14096E+07
         0.30443E+06
        -0.60774E+06
        -0.14193E+07
        -0.19084E+06
        -0.21536E+07
        -0.36111E+07
        -0.31172E+07
        -0.26710E+07
        -0.15123E+07
         0.54655E+06
         0.56943E+06
        -0.80241E+05
        -0.12302E+07
        -0.17973E+07
        -0.10799E+07
         0.11346E+05
         0.13517E+07
         0.55992E+06
         0.74317E+06
         0.82313E+06
         0.48680E+06
         0.99385E+06
        -0.64278E+06
        -0.12063E+07
         0.17177E+07
        -0.14112E+07
        -0.15389E+07
        -0.18231E+06
        -0.11124E+06
        -0.42427E+07
        -0.14110E+07
        -0.42207E+06
         0.16903E+06
         0.72444E+06
        -0.27723E+06
        -0.47157E+06
        -0.15434E+07
        -0.73366E+06
        -0.23862E+07
        -0.12070E+07
        -0.17912E+07
        -0.56658E+06
        -0.54792E+07
        -0.30746E+07
        -0.21434E+07
        -0.18725E+07
        -0.26031E+06
        -0.78030E+06
         0.76919E+06
         0.14320E+07
        -0.11285E+07
        -0.80446E+06
        -0.35810E+06
        -0.17694E+07
        -0.12589E+07
        -0.88216E+06
        -0.10377E+07
        -0.18685E+07
        -0.16908E+07
        -0.20455E+07
        -0.14574E+07
        -0.72968E+06
        -0.35248E+06
        -0.32119E+06
         0.67316E+06
         0.11770E+07
         0.50487E+06
         0.74527E+06
        -0.34367E+07
        -0.60975E+06
        -0.20395E+07
         0.43577E+06
         0.25204E+07
         0.39766E+07
         0.32240E+07
         0.35227E+07
         0.27503E+07
         0.13799E+07
         0.25803E+06
        -0.69287E+06
        -0.14982E+07
        -0.23328E+06
        -0.21972E+07
        -0.37212E+07
        -0.32434E+07
        -0.27312E+07
        -0.15304E+07
         0.51190E+06
         0.53099E+06
        -0.11961E+06
        -0.12762E+07
        -0.18368E+07
        -0.11043E+07
        -0.70445E+04
         0.12964E+07
         0.53146E+06
         0.73101E+06
         0.83381E+06
         0.50171E+06
         0.10123E+07
        -0.65265E+06
        -0.12437E+07
         0.16751E+07
        -0.14769E+07
        -0.15295E+07
        -0.15187E+06
        -0.99678E+05
        -0.42361E+07
        -0.13724E+07
        -0.41376E+06
         0.15924E+06
         0.74304E+06
        -0.26568E+06
        -0.46348E+06
        -0.15265E+07
        -0.71364E+06
        -0.23837E+07
        -0.12090E+07
        -0.18341E+07
        -0.57836E+06
        -0.54850E+07
        -0.30781E+07
        -0.21452E+07
        -0.18774E+07
        -0.31438E+06
        -0.80867E+06
         0.73454E+06
         0.14288E+07
        -0.11150E+07
        -0.80270E+06
        -0.36019E+06
        -0.17459E+07
        -0.12387E+07
        -0.85973E+06
        -0.10114E+07
        -0.18531E+07
        -0.16781E+07
        -0.20525E+07
        -0.14645E+07
        -0.73490E+06
        -0.37928E+06
        -0.38256E+06
         0.60723E+06
         0.11417E+07
         0.49652E+06
         0.75379E+06
        -0.33828E+07
        -0.55399E+06
        -0.19940E+07
         0.46614E+06
         0.25523E+07
         0.40199E+07
         0.32730E+07
         0.35697E+07
         0.28045E+07
         0.14514E+07
         0.32056E+06
        -0.65513E+06
        -0.14565E+07
        -0.18981E+06
        -0.21553E+07
        -0.36877E+07
        -0.32191E+07
        -0.27070E+07
        -0.15013E+07
         0.53196E+06
         0.52667E+06
        -0.14699E+06
        -0.12941E+07
        -0.18275E+07
        -0.10773E+07
         0.31677E+05
         0.12122E+07
         0.48112E+06
         0.70193E+06
         0.82781E+06
         0.49107E+06
         0.10119E+07
        -0.68806E+06
        -0.13174E+07
         0.16029E+07
        -0.15740E+07
        -0.15529E+07
        -0.16368E+06
        -0.11903E+06
        -0.42684E+07
        -0.13804E+07
        -0.42942E+06
         0.12485E+06
         0.74165E+06
        -0.27544E+06
        -0.47485E+06
        -0.15342E+07
        -0.71915E+06
        -0.23926E+07
        -0.12204E+07
        -0.18944E+07
        -0.59913E+06
        -0.55270E+07
        -0.31016E+07
        -0.21604E+07
        -0.18935E+07
        -0.38959E+06
        -0.85491E+06
         0.68066E+06
         0.14084E+07
        -0.11340E+07
        -0.82344E+06
        -0.38442E+06
        -0.17661E+07
        -0.12580E+07
        -0.87049E+06
        -0.10161E+07
        -0.18558E+07
        -0.16793E+07
        -0.20698E+07
        -0.14970E+07
        -0.78028E+06
        -0.44114E+06
        -0.47454E+06
         0.51316E+06
         0.10799E+07
         0.46193E+06
         0.74205E+06
        -0.34052E+07
        -0.57142E+06
        -0.20074E+07
         0.45082E+06
         0.25302E+07
         0.39934E+07
         0.32510E+07
         0.35508E+07
         0.27856E+07
         0.14373E+07
         0.30929E+06
        -0.66883E+06
        -0.14589E+07
        -0.19320E+06
        -0.21646E+07
        -0.36930E+07
        -0.32297E+07
        -0.27451E+07
        -0.15579E+07
         0.46950E+06
         0.45650E+06
        -0.23371E+06
        -0.13701E+07
        -0.18677E+07
        -0.10989E+07
         0.14597E+05
         0.11876E+07
         0.46238E+06
         0.68998E+06
         0.81934E+06
         0.47955E+06
         0.10017E+07
        -0.70729E+06
        -0.13422E+07
         0.15820E+07
        -0.16029E+07
        -0.15694E+07
        -0.18026E+06
        -0.13808E+06
        -0.42851E+07
        -0.13942E+07
        -0.44357E+06
         0.11092E+06
         0.73543E+06
        -0.28437E+06
        -0.48366E+06
        -0.15465E+07
        -0.73217E+06
        -0.24044E+07
        -0.12291E+07
        -0.19166E+07
        -0.61108E+06
        -0.55450E+07
        -0.31131E+07
        -0.21817E+07
        -0.19089E+07
        -0.41478E+06
        -0.87327E+06
         0.66490E+06
         0.13972E+07
        -0.11501E+07
        -0.83451E+06
        -0.39913E+06
        -0.17914E+07
        -0.12803E+07
        -0.89274E+06
        -0.10388E+07
        -0.18741E+07
        -0.16909E+07
        -0.20853E+07
        -0.15163E+07
        -0.80148E+06
        -0.46143E+06
        -0.49755E+06
         0.48999E+06
         0.10584E+07
         0.44061E+06
         0.72733E+06
        -0.34361E+07
        -0.60171E+06
        -0.20279E+07
         0.42965E+06
         0.25046E+07
         0.39709E+07
         0.32279E+07
         0.35187E+07
         0.27434E+07
         0.13929E+07
         0.26906E+06
        -0.68702E+06
        -0.14734E+07
        -0.22407E+06
        -0.21971E+07
        -0.37240E+07
        -0.32697E+07
        -0.27836E+07
        -0.15901E+07
         0.44337E+06
         0.43518E+06
        -0.26261E+06
        -0.14082E+07
        -0.19033E+07
        -0.11289E+07
        -0.15165E+05
         0.12030E+07
         0.47490E+06
         0.69915E+06
         0.82340E+06
         0.49337E+06
         0.10057E+07
        -0.69835E+06
        -0.13223E+07
         0.15964E+07
        -0.15840E+07
        -0.15567E+07
        -0.16381E+06
        -0.12621E+06
        -0.42632E+07
        -0.13677E+07
        -0.42685E+06
         0.12416E+06
         0.74489E+06
        -0.26744E+06
        -0.47031E+06
        -0.15292E+07
        -0.71613E+06
        -0.23871E+07
        -0.12139E+07
        -0.19025E+07
        -0.59867E+06
        -0.55194E+07
        -0.30951E+07
        -0.21771E+07
        -0.18947E+07
        -0.40159E+06
        -0.86295E+06
         0.67624E+06
         0.14021E+07
        -0.11325E+07
        -0.82101E+06
        -0.38738E+06
        -0.17739E+07
        -0.12667E+07
        -0.88076E+06
        -0.10233E+07
        -0.18577E+07
        -0.16737E+07
        -0.20696E+07
        -0.15031E+07
        -0.78780E+06
        -0.44786E+06
        -0.48195E+06
         0.50556E+06
         0.10705E+07
         0.44989E+06
         0.73117E+06
        -0.33900E+07
        -0.55638E+06
        -0.20008E+07
         0.44074E+06
         0.25272E+07
         0.40060E+07
         0.32670E+07
         0.35466E+07
         0.27542E+07
         0.14095E+07
         0.29877E+06
        -0.64485E+06
        -0.14365E+07
        -0.20016E+06
        -0.21747E+07
        -0.36980E+07
        -0.32432E+07
        -0.27509E+07
        -0.15590E+07
         0.47975E+06
         0.47279E+06
        -0.22907E+06
        -0.13800E+07
        -0.18783E+07
        -0.11040E+07
         0.11791E+05
         0.11988E+07
         0.47371E+06
         0.69674E+06
         0.81812E+06
         0.49149E+06
         0.10005E+07
        -0.70291E+06
        -0.13282E+07
         0.15863E+07
        -0.15949E+07
        -0.15634E+07
        -0.17389E+06
        -0.12931E+06
        -0.42704E+07
        -0.13822E+07
        -0.43588E+06
         0.11514E+06
         0.73808E+06
        -0.27481E+06
        -0.47623E+06
        -0.15355E+07
        -0.72440E+06
        -0.23932E+07
        -0.12197E+07
        -0.19098E+07
        -0.60382E+06
        -0.55251E+07
        -0.30946E+07
        -0.21878E+07
        -0.19020E+07
        -0.41010E+06
        -0.86864E+06
         0.66874E+06
         0.13940E+07
        -0.11386E+07
        -0.82579E+06
        -0.39065E+06
        -0.17959E+07
        -0.12795E+07
        -0.89232E+06
        -0.10343E+07
        -0.18651E+07
        -0.16836E+07
        -0.20737E+07
        -0.15072E+07
        -0.79449E+06
        -0.45718E+06
        -0.49258E+06
         0.49654E+06
         0.10621E+07
         0.44161E+06
         0.72278E+06
        -0.34033E+07
        -0.56684E+06
        -0.20222E+07
         0.42239E+06
         0.25248E+07
         0.39930E+07
         0.32369E+07
         0.35129E+07
         0.27347E+07
         0.13800E+07
         0.26652E+06
        -0.66091E+06
        -0.14555E+07
        -0.21057E+06
        -0.21846E+07
        -0.37073E+07
        -0.32446E+07
        -0.27574E+07
        -0.15682E+07
         0.45513E+06
         0.44237E+06
        -0.25254E+06
        -0.13918E+07
        -0.18840E+07
        -0.11174E+07
        -0.72425E+04
         0.11874E+07
         0.46410E+06
         0.68989E+06
         0.81555E+06
         0.48359E+06
         0.99741E+06
        -0.71227E+06
        -0.13374E+07
         0.15772E+07
        -0.16059E+07
        -0.15710E+07
        -0.18725E+06
        -0.13810E+06
        -0.42754E+07
        -0.13970E+07
        -0.44816E+06
         0.10800E+06
         0.73488E+06
        -0.28389E+06
        -0.48031E+06
        -0.15436E+07
        -0.73282E+06
        -0.24025E+07
        -0.12287E+07
        -0.19169E+07
        -0.61324E+06
        -0.55293E+07
        -0.30961E+07
        -0.21991E+07
        -0.19074E+07
        -0.42192E+06
        -0.87792E+06
         0.66552E+06
         0.13932E+07
        -0.11528E+07
        -0.83439E+06
        -0.39847E+06
        -0.18171E+07
        -0.12937E+07
        -0.90249E+06
        -0.10407E+07
        -0.18714E+07
        -0.16926E+07
        -0.20819E+07
        -0.15150E+07
        -0.80355E+06
        -0.46587E+06
        -0.50182E+06
         0.48794E+06
         0.10548E+07
         0.43376E+06
         0.71917E+06
        -0.34299E+07
        -0.58897E+06
        -0.20385E+07
         0.41682E+06
         0.25176E+07
         0.39669E+07
         0.31991E+07
         0.34825E+07
         0.27144E+07
         0.13587E+07
         0.25334E+06
        -0.67676E+06
        -0.14783E+07
        -0.22608E+06
        -0.22010E+07
        -0.37263E+07
        -0.32571E+07
        -0.27722E+07
        -0.15863E+07
         0.43483E+06
         0.41929E+06
        -0.27656E+06
        -0.14089E+07
        -0.19003E+07
        -0.11379E+07
        -0.28905E+05
         0.11947E+07
         0.46795E+06
         0.69326E+06
         0.82204E+06
         0.49314E+06
         0.10063E+07
        -0.70738E+06
        -0.13232E+07
         0.15841E+07
        -0.15977E+07
        -0.15591E+07
        -0.17603E+06
        -0.13464E+06
        -0.42551E+07
        -0.13725E+07
        -0.43910E+06
         0.11328E+06
         0.74428E+06
        -0.27367E+06
        -0.46920E+06
        -0.15297E+07
        -0.71847E+06
        -0.23908E+07
        -0.12194E+07
        -0.19109E+07
        -0.60552E+06
        -0.55130E+07
        -0.30840E+07
        -0.21928E+07
        -0.18919E+07
        -0.41170E+06
        -0.87092E+06
         0.67875E+06
         0.14040E+07
        -0.11421E+07
        -0.82561E+06
        -0.39345E+06
        -0.18032E+07
        -0.12802E+07
        -0.88465E+06
        -0.10234E+07
        -0.18590E+07
        -0.16788E+07
        -0.20721E+07
        -0.15068E+07
        -0.79591E+06
        -0.45753E+06
        -0.49245E+06
         0.49826E+06
         0.10650E+07
         0.44349E+06
         0.72948E+06
        -0.33962E+07
        -0.55243E+06
        -0.20041E+07
         0.43363E+06
         0.25122E+07
         0.39687E+07
         0.32262E+07
         0.35124E+07
         0.27347E+07
         0.13895E+07
         0.28252E+06
        -0.66289E+06
        -0.14537E+07
        -0.20103E+06
        -0.21783E+07
        -0.37088E+07
        -0.32452E+07
        -0.27573E+07
        -0.15722E+07
         0.45672E+06
         0.44525E+06
        -0.25163E+06
        -0.13871E+07
        -0.18819E+07
        -0.11108E+07
         0.27229E+04
         0.11893E+07
         0.46022E+06
         0.68662E+06
         0.81596E+06
         0.48508E+06
         0.99863E+06
        -0.71857E+06
        -0.13314E+07
         0.15768E+07
        -0.16112E+07
        -0.15704E+07
        -0.19261E+06
        -0.15217E+06
        -0.42650E+07
        -0.13829E+07
        -0.44917E+06
         0.10409E+06
         0.73691E+06
        -0.28480E+06
        -0.47639E+06
        -0.15446E+07
        -0.73372E+06
        -0.24067E+07
        -0.12297E+07
        -0.19244E+07
        -0.61382E+06
        -0.55284E+07
        -0.30951E+07
        -0.22105E+07
        -0.19013E+07
        -0.42278E+06
        -0.87968E+06
         0.66922E+06
         0.13968E+07
        -0.11557E+07
        -0.83573E+06
        -0.40646E+06
        -0.18263E+07
        -0.13026E+07
        -0.90395E+06
        -0.10446E+07
        -0.18790E+07
        -0.16941E+07
        -0.20891E+07
        -0.15214E+07
        -0.80913E+06
        -0.47001E+06
        -0.50682E+06
         0.48710E+06
         0.10568E+07
         0.43297E+06
         0.71990E+06
        -0.34225E+07
        -0.57511E+06
        -0.20300E+07
         0.40366E+06
         0.24773E+07
         0.39353E+07
         0.32057E+07
         0.34861E+07
         0.27003E+07
         0.13554E+07
         0.24092E+06
        -0.70399E+06
        -0.14810E+07
        -0.22932E+06
        -0.22027E+07
        -0.37367E+07
        -0.32882E+07
        -0.27959E+07
        -0.15914E+07
         0.42990E+06
         0.41772E+06
        -0.26577E+06
        -0.13966E+07
        -0.19020E+07
        -0.11385E+07
        -0.24865E+05
         0.11882E+07
         0.45760E+06
         0.68461E+06
         0.81485E+06
         0.48470E+06
         0.99694E+06
        -0.72253E+06
        -0.13310E+07
         0.15778E+07
        -0.16113E+07
        -0.15717E+07
        -0.19497E+06
        -0.15518E+06
        -0.42614E+07
        -0.13819E+07
        -0.45166E+06
         0.10447E+06
         0.73669E+06
        -0.28583E+06
        -0.47575E+06
        -0.15476E+07
        -0.73601E+06
        -0.24102E+07
        -0.12318E+07
        -0.19266E+07
        -0.61647E+06
        -0.55251E+07
        -0.30949E+07
        -0.22203E+07
        -0.19036E+07
        -0.42910E+06
        -0.88320E+06
         0.66680E+06
         0.13959E+07
        -0.11591E+07
        -0.83868E+06
        -0.41023E+06
        -0.18376E+07
        -0.13156E+07
        -0.91209E+06
        -0.10470E+07
        -0.18811E+07
        -0.16963E+07
        -0.20917E+07
        -0.15237E+07
        -0.81220E+06
        -0.47389E+06
        -0.51257E+06
         0.48286E+06
         0.10551E+07
         0.43113E+06
         0.71776E+06
        -0.34231E+07
        -0.57454E+06
        -0.20369E+07
         0.39210E+06
         0.24767E+07
         0.39347E+07
         0.31974E+07
         0.34640E+07
         0.26755E+07
         0.13417E+07
         0.23957E+06
        -0.70801E+06
        -0.14878E+07
        -0.24030E+06
        -0.22155E+07
        -0.37458E+07
        -0.32941E+07
        -0.28010E+07
        -0.15968E+07
         0.42022E+06
         0.40561E+06
        -0.27353E+06
        -0.13972E+07
        -0.19045E+07
        -0.11508E+07
        -0.36082E+05
         0.12113E+07
         0.48152E+06
         0.70456E+06
         0.83007E+06
         0.51145E+06
         0.10165E+07
        -0.70042E+06
        -0.13024E+07
         0.15950E+07
        -0.15896E+07
        -0.15439E+07
        -0.15925E+06
        -0.12434E+06
        -0.42285E+07
        -0.13454E+07
        -0.43124E+06
         0.12268E+06
         0.75275E+06
        -0.26352E+06
        -0.45427E+06
        -0.15172E+07
        -0.70768E+06
        -0.23816E+07
        -0.12115E+07
        -0.19027E+07
        -0.59882E+06
        -0.54928E+07
        -0.30661E+07
        -0.22011E+07
        -0.18746E+07
        -0.40753E+06
        -0.86332E+06
         0.68594E+06
         0.14100E+07
        -0.11298E+07
        -0.81395E+06
        -0.38462E+06
        -0.18154E+07
        -0.12883E+07
        -0.88262E+06
        -0.10182E+07
        -0.18525E+07
        -0.16705E+07
        -0.20622E+07
        -0.14942E+07
        -0.78221E+06
        -0.44766E+06
        -0.48846E+06
         0.50350E+06
         0.10736E+07
         0.45124E+06
         0.73555E+06
        -0.33619E+07
        -0.51353E+06
        -0.19855E+07
         0.42926E+06
         0.25221E+07
         0.39922E+07
         0.32456E+07
         0.35005E+07
         0.27167E+07
         0.13867E+07
         0.28015E+06
        -0.66046E+06
        -0.14501E+07
        -0.19838E+06
        -0.21679E+07
        -0.36962E+07
        -0.32379E+07
        -0.27407E+07
        -0.15449E+07
         0.47434E+06
         0.45184E+06
        -0.23917E+06
        -0.13592E+07
        -0.18593E+07
        -0.11019E+07
         0.13306E+05
         0.12015E+07
         0.47455E+06
         0.69839E+06
         0.82231E+06
         0.50116E+06
         0.10086E+07
        -0.71064E+06
        -0.13134E+07
         0.15844E+07
        -0.16065E+07
        -0.15551E+07
        -0.17201E+06
        -0.13222E+06
        -0.42391E+07
        -0.13606E+07
        -0.44398E+06
         0.11109E+06
         0.74700E+06
        -0.27825E+06
        -0.46345E+06
        -0.15270E+07
        -0.72159E+06
        -0.23914E+07
        -0.12240E+07
        -0.19184E+07
        -0.61043E+06
        -0.55065E+07
        -0.30731E+07
        -0.22101E+07
        -0.18814E+07
        -0.41586E+06
        -0.87324E+06
         0.68014E+06
         0.14011E+07
        -0.11472E+07
        -0.82307E+06
        -0.39084E+06
        -0.18415E+07
        -0.13067E+07
        -0.89144E+06
        -0.10315E+07
        -0.18682E+07
        -0.16882E+07
        -0.20748E+07
        -0.15068E+07
        -0.79464E+06
        -0.45800E+06
        -0.49660E+06
         0.49418E+06
         0.10611E+07
         0.43861E+06
         0.72571E+06
        -0.34007E+07
        -0.54628E+06
        -0.20154E+07
         0.41343E+06
         0.25168E+07
         0.39773E+07
         0.32128E+07
         0.34609E+07
         0.26786E+07
         0.13527E+07
         0.24004E+06
        -0.70637E+06
        -0.14826E+07
        -0.21452E+06
        -0.21755E+07
        -0.37011E+07
        -0.32536E+07
        -0.27679E+07
        -0.15651E+07
         0.45023E+06
         0.42979E+06
        -0.26402E+06
        -0.13856E+07
        -0.18760E+07
        -0.11176E+07
        -0.12792E+05
         0.11851E+07
         0.45693E+06
         0.68146E+06
         0.81155E+06
         0.48429E+06
         0.99303E+06
        -0.72605E+06
        -0.13267E+07
         0.15690E+07
        -0.16369E+07
        -0.15688E+07
        -0.19262E+06
        -0.14936E+06
        -0.42500E+07
        -0.13799E+07
        -0.45946E+06
         0.93433E+05
         0.74009E+06
        -0.29031E+06
        -0.46711E+06
        -0.15393E+07
        -0.73787E+06
        -0.24032E+07
        -0.12347E+07
        -0.19457E+07
        -0.62182E+06
        -0.55383E+07
        -0.30859E+07
        -0.21861E+07
        -0.18608E+07
        -0.43019E+06
        -0.88714E+06
         0.67441E+06
         0.13952E+07
        -0.11668E+07
        -0.83841E+06
        -0.40614E+06
        -0.18798E+07
        -0.13248E+07
        -0.86429E+06
        -0.10327E+07
        -0.18850E+07
        -0.17117E+07
        -0.20884E+07
        -0.15230E+07
        -0.81461E+06
        -0.47621E+06
        -0.51099E+06
         0.48337E+06
         0.10512E+07
         0.42744E+06
         0.71357E+06
        -0.34266E+07
        -0.57008E+06
        -0.20357E+07
         0.39561E+06
         0.24920E+07
         0.39368E+07
         0.31665E+07
         0.34167E+07
         0.26402E+07
         0.13438E+07
         0.17004E+06
        -0.81644E+06
        -0.15283E+07
        -0.23987E+06
        -0.21983E+07
        -0.37215E+07
        -0.32786E+07
        -0.27966E+07
        -0.15983E+07
         0.41253E+06
         0.40449E+06
        -0.28775E+06
        -0.14126E+07
        -0.18960E+07
        -0.11485E+07
        -0.47538E+05
         0.12071E+07
         0.47889E+06
         0.70312E+06
         0.82985E+06
         0.51267E+06
         0.10142E+07
        -0.70688E+06
        -0.12985E+07
         0.15809E+07
        -0.16416E+07
        -0.15438E+07
        -0.16596E+06
        -0.12657E+06
        -0.42188E+07
        -0.13473E+07
        -0.43880E+06
         0.10596E+06
         0.75525E+06
        -0.26457E+06
        -0.43280E+06
        -0.15140E+07
        -0.71312E+06
        -0.23802E+07
        -0.12129E+07
        -0.19404E+07
        -0.60259E+06
        -0.55434E+07
        -0.30672E+07
        -0.20970E+07
        -0.17709E+07
        -0.41191E+06
        -0.86693E+06
         0.69316E+06
         0.14136E+07
        -0.11353E+07
        -0.81088E+06
        -0.38194E+06
        -0.18782E+07
        -0.12934E+07
        -0.76035E+06
        -0.97715E+06
        -0.18560E+07
        -0.16967E+07
        -0.20630E+07
        -0.14942E+07
        -0.78127E+06
        -0.44886E+06
        -0.48894E+06
         0.50599E+06
         0.10763E+07
         0.45418E+06
         0.73462E+06
        -0.33636E+07
        -0.50811E+06
        -0.19723E+07
         0.43987E+06
         0.25204E+07
         0.39694E+07
         0.32116E+07
         0.34624E+07
         0.26906E+07
         0.14419E+07
         0.14735E+06
        -0.90501E+06
        -0.15250E+07
        -0.20512E+06
        -0.21692E+07
        -0.36971E+07
        -0.32482E+07
        -0.27460E+07
        -0.15363E+07
         0.47043E+06
         0.45462E+06
        -0.23613E+06
        -0.13543E+07
        -0.18420E+07
        -0.11048E+07
        -0.17938E+04
         0.11246E+07
         0.39776E+06
         0.62506E+06
         0.76135E+06
         0.41469E+06
         0.92485E+06
        -0.78749E+06
        -0.13937E+07
         0.14954E+07
        -0.17604E+07
        -0.16383E+07
        -0.29324E+06
        -0.24481E+06
        -0.43224E+07
        -0.14766E+07
        -0.51992E+06
         0.22361E+05
         0.69588E+06
        -0.35081E+06
        -0.49924E+06
        -0.16240E+07
        -0.82117E+06
        -0.24870E+07
        -0.12905E+07
        -0.20495E+07
        -0.66848E+06
        -0.56690E+07
        -0.31476E+07
        -0.21415E+07
        -0.18322E+07
        -0.49133E+06
        -0.94098E+06
         0.62256E+06
         0.13394E+07
        -0.12522E+07
        -0.91008E+06
        -0.48793E+06
        -0.20274E+07
        -0.14104E+07
        -0.82925E+06
        -0.10860E+07
        -0.19736E+07
        -0.18145E+07
        -0.21660E+07
        -0.16012E+07
        -0.90593E+06
        -0.55420E+06
        -0.58346E+06
         0.41586E+06
         0.97676E+06
         0.33545E+06
         0.63328E+06
        -0.35830E+07
        -0.72099E+06
        -0.21937E+07
         0.21436E+06
         0.22957E+07
         0.37529E+07
         0.29915E+07
         0.32260E+07
         0.24690E+07
         0.12400E+07
        -0.13385E+06
        -0.12110E+07
        -0.17418E+07
        -0.38499E+06
        -0.23578E+07
        -0.38931E+07
        -0.34505E+07
        -0.29724E+07
        -0.17688E+07
         0.24745E+06
         0.24786E+06
        -0.43414E+06
        -0.15568E+07
        -0.20503E+07
        -0.13049E+07
        -0.20053E+06
         0.11716E+07
         0.40328E+06
         0.63964E+06
         0.78888E+06
         0.44839E+06
         0.95485E+06
        -0.77872E+06
        -0.13340E+07
         0.15520E+07
        -0.16742E+07
        -0.16120E+07
        -0.29094E+06
        -0.27517E+06
        -0.42516E+07
        -0.14178E+07
        -0.45800E+06
         0.76819E+05
         0.73059E+06
        -0.30418E+06
        -0.45765E+06
        -0.15737E+07
        -0.78397E+06
        -0.24103E+07
        -0.12326E+07
        -0.19559E+07
        -0.62065E+06
        -0.55616E+07
        -0.30515E+07
        -0.20678E+07
        -0.17414E+07
        -0.44389E+06
        -0.90850E+06
         0.64554E+06
         0.13292E+07
        -0.12348E+07
        -0.91727E+06
        -0.51785E+06
        -0.19590E+07
        -0.13280E+07
        -0.75738E+06
        -0.10369E+07
        -0.19074E+07
        -0.17441E+07
        -0.20954E+07
        -0.15617E+07
        -0.88673E+06
        -0.53812E+06
        -0.54338E+06
         0.44631E+06
         0.97852E+06
         0.34325E+06
         0.63546E+06
        -0.34985E+07
        -0.61114E+06
        -0.21658E+07
         0.16569E+06
         0.21948E+07
         0.36914E+07
         0.30921E+07
         0.33295E+07
         0.25515E+07
         0.12890E+07
        -0.12015E+06
        -0.11691E+07
        -0.16598E+07
        -0.34441E+06
        -0.22723E+07
        -0.37709E+07
        -0.33462E+07
        -0.28925E+07
        -0.17342E+07
         0.24343E+06
         0.29390E+06
        -0.36836E+06
        -0.14523E+07
        -0.19234E+07
        -0.12050E+07
        -0.97180E+05
         0.32409E+09
         0.32170E+09
         0.31774E+09
         0.27699E+09
         0.38820E+09
         0.35166E+09
         0.32692E+09
         0.36786E+09
         0.30579E+09
         0.36794E+09
         0.37766E+09
         0.48762E+09
         0.43175E+09
         0.40425E+09
         0.50205E+09
         0.30141E+09
         0.30324E+09
         0.24423E+09
         0.32509E+09
         0.31823E+09
         0.39617E+09
         0.39870E+09
         0.37737E+09
         0.29836E+09
         0.35577E+09
         0.26479E+09
         0.39858E+09
         0.33947E+09
         0.35793E+09
         0.36987E+09
         0.29979E+09
         0.29202E+09
         0.27768E+09
         0.28818E+09
         0.43805E+09
         0.37815E+09
         0.38681E+09
         0.47197E+09
         0.44908E+09
         0.44031E+09
         0.46131E+09
         0.43285E+09
         0.41025E+09
         0.36310E+09
         0.37659E+09
         0.44288E+09
         0.39019E+09
         0.35826E+09
         0.34351E+09
         0.36325E+09
         0.41752E+09
         0.36960E+09
         0.80238E+09
         0.78607E+09
         0.80059E+09
         0.77541E+09
         0.80033E+09
         0.83993E+09
         0.84354E+09
         0.83434E+09
         0.84084E+09
         0.86391E+09
         0.83704E+09
         0.78857E+09
         0.69930E+09
         0.66012E+09
         0.66971E+09
         0.68530E+09
         0.69447E+09
         0.75702E+09
         0.81151E+09
         0.81539E+09
         0.74774E+09
         0.72113E+09
         0.74668E+09
         0.73833E+09
         0.73295E+09
         0.73450E+09
         0.37280E+10
         0.39065E+10
         0.38502E+10
         0.35131E+10
         0.43250E+10
         0.40624E+10
         0.42273E+10
         0.42591E+10
         0.36464E+10
         0.42569E+10
         0.46430E+10
         0.52013E+10
         0.47144E+10
         0.47778E+10
         0.53835E+10
         0.35727E+10
         0.38411E+10
         0.33519E+10
         0.39670E+10
         0.41745E+10
         0.43160E+10
         0.44110E+10
         0.41428E+10
         0.38152E+10
         0.43075E+10
         0.36815E+10
         0.47604E+10
         0.46804E+10
         0.47015E+10
         0.44602E+10
         0.36115E+10
         0.37987E+10
         0.35411E+10
         0.37035E+10
         0.47357E+10
         0.43455E+10
         0.43593E+10
         0.52132E+10
         0.50802E+10
         0.50194E+10
         0.51067E+10
         0.48488E+10
         0.45844E+10
         0.40449E+10
         0.42128E+10
         0.47337E+10
         0.43778E+10
         0.41162E+10
         0.40348E+10
         0.41834E+10
         0.45414E+10
         0.41955E+10
         0.75190E+10
         0.73231E+10
         0.74771E+10
         0.72403E+10
         0.74574E+10
         0.78439E+10
         0.79728E+10
         0.79577E+10
         0.80152E+10
         0.81996E+10
         0.79592E+10
         0.74769E+10
         0.66972E+10
         0.63267E+10
         0.63425E+10
         0.64234E+10
         0.64859E+10
         0.70387E+10
         0.75503E+10
         0.75808E+10
         0.70113E+10
         0.67929E+10
         0.70189E+10
         0.69685E+10
         0.68877E+10
         0.68684E+10
  
SCALARS                      stress_yy  double 1
LOOKUP_TABLE default
         0.13106E+13
         0.12939E+13
         0.13045E+13
         0.13235E+13
        -0.18951E+03
        -0.21250E+03
        -0.20348E+03
        -0.18485E+03
         0.12934E+13
         0.12990E+13
        -0.19109E+03
        -0.18493E+03
         0.12698E+13
         0.12689E+13
        -0.22706E+03
        -0.21349E+03
         0.13207E+13
         0.12702E+13
        -0.16777E+03
        -0.18608E+03
         0.12516E+13
         0.12371E+13
         0.12601E+13
        -0.22504E+03
        -0.19653E+03
        -0.20294E+03
         0.12377E+13
         0.12166E+13
        -0.21589E+03
        -0.18207E+03
         0.13198E+13
         0.12978E+13
         0.13411E+13
        -0.18423E+03
        -0.17127E+03
        -0.16652E+03
         0.13071E+13
         0.12791E+13
        -0.19491E+03
        -0.17786E+03
         0.12960E+13
         0.12744E+13
        -0.16846E+03
        -0.14913E+03
         0.13143E+13
         0.13224E+13
        -0.18461E+03
        -0.20627E+03
         0.12570E+13
        -0.18034E+03
         0.13208E+13
        -0.21191E+03
         0.12316E+13
        -0.19045E+03
         0.12250E+13
        -0.18268E+03
         0.12251E+13
         0.12486E+13
        -0.18613E+03
        -0.18127E+03
         0.13193E+13
         0.13109E+13
        -0.18664E+03
        -0.21100E+03
         0.13246E+13
        -0.18010E+03
         0.13146E+13
        -0.19655E+03
         0.12882E+13
         0.12855E+13
        -0.18920E+03
        -0.19825E+03
         0.12795E+13
        -0.19991E+03
         0.12090E+13
        -0.15794E+03
         0.12053E+13
        -0.15331E+03
         0.12072E+13
        -0.16165E+03
         0.12174E+13
         0.12280E+13
        -0.15402E+03
        -0.16057E+03
         0.12494E+13
        -0.14955E+03
         0.13139E+13
        -0.19611E+03
         0.13038E+13
        -0.20072E+03
         0.12956E+13
         0.12910E+13
        -0.19275E+03
        -0.19500E+03
         0.12966E+13
        -0.17712E+03
         0.13006E+13
        -0.17459E+03
         0.12970E+13
        -0.18690E+03
         0.12957E+13
         0.12994E+13
        -0.18329E+03
        -0.18866E+03
         0.12758E+13
         0.12854E+13
        -0.14230E+03
        -0.13385E+03
         0.12740E+13
        -0.13588E+03
         0.12850E+13
        -0.13029E+03
         0.12742E+13
        -0.12847E+03
         0.12501E+13
        -0.12141E+03
         0.12267E+13
        -0.10786E+03
         0.12127E+13
        -0.97120E+02
         0.12112E+13
        -0.96446E+02
         0.12117E+13
        -0.10459E+03
         0.12269E+13
        -0.10992E+03
         0.12553E+13
        -0.10037E+03
         0.12864E+13
        -0.90473E+02
         0.13046E+13
        -0.90369E+02
         0.13226E+13
        -0.10101E+03
         0.13344E+13
        -0.11518E+03
         0.13340E+13
        -0.12373E+03
         0.13052E+13
        -0.13363E+03
         0.12850E+13
        -0.14317E+03
         0.12781E+13
        -0.13115E+03
         0.12889E+13
        -0.11505E+03
         0.12946E+13
        -0.11470E+03
         0.12851E+13
        -0.12549E+03
         0.12853E+13
        -0.13379E+03
         0.12924E+13
        -0.12696E+03
         0.13016E+13
        -0.12274E+03
        -0.27898E+11
        -0.27196E+11
        -0.27293E+11
        -0.28186E+11
        -0.26480E+11
        -0.27375E+11
        -0.26256E+11
        -0.26852E+11
        -0.28050E+11
        -0.27318E+11
        -0.25591E+11
        -0.25383E+11
        -0.25933E+11
        -0.25970E+11
        -0.25617E+11
        -0.28145E+11
        -0.27984E+11
        -0.28430E+11
        -0.27118E+11
        -0.27368E+11
        -0.27009E+11
        -0.27248E+11
        -0.26802E+11
        -0.26919E+11
        -0.27348E+11
        -0.27318E+11
        -0.26576E+11
        -0.26645E+11
        -0.26071E+11
        -0.26930E+11
        -0.28066E+11
        -0.27186E+11
        -0.28060E+11
        -0.27490E+11
        -0.25237E+11
        -0.25997E+11
        -0.26345E+11
        -0.25934E+11
        -0.25880E+11
        -0.25182E+11
        -0.24656E+11
        -0.25911E+11
        -0.27024E+11
        -0.26878E+11
        -0.26312E+11
        -0.25265E+11
        -0.26162E+11
        -0.27069E+11
        -0.27008E+11
        -0.26308E+11
        -0.25558E+11
        -0.26561E+11
        -0.23320E+11
        -0.24332E+11
        -0.24168E+11
        -0.24399E+11
        -0.24340E+11
        -0.23801E+11
        -0.23232E+11
        -0.23044E+11
        -0.23126E+11
        -0.23068E+11
        -0.22820E+11
        -0.24289E+11
        -0.24815E+11
        -0.25014E+11
        -0.25347E+11
        -0.25597E+11
        -0.25585E+11
        -0.25159E+11
        -0.23664E+11
        -0.24030E+11
        -0.24548E+11
        -0.24542E+11
        -0.24453E+11
        -0.23955E+11
        -0.24685E+11
        -0.24949E+11
         0.64234E+06
        -0.18119E+06
         0.81200E+05
         0.14030E+07
         0.62921E+06
         0.16280E+07
        -0.72209E+06
        -0.17659E+07
         0.11426E+07
        -0.18640E+07
        -0.21271E+07
        -0.11791E+07
        -0.20874E+06
        -0.33037E+07
        -0.21567E+07
         0.28777E+06
         0.88029E+06
         0.10135E+07
        -0.65275E+06
         0.11391E+06
        -0.28946E+06
         0.54906E+06
        -0.81230E+06
        -0.36299E+06
        -0.20681E+07
        -0.24603E+06
        -0.44371E+07
        -0.28382E+07
        -0.15073E+07
        -0.17952E+07
         0.11023E+06
        -0.83408E+05
         0.10000E+07
         0.16367E+07
         0.78225E+05
        -0.44699E+05
         0.82160E+05
        -0.21885E+07
        -0.21550E+07
        -0.14883E+07
        -0.16341E+06
        -0.34897E+06
        -0.23134E+06
        -0.89510E+06
        -0.97116E+06
        -0.14171E+07
        -0.60483E+06
        -0.45576E+05
        -0.87950E+05
         0.36020E+06
         0.85402E+06
         0.18253E+07
        -0.18700E+07
         0.85747E+06
        -0.12705E+07
         0.57359E+06
         0.19370E+07
         0.28339E+07
         0.19870E+07
         0.24392E+07
         0.17718E+07
         0.79018E+06
         0.11069E+07
         0.10979E+07
         0.26714E+06
         0.13834E+07
        -0.51160E+06
        -0.19843E+07
        -0.20694E+07
        -0.22794E+07
        -0.23392E+07
        -0.69775E+06
        -0.52122E+06
        -0.11512E+07
        -0.19831E+07
        -0.14133E+07
         0.22418E+06
         0.13463E+07
         0.55445E+06
        -0.26731E+06
        -0.31997E+04
         0.13324E+07
         0.52353E+06
         0.15329E+07
        -0.80362E+06
        -0.18687E+07
         0.10537E+07
        -0.19763E+07
        -0.22284E+07
        -0.13157E+07
        -0.32682E+06
        -0.34107E+07
        -0.22936E+07
         0.19557E+06
         0.79064E+06
         0.95249E+06
        -0.75048E+06
         0.28859E+05
        -0.40732E+06
         0.43464E+06
        -0.93291E+06
        -0.45563E+06
        -0.21853E+07
        -0.32434E+06
        -0.45409E+07
        -0.29239E+07
        -0.15975E+07
        -0.19158E+07
         0.23066E+05
        -0.16453E+06
         0.92484E+06
         0.15672E+07
        -0.41422E+05
        -0.14594E+06
        -0.21617E+05
        -0.23258E+07
        -0.22825E+07
        -0.16130E+07
        -0.29854E+06
        -0.48059E+06
        -0.35685E+06
        -0.10110E+07
        -0.10803E+07
        -0.15382E+07
        -0.71404E+06
        -0.14675E+06
        -0.17869E+06
         0.26747E+06
         0.74338E+06
         0.17262E+07
        -0.20899E+07
         0.64285E+06
        -0.14819E+07
         0.37135E+06
         0.17230E+07
         0.25958E+07
         0.17492E+07
         0.21987E+07
         0.15284E+07
         0.54153E+06
         0.85955E+06
         0.86907E+06
         0.76044E+05
         0.12048E+07
        -0.69858E+06
        -0.21841E+07
        -0.22736E+07
        -0.24926E+07
        -0.25533E+07
        -0.92400E+06
        -0.73494E+06
        -0.13442E+07
        -0.21766E+07
        -0.16110E+07
         0.24414E+05
         0.11430E+07
         0.57527E+06
        -0.25036E+06
         0.14713E+05
         0.13508E+07
         0.55062E+06
         0.15579E+07
        -0.78697E+06
        -0.18474E+07
         0.10681E+07
        -0.19744E+07
        -0.22089E+07
        -0.12894E+07
        -0.30419E+06
        -0.33832E+07
        -0.22611E+07
         0.17721E+06
         0.78574E+06
         0.96922E+06
        -0.77486E+06
         0.13092E+05
        -0.42714E+06
         0.42716E+06
        -0.10120E+07
        -0.52242E+06
        -0.22373E+07
        -0.37898E+06
        -0.45207E+07
        -0.29354E+07
        -0.16330E+07
        -0.20005E+07
         0.23587E+05
        -0.18270E+06
         0.94222E+06
         0.15901E+07
        -0.10135E+05
        -0.12070E+06
         0.12916E+04
        -0.23027E+07
        -0.22629E+07
        -0.16061E+07
        -0.30209E+06
        -0.52837E+06
        -0.42451E+06
        -0.10888E+07
        -0.10992E+07
        -0.15217E+07
        -0.69438E+06
        -0.12334E+06
        -0.15349E+06
         0.29645E+06
         0.77473E+06
         0.17542E+07
        -0.20243E+07
         0.70155E+06
        -0.14170E+07
         0.42146E+06
         0.17601E+07
         0.26329E+07
         0.17966E+07
         0.22463E+07
         0.15763E+07
         0.59129E+06
         0.88888E+06
         0.86792E+06
         0.79143E+05
         0.12376E+07
        -0.67677E+06
        -0.22246E+07
        -0.23178E+07
        -0.24813E+07
        -0.24946E+07
        -0.85589E+06
        -0.67416E+06
        -0.12828E+07
        -0.21077E+07
        -0.15527E+07
         0.71885E+05
         0.11889E+07
         0.56291E+06
        -0.25764E+06
         0.76275E+04
         0.13393E+07
         0.54022E+06
         0.15493E+07
        -0.79408E+06
        -0.18623E+07
         0.10422E+07
        -0.20241E+07
        -0.22201E+07
        -0.13035E+07
        -0.31354E+06
        -0.33950E+07
        -0.22789E+07
         0.10392E+06
         0.73273E+06
         0.95846E+06
        -0.86036E+06
        -0.58172E+05
        -0.51668E+06
         0.34809E+06
        -0.11962E+07
        -0.67186E+06
        -0.23760E+07
        -0.50400E+06
        -0.45490E+07
        -0.30049E+07
        -0.17438E+07
        -0.22018E+07
        -0.18480E+05
        -0.25558E+06
         0.92874E+06
         0.15788E+07
        -0.25506E+05
        -0.13109E+06
        -0.70549E+04
        -0.23286E+07
        -0.22948E+07
        -0.16629E+07
        -0.37877E+06
        -0.67740E+06
        -0.60770E+06
        -0.12718E+07
        -0.11898E+07
        -0.15705E+07
        -0.72962E+06
        -0.14174E+06
        -0.16867E+06
         0.27920E+06
         0.75802E+06
         0.17433E+07
        -0.20550E+07
         0.68034E+06
        -0.14506E+07
         0.39228E+06
         0.17403E+07
         0.26105E+07
         0.17588E+07
         0.22054E+07
         0.15365E+07
         0.54313E+06
         0.81268E+06
         0.74477E+06
        -0.36687E+05
         0.11826E+07
        -0.73847E+06
        -0.23945E+07
        -0.24979E+07
        -0.25656E+07
        -0.25348E+07
        -0.89399E+06
        -0.70333E+06
        -0.13172E+07
        -0.21437E+07
        -0.15769E+07
         0.53625E+05
         0.11707E+07
         0.54030E+06
        -0.27243E+06
        -0.46779E+04
         0.13275E+07
         0.52833E+06
         0.15376E+07
        -0.80507E+06
        -0.18858E+07
         0.10112E+07
        -0.20757E+07
        -0.22320E+07
        -0.13121E+07
        -0.32398E+06
        -0.34081E+07
        -0.22878E+07
         0.54417E+05
         0.69066E+06
         0.94850E+06
        -0.91683E+06
        -0.10921E+06
        -0.57449E+06
         0.29129E+06
        -0.13093E+07
        -0.76427E+06
        -0.24765E+07
        -0.58356E+06
        -0.45737E+07
        -0.30552E+07
        -0.18195E+07
        -0.23358E+07
        -0.62373E+05
        -0.30826E+06
         0.90453E+06
         0.15631E+07
        -0.41387E+05
        -0.14431E+06
        -0.19573E+05
        -0.23480E+07
        -0.23214E+07
        -0.17059E+07
        -0.43297E+06
        -0.77755E+06
        -0.72788E+06
        -0.13883E+07
        -0.12497E+07
        -0.16028E+07
        -0.76091E+06
        -0.17156E+06
        -0.19530E+06
         0.25351E+06
         0.73197E+06
         0.17257E+07
        -0.20825E+07
         0.66181E+06
        -0.14793E+07
         0.36958E+06
         0.17311E+07
         0.26039E+07
         0.17428E+07
         0.21784E+07
         0.15027E+07
         0.51333E+06
         0.76627E+06
         0.65953E+06
        -0.11566E+06
         0.11401E+07
        -0.78204E+06
        -0.25047E+07
        -0.26246E+07
        -0.26259E+07
        -0.25531E+07
        -0.92859E+06
        -0.74196E+06
        -0.13567E+07
        -0.21901E+07
        -0.16163E+07
         0.29388E+05
         0.11527E+07
         0.48527E+06
        -0.30079E+06
        -0.16857E+05
         0.13368E+07
         0.54211E+06
         0.15548E+07
        -0.81268E+06
        -0.19257E+07
         0.96775E+06
        -0.21445E+07
        -0.22243E+07
        -0.12814E+07
        -0.31207E+06
        -0.34027E+07
        -0.22504E+07
         0.63676E+05
         0.68057E+06
         0.96563E+06
        -0.90585E+06
        -0.10105E+06
        -0.55828E+06
         0.31117E+06
        -0.13069E+07
        -0.76577E+06
        -0.25210E+07
        -0.59377E+06
        -0.45796E+07
        -0.30613E+07
        -0.18150E+07
        -0.23415E+07
        -0.11491E+06
        -0.33568E+06
         0.86547E+06
         0.15592E+07
        -0.27579E+05
        -0.14317E+06
        -0.21948E+05
        -0.23246E+07
        -0.23014E+07
        -0.16830E+07
        -0.40696E+06
        -0.76162E+06
        -0.71515E+06
        -0.13963E+07
        -0.12578E+07
        -0.16084E+07
        -0.78807E+06
        -0.23217E+06
        -0.26108E+06
         0.21847E+06
         0.72340E+06
         0.17340E+07
        -0.20285E+07
         0.71740E+06
        -0.14341E+07
         0.39994E+06
         0.17628E+07
         0.26473E+07
         0.17919E+07
         0.22257E+07
         0.15567E+07
         0.58483E+06
         0.82879E+06
         0.69715E+06
        -0.73961E+05
         0.11835E+07
        -0.74007E+06
        -0.24713E+07
        -0.26007E+07
        -0.26020E+07
        -0.25242E+07
        -0.90849E+06
        -0.74646E+06
        -0.13842E+07
        -0.22083E+07
        -0.16069E+07
         0.56634E+05
         0.11917E+07
         0.40137E+06
        -0.35094E+06
        -0.46014E+05
         0.13294E+07
         0.53034E+06
         0.15533E+07
        -0.84563E+06
        -0.20019E+07
         0.89467E+06
        -0.22446E+07
        -0.22494E+07
        -0.12930E+07
        -0.33113E+06
        -0.34363E+07
        -0.22596E+07
         0.48941E+05
         0.64580E+06
         0.96276E+06
        -0.91614E+06
        -0.11234E+06
        -0.56676E+06
         0.30553E+06
        -0.13159E+07
        -0.77667E+06
        -0.25828E+07
        -0.61304E+06
        -0.46217E+07
        -0.30873E+07
        -0.18244E+07
        -0.23584E+07
        -0.18864E+06
        -0.38100E+06
         0.80706E+06
         0.15380E+07
        -0.46196E+05
        -0.16452E+06
        -0.46468E+05
        -0.23450E+07
        -0.23209E+07
        -0.16933E+07
        -0.41189E+06
        -0.76369E+06
        -0.71643E+06
        -0.14146E+07
        -0.12913E+07
        -0.16541E+07
        -0.85049E+06
        -0.32368E+06
        -0.35510E+06
         0.15702E+06
         0.68866E+06
         0.17221E+07
        -0.20510E+07
         0.69981E+06
        -0.14478E+07
         0.38461E+06
         0.17406E+07
         0.26209E+07
         0.17701E+07
         0.22071E+07
         0.15377E+07
         0.57066E+06
         0.81749E+06
         0.68332E+06
        -0.76387E+05
         0.11800E+07
        -0.74927E+06
        -0.24766E+07
        -0.26117E+07
        -0.26403E+07
        -0.25809E+07
        -0.97092E+06
        -0.81683E+06
        -0.14710E+07
        -0.22847E+07
        -0.16470E+07
         0.35165E+05
         0.11750E+07
         0.37699E+06
        -0.36947E+06
        -0.58055E+05
         0.13195E+07
         0.51773E+06
         0.15419E+07
        -0.86225E+06
        -0.20292E+07
         0.87292E+06
        -0.22764E+07
        -0.22676E+07
        -0.13093E+07
        -0.34988E+06
        -0.34543E+07
        -0.22745E+07
         0.35684E+05
         0.63143E+06
         0.95507E+06
        -0.92562E+06
        -0.12102E+06
        -0.57984E+06
         0.29238E+06
        -0.13277E+07
        -0.78494E+06
        -0.26064E+07
        -0.62353E+06
        -0.46397E+07
        -0.31013E+07
        -0.18399E+07
        -0.23745E+07
        -0.21239E+06
        -0.39848E+06
         0.78671E+06
         0.15260E+07
        -0.61919E+05
        -0.17621E+06
        -0.61475E+05
        -0.23705E+07
        -0.23433E+07
        -0.17150E+07
        -0.43485E+06
        -0.78147E+06
        -0.72799E+06
        -0.14310E+07
        -0.13115E+07
        -0.16755E+07
        -0.87142E+06
        -0.34631E+06
        -0.37827E+06
         0.13595E+06
         0.66719E+06
         0.17071E+07
        -0.20818E+07
         0.66935E+06
        -0.14687E+07
         0.36344E+06
         0.17148E+07
         0.25985E+07
         0.17471E+07
         0.21752E+07
         0.14953E+07
         0.52622E+06
         0.77724E+06
         0.66500E+06
        -0.90858E+05
         0.11491E+07
        -0.78168E+06
        -0.25076E+07
        -0.26522E+07
        -0.26789E+07
        -0.26133E+07
        -0.99700E+06
        -0.83836E+06
        -0.15000E+07
        -0.23231E+07
        -0.16824E+07
         0.53888E+04
         0.11455E+07
         0.39267E+06
        -0.35673E+06
        -0.48992E+05
         0.13221E+07
         0.53044E+06
         0.15448E+07
        -0.85072E+06
        -0.20117E+07
         0.88645E+06
        -0.22603E+07
        -0.22566E+07
        -0.12926E+07
        -0.33771E+06
        -0.34338E+07
        -0.22492E+07
         0.53300E+05
         0.64420E+06
         0.96307E+06
        -0.90924E+06
        -0.10811E+06
        -0.56328E+06
         0.30829E+06
        -0.13106E+07
        -0.76931E+06
        -0.25939E+07
        -0.60967E+06
        -0.46143E+07
        -0.30859E+07
        -0.18294E+07
        -0.23610E+07
        -0.19774E+06
        -0.38727E+06
         0.79346E+06
         0.15300E+07
        -0.43990E+05
        -0.16331E+06
        -0.50013E+05
        -0.23533E+07
        -0.23299E+07
        -0.17025E+07
        -0.41966E+06
        -0.76451E+06
        -0.71087E+06
        -0.14162E+07
        -0.12993E+07
        -0.16622E+07
        -0.85846E+06
        -0.33035E+06
        -0.36270E+06
         0.14836E+06
         0.67633E+06
         0.17108E+07
        -0.20357E+07
         0.71453E+06
        -0.14419E+07
         0.37452E+06
         0.17372E+07
         0.26337E+07
         0.17864E+07
         0.22034E+07
         0.15059E+07
         0.54270E+06
         0.80693E+06
         0.70704E+06
        -0.54004E+05
         0.11729E+07
        -0.75914E+06
        -0.24818E+07
        -0.26262E+07
        -0.26464E+07
        -0.25824E+07
        -0.96059E+06
        -0.80096E+06
        -0.14666E+07
        -0.22953E+07
        -0.16573E+07
         0.30548E+05
         0.11728E+07
         0.38879E+06
        -0.35768E+06
        -0.51486E+05
         0.13154E+07
         0.52745E+06
         0.15384E+07
        -0.85267E+06
        -0.20199E+07
         0.87548E+06
        -0.22741E+07
        -0.22649E+07
        -0.13024E+07
        -0.34053E+06
        -0.34423E+07
        -0.22649E+07
         0.45168E+05
         0.63471E+06
         0.95482E+06
        -0.91715E+06
        -0.11466E+06
        -0.57026E+06
         0.29988E+06
        -0.13167E+07
        -0.77463E+06
        -0.26026E+07
        -0.61338E+06
        -0.46201E+07
        -0.30879E+07
        -0.18345E+07
        -0.23691E+07
        -0.20480E+06
        -0.39210E+06
         0.78137E+06
         0.15212E+07
        -0.49717E+05
        -0.16871E+06
        -0.53591E+05
        -0.23754E+07
        -0.23428E+07
        -0.17136E+07
        -0.43098E+06
        -0.77129E+06
        -0.72077E+06
        -0.14213E+07
        -0.13044E+07
        -0.16692E+07
        -0.86843E+06
        -0.34064E+06
        -0.37170E+06
         0.14034E+06
         0.66791E+06
         0.17022E+07
        -0.20490E+07
         0.70391E+06
        -0.14637E+07
         0.35616E+06
         0.17346E+07
         0.26208E+07
         0.17564E+07
         0.21700E+07
         0.14862E+07
         0.51314E+06
         0.77467E+06
         0.69086E+06
        -0.73026E+05
         0.11624E+07
        -0.76892E+06
        -0.24911E+07
        -0.26280E+07
        -0.26531E+07
        -0.25918E+07
        -0.98517E+06
        -0.83158E+06
        -0.14902E+07
        -0.23073E+07
        -0.16629E+07
         0.17309E+05
         0.11541E+07
         0.37766E+06
        -0.36706E+06
        -0.58428E+05
         0.13114E+07
         0.51847E+06
         0.15342E+07
        -0.85948E+06
        -0.20315E+07
         0.86548E+06
        -0.22878E+07
        -0.22742E+07
        -0.13155E+07
        -0.34901E+06
        -0.34487E+07
        -0.22809E+07
         0.33764E+05
         0.62707E+06
         0.95018E+06
        -0.92675E+06
        -0.11942E+06
        -0.57912E+06
         0.29134E+06
        -0.13260E+07
        -0.78313E+06
        -0.26113E+07
        -0.62135E+06
        -0.46244E+07
        -0.30918E+07
        -0.18401E+07
        -0.23752E+07
        -0.21518E+06
        -0.40051E+06
         0.77354E+06
         0.15195E+07
        -0.63582E+05
        -0.17793E+06
        -0.61716E+05
        -0.23969E+07
        -0.23571E+07
        -0.17232E+07
        -0.43758E+06
        -0.77706E+06
        -0.72980E+06
        -0.14304E+07
        -0.13131E+07
        -0.16785E+07
        -0.87776E+06
        -0.34951E+06
        -0.38030E+06
         0.13336E+06
         0.65992E+06
         0.16983E+07
        -0.20756E+07
         0.68161E+06
        -0.14803E+07
         0.35058E+06
         0.17272E+07
         0.25948E+07
         0.17188E+07
         0.21398E+07
         0.14657E+07
         0.49186E+06
         0.76148E+06
         0.67489E+06
        -0.95871E+05
         0.11468E+07
        -0.78521E+06
        -0.25101E+07
        -0.26410E+07
        -0.26681E+07
        -0.26101E+07
        -0.10054E+07
        -0.85487E+06
        -0.15143E+07
        -0.23247E+07
        -0.16790E+07
        -0.29770E+04
         0.11328E+07
         0.38516E+06
        -0.36299E+06
        -0.55162E+05
         0.13164E+07
         0.52691E+06
         0.15420E+07
        -0.85198E+06
        -0.20197E+07
         0.87152E+06
        -0.22824E+07
        -0.22639E+07
        -0.13041E+07
        -0.34525E+06
        -0.34298E+07
        -0.22575E+07
         0.43707E+05
         0.63185E+06
         0.95815E+06
        -0.91707E+06
        -0.10895E+06
        -0.56599E+06
         0.30556E+06
        -0.13144E+07
        -0.77340E+06
        -0.26067E+07
        -0.61218E+06
        -0.46081E+07
        -0.30821E+07
        -0.18282E+07
        -0.23603E+07
        -0.20350E+06
        -0.39265E+06
         0.78215E+06
         0.15294E+07
        -0.52501E+05
        -0.16976E+06
        -0.56979E+05
        -0.23832E+07
        -0.23438E+07
        -0.17049E+07
        -0.42060E+06
        -0.76412E+06
        -0.71605E+06
        -0.14216E+07
        -0.13059E+07
        -0.16711E+07
        -0.87004E+06
        -0.33980E+06
        -0.36997E+06
         0.14399E+06
         0.66950E+06
         0.17084E+07
        -0.20419E+07
         0.71799E+06
        -0.14462E+07
         0.36737E+06
         0.17217E+07
         0.25967E+07
         0.17460E+07
         0.21700E+07
         0.14859E+07
         0.52256E+06
         0.79065E+06
         0.68863E+06
        -0.71231E+05
         0.11718E+07
        -0.76243E+06
        -0.24927E+07
        -0.26295E+07
        -0.26533E+07
        -0.25962E+07
        -0.98350E+06
        -0.82912E+06
        -0.14895E+07
        -0.23033E+07
        -0.16605E+07
         0.24310E+05
         0.11647E+07
         0.38006E+06
        -0.37048E+06
        -0.61899E+05
         0.13088E+07
         0.51774E+06
         0.15331E+07
        -0.86057E+06
        -0.20303E+07
         0.86342E+06
        -0.22987E+07
        -0.22767E+07
        -0.13204E+07
        -0.36250E+06
        -0.34411E+07
        -0.22692E+07
         0.34530E+05
         0.62213E+06
         0.94934E+06
        -0.92874E+06
        -0.11682E+06
        -0.58166E+06
         0.29018E+06
        -0.13303E+07
        -0.78327E+06
        -0.26217E+07
        -0.61905E+06
        -0.46236E+07
        -0.30955E+07
        -0.18404E+07
        -0.23705E+07
        -0.21314E+06
        -0.40054E+06
         0.76800E+06
         0.15214E+07
        -0.65741E+05
        -0.18049E+06
        -0.70283E+05
        -0.24065E+07
        -0.23663E+07
        -0.17237E+07
        -0.44206E+06
        -0.78361E+06
        -0.73138E+06
        -0.14395E+07
        -0.13215E+07
        -0.16847E+07
        -0.88318E+06
        -0.35381E+06
        -0.38112E+06
         0.13608E+06
         0.65883E+06
         0.16986E+07
        -0.20681E+07
         0.69515E+06
        -0.14724E+07
         0.33739E+06
         0.16866E+07
         0.25634E+07
         0.17257E+07
         0.21439E+07
         0.14513E+07
         0.48839E+06
         0.74902E+06
         0.64741E+06
        -0.98541E+05
         0.11434E+07
        -0.78677E+06
        -0.25207E+07
        -0.26730E+07
        -0.26921E+07
        -0.26156E+07
        -0.10103E+07
        -0.85686E+06
        -0.15037E+07
        -0.23131E+07
        -0.16805E+07
        -0.31394E+04
         0.11375E+07
         0.37929E+06
        -0.37287E+06
        -0.64011E+05
         0.13062E+07
         0.51627E+06
         0.15303E+07
        -0.86201E+06
        -0.20323E+07
         0.86358E+06
        -0.23015E+07
        -0.22796E+07
        -0.13225E+07
        -0.36520E+06
        -0.34388E+07
        -0.22692E+07
         0.32917E+05
         0.62199E+06
         0.94769E+06
        -0.93028E+06
        -0.11682E+06
        -0.58534E+06
         0.28776E+06
        -0.13339E+07
        -0.78486E+06
        -0.26255E+07
        -0.62026E+06
        -0.46205E+07
        -0.30977E+07
        -0.18447E+07
        -0.23735E+07
        -0.21802E+06
        -0.40322E+06
         0.76093E+06
         0.15197E+07
        -0.68827E+05
        -0.18405E+06
        -0.74334E+05
        -0.24181E+07
        -0.23795E+07
        -0.17313E+07
        -0.44471E+06
        -0.78521E+06
        -0.73357E+06
        -0.14430E+07
        -0.13248E+07
        -0.16880E+07
        -0.88771E+06
        -0.35921E+06
        -0.38534E+06
         0.13475E+06
         0.65685E+06
         0.16962E+07
        -0.20687E+07
         0.69556E+06
        -0.14797E+07
         0.32583E+06
         0.16858E+07
         0.25629E+07
         0.17176E+07
         0.21222E+07
         0.14264E+07
         0.47468E+06
         0.74766E+06
         0.64326E+06
        -0.10540E+06
         0.11323E+07
        -0.79947E+06
        -0.25299E+07
        -0.26792E+07
        -0.26974E+07
        -0.26212E+07
        -0.10199E+07
        -0.86918E+06
        -0.15116E+07
        -0.23141E+07
        -0.16828E+07
        -0.15251E+05
         0.11266E+07
         0.40262E+06
        -0.34873E+06
        -0.44157E+05
         0.13199E+07
         0.54193E+06
         0.15487E+07
        -0.83730E+06
        -0.20060E+07
         0.87982E+06
        -0.22826E+07
        -0.22533E+07
        -0.12865E+07
        -0.33406E+06
        -0.34073E+07
        -0.22340E+07
         0.54216E+05
         0.63964E+06
         0.96233E+06
        -0.90850E+06
        -0.96025E+05
        -0.55571E+06
         0.31596E+06
        -0.13054E+07
        -0.76418E+06
        -0.26030E+07
        -0.60119E+06
        -0.45883E+07
        -0.30711E+07
        -0.18201E+07
        -0.23452E+07
        -0.19501E+06
        -0.38249E+06
         0.77542E+06
         0.15329E+07
        -0.39184E+05
        -0.15992E+06
        -0.49011E+05
        -0.23961E+07
        -0.23524E+07
        -0.17013E+07
        -0.41611E+06
        -0.75608E+06
        -0.70787E+06
        -0.14144E+07
        -0.12963E+07
        -0.16583E+07
        -0.86209E+06
        -0.33477E+06
        -0.36469E+06
         0.15360E+06
         0.67680E+06
         0.17138E+07
        -0.20075E+07
         0.75641E+06
        -0.14286E+07
         0.36298E+06
         0.17311E+07
         0.26205E+07
         0.17659E+07
         0.21589E+07
         0.14674E+07
         0.51965E+06
         0.78823E+06
         0.69069E+06
        -0.67750E+05
         0.11741E+07
        -0.75173E+06
        -0.24803E+07
        -0.26235E+07
        -0.26372E+07
        -0.25694E+07
        -0.96577E+06
        -0.82316E+06
        -0.14774E+07
        -0.22764E+07
        -0.16375E+07
         0.33890E+05
         0.11763E+07
         0.39309E+06
        -0.35545E+06
        -0.50421E+05
         0.13107E+07
         0.53053E+06
         0.15396E+07
        -0.84497E+06
        -0.20193E+07
         0.86838E+06
        -0.23022E+07
        -0.22659E+07
        -0.12990E+07
        -0.34166E+06
        -0.34193E+07
        -0.22503E+07
         0.42352E+05
         0.62748E+06
         0.95519E+06
        -0.92376E+06
        -0.10586E+06
        -0.56634E+06
         0.30193E+06
        -0.13153E+07
        -0.77618E+06
        -0.26202E+07
        -0.61136E+06
        -0.46021E+07
        -0.30804E+07
        -0.18238E+07
        -0.23527E+07
        -0.20191E+06
        -0.39156E+06
         0.76498E+06
         0.15232E+07
        -0.56242E+05
        -0.16965E+06
        -0.55527E+05
        -0.24224E+07
        -0.23709E+07
        -0.17096E+07
        -0.42974E+06
        -0.77116E+06
        -0.72554E+06
        -0.14279E+07
        -0.13099E+07
        -0.16710E+07
        -0.87308E+06
        -0.34255E+06
        -0.37399E+06
         0.14152E+06
         0.66404E+06
         0.17037E+07
        -0.20463E+07
         0.72350E+06
        -0.14588E+07
         0.34713E+06
         0.17256E+07
         0.26057E+07
         0.17332E+07
         0.21196E+07
         0.14291E+07
         0.48562E+06
         0.74811E+06
         0.64465E+06
        -0.10026E+06
         0.11579E+07
        -0.75928E+06
        -0.24852E+07
        -0.26396E+07
        -0.26647E+07
        -0.25898E+07
        -0.98984E+06
        -0.84542E+06
        -0.15023E+07
        -0.23031E+07
        -0.16541E+07
         0.18370E+05
         0.11505E+07
         0.37704E+06
        -0.37284E+06
        -0.67450E+05
         0.12984E+07
         0.51257E+06
         0.15229E+07
        -0.85782E+06
        -0.20350E+07
         0.85209E+06
        -0.23353E+07
        -0.22810E+07
        -0.13194E+07
        -0.35851E+06
        -0.34317E+07
        -0.22708E+07
         0.27750E+05
         0.60923E+06
         0.94689E+06
        -0.93635E+06
        -0.11021E+06
        -0.57937E+06
         0.28553E+06
        -0.13271E+07
        -0.78643E+06
        -0.26489E+07
        -0.62132E+06
        -0.46340E+07
        -0.30954E+07
        -0.17945E+07
        -0.23328E+07
        -0.21479E+06
        -0.40461E+06
         0.75460E+06
         0.15164E+07
        -0.75447E+05
        -0.18561E+06
        -0.71108E+05
        -0.24611E+07
        -0.23891E+07
        -0.16819E+07
        -0.43120E+06
        -0.78752E+06
        -0.74914E+06
        -0.14425E+07
        -0.13271E+07
        -0.16913E+07
        -0.89193E+06
        -0.35660E+06
        -0.38479E+06
         0.13191E+06
         0.65271E+06
         0.16913E+07
        -0.20722E+07
         0.69954E+06
        -0.14795E+07
         0.32930E+06
         0.17006E+07
         0.25653E+07
         0.16871E+07
         0.20757E+07
         0.13905E+07
         0.47670E+06
         0.67808E+06
         0.53447E+06
        -0.14595E+06
         0.11325E+07
        -0.78194E+06
        -0.25057E+07
        -0.26651E+07
        -0.26935E+07
        -0.26232E+07
        -0.10275E+07
        -0.87093E+06
        -0.15262E+07
        -0.23304E+07
        -0.16740E+07
        -0.12374E+05
         0.11161E+07
         0.39927E+06
        -0.35064E+06
        -0.45887E+05
         0.13152E+07
         0.53985E+06
         0.15429E+07
        -0.83609E+06
        -0.20091E+07
         0.86316E+06
        -0.23428E+07
        -0.22574E+07
        -0.12925E+07
        -0.33541E+06
        -0.34018E+07
        -0.22394E+07
         0.49283E+05
         0.62113E+06
         0.96065E+06
        -0.91111E+06
        -0.76571E+05
        -0.55479E+06
         0.31017E+06
        -0.13042E+07
        -0.76415E+06
        -0.26452E+07
        -0.60065E+06
        -0.46393E+07
        -0.30789E+07
        -0.17002E+07
        -0.22435E+07
        -0.19506E+06
        -0.38357E+06
         0.76869E+06
         0.15340E+07
        -0.43685E+05
        -0.15869E+06
        -0.47198E+05
        -0.24598E+07
        -0.23578E+07
        -0.15774E+07
        -0.37596E+06
        -0.75800E+06
        -0.73420E+06
        -0.14180E+07
        -0.12992E+07
        -0.16583E+07
        -0.86520E+06
        -0.33419E+06
        -0.36214E+06
         0.15741E+06
         0.67930E+06
         0.17121E+07
        -0.20092E+07
         0.76136E+06
        -0.14164E+07
         0.37355E+06
         0.17288E+07
         0.25981E+07
         0.17324E+07
         0.21216E+07
         0.14407E+07
         0.57467E+06
         0.65534E+06
         0.44578E+06
        -0.14264E+06
         0.11672E+07
        -0.75281E+06
        -0.24814E+07
        -0.26351E+07
        -0.26432E+07
        -0.25614E+07
        -0.96956E+06
        -0.82100E+06
        -0.14747E+07
        -0.22724E+07
        -0.16198E+07
         0.31501E+05
         0.11622E+07
         0.31713E+06
        -0.43154E+06
        -0.12404E+06
         0.12451E+07
         0.44076E+06
         0.14524E+07
        -0.91413E+06
        -0.21066E+07
         0.77674E+06
        -0.24644E+07
        -0.23534E+07
        -0.14195E+07
        -0.45338E+06
        -0.35069E+07
        -0.23698E+07
        -0.30959E+05
         0.53685E+06
         0.89990E+06
        -0.99787E+06
        -0.14375E+06
        -0.66559E+06
         0.20200E+06
        -0.14110E+07
        -0.84130E+06
        -0.27559E+07
        -0.66513E+06
        -0.47651E+07
        -0.31615E+07
        -0.17394E+07
        -0.23053E+07
        -0.27304E+06
        -0.45678E+06
         0.69342E+06
         0.14590E+07
        -0.16024E+06
        -0.25850E+06
        -0.15346E+06
        -0.26094E+07
        -0.24750E+07
        -0.16457E+07
        -0.48515E+06
        -0.87510E+06
        -0.85201E+06
        -0.15220E+07
        -0.14072E+07
        -0.17832E+07
        -0.97119E+06
        -0.42835E+06
        -0.45224E+06
         0.58241E+05
         0.56043E+06
         0.16105E+07
        -0.22286E+07
         0.54833E+06
        -0.16381E+07
         0.14803E+06
         0.15039E+07
         0.23817E+07
         0.15123E+07
         0.18855E+07
         0.12189E+07
         0.37283E+06
         0.37407E+06
         0.13970E+06
        -0.35942E+06
         0.98720E+06
        -0.94132E+06
        -0.26775E+07
        -0.28379E+07
        -0.28697E+07
        -0.27941E+07
        -0.11925E+07
        -0.10280E+07
        -0.16728E+07
        -0.24753E+07
        -0.18280E+07
        -0.16837E+06
         0.96379E+06
         0.36440E+06
        -0.42579E+06
        -0.10958E+06
         0.12711E+07
         0.47336E+06
         0.14812E+07
        -0.90287E+06
        -0.20492E+07
         0.83239E+06
        -0.23810E+07
        -0.23283E+07
        -0.14169E+07
        -0.48345E+06
        -0.34374E+07
        -0.23121E+07
         0.31820E+05
         0.59061E+06
         0.93324E+06
        -0.95177E+06
        -0.10288E+06
        -0.61606E+06
         0.23907E+06
        -0.13344E+07
        -0.78297E+06
        -0.26638E+07
        -0.61591E+06
        -0.46578E+07
        -0.30675E+07
        -0.16606E+07
        -0.22150E+07
        -0.22417E+06
        -0.42350E+06
         0.71174E+06
         0.14479E+07
        -0.14253E+06
        -0.26627E+06
        -0.18364E+06
        -0.25413E+07
        -0.23927E+07
        -0.15732E+07
        -0.43636E+06
        -0.80842E+06
        -0.78173E+06
        -0.14523E+07
        -0.13687E+07
        -0.17643E+07
        -0.95572E+06
        -0.38790E+06
        -0.42176E+06
         0.60359E+05
         0.56808E+06
         0.16124E+07
        -0.21441E+07
         0.65801E+06
        -0.16106E+07
         0.99359E+05
         0.14029E+07
         0.23202E+07
         0.16132E+07
         0.19892E+07
         0.13013E+07
         0.42175E+06
         0.38768E+06
         0.18152E+06
        -0.27744E+06
         0.10277E+07
        -0.85573E+06
        -0.25553E+07
        -0.27340E+07
        -0.27900E+07
        -0.27597E+07
        -0.11965E+07
        -0.98213E+06
        -0.16071E+07
        -0.23710E+07
        -0.17009E+07
        -0.68307E+05
         0.10675E+07
         0.32333E+09
         0.32101E+09
         0.31712E+09
         0.27736E+09
         0.38822E+09
         0.35211E+09
         0.32684E+09
         0.36720E+09
         0.30517E+09
         0.36730E+09
         0.37716E+09
         0.48654E+09
         0.43156E+09
         0.40492E+09
         0.50119E+09
         0.30185E+09
         0.30361E+09
         0.24438E+09
         0.32458E+09
         0.31844E+09
         0.39708E+09
         0.39968E+09
         0.37840E+09
         0.29868E+09
         0.35518E+09
         0.26479E+09
         0.39932E+09
         0.33946E+09
         0.35815E+09
         0.36947E+09
         0.29998E+09
         0.29235E+09
         0.27773E+09
         0.28826E+09
         0.43907E+09
         0.37872E+09
         0.38711E+09
         0.47142E+09
         0.44809E+09
         0.43956E+09
         0.46189E+09
         0.43389E+09
         0.41117E+09
         0.36371E+09
         0.37677E+09
         0.44206E+09
         0.38982E+09
         0.35839E+09
         0.34278E+09
         0.36246E+09
         0.41773E+09
         0.37047E+09
         0.80372E+09
         0.78732E+09
         0.80114E+09
         0.77534E+09
         0.79954E+09
         0.83857E+09
         0.84208E+09
         0.83302E+09
         0.83961E+09
         0.86305E+09
         0.83754E+09
         0.78991E+09
         0.70067E+09
         0.66147E+09
         0.67112E+09
         0.68650E+09
         0.69508E+09
         0.75712E+09
         0.81049E+09
         0.81397E+09
         0.74648E+09
         0.71990E+09
         0.74577E+09
         0.73855E+09
         0.73408E+09
         0.73565E+09
         0.37278E+10
         0.39064E+10
         0.38501E+10
         0.35132E+10
         0.43250E+10
         0.40625E+10
         0.42273E+10
         0.42590E+10
         0.36463E+10
         0.42568E+10
         0.46430E+10
         0.52009E+10
         0.47144E+10
         0.47779E+10
         0.53832E+10
         0.35728E+10
         0.38411E+10
         0.33519E+10
         0.39669E+10
         0.41745E+10
         0.43163E+10
         0.44113E+10
         0.41432E+10
         0.38153E+10
         0.43075E+10
         0.36815E+10
         0.47605E+10
         0.46804E+10
         0.47015E+10
         0.44602E+10
         0.36115E+10
         0.37987E+10
         0.35411E+10
         0.37035E+10
         0.47360E+10
         0.43456E+10
         0.43594E+10
         0.52130E+10
         0.50800E+10
         0.50193E+10
         0.51069E+10
         0.48491E+10
         0.45847E+10
         0.40450E+10
         0.42129E+10
         0.47335E+10
         0.43777E+10
         0.41162E+10
         0.40347E+10
         0.41833E+10
         0.45415E+10
         0.41957E+10
         0.75199E+10
         0.73239E+10
         0.74775E+10
         0.72402E+10
         0.74569E+10
         0.78429E+10
         0.79718E+10
         0.79568E+10
         0.80144E+10
         0.81991E+10
         0.79596E+10
         0.74778E+10
         0.66981E+10
         0.63275E+10
         0.63435E+10
         0.64243E+10
         0.64864E+10
         0.70387E+10
         0.75496E+10
         0.75798E+10
         0.70104E+10
         0.67920E+10
         0.70183E+10
         0.69687E+10
         0.68884E+10
         0.68692E+10
  
SCALARS                      stress_zz  double 1
LOOKUP_TABLE default
         0.13112E+13
         0.12946E+13
         0.13051E+13
         0.13241E+13
        -0.44218E+03
        -0.49583E+03
        -0.47478E+03
        -0.43132E+03
         0.12940E+13
         0.12996E+13
        -0.44588E+03
        -0.43150E+03
         0.12704E+13
         0.12695E+13
        -0.52980E+03
        -0.49814E+03
         0.13213E+13
         0.12708E+13
        -0.39146E+03
        -0.43420E+03
         0.12522E+13
         0.12377E+13
         0.12607E+13
        -0.52509E+03
        -0.45857E+03
        -0.47352E+03
         0.12383E+13
         0.12172E+13
        -0.50375E+03
        -0.42482E+03
         0.13204E+13
         0.12984E+13
         0.13417E+13
        -0.42988E+03
        -0.39964E+03
        -0.38855E+03
         0.13077E+13
         0.12797E+13
        -0.45479E+03
        -0.41500E+03
         0.12966E+13
         0.12750E+13
        -0.39307E+03
        -0.34798E+03
         0.13149E+13
         0.13230E+13
        -0.43075E+03
        -0.48130E+03
         0.12576E+13
        -0.42080E+03
         0.13214E+13
        -0.49447E+03
         0.12322E+13
        -0.44438E+03
         0.12256E+13
        -0.42626E+03
         0.12257E+13
         0.12493E+13
        -0.43430E+03
        -0.42297E+03
         0.13200E+13
         0.13115E+13
        -0.43550E+03
        -0.49232E+03
         0.13252E+13
        -0.42022E+03
         0.13152E+13
        -0.45862E+03
         0.12888E+13
         0.12861E+13
        -0.44147E+03
        -0.46258E+03
         0.12801E+13
        -0.46646E+03
         0.12096E+13
        -0.36854E+03
         0.12059E+13
        -0.35772E+03
         0.12078E+13
        -0.37718E+03
         0.12180E+13
         0.12286E+13
        -0.35937E+03
        -0.37466E+03
         0.12500E+13
        -0.34895E+03
         0.13145E+13
        -0.45760E+03
         0.13044E+13
        -0.46834E+03
         0.12962E+13
         0.12917E+13
        -0.44976E+03
        -0.45501E+03
         0.12972E+13
        -0.41328E+03
         0.13012E+13
        -0.40738E+03
         0.12976E+13
        -0.43611E+03
         0.12963E+13
         0.13000E+13
        -0.42767E+03
        -0.44022E+03
         0.12764E+13
         0.12860E+13
        -0.33204E+03
        -0.31231E+03
         0.12746E+13
        -0.31706E+03
         0.12857E+13
        -0.30401E+03
         0.12748E+13
        -0.29977E+03
         0.12507E+13
        -0.28329E+03
         0.12273E+13
        -0.25167E+03
         0.12133E+13
        -0.22661E+03
         0.12118E+13
        -0.22504E+03
         0.12123E+13
        -0.24404E+03
         0.12275E+13
        -0.25648E+03
         0.12559E+13
        -0.23419E+03
         0.12870E+13
        -0.21110E+03
         0.13052E+13
        -0.21086E+03
         0.13232E+13
        -0.23569E+03
         0.13351E+13
        -0.26874E+03
         0.13346E+13
        -0.28871E+03
         0.13058E+13
        -0.31181E+03
         0.12857E+13
        -0.33405E+03
         0.12787E+13
        -0.30602E+03
         0.12895E+13
        -0.26846E+03
         0.12952E+13
        -0.26763E+03
         0.12857E+13
        -0.29282E+03
         0.12859E+13
        -0.31217E+03
         0.12930E+13
        -0.29624E+03
         0.13023E+13
        -0.28640E+03
        -0.27472E+11
        -0.26769E+11
        -0.26867E+11
        -0.27760E+11
        -0.26052E+11
        -0.26948E+11
        -0.25828E+11
        -0.26425E+11
        -0.27624E+11
        -0.26892E+11
        -0.25162E+11
        -0.24954E+11
        -0.25505E+11
        -0.25542E+11
        -0.25189E+11
        -0.27719E+11
        -0.27558E+11
        -0.28004E+11
        -0.26691E+11
        -0.26942E+11
        -0.26582E+11
        -0.26821E+11
        -0.26375E+11
        -0.26492E+11
        -0.26921E+11
        -0.26891E+11
        -0.26148E+11
        -0.26218E+11
        -0.25643E+11
        -0.26503E+11
        -0.27640E+11
        -0.26759E+11
        -0.27634E+11
        -0.27064E+11
        -0.24808E+11
        -0.25568E+11
        -0.25918E+11
        -0.25506E+11
        -0.25452E+11
        -0.24753E+11
        -0.24227E+11
        -0.25483E+11
        -0.26597E+11
        -0.26451E+11
        -0.25884E+11
        -0.24837E+11
        -0.25734E+11
        -0.26642E+11
        -0.26581E+11
        -0.25881E+11
        -0.25130E+11
        -0.26134E+11
        -0.22891E+11
        -0.23904E+11
        -0.23739E+11
        -0.23971E+11
        -0.23912E+11
        -0.23372E+11
        -0.22803E+11
        -0.22615E+11
        -0.22696E+11
        -0.22638E+11
        -0.22390E+11
        -0.23861E+11
        -0.24387E+11
        -0.24585E+11
        -0.24920E+11
        -0.25170E+11
        -0.25158E+11
        -0.24731E+11
        -0.23234E+11
        -0.23601E+11
        -0.24119E+11
        -0.24114E+11
        -0.24025E+11
        -0.23526E+11
        -0.24257E+11
        -0.24521E+11
         0.30283E+07
         0.18354E+07
         0.21485E+07
         0.33158E+07
         0.24652E+07
         0.34602E+07
        -0.16187E+06
        -0.16731E+06
         0.36969E+07
        -0.35166E+06
        -0.16354E+07
         0.11557E+07
         0.16678E+07
        -0.35902E+07
        -0.90844E+05
         0.16412E+07
         0.23657E+07
         0.29151E+07
         0.84519E+06
         0.86269E+06
         0.87851E+06
         0.18250E+07
         0.15003E+06
         0.12538E+06
        -0.10868E+07
        -0.12272E+05
        -0.53535E+07
        -0.64663E+07
        -0.28955E+07
        -0.74245E+06
         0.15219E+07
         0.52511E+06
         0.29028E+07
         0.41891E+07
         0.12014E+07
         0.10988E+07
         0.15824E+07
        -0.40603E+06
        -0.23230E+06
         0.40128E+06
         0.12786E+07
         0.73887E+06
         0.95522E+06
         0.21782E+06
         0.33931E+06
         0.61377E+06
         0.11482E+07
         0.14529E+07
         0.20320E+07
         0.27225E+07
         0.26568E+07
         0.34059E+07
        -0.47558E+06
         0.24508E+07
         0.60566E+06
         0.28700E+07
         0.47012E+07
         0.59659E+07
         0.51255E+07
         0.54967E+07
         0.47356E+07
         0.35243E+07
         0.31281E+07
         0.26696E+07
         0.17027E+07
         0.28757E+07
         0.87828E+06
        -0.54085E+06
        -0.29691E+06
        -0.20238E+06
         0.30769E+06
         0.22639E+07
         0.23200E+07
         0.16152E+07
         0.59366E+06
         0.58691E+06
         0.18452E+07
         0.30116E+07
         0.29153E+07
         0.17076E+07
         0.20207E+07
         0.31893E+07
         0.23313E+07
         0.33279E+07
        -0.32459E+06
        -0.29732E+06
         0.35661E+07
        -0.49380E+06
        -0.18029E+07
         0.99876E+06
         0.15269E+07
        -0.37425E+07
        -0.24574E+06
         0.15123E+07
         0.22001E+07
         0.27703E+07
         0.68883E+06
         0.66488E+06
         0.73924E+06
         0.16881E+07
         0.49314E+04
        -0.47394E+05
        -0.12534E+07
        -0.19624E+06
        -0.54993E+07
        -0.66672E+07
        -0.31039E+07
        -0.91375E+06
         0.13936E+07
         0.36427E+06
         0.27742E+07
         0.40558E+07
         0.10565E+07
         0.96186E+06
         0.14504E+07
        -0.56585E+06
        -0.38657E+06
         0.24724E+06
         0.11209E+07
         0.58286E+06
         0.80681E+06
         0.74663E+05
         0.20124E+06
         0.46920E+06
         0.10067E+07
         0.13156E+07
         0.19016E+07
         0.25960E+07
         0.25220E+07
         0.32754E+07
        -0.70750E+06
         0.22249E+07
         0.38375E+06
         0.26575E+07
         0.44770E+07
         0.57170E+07
         0.48764E+07
         0.52435E+07
         0.44793E+07
         0.32631E+07
         0.28680E+07
         0.24290E+07
         0.14998E+07
         0.26856E+07
         0.68026E+06
        -0.75154E+06
        -0.51181E+06
        -0.42597E+06
         0.82654E+05
         0.20263E+07
         0.20946E+07
         0.14110E+07
         0.38972E+06
         0.37785E+06
         0.16343E+07
         0.27968E+07
         0.29419E+07
         0.17328E+07
         0.20480E+07
         0.32230E+07
         0.23665E+07
         0.33638E+07
        -0.28842E+06
        -0.26757E+06
         0.35875E+07
        -0.48679E+06
        -0.17689E+07
         0.10288E+07
         0.15538E+07
        -0.37082E+07
        -0.20749E+06
         0.14865E+07
         0.21915E+07
         0.28069E+07
         0.65052E+06
         0.62654E+06
         0.71622E+06
         0.16792E+07
        -0.90238E+05
        -0.17208E+06
        -0.13228E+07
        -0.32519E+06
        -0.54698E+07
        -0.66951E+07
        -0.31851E+07
        -0.10331E+07
         0.13940E+07
         0.32765E+06
         0.28090E+07
         0.40990E+07
         0.10943E+07
         0.99636E+06
         0.14797E+07
        -0.53786E+06
        -0.36101E+06
         0.25618E+06
         0.11170E+07
         0.52622E+06
         0.72688E+06
        -0.21179E+05
         0.17755E+06
         0.48907E+06
         0.10324E+07
         0.13466E+07
         0.19371E+07
         0.26351E+07
         0.25603E+07
         0.33126E+07
        -0.63855E+06
         0.22867E+07
         0.45213E+06
         0.27101E+07
         0.45159E+07
         0.57556E+07
         0.49258E+07
         0.52933E+07
         0.45298E+07
         0.33153E+07
         0.28987E+07
         0.24278E+07
         0.15031E+07
         0.27206E+07
         0.70337E+06
        -0.79416E+06
        -0.55802E+06
        -0.41400E+06
         0.14441E+06
         0.20977E+07
         0.21587E+07
         0.14761E+07
         0.46237E+06
         0.43899E+06
         0.16840E+07
         0.28448E+07
         0.29258E+07
         0.17221E+07
         0.20374E+07
         0.32028E+07
         0.23539E+07
         0.33526E+07
        -0.30019E+06
        -0.28429E+06
         0.35495E+07
        -0.54709E+06
        -0.17862E+07
         0.10125E+07
         0.15425E+07
        -0.37284E+07
        -0.22656E+06
         0.13841E+07
         0.20942E+07
         0.27794E+07
         0.51399E+06
         0.45945E+06
         0.61055E+06
         0.15846E+07
        -0.31169E+06
        -0.45093E+06
        -0.15207E+07
        -0.61883E+06
        -0.55091E+07
        -0.68577E+07
        -0.34426E+07
        -0.13207E+07
         0.13318E+07
         0.18272E+06
         0.27894E+07
         0.40771E+07
         0.10756E+07
         0.98254E+06
         0.14691E+07
        -0.56711E+06
        -0.39840E+06
         0.18647E+06
         0.10278E+07
         0.34958E+06
         0.51014E+06
        -0.24707E+06
         0.63290E+05
         0.43085E+06
         0.98691E+06
         0.13211E+07
         0.19148E+07
         0.26113E+07
         0.25400E+07
         0.32985E+07
        -0.67104E+06
         0.22643E+07
         0.41701E+06
         0.26795E+07
         0.44953E+07
         0.57320E+07
         0.48861E+07
         0.52501E+07
         0.44879E+07
         0.32647E+07
         0.28186E+07
         0.22984E+07
         0.13801E+07
         0.26620E+07
         0.63803E+06
        -0.97328E+06
        -0.74751E+06
        -0.50230E+06
         0.10227E+06
         0.20577E+07
         0.21280E+07
         0.14397E+07
         0.42442E+06
         0.41309E+06
         0.16644E+07
         0.28254E+07
         0.28966E+07
         0.17002E+07
         0.20189E+07
         0.31820E+07
         0.23394E+07
         0.33371E+07
        -0.31985E+06
        -0.31218E+06
         0.35042E+07
        -0.60992E+06
        -0.18046E+07
         0.10024E+07
         0.15300E+07
        -0.37505E+07
        -0.23557E+06
         0.13149E+07
         0.20174E+07
         0.27537E+07
         0.42426E+06
         0.33856E+06
         0.54253E+06
         0.15167E+07
        -0.44774E+06
        -0.62375E+06
        -0.16621E+07
        -0.80695E+06
        -0.55434E+07
        -0.69750E+07
        -0.36190E+07
        -0.15114E+07
         0.12670E+07
         0.77463E+05
         0.27507E+07
         0.40465E+07
         0.10564E+07
         0.96488E+06
         0.14533E+07
        -0.58879E+06
        -0.42924E+06
         0.13374E+06
         0.96492E+06
         0.23086E+06
         0.36798E+06
        -0.39058E+06
        -0.12020E+05
         0.39244E+06
         0.94658E+06
         0.12802E+07
         0.18761E+07
         0.25759E+07
         0.25084E+07
         0.32755E+07
        -0.70028E+06
         0.22448E+07
         0.38711E+06
         0.26556E+07
         0.44856E+07
         0.57250E+07
         0.48690E+07
         0.52215E+07
         0.44523E+07
         0.32333E+07
         0.27697E+07
         0.22089E+07
         0.12963E+07
         0.26168E+07
         0.59191E+06
        -0.10893E+07
        -0.88052E+06
        -0.56541E+06
         0.83087E+05
         0.20213E+07
         0.20873E+07
         0.13980E+07
         0.37558E+06
         0.37113E+06
         0.16385E+07
         0.28060E+07
         0.28259E+07
         0.16581E+07
         0.20006E+07
         0.31994E+07
         0.23576E+07
         0.33621E+07
        -0.33286E+06
        -0.36122E+06
         0.34407E+07
        -0.69511E+06
        -0.17901E+07
         0.10375E+07
         0.15441E+07
        -0.37468E+07
        -0.19173E+06
         0.13276E+07
         0.19996E+07
         0.27912E+07
         0.44299E+06
         0.35484E+06
         0.56225E+06
         0.15405E+07
        -0.44470E+06
        -0.62722E+06
        -0.17204E+07
        -0.83342E+06
        -0.55510E+07
        -0.69889E+07
        -0.36022E+07
        -0.15172E+07
         0.11894E+07
         0.21952E+05
         0.26857E+07
         0.40388E+07
         0.10730E+07
         0.96672E+06
         0.14504E+07
        -0.56042E+06
        -0.40323E+06
         0.16268E+06
         0.99573E+06
         0.24970E+06
         0.38319E+06
        -0.39967E+06
        -0.21672E+05
         0.38606E+06
         0.91167E+06
         0.11979E+07
         0.17813E+07
         0.25278E+07
         0.24980E+07
         0.32868E+07
        -0.64361E+06
         0.23033E+07
         0.43470E+06
         0.26875E+07
         0.45189E+07
         0.57702E+07
         0.49203E+07
         0.52711E+07
         0.45092E+07
         0.33083E+07
         0.28354E+07
         0.22485E+07
         0.13405E+07
         0.26630E+07
         0.63638E+06
        -0.10539E+07
        -0.85493E+06
        -0.54003E+06
         0.11357E+06
         0.20424E+07
         0.20826E+07
         0.13689E+07
         0.35634E+06
         0.38069E+06
         0.16669E+07
         0.28468E+07
         0.27181E+07
         0.15835E+07
         0.19567E+07
         0.31867E+07
         0.23433E+07
         0.33609E+07
        -0.39697E+06
        -0.45718E+06
         0.33338E+07
        -0.82122E+06
        -0.18300E+07
         0.10241E+07
         0.15214E+07
        -0.37973E+07
        -0.20097E+06
         0.13069E+07
         0.19367E+07
         0.27821E+07
         0.42752E+06
         0.32589E+06
         0.55271E+06
         0.15339E+07
        -0.45542E+06
        -0.64819E+06
        -0.18044E+07
        -0.88109E+06
        -0.56096E+07
        -0.70491E+07
        -0.36133E+07
        -0.15391E+07
         0.10809E+07
        -0.69200E+05
         0.25863E+07
         0.39981E+07
         0.10505E+07
         0.93808E+06
         0.14193E+07
        -0.58318E+06
        -0.42535E+06
         0.15060E+06
         0.99043E+06
         0.24721E+06
         0.38182E+06
        -0.42156E+06
        -0.63353E+05
         0.33174E+06
         0.83121E+06
         0.10740E+07
         0.16460E+07
         0.24436E+07
         0.24556E+07
         0.32712E+07
        -0.66746E+06
         0.22848E+07
         0.42050E+06
         0.26714E+07
         0.44956E+07
         0.57424E+07
         0.48973E+07
         0.52512E+07
         0.44892E+07
         0.32933E+07
         0.28235E+07
         0.22341E+07
         0.13380E+07
         0.26594E+07
         0.62665E+06
        -0.10593E+07
        -0.86616E+06
        -0.57999E+06
         0.53954E+05
         0.19768E+07
         0.20084E+07
         0.12771E+07
         0.27587E+06
         0.33797E+06
         0.16439E+07
         0.28287E+07
         0.26868E+07
         0.15559E+07
         0.19387E+07
         0.31697E+07
         0.23278E+07
         0.33458E+07
        -0.42849E+06
        -0.49012E+06
         0.33023E+07
        -0.85840E+06
        -0.18582E+07
         0.10052E+07
         0.14990E+07
        -0.38263E+07
        -0.21682E+06
         0.12883E+07
         0.19115E+07
         0.27616E+07
         0.41336E+06
         0.30300E+06
         0.53773E+06
         0.15182E+07
        -0.46954E+06
        -0.66423E+06
        -0.18321E+07
        -0.90829E+06
        -0.56343E+07
        -0.70813E+07
        -0.36379E+07
        -0.15599E+07
         0.10456E+07
        -0.10547E+06
         0.25544E+07
         0.39752E+07
         0.10314E+07
         0.92257E+06
         0.14003E+07
        -0.61194E+06
        -0.45101E+06
         0.12432E+06
         0.96407E+06
         0.22610E+06
         0.36827E+06
        -0.44113E+06
        -0.88262E+05
         0.30632E+06
         0.80461E+06
         0.10432E+07
         0.16124E+07
         0.24144E+07
         0.24295E+07
         0.32517E+07
        -0.70016E+06
         0.22527E+07
         0.39877E+06
         0.26492E+07
         0.44687E+07
         0.57189E+07
         0.48730E+07
         0.52175E+07
         0.44445E+07
         0.32466E+07
         0.27811E+07
         0.22149E+07
         0.13226E+07
         0.26265E+07
         0.59235E+06
        -0.10918E+07
        -0.90839E+06
        -0.62029E+06
         0.19972E+05
         0.19493E+07
         0.19858E+07
         0.12465E+07
         0.23534E+06
         0.30019E+06
         0.16122E+07
         0.27973E+07
         0.27067E+07
         0.15746E+07
         0.19526E+07
         0.31750E+07
         0.23447E+07
         0.33507E+07
        -0.40367E+06
        -0.46549E+06
         0.33224E+07
        -0.83338E+06
        -0.18378E+07
         0.10242E+07
         0.15134E+07
        -0.38013E+07
        -0.18678E+06
         0.13127E+07
         0.19359E+07
         0.27778E+07
         0.44073E+06
         0.32969E+06
         0.55787E+06
         0.15373E+07
        -0.44879E+06
        -0.63570E+06
        -0.18066E+07
        -0.87865E+06
        -0.55976E+07
        -0.70447E+07
        -0.36024E+07
        -0.15380E+07
         0.10666E+07
        -0.84999E+05
         0.25706E+07
         0.39827E+07
         0.10531E+07
         0.94037E+06
         0.14151E+07
        -0.59074E+06
        -0.43309E+06
         0.14033E+06
         0.98226E+06
         0.24617E+06
         0.38867E+06
        -0.42200E+06
        -0.72089E+05
         0.32257E+06
         0.82193E+06
         0.10646E+07
         0.16343E+07
         0.24309E+07
         0.24406E+07
         0.32567E+07
        -0.65177E+06
         0.23003E+07
         0.42706E+06
         0.26608E+07
         0.44922E+07
         0.57555E+07
         0.49139E+07
         0.52469E+07
         0.44558E+07
         0.32638E+07
         0.28123E+07
         0.22592E+07
         0.13617E+07
         0.26519E+07
         0.61624E+06
        -0.10643E+07
        -0.88054E+06
        -0.58602E+06
         0.52501E+05
         0.19875E+07
         0.20253E+07
         0.12818E+07
         0.26471E+06
         0.32631E+06
         0.16383E+07
         0.28257E+07
         0.27016E+07
         0.15730E+07
         0.19491E+07
         0.31637E+07
         0.23415E+07
         0.33427E+07
        -0.40582E+06
        -0.47402E+06
         0.33067E+07
        -0.84719E+06
        -0.18496E+07
         0.10128E+07
         0.15100E+07
        -0.38170E+07
        -0.20344E+06
         0.13012E+07
         0.19196E+07
         0.27562E+07
         0.42908E+06
         0.31076E+06
         0.55011E+06
         0.15273E+07
        -0.45608E+06
        -0.64621E+06
        -0.18124E+07
        -0.88998E+06
        -0.56050E+07
        -0.70488E+07
        -0.36027E+07
        -0.15471E+07
         0.10557E+07
        -0.96251E+05
         0.25534E+07
         0.39658E+07
         0.10461E+07
         0.93339E+06
         0.14106E+07
        -0.61556E+06
        -0.44717E+06
         0.12728E+06
         0.96950E+06
         0.23810E+06
         0.37710E+06
        -0.42754E+06
        -0.77912E+05
         0.31447E+06
         0.80955E+06
         0.10506E+07
         0.16209E+07
         0.24196E+07
         0.24304E+07
         0.32456E+07
        -0.66594E+06
         0.22891E+07
         0.40434E+06
         0.26416E+07
         0.44895E+07
         0.57420E+07
         0.48823E+07
         0.52116E+07
         0.44350E+07
         0.32327E+07
         0.27783E+07
         0.22423E+07
         0.13415E+07
         0.26407E+07
         0.60590E+06
        -0.10739E+07
        -0.88206E+06
        -0.59278E+06
         0.42737E+05
         0.19617E+07
         0.19931E+07
         0.12569E+07
         0.25197E+06
         0.32005E+06
         0.16240E+07
         0.28056E+07
         0.26872E+07
         0.15589E+07
         0.19388E+07
         0.31573E+07
         0.23307E+07
         0.33377E+07
        -0.41752E+06
        -0.48686E+06
         0.32924E+07
        -0.86094E+06
        -0.18629E+07
         0.99764E+06
         0.14999E+07
        -0.38297E+07
        -0.22049E+06
         0.12852E+07
         0.19068E+07
         0.27429E+07
         0.41473E+06
         0.29594E+06
         0.54012E+06
         0.15172E+07
        -0.46718E+06
        -0.66262E+06
        -0.18182E+07
        -0.91127E+06
        -0.56102E+07
        -0.70572E+07
        -0.36042E+07
        -0.15535E+07
         0.10400E+07
        -0.11458E+06
         0.25437E+07
         0.39626E+07
         0.10293E+07
         0.92121E+06
         0.14004E+07
        -0.63956E+06
        -0.46297E+06
         0.11593E+06
         0.96224E+06
         0.23125E+06
         0.36654E+06
        -0.43803E+06
        -0.88266E+05
         0.30356E+06
         0.79800E+06
         0.10384E+07
         0.16081E+07
         0.24096E+07
         0.24207E+07
         0.32407E+07
        -0.69417E+06
         0.22656E+07
         0.38704E+06
         0.26357E+07
         0.44818E+07
         0.57146E+07
         0.48427E+07
         0.51796E+07
         0.44135E+07
         0.32103E+07
         0.27644E+07
         0.22256E+07
         0.13173E+07
         0.26242E+07
         0.58866E+06
        -0.10938E+07
        -0.89527E+06
        -0.60830E+06
         0.23535E+05
         0.19403E+07
         0.19686E+07
         0.12315E+07
         0.23361E+06
         0.30263E+06
         0.16023E+07
         0.27828E+07
         0.26967E+07
         0.15648E+07
         0.19440E+07
         0.31669E+07
         0.23421E+07
         0.33494E+07
        -0.40088E+06
        -0.46961E+06
         0.33016E+07
        -0.84988E+06
        -0.18435E+07
         0.10107E+07
         0.15043E+07
        -0.38070E+07
        -0.19264E+06
         0.12989E+07
         0.19166E+07
         0.27590E+07
         0.43131E+06
         0.31676E+06
         0.55621E+06
         0.15343E+07
        -0.45315E+06
        -0.64505E+06
        -0.18046E+07
        -0.89249E+06
        -0.55864E+07
        -0.70338E+07
        -0.35656E+07
        -0.15297E+07
         0.10566E+07
        -0.10070E+06
         0.25633E+07
         0.39812E+07
         0.10427E+07
         0.93262E+06
         0.14066E+07
        -0.62249E+06
        -0.44517E+06
         0.13917E+06
         0.98251E+06
         0.24654E+06
         0.38296E+06
        -0.42632E+06
        -0.78471E+05
         0.31259E+06
         0.80853E+06
         0.10514E+07
         0.16225E+07
         0.24237E+07
         0.24324E+07
         0.32543E+07
        -0.65883E+06
         0.23039E+07
         0.42302E+06
         0.26534E+07
         0.44760E+07
         0.57164E+07
         0.48710E+07
         0.52112E+07
         0.44347E+07
         0.32424E+07
         0.27950E+07
         0.22401E+07
         0.13434E+07
         0.26508E+07
         0.61281E+06
        -0.10752E+07
        -0.88277E+06
        -0.59263E+06
         0.38263E+05
         0.19633E+07
         0.19958E+07
         0.12577E+07
         0.25621E+06
         0.32182E+06
         0.16307E+07
         0.28161E+07
         0.26901E+07
         0.15535E+07
         0.19340E+07
         0.31542E+07
         0.23310E+07
         0.33379E+07
        -0.41618E+06
        -0.48118E+06
         0.32901E+07
        -0.86697E+06
        -0.18628E+07
         0.99178E+06
         0.14837E+07
        -0.38266E+07
        -0.20470E+06
         0.12860E+07
         0.19001E+07
         0.27360E+07
         0.41364E+06
         0.29479E+06
         0.53815E+06
         0.15159E+07
        -0.47216E+06
        -0.66402E+06
        -0.18197E+07
        -0.91117E+06
        -0.56074E+07
        -0.70644E+07
        -0.35818E+07
        -0.15420E+07
         0.10420E+07
        -0.11804E+06
         0.25423E+07
         0.39659E+07
         0.10266E+07
         0.91840E+06
         0.13898E+07
        -0.64865E+06
        -0.47095E+06
         0.11656E+06
         0.95791E+06
         0.22344E+06
         0.36494E+06
        -0.44775E+06
        -0.97455E+05
         0.29670E+06
         0.79206E+06
         0.10323E+07
         0.16061E+07
         0.24124E+07
         0.24194E+07
         0.32416E+07
        -0.68672E+06
         0.22799E+07
         0.39565E+06
         0.26219E+07
         0.44394E+07
         0.56815E+07
         0.48496E+07
         0.51835E+07
         0.43983E+07
         0.32065E+07
         0.27512E+07
         0.21968E+07
         0.13144E+07
         0.26206E+07
         0.58705E+06
        -0.11045E+07
        -0.92816E+06
        -0.63313E+06
         0.17902E+05
         0.19352E+07
         0.19667E+07
         0.12427E+07
         0.24586E+06
         0.30031E+06
         0.16015E+07
         0.27870E+07
         0.26889E+07
         0.15498E+07
         0.19310E+07
         0.31503E+07
         0.23298E+07
         0.33348E+07
        -0.41717E+06
        -0.48167E+06
         0.32907E+07
        -0.86661E+06
        -0.18654E+07
         0.98922E+06
         0.14805E+07
        -0.38273E+07
        -0.20359E+06
         0.12836E+07
         0.19010E+07
         0.27297E+07
         0.41222E+06
         0.29122E+06
         0.53431E+06
         0.15131E+07
        -0.47633E+06
        -0.66753E+06
        -0.18183E+07
        -0.91663E+06
        -0.56022E+07
        -0.70688E+07
        -0.35797E+07
        -0.15438E+07
         0.10344E+07
        -0.12501E+06
         0.25340E+07
         0.39626E+07
         0.10229E+07
         0.91390E+06
         0.13848E+07
        -0.66107E+06
        -0.48537E+06
         0.10774E+06
         0.95528E+06
         0.22151E+06
         0.36249E+06
        -0.45132E+06
        -0.10095E+06
         0.29294E+06
         0.78674E+06
         0.10249E+07
         0.15995E+07
         0.24102E+07
         0.24170E+07
         0.32387E+07
        -0.68755E+06
         0.22803E+07
         0.38821E+06
         0.26097E+07
         0.44386E+07
         0.56808E+07
         0.48408E+07
         0.51604E+07
         0.43720E+07
         0.31920E+07
         0.27497E+07
         0.21926E+07
         0.13071E+07
         0.26089E+07
         0.57363E+06
        -0.11139E+07
        -0.93431E+06
        -0.63846E+06
         0.12104E+05
         0.19250E+07
         0.19537E+07
         0.12344E+07
         0.24485E+06
         0.29745E+06
         0.15883E+07
         0.27752E+07
         0.27187E+07
         0.15854E+07
         0.19613E+07
         0.31754E+07
         0.23631E+07
         0.33615E+07
        -0.36658E+06
        -0.44583E+06
         0.33148E+07
        -0.83805E+06
        -0.18195E+07
         0.10303E+07
         0.15175E+07
        -0.37870E+07
        -0.16221E+06
         0.13131E+07
         0.19342E+07
         0.27615E+07
         0.44817E+06
         0.33613E+06
         0.56995E+06
         0.15470E+07
        -0.44201E+06
        -0.62954E+06
        -0.17787E+07
        -0.87475E+06
        -0.55560E+07
        -0.70059E+07
        -0.35122E+07
        -0.15009E+07
         0.10675E+07
        -0.85601E+05
         0.25642E+07
         0.39876E+07
         0.10587E+07
         0.94697E+06
         0.14172E+07
        -0.63433E+06
        -0.45080E+06
         0.14529E+06
         0.98910E+06
         0.25599E+06
         0.39305E+06
        -0.41517E+06
        -0.64176E+05
         0.32867E+06
         0.82046E+06
         0.10578E+07
         0.16288E+07
         0.24355E+07
         0.24414E+07
         0.32622E+07
        -0.62321E+06
         0.23443E+07
         0.44205E+06
         0.26488E+07
         0.44860E+07
         0.57408E+07
         0.48912E+07
         0.51988E+07
         0.44153E+07
         0.32391E+07
         0.27923E+07
         0.22425E+07
         0.13471E+07
         0.26534E+07
         0.62420E+06
        -0.10614E+07
        -0.87524E+06
        -0.57509E+06
         0.66538E+05
         0.19818E+07
         0.20024E+07
         0.12707E+07
         0.28466E+06
         0.34497E+06
         0.16398E+07
         0.28272E+07
         0.27064E+07
         0.15753E+07
         0.19521E+07
         0.31597E+07
         0.23492E+07
         0.33497E+07
        -0.38001E+06
        -0.46094E+06
         0.32984E+07
        -0.85957E+06
        -0.18384E+07
         0.10159E+07
         0.15084E+07
        -0.38076E+07
        -0.17964E+06
         0.12965E+07
         0.19134E+07
         0.27424E+07
         0.42476E+06
         0.30964E+06
         0.55788E+06
         0.15302E+07
        -0.45371E+06
        -0.65244E+06
        -0.17971E+07
        -0.90109E+06
        -0.55747E+07
        -0.70268E+07
        -0.35088E+07
        -0.15092E+07
         0.10569E+07
        -0.10525E+06
         0.25498E+07
         0.39690E+07
         0.10381E+07
         0.93409E+06
         0.14090E+07
        -0.66398E+06
        -0.47167E+06
         0.13561E+06
         0.97365E+06
         0.23811E+06
         0.37227E+06
        -0.43113E+06
        -0.80705E+05
         0.31372E+06
         0.80677E+06
         0.10471E+07
         0.16150E+07
         0.24186E+07
         0.24258E+07
         0.32491E+07
        -0.66435E+06
         0.23097E+07
         0.41044E+06
         0.26321E+07
         0.44803E+07
         0.57252E+07
         0.48567E+07
         0.51573E+07
         0.43750E+07
         0.32033E+07
         0.27501E+07
         0.21942E+07
         0.13126E+07
         0.26362E+07
         0.61623E+06
        -0.10665E+07
        -0.89176E+06
        -0.60369E+06
         0.45192E+05
         0.19565E+07
         0.19790E+07
         0.12443E+07
         0.25641E+06
         0.32702E+06
         0.16231E+07
         0.27997E+07
         0.26857E+07
         0.15493E+07
         0.19265E+07
         0.31387E+07
         0.23270E+07
         0.33271E+07
        -0.40355E+06
        -0.47897E+06
         0.32751E+07
        -0.89846E+06
        -0.18614E+07
         0.99237E+06
         0.14883E+07
        -0.38288E+07
        -0.20181E+06
         0.12760E+07
         0.18817E+07
         0.27207E+07
         0.40563E+06
         0.29596E+06
         0.54295E+06
         0.15107E+07
        -0.46785E+06
        -0.67207E+06
        -0.18323E+07
        -0.92695E+06
        -0.56189E+07
        -0.70608E+07
        -0.34314E+07
        -0.14784E+07
         0.10376E+07
        -0.13280E+06
         0.25356E+07
         0.39561E+07
         0.10148E+07
         0.91277E+06
         0.13893E+07
        -0.70795E+06
        -0.49220E+06
         0.17028E+06
         0.97239E+06
         0.21872E+06
         0.34449E+06
        -0.44840E+06
        -0.10175E+06
         0.28978E+06
         0.78289E+06
         0.10280E+07
         0.15990E+07
         0.24050E+07
         0.24120E+07
         0.32329E+07
        -0.69180E+06
         0.22845E+07
         0.38893E+06
         0.26134E+07
         0.44541E+07
         0.56829E+07
         0.48083E+07
         0.51109E+07
         0.43343E+07
         0.31938E+07
         0.26764E+07
         0.20785E+07
         0.12641E+07
         0.26092E+07
         0.59225E+06
        -0.10878E+07
        -0.91814E+06
        -0.63369E+06
         0.10135E+05
         0.19169E+07
         0.19521E+07
         0.12191E+07
         0.22761E+06
         0.30568E+06
         0.15904E+07
         0.27630E+07
         0.27140E+07
         0.15821E+07
         0.19594E+07
         0.31692E+07
         0.23624E+07
         0.33560E+07
        -0.35908E+06
        -0.44368E+06
         0.32916E+07
        -0.90413E+06
        -0.18200E+07
         0.10231E+07
         0.15158E+07
        -0.37908E+07
        -0.16480E+06
         0.13058E+07
         0.19044E+07
         0.27503E+07
         0.44709E+06
         0.37108E+06
         0.57261E+06
         0.15402E+07
        -0.44023E+06
        -0.63109E+06
        -0.18203E+07
        -0.88129E+06
        -0.56257E+07
        -0.70215E+07
        -0.32088E+07
        -0.13481E+07
         0.10659E+07
        -0.92711E+05
         0.25652E+07
         0.39893E+07
         0.10532E+07
         0.94963E+06
         0.14199E+07
        -0.70529E+06
        -0.45268E+06
         0.29948E+06
         0.10373E+07
         0.25362E+06
         0.36230E+06
        -0.41737E+06
        -0.65794E+05
         0.32949E+06
         0.81805E+06
         0.10581E+07
         0.16311E+07
         0.24394E+07
         0.24445E+07
         0.32608E+07
        -0.62558E+06
         0.23495E+07
         0.45535E+06
         0.26599E+07
         0.44837E+07
         0.57169E+07
         0.48554E+07
         0.51590E+07
         0.43872E+07
         0.32966E+07
         0.26525E+07
         0.19853E+07
         0.12676E+07
         0.26461E+07
         0.62312E+06
        -0.10620E+07
        -0.88621E+06
        -0.58065E+06
         0.75199E+05
         0.19777E+07
         0.20049E+07
         0.12737E+07
         0.28881E+06
         0.36246E+06
         0.16363E+07
         0.28113E+07
         0.26087E+07
         0.14618E+07
         0.18415E+07
         0.30458E+07
         0.22367E+07
         0.32298E+07
        -0.51061E+06
        -0.56692E+06
         0.31662E+07
        -0.10573E+07
        -0.19775E+07
         0.87726E+06
         0.13753E+07
        -0.39423E+07
        -0.31209E+06
         0.11943E+07
         0.17541E+07
         0.26062E+07
         0.30922E+06
         0.21104E+06
         0.44183E+06
         0.14108E+07
        -0.56853E+06
        -0.77547E+06
        -0.19744E+07
        -0.10343E+07
        -0.58028E+07
        -0.72134E+07
        -0.32854E+07
        -0.14349E+07
         0.95164E+06
        -0.23975E+06
         0.24345E+07
         0.38470E+07
         0.91226E+06
         0.81455E+06
         0.12847E+07
        -0.87864E+06
        -0.59316E+06
         0.21577E+06
         0.91038E+06
         0.11498E+06
         0.22301E+06
        -0.54507E+06
        -0.20180E+06
         0.18054E+06
         0.68127E+06
         0.93081E+06
         0.15009E+07
         0.23032E+07
         0.22994E+07
         0.31260E+07
        -0.85706E+06
         0.21252E+07
         0.22257E+06
         0.24229E+07
         0.42481E+07
         0.54906E+07
         0.46249E+07
         0.49103E+07
         0.41536E+07
         0.30845E+07
         0.23568E+07
         0.16635E+07
         0.10375E+07
         0.24546E+07
         0.42352E+06
        -0.12687E+07
        -0.10994E+07
        -0.81811E+06
        -0.16937E+06
         0.17435E+07
         0.17866E+07
         0.10641E+07
         0.74851E+05
         0.14227E+06
         0.14252E+07
         0.26016E+07
         0.26691E+07
         0.14702E+07
         0.18636E+07
         0.30927E+07
         0.22789E+07
         0.32712E+07
        -0.48653E+06
        -0.49124E+06
         0.32476E+07
        -0.94557E+06
        -0.19337E+07
         0.88005E+06
         0.13395E+07
        -0.38487E+07
        -0.24526E+06
         0.12813E+07
         0.18522E+07
         0.26816E+07
         0.38409E+06
         0.30322E+06
         0.50106E+06
         0.14552E+07
        -0.47634E+06
        -0.66716E+06
        -0.18341E+07
        -0.92195E+06
        -0.56511E+07
        -0.69933E+07
        -0.30989E+07
        -0.13035E+07
         0.10225E+07
        -0.17529E+06
         0.24716E+07
         0.38261E+07
         0.93368E+06
         0.80433E+06
         0.12464E+07
        -0.79802E+06
        -0.49182E+06
         0.30538E+06
         0.96774E+06
         0.19384E+06
         0.30634E+06
        -0.45816E+06
        -0.15235E+06
         0.20338E+06
         0.70185E+06
         0.98527E+06
         0.15444E+07
         0.23056E+07
         0.23087E+07
         0.31288E+07
        -0.76821E+06
         0.22407E+07
         0.25169E+06
         0.23718E+07
         0.41422E+07
         0.54263E+07
         0.47302E+07
         0.50192E+07
         0.42404E+07
         0.31358E+07
         0.23711E+07
         0.17076E+07
         0.11245E+07
         0.24977E+07
         0.51418E+06
        -0.11395E+07
        -0.98954E+06
        -0.73432E+06
        -0.13311E+06
         0.17393E+07
         0.18350E+07
         0.11336E+07
         0.18477E+06
         0.27602E+06
         0.15304E+07
         0.27106E+07
         0.41185E+09
         0.45935E+09
         0.45968E+09
         0.44730E+09
         0.49037E+09
         0.48123E+09
         0.53556E+09
         0.46756E+09
         0.43168E+09
         0.46979E+09
         0.56644E+09
         0.55853E+09
         0.51264E+09
         0.54966E+09
         0.57082E+09
         0.41130E+09
         0.48650E+09
         0.46872E+09
         0.48666E+09
         0.55276E+09
         0.46959E+09
         0.47715E+09
         0.45366E+09
         0.48834E+09
         0.49664E+09
         0.51052E+09
         0.54319E+09
         0.62352E+09
         0.59378E+09
         0.51130E+09
         0.42512E+09
         0.49218E+09
         0.45155E+09
         0.47740E+09
         0.52800E+09
         0.50259E+09
         0.48825E+09
         0.54926E+09
         0.54079E+09
         0.53781E+09
         0.53761E+09
         0.51188E+09
         0.48544E+09
         0.44744E+09
         0.47302E+09
         0.52675E+09
         0.49900E+09
         0.47510E+09
         0.47855E+09
         0.48650E+09
         0.50747E+09
         0.48433E+09
         0.84812E+09
         0.82993E+09
         0.84304E+09
         0.81654E+09
         0.84019E+09
         0.87899E+09
         0.88419E+09
         0.87883E+09
         0.88670E+09
         0.90852E+09
         0.88170E+09
         0.83159E+09
         0.74463E+09
         0.70497E+09
         0.71161E+09
         0.72547E+09
         0.73357E+09
         0.79612E+09
         0.85425E+09
         0.85713E+09
         0.78996E+09
         0.76378E+09
         0.78876E+09
         0.78161E+09
         0.77531E+09
         0.77723E+09
         0.40402E+10
         0.42402E+10
         0.41842E+10
         0.38487E+10
         0.46494E+10
         0.43950E+10
         0.45715E+10
         0.45823E+10
         0.39753E+10
         0.45811E+10
         0.49886E+10
         0.55042E+10
         0.50261E+10
         0.51188E+10
         0.56842E+10
         0.38958E+10
         0.41805E+10
         0.36901E+10
         0.43050E+10
         0.45196E+10
         0.46175E+10
         0.47184E+10
         0.44468E+10
         0.41551E+10
         0.46446E+10
         0.40234E+10
         0.51012E+10
         0.50307E+10
         0.50504E+10
         0.47984E+10
         0.39400E+10
         0.41392E+10
         0.38774E+10
         0.40424E+10
         0.50546E+10
         0.46787E+10
         0.46836E+10
         0.55238E+10
         0.54029E+10
         0.53454E+10
         0.54152E+10
         0.51590E+10
         0.48894E+10
         0.43561E+10
         0.45336E+10
         0.50483E+10
         0.47057E+10
         0.44455E+10
         0.43687E+10
         0.45153E+10
         0.48595E+10
         0.45244E+10
         0.77693E+10
         0.75663E+10
         0.77167E+10
         0.74754E+10
         0.76888E+10
         0.80733E+10
         0.82089E+10
         0.82075E+10
         0.82696E+10
         0.84497E+10
         0.82074E+10
         0.77175E+10
         0.69451E+10
         0.65723E+10
         0.65777E+10
         0.66525E+10
         0.67117E+10
         0.72657E+10
         0.77933E+10
         0.78207E+10
         0.72521E+10
         0.70351E+10
         0.72590E+10
         0.72112E+10
         0.71254E+10
         0.71072E+10
  
SCALARS                      stress_yz  double 1
LOOKUP_TABLE default
         0.38437E+06
        -0.12786E+06
        -0.33219E+06
        -0.17085E+06
        -0.97730E+01
        -0.26936E+01
        -0.12112E+02
        -0.92380E+01
        -0.12452E+07
         0.81895E+06
        -0.18025E+02
        -0.15868E+02
        -0.10923E+07
        -0.55544E+05
         0.12899E+02
        -0.82703E+00
         0.37551E+06
         0.13998E+07
         0.18978E+00
         0.19418E+01
        -0.72638E+06
        -0.27343E+07
        -0.28423E+07
         0.29570E+02
         0.51066E+02
         0.42685E+02
        -0.26951E+06
        -0.27722E+07
         0.21270E+02
         0.41264E+02
         0.42915E+06
         0.37410E+06
        -0.31772E+06
         0.11027E+02
         0.11257E+02
        -0.23370E+00
         0.12754E+07
         0.12291E+07
         0.20291E+02
         0.15787E+02
         0.12538E+07
         0.79813E+06
         0.15335E+02
         0.14014E+02
         0.11370E+07
         0.39201E+06
        -0.50870E+00
         0.78684E+01
         0.10559E+07
         0.37047E+01
         0.10405E+06
        -0.30005E+00
         0.62212E+05
         0.14330E+02
        -0.41230E+06
         0.83361E+01
        -0.13447E+07
         0.23876E+06
         0.22615E+00
        -0.45901E+00
         0.52043E+06
         0.18990E+07
        -0.30813E+01
        -0.11525E+02
         0.31426E+06
        -0.62197E+01
         0.13492E+07
        -0.75770E+01
        -0.10958E+07
        -0.58045E+06
        -0.93637E+00
         0.12363E+02
        -0.20296E+07
         0.27148E+02
        -0.35189E+07
         0.26286E+02
        -0.35513E+07
         0.19954E+02
        -0.29254E+07
         0.16725E+02
        -0.42904E+07
        -0.32928E+07
         0.10729E+02
        -0.23788E+01
        -0.46050E+06
        -0.26618E+00
         0.17769E+07
        -0.16674E+02
         0.41998E+07
        -0.29190E+02
         0.58689E+07
         0.36380E+07
        -0.43295E+02
        -0.35043E+02
         0.25586E+07
        -0.27203E+02
         0.22957E+07
        -0.27830E+02
         0.22340E+07
        -0.29923E+02
         0.37176E+07
         0.30894E+07
        -0.27827E+02
        -0.13333E+02
        -0.24940E+07
         0.94400E+06
         0.97845E+01
        -0.12159E+02
        -0.61313E+07
         0.32551E+02
        -0.87770E+07
         0.47613E+02
        -0.10746E+08
         0.58803E+02
        -0.12604E+08
         0.58328E+02
        -0.14838E+08
         0.46159E+02
        -0.15168E+08
         0.35721E+02
        -0.14282E+08
         0.33224E+02
        -0.12709E+08
         0.31610E+02
        -0.92684E+07
         0.20201E+02
        -0.62590E+07
         0.66696E+01
        -0.31398E+07
         0.43097E+01
         0.22585E+06
         0.64777E+01
         0.29957E+07
         0.33457E+01
         0.53740E+07
        -0.10118E+02
         0.83166E+07
        -0.28559E+02
         0.93584E+07
        -0.44596E+02
         0.10237E+08
        -0.58465E+02
         0.13078E+08
        -0.58414E+02
         0.13546E+08
        -0.50993E+02
         0.12518E+08
        -0.49698E+02
         0.10181E+08
        -0.50007E+02
         0.69219E+07
        -0.39544E+02
         0.49026E+07
        -0.23384E+02
         0.35255E+07
        -0.18081E+02
         0.28729E+07
         0.14871E+07
         0.12980E+07
         0.40275E+06
         0.13307E+07
         0.14141E+07
         0.14920E+06
         0.22922E+07
         0.19653E+07
         0.28846E+07
        -0.15082E+07
        -0.64347E+07
        -0.43949E+07
        -0.50974E+06
        -0.64995E+07
        -0.76086E+06
         0.67417E+06
        -0.43394E+06
        -0.56689E+06
         0.42845E+06
        -0.39348E+06
        -0.32440E+06
         0.10903E+07
        -0.91888E+05
         0.19694E+07
        -0.29116E+06
        -0.15082E+05
        -0.26368E+06
        -0.32006E+06
         0.15442E+07
        -0.74271E+06
         0.80604E+06
        -0.54012E+06
         0.13159E+06
        -0.21741E+06
        -0.11781E+07
        -0.26417E+07
        -0.57110E+07
        -0.52185E+07
        -0.44106E+07
        -0.41537E+07
        -0.10314E+07
         0.84358E+06
         0.23139E+07
         0.38236E+07
         0.62464E+07
         0.40982E+07
         0.29388E+07
         0.31355E+07
         0.33312E+07
         0.39077E+07
         0.17857E+07
        -0.33659E+07
         0.40441E+07
        -0.10953E+08
        -0.15131E+08
        -0.19288E+08
        -0.22908E+08
        -0.23040E+08
        -0.20863E+08
        -0.19851E+08
        -0.18762E+08
        -0.12123E+08
        -0.53183E+07
        -0.23398E+07
        -0.10315E+07
         0.15794E+07
         0.62430E+07
         0.11474E+08
         0.14975E+08
         0.18138E+08
         0.20792E+08
         0.19581E+08
         0.18512E+08
         0.17223E+08
         0.11981E+08
         0.69958E+07
         0.61416E+07
        -0.17082E+09
        -0.17339E+09
        -0.16952E+09
        -0.57464E+08
        -0.12503E+09
        -0.79304E+08
        -0.13633E+09
        -0.16396E+09
        -0.16643E+09
        -0.16297E+09
         0.16908E+09
         0.18796E+09
         0.14339E+09
         0.39185E+08
         0.17750E+09
         0.87236E+08
        -0.50235E+08
         0.66753E+08
         0.16502E+09
         0.57264E+08
         0.49116E+08
         0.36982E+08
        -0.21970E+08
         0.65419E+08
        -0.16528E+09
         0.90079E+08
         0.88779E+07
         0.42021E+08
        -0.67121E+08
        -0.15276E+09
         0.10898E+09
         0.52207E+08
         0.10617E+09
         0.10583E+09
        -0.14226E+08
         0.69825E+08
         0.10486E+09
         0.16265E+09
         0.18264E+09
         0.17199E+09
         0.91447E+08
        -0.24730E+08
        -0.50629E+08
        -0.80083E+08
        -0.11451E+09
        -0.17512E+09
        -0.15059E+09
        -0.11581E+09
        -0.17432E+09
        -0.17615E+09
        -0.11564E+09
        -0.12295E+08
         0.37351E+08
        -0.52296E+08
         0.11691E+09
         0.15209E+09
         0.18526E+09
         0.20846E+09
         0.21196E+09
         0.20586E+09
         0.20195E+09
         0.18790E+09
         0.12017E+09
         0.40100E+08
         0.18986E+08
         0.17034E+08
        -0.72444E+07
        -0.57745E+08
        -0.11186E+09
        -0.14376E+09
        -0.19379E+09
        -0.20975E+09
        -0.20254E+09
        -0.20069E+09
        -0.18876E+09
        -0.13566E+09
        -0.68671E+08
        -0.65523E+08
        -0.17081E+09
        -0.17339E+09
        -0.16951E+09
        -0.57807E+08
        -0.12510E+09
        -0.79409E+08
        -0.13610E+09
        -0.16409E+09
        -0.16645E+09
        -0.16313E+09
         0.16918E+09
         0.18795E+09
         0.14337E+09
         0.39272E+08
         0.17756E+09
         0.87176E+08
        -0.50557E+08
         0.66653E+08
         0.16504E+09
         0.57066E+08
         0.49234E+08
         0.37020E+08
        -0.21977E+08
         0.65390E+08
        -0.16537E+09
         0.89915E+08
         0.89797E+07
         0.42256E+08
        -0.66678E+08
        -0.15283E+09
         0.10890E+09
         0.52109E+08
         0.10658E+09
         0.10591E+09
        -0.14087E+08
         0.69889E+08
         0.10488E+09
         0.16267E+09
         0.18266E+09
         0.17197E+09
         0.91461E+08
        -0.24652E+08
        -0.50675E+08
        -0.80126E+08
        -0.11453E+09
        -0.17513E+09
        -0.15061E+09
        -0.11575E+09
        -0.17432E+09
        -0.17614E+09
        -0.11565E+09
        -0.12126E+08
         0.37328E+08
        -0.52310E+08
         0.11694E+09
         0.15209E+09
         0.18527E+09
         0.20845E+09
         0.21195E+09
         0.20585E+09
         0.20195E+09
         0.18790E+09
         0.12016E+09
         0.40117E+08
         0.18987E+08
         0.17069E+08
        -0.71846E+07
        -0.57763E+08
        -0.11189E+09
        -0.14376E+09
        -0.19379E+09
        -0.20975E+09
        -0.20255E+09
        -0.20070E+09
        -0.18877E+09
        -0.13565E+09
        -0.68630E+08
        -0.65468E+08
        -0.17079E+09
        -0.17338E+09
        -0.16951E+09
        -0.58153E+08
        -0.12516E+09
        -0.79516E+08
        -0.13588E+09
        -0.16422E+09
        -0.16648E+09
        -0.16329E+09
         0.16929E+09
         0.18794E+09
         0.14336E+09
         0.39354E+08
         0.17762E+09
         0.87115E+08
        -0.50880E+08
         0.66552E+08
         0.16506E+09
         0.56858E+08
         0.49352E+08
         0.37057E+08
        -0.21986E+08
         0.65353E+08
        -0.16544E+09
         0.89728E+08
         0.90888E+07
         0.42505E+08
        -0.66195E+08
        -0.15290E+09
         0.10881E+09
         0.51987E+08
         0.10699E+09
         0.10599E+09
        -0.13947E+08
         0.69954E+08
         0.10489E+09
         0.16269E+09
         0.18267E+09
         0.17195E+09
         0.91479E+08
        -0.24566E+08
        -0.50717E+08
        -0.80176E+08
        -0.11457E+09
        -0.17514E+09
        -0.15062E+09
        -0.11569E+09
        -0.17432E+09
        -0.17613E+09
        -0.11566E+09
        -0.11958E+08
         0.37306E+08
        -0.52325E+08
         0.11696E+09
         0.15209E+09
         0.18527E+09
         0.20845E+09
         0.21194E+09
         0.20583E+09
         0.20196E+09
         0.18790E+09
         0.12015E+09
         0.40136E+08
         0.18987E+08
         0.17105E+08
        -0.71245E+07
        -0.57781E+08
        -0.11192E+09
        -0.14377E+09
        -0.19380E+09
        -0.20974E+09
        -0.20255E+09
        -0.20070E+09
        -0.18878E+09
        -0.13563E+09
        -0.68590E+08
        -0.65413E+08
        -0.17078E+09
        -0.17338E+09
        -0.16950E+09
        -0.58500E+08
        -0.12523E+09
        -0.79622E+08
        -0.13566E+09
        -0.16435E+09
        -0.16652E+09
        -0.16345E+09
         0.16939E+09
         0.18793E+09
         0.14334E+09
         0.39442E+08
         0.17768E+09
         0.87049E+08
        -0.51204E+08
         0.66448E+08
         0.16508E+09
         0.56636E+08
         0.49472E+08
         0.37090E+08
        -0.22005E+08
         0.65294E+08
        -0.16551E+09
         0.89483E+08
         0.92018E+07
         0.42836E+08
        -0.65595E+08
        -0.15296E+09
         0.10872E+09
         0.51812E+08
         0.10740E+09
         0.10607E+09
        -0.13808E+08
         0.70018E+08
         0.10491E+09
         0.16271E+09
         0.18269E+09
         0.17193E+09
         0.91503E+08
        -0.24461E+08
        -0.50749E+08
        -0.80246E+08
        -0.11461E+09
        -0.17515E+09
        -0.15063E+09
        -0.11562E+09
        -0.17432E+09
        -0.17612E+09
        -0.11567E+09
        -0.11789E+08
         0.37283E+08
        -0.52339E+08
         0.11698E+09
         0.15209E+09
         0.18528E+09
         0.20844E+09
         0.21193E+09
         0.20582E+09
         0.20196E+09
         0.18790E+09
         0.12015E+09
         0.40158E+08
         0.18989E+08
         0.17140E+08
        -0.70639E+07
        -0.57800E+08
        -0.11195E+09
        -0.14378E+09
        -0.19381E+09
        -0.20974E+09
        -0.20256E+09
        -0.20070E+09
        -0.18879E+09
        -0.13562E+09
        -0.68550E+08
        -0.65358E+08
        -0.17077E+09
        -0.17337E+09
        -0.16950E+09
        -0.58843E+08
        -0.12530E+09
        -0.79728E+08
        -0.13544E+09
        -0.16447E+09
        -0.16655E+09
        -0.16362E+09
         0.16948E+09
         0.18792E+09
         0.14333E+09
         0.39531E+08
         0.17774E+09
         0.86979E+08
        -0.51528E+08
         0.66344E+08
         0.16511E+09
         0.56397E+08
         0.49592E+08
         0.37118E+08
        -0.22033E+08
         0.65213E+08
        -0.16556E+09
         0.89174E+08
         0.93282E+07
         0.43241E+08
        -0.64876E+08
        -0.15301E+09
         0.10861E+09
         0.51579E+08
         0.10781E+09
         0.10615E+09
        -0.13667E+08
         0.70082E+08
         0.10493E+09
         0.16273E+09
         0.18271E+09
         0.17192E+09
         0.91536E+08
        -0.24333E+08
        -0.50769E+08
        -0.80338E+08
        -0.11467E+09
        -0.17516E+09
        -0.15065E+09
        -0.11556E+09
        -0.17432E+09
        -0.17611E+09
        -0.11568E+09
        -0.11619E+08
         0.37260E+08
        -0.52353E+08
         0.11700E+09
         0.15209E+09
         0.18528E+09
         0.20843E+09
         0.21192E+09
         0.20581E+09
         0.20197E+09
         0.18790E+09
         0.12015E+09
         0.40183E+08
         0.18991E+08
         0.17174E+08
        -0.70030E+07
        -0.57821E+08
        -0.11198E+09
        -0.14379E+09
        -0.19381E+09
        -0.20974E+09
        -0.20256E+09
        -0.20071E+09
        -0.18880E+09
        -0.13560E+09
        -0.68509E+08
        -0.65304E+08
        -0.17075E+09
        -0.17336E+09
        -0.16949E+09
        -0.59191E+08
        -0.12536E+09
        -0.79834E+08
        -0.13521E+09
        -0.16460E+09
        -0.16658E+09
        -0.16378E+09
         0.16958E+09
         0.18791E+09
         0.14331E+09
         0.39625E+08
         0.17780E+09
         0.86910E+08
        -0.51859E+08
         0.66242E+08
         0.16513E+09
         0.56147E+08
         0.49711E+08
         0.37145E+08
        -0.22064E+08
         0.65122E+08
        -0.16561E+09
         0.88844E+08
         0.94642E+07
         0.43688E+08
        -0.63955E+08
        -0.15306E+09
         0.10850E+09
         0.51321E+08
         0.10823E+09
         0.10624E+09
        -0.13526E+08
         0.70147E+08
         0.10495E+09
         0.16275E+09
         0.18272E+09
         0.17190E+09
         0.91570E+08
        -0.24199E+08
        -0.50784E+08
        -0.80436E+08
        -0.11474E+09
        -0.17518E+09
        -0.15067E+09
        -0.11551E+09
        -0.17432E+09
        -0.17610E+09
        -0.11569E+09
        -0.11448E+08
         0.37237E+08
        -0.52368E+08
         0.11702E+09
         0.15209E+09
         0.18529E+09
         0.20842E+09
         0.21191E+09
         0.20580E+09
         0.20197E+09
         0.18790E+09
         0.12014E+09
         0.40210E+08
         0.18994E+08
         0.17208E+08
        -0.69423E+07
        -0.57841E+08
        -0.11202E+09
        -0.14380E+09
        -0.19382E+09
        -0.20974E+09
        -0.20257E+09
        -0.20071E+09
        -0.18881E+09
        -0.13558E+09
        -0.68469E+08
        -0.65249E+08
        -0.17074E+09
        -0.17335E+09
        -0.16949E+09
        -0.59548E+08
        -0.12543E+09
        -0.79941E+08
        -0.13496E+09
        -0.16472E+09
        -0.16662E+09
        -0.16393E+09
         0.16968E+09
         0.18790E+09
         0.14330E+09
         0.39743E+08
         0.17785E+09
         0.86844E+08
        -0.52203E+08
         0.66140E+08
         0.16515E+09
         0.55893E+08
         0.49831E+08
         0.37172E+08
        -0.22095E+08
         0.65031E+08
        -0.16567E+09
         0.88513E+08
         0.96246E+07
         0.44164E+08
        -0.62923E+08
        -0.15310E+09
         0.10839E+09
         0.51053E+08
         0.10865E+09
         0.10634E+09
        -0.13385E+08
         0.70214E+08
         0.10497E+09
         0.16277E+09
         0.18274E+09
         0.17189E+09
         0.91607E+08
        -0.24062E+08
        -0.50797E+08
        -0.80534E+08
        -0.11481E+09
        -0.17519E+09
        -0.15070E+09
        -0.11548E+09
        -0.17433E+09
        -0.17608E+09
        -0.11569E+09
        -0.11274E+08
         0.37214E+08
        -0.52382E+08
         0.11705E+09
         0.15209E+09
         0.18529E+09
         0.20842E+09
         0.21190E+09
         0.20578E+09
         0.20198E+09
         0.18789E+09
         0.12014E+09
         0.40238E+08
         0.18998E+08
         0.17242E+08
        -0.68814E+07
        -0.57861E+08
        -0.11205E+09
        -0.14381E+09
        -0.19383E+09
        -0.20974E+09
        -0.20257E+09
        -0.20072E+09
        -0.18882E+09
        -0.13557E+09
        -0.68428E+08
        -0.65194E+08
        -0.17073E+09
        -0.17334E+09
        -0.16949E+09
        -0.59910E+08
        -0.12550E+09
        -0.80048E+08
        -0.13470E+09
        -0.16484E+09
        -0.16665E+09
        -0.16407E+09
         0.16978E+09
         0.18789E+09
         0.14329E+09
         0.39866E+08
         0.17791E+09
         0.86779E+08
        -0.52552E+08
         0.66035E+08
         0.16518E+09
         0.55633E+08
         0.49951E+08
         0.37200E+08
        -0.22126E+08
         0.64944E+08
        -0.16572E+09
         0.88183E+08
         0.97912E+07
         0.44652E+08
        -0.61889E+08
        -0.15313E+09
         0.10829E+09
         0.50778E+08
         0.10909E+09
         0.10645E+09
        -0.13242E+08
         0.70281E+08
         0.10499E+09
         0.16279E+09
         0.18276E+09
         0.17187E+09
         0.91643E+08
        -0.23924E+08
        -0.50809E+08
        -0.80630E+08
        -0.11488E+09
        -0.17520E+09
        -0.15074E+09
        -0.11545E+09
        -0.17434E+09
        -0.17607E+09
        -0.11569E+09
        -0.11100E+08
         0.37192E+08
        -0.52396E+08
         0.11707E+09
         0.15209E+09
         0.18530E+09
         0.20841E+09
         0.21189E+09
         0.20577E+09
         0.20198E+09
         0.18789E+09
         0.12014E+09
         0.40265E+08
         0.19001E+08
         0.17277E+08
        -0.68205E+07
        -0.57881E+08
        -0.11209E+09
        -0.14383E+09
        -0.19383E+09
        -0.20973E+09
        -0.20258E+09
        -0.20072E+09
        -0.18883E+09
        -0.13555E+09
        -0.68388E+08
        -0.65139E+08
        -0.17072E+09
        -0.17333E+09
        -0.16949E+09
        -0.60271E+08
        -0.12556E+09
        -0.80155E+08
        -0.13444E+09
        -0.16496E+09
        -0.16668E+09
        -0.16422E+09
         0.16987E+09
         0.18788E+09
         0.14328E+09
         0.39993E+08
         0.17797E+09
         0.86716E+08
        -0.52902E+08
         0.65929E+08
         0.16520E+09
         0.55287E+08
         0.50071E+08
         0.37228E+08
        -0.22157E+08
         0.64855E+08
        -0.16578E+09
         0.87855E+08
         0.99618E+07
         0.45135E+08
        -0.60864E+08
        -0.15317E+09
         0.10818E+09
         0.50505E+08
         0.10952E+09
         0.10655E+09
        -0.13099E+08
         0.70347E+08
         0.10501E+09
         0.16281E+09
         0.18277E+09
         0.17185E+09
         0.91679E+08
        -0.23788E+08
        -0.50822E+08
        -0.80727E+08
        -0.11494E+09
        -0.17522E+09
        -0.15077E+09
        -0.11543E+09
        -0.17435E+09
        -0.17606E+09
        -0.11570E+09
        -0.10924E+08
         0.37169E+08
        -0.52410E+08
         0.11709E+09
         0.15209E+09
         0.18530E+09
         0.20840E+09
         0.21188E+09
         0.20576E+09
         0.20198E+09
         0.18789E+09
         0.12014E+09
         0.40292E+08
         0.19005E+08
         0.17313E+08
        -0.67597E+07
        -0.57901E+08
        -0.11213E+09
        -0.14384E+09
        -0.19384E+09
        -0.20973E+09
        -0.20259E+09
        -0.20072E+09
        -0.18884E+09
        -0.13553E+09
        -0.68348E+08
        -0.65084E+08
        -0.17071E+09
        -0.17332E+09
        -0.16949E+09
        -0.60628E+08
        -0.12563E+09
        -0.80261E+08
        -0.13418E+09
        -0.16508E+09
        -0.16672E+09
        -0.16436E+09
         0.16996E+09
         0.18787E+09
         0.14327E+09
         0.40116E+08
         0.17803E+09
         0.86652E+08
        -0.53251E+08
         0.65824E+08
         0.16522E+09
         0.54906E+08
         0.50190E+08
         0.37255E+08
        -0.22186E+08
         0.64766E+08
        -0.16583E+09
         0.87528E+08
         0.10128E+08
         0.45613E+08
        -0.59847E+08
        -0.15321E+09
         0.10808E+09
         0.50232E+08
         0.10995E+09
         0.10666E+09
        -0.12956E+08
         0.70414E+08
         0.10503E+09
         0.16284E+09
         0.18279E+09
         0.17184E+09
         0.91715E+08
        -0.23652E+08
        -0.50835E+08
        -0.80823E+08
        -0.11501E+09
        -0.17523E+09
        -0.15080E+09
        -0.11541E+09
        -0.17435E+09
        -0.17605E+09
        -0.11570E+09
        -0.10749E+08
         0.37146E+08
        -0.52423E+08
         0.11711E+09
         0.15209E+09
         0.18531E+09
         0.20840E+09
         0.21187E+09
         0.20575E+09
         0.20199E+09
         0.18789E+09
         0.12014E+09
         0.40319E+08
         0.19009E+08
         0.17348E+08
        -0.66991E+07
        -0.57922E+08
        -0.11216E+09
        -0.14385E+09
        -0.19385E+09
        -0.20973E+09
        -0.20260E+09
        -0.20073E+09
        -0.18885E+09
        -0.13552E+09
        -0.68308E+08
        -0.65028E+08
        -0.17070E+09
        -0.17331E+09
        -0.16949E+09
        -0.60985E+08
        -0.12569E+09
        -0.80366E+08
        -0.13393E+09
        -0.16519E+09
        -0.16675E+09
        -0.16450E+09
         0.17005E+09
         0.18786E+09
         0.14325E+09
         0.40242E+08
         0.17809E+09
         0.86589E+08
        -0.53600E+08
         0.65719E+08
         0.16525E+09
         0.54521E+08
         0.50310E+08
         0.37281E+08
        -0.22217E+08
         0.64678E+08
        -0.16589E+09
         0.87201E+08
         0.10296E+08
         0.46084E+08
        -0.58837E+08
        -0.15325E+09
         0.10797E+09
         0.49959E+08
         0.11038E+09
         0.10676E+09
        -0.12812E+08
         0.70481E+08
         0.10505E+09
         0.16286E+09
         0.18281E+09
         0.17182E+09
         0.91750E+08
        -0.23517E+08
        -0.50848E+08
        -0.80918E+08
        -0.11508E+09
        -0.17525E+09
        -0.15084E+09
        -0.11538E+09
        -0.17436E+09
        -0.17603E+09
        -0.11571E+09
        -0.10572E+08
         0.37123E+08
        -0.52437E+08
         0.11713E+09
         0.15209E+09
         0.18531E+09
         0.20839E+09
         0.21186E+09
         0.20573E+09
         0.20199E+09
         0.18789E+09
         0.12013E+09
         0.40345E+08
         0.19012E+08
         0.17382E+08
        -0.66383E+07
        -0.57942E+08
        -0.11220E+09
        -0.14387E+09
        -0.19385E+09
        -0.20973E+09
        -0.20260E+09
        -0.20073E+09
        -0.18886E+09
        -0.13550E+09
        -0.68268E+08
        -0.64973E+08
        -0.17069E+09
        -0.17330E+09
        -0.16949E+09
        -0.61343E+08
        -0.12576E+09
        -0.80473E+08
        -0.13367E+09
        -0.16531E+09
        -0.16678E+09
        -0.16464E+09
         0.17014E+09
         0.18785E+09
         0.14324E+09
         0.40369E+08
         0.17815E+09
         0.86527E+08
        -0.53947E+08
         0.65611E+08
         0.16527E+09
         0.54140E+08
         0.50430E+08
         0.37308E+08
        -0.22248E+08
         0.64591E+08
        -0.16594E+09
         0.86876E+08
         0.10461E+08
         0.46552E+08
        -0.57836E+08
        -0.15329E+09
         0.10787E+09
         0.49684E+08
         0.11082E+09
         0.10687E+09
        -0.12668E+08
         0.70548E+08
         0.10507E+09
         0.16288E+09
         0.18282E+09
         0.17180E+09
         0.91786E+08
        -0.23382E+08
        -0.50860E+08
        -0.81013E+08
        -0.11515E+09
        -0.17526E+09
        -0.15087E+09
        -0.11536E+09
        -0.17437E+09
        -0.17602E+09
        -0.11571E+09
        -0.10395E+08
         0.37100E+08
        -0.52451E+08
         0.11715E+09
         0.15209E+09
         0.18532E+09
         0.20838E+09
         0.21185E+09
         0.20572E+09
         0.20200E+09
         0.18789E+09
         0.12013E+09
         0.40372E+08
         0.19016E+08
         0.17417E+08
        -0.65773E+07
        -0.57962E+08
        -0.11223E+09
        -0.14388E+09
        -0.19386E+09
        -0.20973E+09
        -0.20261E+09
        -0.20073E+09
        -0.18887E+09
        -0.13548E+09
        -0.68228E+08
        -0.64918E+08
        -0.17067E+09
        -0.17328E+09
        -0.16949E+09
        -0.61702E+08
        -0.12582E+09
        -0.80580E+08
        -0.13342E+09
        -0.16543E+09
        -0.16682E+09
        -0.16478E+09
         0.17022E+09
         0.18784E+09
         0.14323E+09
         0.40492E+08
         0.17821E+09
         0.86463E+08
        -0.54292E+08
         0.65503E+08
         0.16529E+09
         0.53761E+08
         0.50550E+08
         0.37334E+08
        -0.22278E+08
         0.64504E+08
        -0.16600E+09
         0.86548E+08
         0.10631E+08
         0.47015E+08
        -0.56841E+08
        -0.15332E+09
         0.10776E+09
         0.49407E+08
         0.11125E+09
         0.10697E+09
        -0.12524E+08
         0.70615E+08
         0.10509E+09
         0.16291E+09
         0.18284E+09
         0.17179E+09
         0.91821E+08
        -0.23247E+08
        -0.50872E+08
        -0.81109E+08
        -0.11522E+09
        -0.17527E+09
        -0.15091E+09
        -0.11534E+09
        -0.17438E+09
        -0.17601E+09
        -0.11571E+09
        -0.10218E+08
         0.37076E+08
        -0.52464E+08
         0.11718E+09
         0.15210E+09
         0.18532E+09
         0.20837E+09
         0.21184E+09
         0.20571E+09
         0.20200E+09
         0.18789E+09
         0.12013E+09
         0.40399E+08
         0.19019E+08
         0.17452E+08
        -0.65165E+07
        -0.57982E+08
        -0.11227E+09
        -0.14389E+09
        -0.19387E+09
        -0.20972E+09
        -0.20262E+09
        -0.20074E+09
        -0.18888E+09
        -0.13546E+09
        -0.68188E+08
        -0.64862E+08
        -0.17066E+09
        -0.17327E+09
        -0.16949E+09
        -0.62059E+08
        -0.12589E+09
        -0.80687E+08
        -0.13317E+09
        -0.16554E+09
        -0.16685E+09
        -0.16492E+09
         0.17031E+09
         0.18783E+09
         0.14322E+09
         0.40620E+08
         0.17826E+09
         0.86400E+08
        -0.54637E+08
         0.65396E+08
         0.16531E+09
         0.53382E+08
         0.50669E+08
         0.37361E+08
        -0.22309E+08
         0.64417E+08
        -0.16606E+09
         0.86220E+08
         0.10796E+08
         0.47473E+08
        -0.55854E+08
        -0.15336E+09
         0.10766E+09
         0.49132E+08
         0.11168E+09
         0.10708E+09
        -0.12379E+08
         0.70681E+08
         0.10511E+09
         0.16293E+09
         0.18286E+09
         0.17177E+09
         0.91857E+08
        -0.23112E+08
        -0.50885E+08
        -0.81204E+08
        -0.11529E+09
        -0.17529E+09
        -0.15094E+09
        -0.11531E+09
        -0.17438E+09
        -0.17600E+09
        -0.11572E+09
        -0.10042E+08
         0.37053E+08
        -0.52478E+08
         0.11720E+09
         0.15210E+09
         0.18533E+09
         0.20837E+09
         0.21183E+09
         0.20570E+09
         0.20200E+09
         0.18788E+09
         0.12013E+09
         0.40426E+08
         0.19023E+08
         0.17487E+08
        -0.64559E+07
        -0.58002E+08
        -0.11231E+09
        -0.14390E+09
        -0.19387E+09
        -0.20972E+09
        -0.20262E+09
        -0.20074E+09
        -0.18889E+09
        -0.13545E+09
        -0.68149E+08
        -0.64807E+08
        -0.17065E+09
        -0.17326E+09
        -0.16949E+09
        -0.62413E+08
        -0.12595E+09
        -0.80793E+08
        -0.13292E+09
        -0.16566E+09
        -0.16688E+09
        -0.16506E+09
         0.17039E+09
         0.18782E+09
         0.14321E+09
         0.40742E+08
         0.17832E+09
         0.86338E+08
        -0.54982E+08
         0.65290E+08
         0.16534E+09
         0.52999E+08
         0.50789E+08
         0.37387E+08
        -0.22339E+08
         0.64332E+08
        -0.16611E+09
         0.85893E+08
         0.10963E+08
         0.47922E+08
        -0.54877E+08
        -0.15340E+09
         0.10756E+09
         0.48855E+08
         0.11212E+09
         0.10719E+09
        -0.12235E+08
         0.70748E+08
         0.10513E+09
         0.16295E+09
         0.18287E+09
         0.17175E+09
         0.91893E+08
        -0.22977E+08
        -0.50897E+08
        -0.81299E+08
        -0.11535E+09
        -0.17530E+09
        -0.15098E+09
        -0.11529E+09
        -0.17439E+09
        -0.17599E+09
        -0.11572E+09
        -0.98644E+07
         0.37030E+08
        -0.52491E+08
         0.11722E+09
         0.15210E+09
         0.18533E+09
         0.20836E+09
         0.21182E+09
         0.20568E+09
         0.20201E+09
         0.18788E+09
         0.12013E+09
         0.40452E+08
         0.19026E+08
         0.17522E+08
        -0.63952E+07
        -0.58022E+08
        -0.11234E+09
        -0.14392E+09
        -0.19388E+09
        -0.20972E+09
        -0.20263E+09
        -0.20075E+09
        -0.18890E+09
        -0.13543E+09
        -0.68109E+08
        -0.64751E+08
        -0.17064E+09
        -0.17325E+09
        -0.16949E+09
        -0.62766E+08
        -0.12602E+09
        -0.80898E+08
        -0.13267E+09
        -0.16577E+09
        -0.16692E+09
        -0.16520E+09
         0.17047E+09
         0.18781E+09
         0.14319E+09
         0.40869E+08
         0.17838E+09
         0.86275E+08
        -0.55327E+08
         0.65183E+08
         0.16536E+09
         0.52618E+08
         0.50908E+08
         0.37412E+08
        -0.22368E+08
         0.64248E+08
        -0.16617E+09
         0.85564E+08
         0.11127E+08
         0.48366E+08
        -0.53908E+08
        -0.15344E+09
         0.10745E+09
         0.48579E+08
         0.11255E+09
         0.10729E+09
        -0.12090E+08
         0.70814E+08
         0.10515E+09
         0.16298E+09
         0.18289E+09
         0.17174E+09
         0.91929E+08
        -0.22843E+08
        -0.50911E+08
        -0.81394E+08
        -0.11542E+09
        -0.17532E+09
        -0.15101E+09
        -0.11527E+09
        -0.17440E+09
        -0.17597E+09
        -0.11573E+09
        -0.96860E+07
         0.37006E+08
        -0.52504E+08
         0.11724E+09
         0.15210E+09
         0.18534E+09
         0.20835E+09
         0.21181E+09
         0.20567E+09
         0.20201E+09
         0.18788E+09
         0.12012E+09
         0.40479E+08
         0.19030E+08
         0.17556E+08
        -0.63344E+07
        -0.58041E+08
        -0.11238E+09
        -0.14393E+09
        -0.19389E+09
        -0.20972E+09
        -0.20264E+09
        -0.20075E+09
        -0.18891E+09
        -0.13541E+09
        -0.68070E+08
        -0.64696E+08
        -0.17063E+09
        -0.17324E+09
        -0.16949E+09
        -0.63119E+08
        -0.12608E+09
        -0.81005E+08
        -0.13242E+09
        -0.16588E+09
        -0.16695E+09
        -0.16533E+09
         0.17054E+09
         0.18779E+09
         0.14318E+09
         0.40992E+08
         0.17844E+09
         0.86213E+08
        -0.55673E+08
         0.65073E+08
         0.16538E+09
         0.52242E+08
         0.51027E+08
         0.37436E+08
        -0.22399E+08
         0.64162E+08
        -0.16622E+09
         0.85234E+08
         0.11294E+08
         0.48805E+08
        -0.52948E+08
        -0.15347E+09
         0.10735E+09
         0.48301E+08
         0.11298E+09
         0.10740E+09
        -0.11944E+08
         0.70880E+08
         0.10517E+09
         0.16301E+09
         0.18291E+09
         0.17172E+09
         0.91966E+08
        -0.22710E+08
        -0.50924E+08
        -0.81489E+08
        -0.11549E+09
        -0.17533E+09
        -0.15105E+09
        -0.11524E+09
        -0.17440E+09
        -0.17596E+09
        -0.11573E+09
        -0.95085E+07
         0.36983E+08
        -0.52518E+08
         0.11726E+09
         0.15210E+09
         0.18534E+09
         0.20835E+09
         0.21180E+09
         0.20566E+09
         0.20202E+09
         0.18788E+09
         0.12012E+09
         0.40506E+08
         0.19032E+08
         0.17590E+08
        -0.62740E+07
        -0.58061E+08
        -0.11242E+09
        -0.14394E+09
        -0.19389E+09
        -0.20972E+09
        -0.20264E+09
        -0.20075E+09
        -0.18892E+09
        -0.13540E+09
        -0.68031E+08
        -0.64640E+08
        -0.17061E+09
        -0.17322E+09
        -0.16949E+09
        -0.63473E+08
        -0.12615E+09
        -0.81111E+08
        -0.13217E+09
        -0.16600E+09
        -0.16699E+09
        -0.16547E+09
         0.17062E+09
         0.18778E+09
         0.14317E+09
         0.41120E+08
         0.17850E+09
         0.86151E+08
        -0.56022E+08
         0.64963E+08
         0.16540E+09
         0.51882E+08
         0.51146E+08
         0.37460E+08
        -0.22429E+08
         0.64076E+08
        -0.16628E+09
         0.84908E+08
         0.11461E+08
         0.49240E+08
        -0.51994E+08
        -0.15350E+09
         0.10724E+09
         0.48020E+08
         0.11341E+09
         0.10750E+09
        -0.11799E+08
         0.70948E+08
         0.10519E+09
         0.16303E+09
         0.18292E+09
         0.17170E+09
         0.92004E+08
        -0.22577E+08
        -0.50940E+08
        -0.81584E+08
        -0.11556E+09
        -0.17534E+09
        -0.15108E+09
        -0.11522E+09
        -0.17441E+09
        -0.17595E+09
        -0.11573E+09
        -0.93305E+07
         0.36959E+08
        -0.52531E+08
         0.11728E+09
         0.15210E+09
         0.18535E+09
         0.20834E+09
         0.21179E+09
         0.20565E+09
         0.20202E+09
         0.18788E+09
         0.12012E+09
         0.40532E+08
         0.19033E+08
         0.17625E+08
        -0.62137E+07
        -0.58081E+08
        -0.11245E+09
        -0.14396E+09
        -0.19390E+09
        -0.20971E+09
        -0.20265E+09
        -0.20076E+09
        -0.18892E+09
        -0.13538E+09
        -0.67993E+08
        -0.64584E+08
        -0.17060E+09
        -0.17321E+09
        -0.16949E+09
        -0.63825E+08
        -0.12621E+09
        -0.81216E+08
        -0.13192E+09
        -0.16611E+09
        -0.16703E+09
        -0.16561E+09
         0.17069E+09
         0.18777E+09
         0.14316E+09
         0.41249E+08
         0.17855E+09
         0.86088E+08
        -0.56377E+08
         0.64853E+08
         0.16542E+09
         0.51538E+08
         0.51265E+08
         0.37484E+08
        -0.22459E+08
         0.63992E+08
        -0.16634E+09
         0.84579E+08
         0.11636E+08
         0.49671E+08
        -0.51049E+08
        -0.15353E+09
         0.10714E+09
         0.47741E+08
         0.11385E+09
         0.10761E+09
        -0.11652E+08
         0.71014E+08
         0.10521E+09
         0.16306E+09
         0.18294E+09
         0.17168E+09
         0.92044E+08
        -0.22446E+08
        -0.50958E+08
        -0.81678E+08
        -0.11563E+09
        -0.17536E+09
        -0.15112E+09
        -0.11520E+09
        -0.17442E+09
        -0.17594E+09
        -0.11574E+09
        -0.91507E+07
         0.36936E+08
        -0.52544E+08
         0.11730E+09
         0.15210E+09
         0.18535E+09
         0.20833E+09
         0.21178E+09
         0.20563E+09
         0.20202E+09
         0.18787E+09
         0.12013E+09
         0.40558E+08
         0.19033E+08
         0.17659E+08
        -0.61530E+07
        -0.58100E+08
        -0.11249E+09
        -0.14397E+09
        -0.19391E+09
        -0.20971E+09
        -0.20266E+09
        -0.20076E+09
        -0.18893E+09
        -0.13536E+09
        -0.67955E+08
        -0.64529E+08
        -0.17059E+09
        -0.17320E+09
        -0.16949E+09
        -0.64174E+08
        -0.12628E+09
        -0.81322E+08
        -0.13168E+09
        -0.16622E+09
        -0.16706E+09
        -0.16575E+09
         0.17076E+09
         0.18776E+09
         0.14315E+09
         0.41373E+08
         0.17861E+09
         0.86027E+08
        -0.56732E+08
         0.64744E+08
         0.16545E+09
         0.51203E+08
         0.51385E+08
         0.37507E+08
        -0.22487E+08
         0.63913E+08
        -0.16640E+09
         0.84261E+08
         0.11807E+08
         0.50084E+08
        -0.50120E+08
        -0.15356E+09
         0.10703E+09
         0.47468E+08
         0.11428E+09
         0.10772E+09
        -0.11508E+08
         0.71078E+08
         0.10522E+09
         0.16309E+09
         0.18295E+09
         0.17166E+09
         0.92084E+08
        -0.22317E+08
        -0.50979E+08
        -0.81770E+08
        -0.11570E+09
        -0.17537E+09
        -0.15115E+09
        -0.11517E+09
        -0.17442E+09
        -0.17592E+09
        -0.11574E+09
        -0.89713E+07
         0.36912E+08
        -0.52558E+08
         0.11732E+09
         0.15210E+09
         0.18536E+09
         0.20832E+09
         0.21177E+09
         0.20562E+09
         0.20203E+09
         0.18787E+09
         0.12013E+09
         0.40582E+08
         0.19030E+08
         0.17693E+08
        -0.60924E+07
        -0.58119E+08
        -0.11252E+09
        -0.14398E+09
        -0.19391E+09
        -0.20971E+09
        -0.20266E+09
        -0.20077E+09
        -0.18894E+09
        -0.13534E+09
        -0.67916E+08
        -0.64473E+08
        -0.16425E+09
        -0.15550E+09
        -0.15090E+09
        -0.53573E+08
        -0.12003E+09
        -0.74354E+08
        -0.95449E+08
        -0.15830E+09
        -0.15307E+09
        -0.15749E+09
         0.13503E+09
         0.18375E+09
         0.13898E+09
         0.36900E+08
         0.17515E+09
         0.80712E+08
        -0.45664E+08
         0.49314E+08
         0.14106E+09
         0.32652E+08
         0.50299E+08
         0.36516E+08
        -0.21923E+08
         0.49907E+08
        -0.14882E+09
         0.64658E+08
         0.10653E+08
         0.35817E+08
        -0.30816E+08
        -0.13730E+09
         0.98099E+08
         0.35479E+08
         0.94214E+08
         0.84328E+08
        -0.10965E+08
         0.65556E+08
         0.10006E+09
         0.15890E+09
         0.17589E+09
         0.16402E+09
         0.89830E+08
        -0.21616E+08
        -0.49764E+08
        -0.79165E+08
        -0.11064E+09
        -0.16983E+09
        -0.14241E+09
        -0.10721E+09
        -0.15753E+09
        -0.16219E+09
        -0.11147E+09
        -0.82218E+07
         0.36647E+08
        -0.52274E+08
         0.11670E+09
         0.15132E+09
         0.18448E+09
         0.20737E+09
         0.21070E+09
         0.20432E+09
         0.20067E+09
         0.18671E+09
         0.11940E+09
         0.40376E+08
         0.18900E+08
         0.17610E+08
        -0.60025E+07
        -0.57851E+08
        -0.11203E+09
        -0.14334E+09
        -0.19281E+09
        -0.20856E+09
        -0.20150E+09
        -0.19957E+09
        -0.18788E+09
        -0.13453E+09
        -0.67512E+08
        -0.64064E+08
        -0.82143E+08
        -0.52517E+08
        -0.49551E+08
        -0.14847E+08
        -0.53595E+08
        -0.26846E+08
        -0.21850E+08
        -0.71617E+08
        -0.56064E+08
        -0.70002E+08
         0.34240E+08
         0.11022E+09
         0.75433E+08
         0.12027E+08
         0.10773E+09
         0.33331E+08
        -0.11879E+08
         0.10337E+08
         0.41050E+08
         0.66482E+07
         0.29380E+08
         0.20328E+08
        -0.12373E+08
         0.12407E+08
        -0.49510E+08
         0.12455E+08
         0.35144E+07
         0.60863E+07
        -0.62708E+07
        -0.45661E+08
         0.35976E+08
         0.83705E+07
         0.25470E+08
         0.21121E+08
        -0.54286E+07
         0.24589E+08
         0.44925E+08
         0.89680E+08
         0.86476E+08
         0.76682E+08
         0.51494E+08
        -0.12014E+08
        -0.28669E+08
        -0.41189E+08
        -0.51622E+08
        -0.89215E+08
        -0.60006E+08
        -0.42286E+08
        -0.54266E+08
        -0.60952E+08
        -0.55613E+08
        -0.32718E+07
         0.29296E+08
        -0.42599E+08
         0.96067E+08
         0.12570E+09
         0.15486E+09
         0.17537E+09
         0.17568E+09
         0.16436E+09
         0.15931E+09
         0.15037E+09
         0.96607E+08
         0.33226E+08
         0.15127E+08
         0.14156E+08
        -0.49260E+07
        -0.48513E+08
        -0.94682E+08
        -0.12120E+09
        -0.15707E+09
        -0.17137E+09
        -0.16448E+09
        -0.16199E+09
        -0.15376E+09
        -0.10939E+09
        -0.55615E+08
        -0.52586E+08
  
SCALARS                      stress_xz  double 1
LOOKUP_TABLE default
         0.63428E+05
        -0.44734E+06
        -0.14768E+07
         0.10144E+06
        -0.10115E+02
         0.35867E+01
         0.11993E+02
         0.23952E+01
        -0.41553E+07
        -0.27762E+07
         0.35872E+02
         0.32311E+02
         0.17718E+06
        -0.72297E+06
        -0.44243E+01
        -0.20726E+02
        -0.14832E+06
        -0.69381E+06
        -0.14971E+02
        -0.22297E+02
        -0.10168E+07
        -0.17134E+07
        -0.16225E+07
        -0.14888E+02
        -0.68655E+01
         0.11994E+02
        -0.18098E+07
        -0.14696E+07
        -0.27869E+02
        -0.22108E+02
         0.34705E+06
        -0.77095E+06
         0.73775E+05
         0.28375E+01
        -0.10965E+02
        -0.67553E+01
         0.10297E+07
         0.49633E+06
        -0.16280E+02
        -0.17334E+02
         0.20524E+07
         0.29081E+07
        -0.36722E+02
        -0.27081E+02
         0.21958E+07
         0.11694E+07
        -0.40327E+02
        -0.19410E+02
        -0.63036E+06
        -0.12184E+02
         0.15011E+07
        -0.33916E+01
        -0.65758E+06
        -0.23808E+02
         0.49123E+06
        -0.62977E+01
         0.21492E+07
         0.58959E+06
        -0.53949E+01
        -0.13040E+02
        -0.37057E+05
         0.10223E+07
         0.10790E+02
         0.73994E+01
        -0.26551E+06
        -0.10854E+01
        -0.88878E+06
         0.71390E+01
        -0.58477E+07
        -0.40072E+07
         0.44621E+02
         0.32362E+02
        -0.25773E+07
         0.23564E+02
         0.60750E+06
        -0.16300E+02
         0.19010E+07
        -0.31992E+01
         0.40302E+07
        -0.49634E+01
         0.53323E+07
         0.37865E+07
        -0.18190E+02
        -0.20803E+02
         0.33445E+07
        -0.22373E+02
         0.26628E+07
        -0.32211E+02
         0.16583E+07
        -0.20545E+02
         0.26105E+07
         0.19200E+07
        -0.87683E+01
         0.12025E+02
        -0.43889E+06
         0.14105E+02
        -0.12047E+07
         0.59223E+01
        -0.28927E+07
         0.14625E+02
        -0.42761E+07
        -0.29347E+07
         0.33721E+02
         0.35188E+02
        -0.10473E+08
        -0.11597E+08
         0.62308E+02
         0.61403E+02
        -0.10373E+08
         0.53230E+02
        -0.94536E+07
         0.39779E+02
        -0.67824E+07
         0.21860E+02
        -0.49282E+07
         0.23376E+01
        -0.18286E+07
        -0.83258E+01
         0.23560E+07
        -0.66612E+01
         0.56224E+07
        -0.65471E+01
         0.83540E+07
        -0.14764E+02
         0.11237E+08
        -0.28089E+02
         0.13654E+08
        -0.33519E+02
         0.14514E+08
        -0.31626E+02
         0.13824E+08
        -0.34391E+02
         0.12669E+08
        -0.44635E+02
         0.11394E+08
        -0.52633E+02
         0.10049E+08
        -0.48928E+02
         0.79917E+07
        -0.39764E+02
         0.46892E+07
        -0.18772E+02
         0.40200E+06
         0.35846E+01
        -0.26224E+07
         0.87028E+01
        -0.41043E+07
         0.14231E+02
        -0.61729E+07
         0.27851E+02
        -0.81388E+07
         0.45701E+02
        -0.10697E+08
         0.54907E+02
        -0.12290E+08
         0.56160E+02
         0.88967E+06
        -0.46356E+06
        -0.54378E+06
         0.10939E+07
        -0.42426E+07
        -0.32785E+07
        -0.49562E+06
         0.72754E+06
         0.37484E+06
         0.66750E+06
        -0.36712E+06
        -0.15899E+07
        -0.33188E+07
         0.10616E+07
         0.12777E+07
        -0.14558E+07
        -0.12219E+07
         0.56631E+06
         0.88224E+06
         0.94878E+06
         0.51885E+07
         0.55229E+07
         0.49907E+07
         0.15508E+07
        -0.62151E+06
         0.46316E+06
         0.14892E+07
         0.16697E+06
         0.17096E+07
         0.11743E+07
        -0.12999E+07
        -0.25534E+06
         0.61252E+06
         0.19818E+06
        -0.62839E+07
        -0.40002E+07
        -0.36187E+07
         0.25343E+07
         0.14437E+07
         0.30908E+07
         0.63638E+07
         0.59227E+07
         0.58405E+07
         0.42940E+07
         0.30822E+07
         0.24141E+07
        -0.45294E+06
        -0.18899E+07
        -0.54658E+06
        -0.17340E+07
        -0.46359E+07
        -0.39005E+07
        -0.18389E+08
        -0.19283E+08
        -0.17238E+08
        -0.14661E+08
        -0.10917E+08
        -0.55638E+07
         0.33033E+06
         0.39669E+07
         0.60437E+07
         0.10376E+08
         0.16919E+08
         0.20555E+08
         0.18820E+08
         0.18046E+08
         0.19056E+08
         0.19045E+08
         0.17301E+08
         0.15156E+08
         0.76905E+07
        -0.12152E+07
        -0.46679E+07
        -0.52037E+07
        -0.88125E+07
        -0.14081E+08
        -0.18251E+08
        -0.19177E+08
        -0.58003E+08
         0.19162E+08
        -0.38543E+08
        -0.16039E+09
         0.13072E+09
         0.15755E+09
         0.99508E+08
        -0.74731E+08
        -0.53149E+08
        -0.75081E+08
        -0.29765E+08
         0.27895E+08
         0.11817E+09
        -0.17232E+09
        -0.69869E+08
         0.15346E+09
         0.16233E+09
        -0.13533E+09
        -0.49949E+08
        -0.15745E+09
        -0.17974E+09
        -0.18166E+09
        -0.18369E+09
        -0.15674E+09
         0.55646E+08
         0.82554E+08
        -0.17584E+09
         0.59445E+08
        -0.14983E+09
        -0.85916E+08
         0.13666E+09
         0.16082E+09
        -0.13360E+09
        -0.13237E+09
         0.18386E+09
         0.16339E+09
         0.14742E+09
        -0.93418E+08
        -0.19916E+08
        -0.61702E+08
        -0.16406E+09
        -0.18469E+09
        -0.17944E+09
        -0.16429E+09
        -0.14049E+09
        -0.61540E+08
         0.98294E+08
         0.13495E+09
        -0.21364E+08
         0.22018E+08
         0.14299E+09
         0.17849E+09
         0.20582E+09
         0.20302E+09
         0.17508E+09
         0.14536E+09
         0.10237E+09
         0.44209E+08
        -0.11394E+08
        -0.41058E+08
        -0.55367E+08
        -0.95442E+08
        -0.17265E+09
        -0.20621E+09
        -0.20548E+09
        -0.20468E+09
        -0.20707E+09
        -0.20038E+09
        -0.17685E+09
        -0.15446E+09
        -0.81518E+08
         0.20681E+08
         0.50298E+08
         0.53409E+08
         0.89578E+08
         0.15832E+09
         0.19745E+09
         0.19835E+09
        -0.58072E+08
         0.19230E+08
        -0.38595E+08
        -0.16028E+09
         0.13065E+09
         0.15749E+09
         0.99851E+08
        -0.74475E+08
        -0.53121E+08
        -0.74817E+08
        -0.29163E+08
         0.27964E+08
         0.11820E+09
        -0.17227E+09
        -0.69765E+08
         0.15350E+09
         0.16226E+09
        -0.13495E+09
        -0.49897E+08
        -0.15750E+09
        -0.17970E+09
        -0.18165E+09
        -0.18369E+09
        -0.15675E+09
         0.55546E+08
         0.82692E+08
        -0.17584E+09
         0.58328E+08
        -0.15088E+09
        -0.85829E+08
         0.13673E+09
         0.16085E+09
        -0.13326E+09
        -0.13232E+09
         0.18387E+09
         0.16336E+09
         0.14740E+09
        -0.93435E+08
        -0.20065E+08
        -0.61817E+08
        -0.16406E+09
        -0.18471E+09
        -0.17942E+09
        -0.16427E+09
        -0.14047E+09
        -0.61512E+08
         0.98273E+08
         0.13501E+09
        -0.21237E+08
         0.21971E+08
         0.14297E+09
         0.17848E+09
         0.20582E+09
         0.20301E+09
         0.17507E+09
         0.14536E+09
         0.10235E+09
         0.44209E+08
        -0.11411E+08
        -0.41093E+08
        -0.55333E+08
        -0.95430E+08
        -0.17265E+09
        -0.20621E+09
        -0.20548E+09
        -0.20467E+09
        -0.20707E+09
        -0.20038E+09
        -0.17684E+09
        -0.15446E+09
        -0.81499E+08
         0.20692E+08
         0.50266E+08
         0.53390E+08
         0.89540E+08
         0.15831E+09
         0.19746E+09
         0.19835E+09
        -0.58141E+08
         0.19295E+08
        -0.38647E+08
        -0.16016E+09
         0.13058E+09
         0.15743E+09
         0.10019E+09
        -0.74219E+08
        -0.53090E+08
        -0.74552E+08
        -0.28562E+08
         0.28032E+08
         0.11822E+09
        -0.17223E+09
        -0.69663E+08
         0.15355E+09
         0.16218E+09
        -0.13458E+09
        -0.49844E+08
        -0.15756E+09
        -0.17967E+09
        -0.18164E+09
        -0.18369E+09
        -0.15677E+09
         0.55458E+08
         0.82841E+08
        -0.17583E+09
         0.57224E+08
        -0.15194E+09
        -0.85746E+08
         0.13681E+09
         0.16089E+09
        -0.13292E+09
        -0.13226E+09
         0.18389E+09
         0.16333E+09
         0.14739E+09
        -0.93450E+08
        -0.20214E+08
        -0.61933E+08
        -0.16406E+09
        -0.18473E+09
        -0.17941E+09
        -0.16425E+09
        -0.14044E+09
        -0.61483E+08
         0.98254E+08
         0.13506E+09
        -0.21105E+08
         0.21921E+08
         0.14295E+09
         0.17848E+09
         0.20582E+09
         0.20301E+09
         0.17505E+09
         0.14536E+09
         0.10233E+09
         0.44209E+08
        -0.11428E+08
        -0.41128E+08
        -0.55299E+08
        -0.95418E+08
        -0.17265E+09
        -0.20621E+09
        -0.20548E+09
        -0.20467E+09
        -0.20708E+09
        -0.20038E+09
        -0.17683E+09
        -0.15446E+09
        -0.81481E+08
         0.20702E+08
         0.50234E+08
         0.53373E+08
         0.89502E+08
         0.15831E+09
         0.19746E+09
         0.19836E+09
        -0.58210E+08
         0.19364E+08
        -0.38697E+08
        -0.16005E+09
         0.13051E+09
         0.15737E+09
         0.10052E+09
        -0.73964E+08
        -0.53052E+08
        -0.74282E+08
        -0.27962E+08
         0.28102E+08
         0.11825E+09
        -0.17218E+09
        -0.69559E+08
         0.15359E+09
         0.16210E+09
        -0.13420E+09
        -0.49793E+08
        -0.15763E+09
        -0.17964E+09
        -0.18163E+09
        -0.18369E+09
        -0.15679E+09
         0.55400E+08
         0.83025E+08
        -0.17583E+09
         0.56155E+08
        -0.15300E+09
        -0.85673E+08
         0.13690E+09
         0.16094E+09
        -0.13257E+09
        -0.13221E+09
         0.18391E+09
         0.16330E+09
         0.14737E+09
        -0.93465E+08
        -0.20360E+08
        -0.62043E+08
        -0.16406E+09
        -0.18475E+09
        -0.17941E+09
        -0.16422E+09
        -0.14040E+09
        -0.61451E+08
         0.98233E+08
         0.13511E+09
        -0.20972E+08
         0.21872E+08
         0.14294E+09
         0.17847E+09
         0.20581E+09
         0.20300E+09
         0.17504E+09
         0.14536E+09
         0.10232E+09
         0.44209E+08
        -0.11446E+08
        -0.41164E+08
        -0.55265E+08
        -0.95406E+08
        -0.17265E+09
        -0.20620E+09
        -0.20548E+09
        -0.20467E+09
        -0.20708E+09
        -0.20038E+09
        -0.17682E+09
        -0.15446E+09
        -0.81462E+08
         0.20713E+08
         0.50202E+08
         0.53355E+08
         0.89464E+08
         0.15831E+09
         0.19746E+09
         0.19837E+09
        -0.58278E+08
         0.19432E+08
        -0.38748E+08
        -0.15994E+09
         0.13043E+09
         0.15730E+09
         0.10086E+09
        -0.73708E+08
        -0.53008E+08
        -0.74006E+08
        -0.27361E+08
         0.28171E+08
         0.11828E+09
        -0.17213E+09
        -0.69456E+08
         0.15365E+09
         0.16203E+09
        -0.13381E+09
        -0.49735E+08
        -0.15770E+09
        -0.17961E+09
        -0.18163E+09
        -0.18368E+09
        -0.15682E+09
         0.55373E+08
         0.83235E+08
        -0.17583E+09
         0.55119E+08
        -0.15405E+09
        -0.85609E+08
         0.13700E+09
         0.16102E+09
        -0.13221E+09
        -0.13215E+09
         0.18393E+09
         0.16327E+09
         0.14735E+09
        -0.93479E+08
        -0.20505E+08
        -0.62151E+08
        -0.16406E+09
        -0.18478E+09
        -0.17941E+09
        -0.16417E+09
        -0.14035E+09
        -0.61413E+08
         0.98211E+08
         0.13517E+09
        -0.20840E+08
         0.21823E+08
         0.14292E+09
         0.17846E+09
         0.20581E+09
         0.20299E+09
         0.17502E+09
         0.14536E+09
         0.10230E+09
         0.44210E+08
        -0.11463E+08
        -0.41199E+08
        -0.55231E+08
        -0.95394E+08
        -0.17264E+09
        -0.20620E+09
        -0.20547E+09
        -0.20466E+09
        -0.20709E+09
        -0.20038E+09
        -0.17680E+09
        -0.15446E+09
        -0.81443E+08
         0.20723E+08
         0.50170E+08
         0.53337E+08
         0.89426E+08
         0.15830E+09
         0.19746E+09
         0.19837E+09
        -0.58344E+08
         0.19507E+08
        -0.38791E+08
        -0.15982E+09
         0.13036E+09
         0.15724E+09
         0.10121E+09
        -0.73454E+08
        -0.52962E+08
        -0.73735E+08
        -0.26756E+08
         0.28240E+08
         0.11831E+09
        -0.17208E+09
        -0.69353E+08
         0.15370E+09
         0.16195E+09
        -0.13343E+09
        -0.49676E+08
        -0.15777E+09
        -0.17958E+09
        -0.18162E+09
        -0.18368E+09
        -0.15686E+09
         0.55350E+08
         0.83451E+08
        -0.17582E+09
         0.54090E+08
        -0.15475E+09
        -0.85557E+08
         0.13710E+09
         0.16110E+09
        -0.13185E+09
        -0.13209E+09
         0.18394E+09
         0.16323E+09
         0.14734E+09
        -0.93491E+08
        -0.20648E+08
        -0.62256E+08
        -0.16405E+09
        -0.18481E+09
        -0.17941E+09
        -0.16413E+09
        -0.14029E+09
        -0.61377E+08
         0.98184E+08
         0.13521E+09
        -0.20701E+08
         0.21780E+08
         0.14290E+09
         0.17845E+09
         0.20581E+09
         0.20298E+09
         0.17501E+09
         0.14536E+09
         0.10228E+09
         0.44210E+08
        -0.11480E+08
        -0.41234E+08
        -0.55197E+08
        -0.95383E+08
        -0.17264E+09
        -0.20620E+09
        -0.20547E+09
        -0.20466E+09
        -0.20709E+09
        -0.20038E+09
        -0.17679E+09
        -0.15445E+09
        -0.81424E+08
         0.20733E+08
         0.50138E+08
         0.53319E+08
         0.89388E+08
         0.15830E+09
         0.19747E+09
         0.19838E+09
        -0.58404E+08
         0.19601E+08
        -0.38821E+08
        -0.15970E+09
         0.13029E+09
         0.15718E+09
         0.10157E+09
        -0.73205E+08
        -0.52917E+08
        -0.73478E+08
        -0.26146E+08
         0.28308E+08
         0.11833E+09
        -0.17203E+09
        -0.69248E+08
         0.15375E+09
         0.16186E+09
        -0.13305E+09
        -0.49622E+08
        -0.15785E+09
        -0.17955E+09
        -0.18162E+09
        -0.18368E+09
        -0.15689E+09
         0.55312E+08
         0.83642E+08
        -0.17582E+09
         0.53037E+08
        -0.15520E+09
        -0.85514E+08
         0.13720E+09
         0.16118E+09
        -0.13148E+09
        -0.13202E+09
         0.18396E+09
         0.16320E+09
         0.14732E+09
        -0.93502E+08
        -0.20792E+08
        -0.62365E+08
        -0.16405E+09
        -0.18483E+09
        -0.17941E+09
        -0.16409E+09
        -0.14024E+09
        -0.61342E+08
         0.98142E+08
         0.13524E+09
        -0.20544E+08
         0.21751E+08
         0.14289E+09
         0.17845E+09
         0.20580E+09
         0.20297E+09
         0.17499E+09
         0.14536E+09
         0.10227E+09
         0.44210E+08
        -0.11497E+08
        -0.41270E+08
        -0.55163E+08
        -0.95371E+08
        -0.17264E+09
        -0.20619E+09
        -0.20547E+09
        -0.20466E+09
        -0.20710E+09
        -0.20038E+09
        -0.17677E+09
        -0.15445E+09
        -0.81405E+08
         0.20741E+08
         0.50103E+08
         0.53301E+08
         0.89352E+08
         0.15830E+09
         0.19747E+09
         0.19839E+09
        -0.58462E+08
         0.19700E+08
        -0.38845E+08
        -0.15958E+09
         0.13022E+09
         0.15712E+09
         0.10195E+09
        -0.72959E+08
        -0.52873E+08
        -0.73229E+08
        -0.25532E+08
         0.28376E+08
         0.11836E+09
        -0.17197E+09
        -0.69144E+08
         0.15380E+09
         0.16177E+09
        -0.13266E+09
        -0.49564E+08
        -0.15792E+09
        -0.17952E+09
        -0.18161E+09
        -0.18368E+09
        -0.15693E+09
         0.55267E+08
         0.83821E+08
        -0.17581E+09
         0.51978E+08
        -0.15565E+09
        -0.85476E+08
         0.13730E+09
         0.16126E+09
        -0.13111E+09
        -0.13194E+09
         0.18398E+09
         0.16317E+09
         0.14730E+09
        -0.93512E+08
        -0.20935E+08
        -0.62472E+08
        -0.16404E+09
        -0.18486E+09
        -0.17941E+09
        -0.16404E+09
        -0.14019E+09
        -0.61310E+08
         0.98094E+08
         0.13526E+09
        -0.20380E+08
         0.21730E+08
         0.14288E+09
         0.17844E+09
         0.20580E+09
         0.20296E+09
         0.17498E+09
         0.14536E+09
         0.10225E+09
         0.44210E+08
        -0.11514E+08
        -0.41305E+08
        -0.55129E+08
        -0.95360E+08
        -0.17264E+09
        -0.20619E+09
        -0.20547E+09
        -0.20465E+09
        -0.20710E+09
        -0.20038E+09
        -0.17676E+09
        -0.15444E+09
        -0.81386E+08
         0.20749E+08
         0.50068E+08
         0.53282E+08
         0.89316E+08
         0.15830E+09
         0.19747E+09
         0.19839E+09
        -0.58520E+08
         0.19800E+08
        -0.38867E+08
        -0.15946E+09
         0.13015E+09
         0.15706E+09
         0.10232E+09
        -0.72713E+08
        -0.52829E+08
        -0.72982E+08
        -0.24921E+08
         0.28444E+08
         0.11838E+09
        -0.17192E+09
        -0.69039E+08
         0.15385E+09
         0.16168E+09
        -0.13228E+09
        -0.49507E+08
        -0.15776E+09
        -0.17949E+09
        -0.18161E+09
        -0.18367E+09
        -0.15697E+09
         0.55222E+08
         0.83998E+08
        -0.17581E+09
         0.50920E+08
        -0.15608E+09
        -0.85437E+08
         0.13739E+09
         0.16134E+09
        -0.13073E+09
        -0.13186E+09
         0.18399E+09
         0.16314E+09
         0.14729E+09
        -0.93521E+08
        -0.21078E+08
        -0.62579E+08
        -0.16403E+09
        -0.18489E+09
        -0.17941E+09
        -0.16400E+09
        -0.14013E+09
        -0.61278E+08
         0.98048E+08
         0.13529E+09
        -0.20215E+08
         0.21710E+08
         0.14287E+09
         0.17843E+09
         0.20580E+09
         0.20295E+09
         0.17496E+09
         0.14536E+09
         0.10224E+09
         0.44210E+08
        -0.11531E+08
        -0.41340E+08
        -0.55095E+08
        -0.95349E+08
        -0.17263E+09
        -0.20618E+09
        -0.20547E+09
        -0.20465E+09
        -0.20711E+09
        -0.20038E+09
        -0.17674E+09
        -0.15444E+09
        -0.81367E+08
         0.20757E+08
         0.50033E+08
         0.53264E+08
         0.89280E+08
         0.15829E+09
         0.19747E+09
         0.19840E+09
        -0.58578E+08
         0.19901E+08
        -0.38890E+08
        -0.15933E+09
         0.13008E+09
         0.15700E+09
         0.10270E+09
        -0.72467E+08
        -0.52785E+08
        -0.72736E+08
        -0.24309E+08
         0.28512E+08
         0.11841E+09
        -0.17186E+09
        -0.68935E+08
         0.15390E+09
         0.16160E+09
        -0.13190E+09
        -0.49449E+08
        -0.15751E+09
        -0.17946E+09
        -0.18160E+09
        -0.18367E+09
        -0.15700E+09
         0.55179E+08
         0.84175E+08
        -0.17580E+09
         0.49869E+08
        -0.15650E+09
        -0.85398E+08
         0.13749E+09
         0.16142E+09
        -0.13034E+09
        -0.13179E+09
         0.18401E+09
         0.16311E+09
         0.14727E+09
        -0.93529E+08
        -0.21221E+08
        -0.62687E+08
        -0.16403E+09
        -0.18491E+09
        -0.17941E+09
        -0.16396E+09
        -0.14008E+09
        -0.61244E+08
         0.98000E+08
         0.13531E+09
        -0.20051E+08
         0.21686E+08
         0.14286E+09
         0.17842E+09
         0.20579E+09
         0.20295E+09
         0.17495E+09
         0.14536E+09
         0.10222E+09
         0.44210E+08
        -0.11548E+08
        -0.41375E+08
        -0.55061E+08
        -0.95338E+08
        -0.17263E+09
        -0.20618E+09
        -0.20547E+09
        -0.20465E+09
        -0.20711E+09
        -0.20038E+09
        -0.17673E+09
        -0.15443E+09
        -0.81349E+08
         0.20764E+08
         0.49997E+08
         0.53245E+08
         0.89245E+08
         0.15829E+09
         0.19747E+09
         0.19841E+09
        -0.58636E+08
         0.20002E+08
        -0.38915E+08
        -0.15921E+09
         0.13001E+09
         0.15694E+09
         0.10306E+09
        -0.72222E+08
        -0.52741E+08
        -0.72493E+08
        -0.23697E+08
         0.28581E+08
         0.11843E+09
        -0.17180E+09
        -0.68830E+08
         0.15394E+09
         0.16151E+09
        -0.13151E+09
        -0.49397E+08
        -0.15724E+09
        -0.17943E+09
        -0.18159E+09
        -0.18367E+09
        -0.15704E+09
         0.55134E+08
         0.84350E+08
        -0.17579E+09
         0.48817E+08
        -0.15691E+09
        -0.85358E+08
         0.13758E+09
         0.16150E+09
        -0.12996E+09
        -0.13171E+09
         0.18403E+09
         0.16308E+09
         0.14725E+09
        -0.93538E+08
        -0.21363E+08
        -0.62793E+08
        -0.16402E+09
        -0.18494E+09
        -0.17941E+09
        -0.16391E+09
        -0.14002E+09
        -0.61213E+08
         0.97951E+08
         0.13533E+09
        -0.19885E+08
         0.21664E+08
         0.14284E+09
         0.17841E+09
         0.20579E+09
         0.20294E+09
         0.17493E+09
         0.14536E+09
         0.10220E+09
         0.44210E+08
        -0.11565E+08
        -0.41410E+08
        -0.55027E+08
        -0.95327E+08
        -0.17263E+09
        -0.20618E+09
        -0.20547E+09
        -0.20464E+09
        -0.20711E+09
        -0.20038E+09
        -0.17672E+09
        -0.15442E+09
        -0.81330E+08
         0.20772E+08
         0.49962E+08
         0.53227E+08
         0.89209E+08
         0.15829E+09
         0.19748E+09
         0.19842E+09
        -0.58693E+08
         0.20102E+08
        -0.38936E+08
        -0.15908E+09
         0.12994E+09
         0.15687E+09
         0.10343E+09
        -0.71977E+08
        -0.52697E+08
        -0.72250E+08
        -0.23086E+08
         0.28650E+08
         0.11846E+09
        -0.17175E+09
        -0.68726E+08
         0.15399E+09
         0.16142E+09
        -0.13113E+09
        -0.49341E+08
        -0.15699E+09
        -0.17940E+09
        -0.18159E+09
        -0.18367E+09
        -0.15707E+09
         0.55089E+08
         0.84531E+08
        -0.17579E+09
         0.47769E+08
        -0.15732E+09
        -0.85322E+08
         0.13768E+09
         0.16158E+09
        -0.12957E+09
        -0.13163E+09
         0.18405E+09
         0.16305E+09
         0.14724E+09
        -0.93546E+08
        -0.21505E+08
        -0.62902E+08
        -0.16402E+09
        -0.18497E+09
        -0.17941E+09
        -0.16387E+09
        -0.13997E+09
        -0.61181E+08
         0.97905E+08
         0.13535E+09
        -0.19718E+08
         0.21644E+08
         0.14283E+09
         0.17841E+09
         0.20579E+09
         0.20293E+09
         0.17492E+09
         0.14536E+09
         0.10219E+09
         0.44211E+08
        -0.11582E+08
        -0.41445E+08
        -0.54993E+08
        -0.95316E+08
        -0.17262E+09
        -0.20617E+09
        -0.20547E+09
        -0.20464E+09
        -0.20712E+09
        -0.20039E+09
        -0.17670E+09
        -0.15442E+09
        -0.81311E+08
         0.20779E+08
         0.49927E+08
         0.53208E+08
         0.89174E+08
         0.15829E+09
         0.19748E+09
         0.19842E+09
        -0.58751E+08
         0.20204E+08
        -0.38958E+08
        -0.15896E+09
         0.12986E+09
         0.15681E+09
         0.10379E+09
        -0.71732E+08
        -0.52652E+08
        -0.72008E+08
        -0.22477E+08
         0.28718E+08
         0.11848E+09
        -0.17169E+09
        -0.68621E+08
         0.15404E+09
         0.16132E+09
        -0.13075E+09
        -0.49286E+08
        -0.15673E+09
        -0.17937E+09
        -0.18158E+09
        -0.18367E+09
        -0.15711E+09
         0.55044E+08
         0.84707E+08
        -0.17578E+09
         0.46719E+08
        -0.15771E+09
        -0.85284E+08
         0.13777E+09
         0.16166E+09
        -0.12918E+09
        -0.13156E+09
         0.18406E+09
         0.16302E+09
         0.14722E+09
        -0.93554E+08
        -0.21647E+08
        -0.63008E+08
        -0.16401E+09
        -0.18499E+09
        -0.17941E+09
        -0.16383E+09
        -0.13991E+09
        -0.61147E+08
         0.97856E+08
         0.13538E+09
        -0.19550E+08
         0.21621E+08
         0.14282E+09
         0.17840E+09
         0.20578E+09
         0.20292E+09
         0.17490E+09
         0.14536E+09
         0.10217E+09
         0.44211E+08
        -0.11599E+08
        -0.41480E+08
        -0.54958E+08
        -0.95305E+08
        -0.17262E+09
        -0.20617E+09
        -0.20547E+09
        -0.20464E+09
        -0.20712E+09
        -0.20039E+09
        -0.17669E+09
        -0.15441E+09
        -0.81292E+08
         0.20787E+08
         0.49891E+08
         0.53190E+08
         0.89138E+08
         0.15829E+09
         0.19748E+09
         0.19843E+09
        -0.58810E+08
         0.20303E+08
        -0.38980E+08
        -0.15883E+09
         0.12979E+09
         0.15675E+09
         0.10414E+09
        -0.71488E+08
        -0.52607E+08
        -0.71766E+08
        -0.21869E+08
         0.28786E+08
         0.11851E+09
        -0.17163E+09
        -0.68517E+08
         0.15409E+09
         0.16123E+09
        -0.13036E+09
        -0.49235E+08
        -0.15647E+09
        -0.17933E+09
        -0.18158E+09
        -0.18366E+09
        -0.15714E+09
         0.54998E+08
         0.84883E+08
        -0.17577E+09
         0.45676E+08
        -0.15809E+09
        -0.85245E+08
         0.13786E+09
         0.16174E+09
        -0.12879E+09
        -0.13148E+09
         0.18408E+09
         0.16299E+09
         0.14721E+09
        -0.93559E+08
        -0.21788E+08
        -0.63117E+08
        -0.16400E+09
        -0.18502E+09
        -0.17941E+09
        -0.16379E+09
        -0.13986E+09
        -0.61116E+08
         0.97807E+08
         0.13540E+09
        -0.19383E+08
         0.21599E+08
         0.14281E+09
         0.17839E+09
         0.20578E+09
         0.20291E+09
         0.17489E+09
         0.14536E+09
         0.10215E+09
         0.44211E+08
        -0.11616E+08
        -0.41514E+08
        -0.54924E+08
        -0.95294E+08
        -0.17262E+09
        -0.20617E+09
        -0.20547E+09
        -0.20463E+09
        -0.20713E+09
        -0.20039E+09
        -0.17667E+09
        -0.15441E+09
        -0.81273E+08
         0.20794E+08
         0.49856E+08
         0.53172E+08
         0.89103E+08
         0.15828E+09
         0.19748E+09
         0.19844E+09
        -0.58868E+08
         0.20402E+08
        -0.39001E+08
        -0.15871E+09
         0.12972E+09
         0.15669E+09
         0.10450E+09
        -0.71244E+08
        -0.52562E+08
        -0.71527E+08
        -0.21262E+08
         0.28855E+08
         0.11853E+09
        -0.17158E+09
        -0.68411E+08
         0.15414E+09
         0.16114E+09
        -0.12998E+09
        -0.49180E+08
        -0.15621E+09
        -0.17930E+09
        -0.18157E+09
        -0.18366E+09
        -0.15718E+09
         0.54952E+08
         0.85059E+08
        -0.17576E+09
         0.44634E+08
        -0.15846E+09
        -0.85205E+08
         0.13796E+09
         0.16182E+09
        -0.12839E+09
        -0.13140E+09
         0.18410E+09
         0.16296E+09
         0.14719E+09
        -0.93564E+08
        -0.21929E+08
        -0.63224E+08
        -0.16400E+09
        -0.18504E+09
        -0.17941E+09
        -0.16374E+09
        -0.13981E+09
        -0.61084E+08
         0.97760E+08
         0.13542E+09
        -0.19212E+08
         0.21578E+08
         0.14280E+09
         0.17838E+09
         0.20578E+09
         0.20290E+09
         0.17487E+09
         0.14536E+09
         0.10214E+09
         0.44211E+08
        -0.11633E+08
        -0.41548E+08
        -0.54890E+08
        -0.95283E+08
        -0.17262E+09
        -0.20616E+09
        -0.20546E+09
        -0.20463E+09
        -0.20713E+09
        -0.20039E+09
        -0.17666E+09
        -0.15440E+09
        -0.81255E+08
         0.20801E+08
         0.49821E+08
         0.53155E+08
         0.89067E+08
         0.15828E+09
         0.19749E+09
         0.19844E+09
        -0.58927E+08
         0.20504E+08
        -0.39023E+08
        -0.15858E+09
         0.12965E+09
         0.15663E+09
         0.10485E+09
        -0.71000E+08
        -0.52517E+08
        -0.71289E+08
        -0.20655E+08
         0.28923E+08
         0.11856E+09
        -0.17152E+09
        -0.68307E+08
         0.15419E+09
         0.16105E+09
        -0.12960E+09
        -0.49125E+08
        -0.15596E+09
        -0.17927E+09
        -0.18157E+09
        -0.18366E+09
        -0.15721E+09
         0.54905E+08
         0.85235E+08
        -0.17576E+09
         0.43591E+08
        -0.15883E+09
        -0.85166E+08
         0.13805E+09
         0.16190E+09
        -0.12799E+09
        -0.13132E+09
         0.18411E+09
         0.16293E+09
         0.14717E+09
        -0.93569E+08
        -0.22070E+08
        -0.63332E+08
        -0.16399E+09
        -0.18507E+09
        -0.17941E+09
        -0.16370E+09
        -0.13975E+09
        -0.61050E+08
         0.97711E+08
         0.13544E+09
        -0.19042E+08
         0.21555E+08
         0.14279E+09
         0.17837E+09
         0.20577E+09
         0.20290E+09
         0.17486E+09
         0.14536E+09
         0.10212E+09
         0.44211E+08
        -0.11649E+08
        -0.41583E+08
        -0.54856E+08
        -0.95273E+08
        -0.17261E+09
        -0.20616E+09
        -0.20546E+09
        -0.20463E+09
        -0.20714E+09
        -0.20039E+09
        -0.17664E+09
        -0.15440E+09
        -0.81236E+08
         0.20808E+08
         0.49785E+08
         0.53136E+08
         0.89032E+08
         0.15828E+09
         0.19749E+09
         0.19845E+09
        -0.58985E+08
         0.20604E+08
        -0.39046E+08
        -0.15845E+09
         0.12958E+09
         0.15656E+09
         0.10519E+09
        -0.70756E+08
        -0.52470E+08
        -0.71049E+08
        -0.20048E+08
         0.28992E+08
         0.11858E+09
        -0.17146E+09
        -0.68202E+08
         0.15423E+09
         0.16096E+09
        -0.12923E+09
        -0.49072E+08
        -0.15570E+09
        -0.17924E+09
        -0.18156E+09
        -0.18366E+09
        -0.15724E+09
         0.54855E+08
         0.85410E+08
        -0.17575E+09
         0.42540E+08
        -0.15918E+09
        -0.85129E+08
         0.13815E+09
         0.16198E+09
        -0.12759E+09
        -0.13125E+09
         0.18413E+09
         0.16290E+09
         0.14716E+09
        -0.93573E+08
        -0.22213E+08
        -0.63441E+08
        -0.16398E+09
        -0.18510E+09
        -0.17941E+09
        -0.16366E+09
        -0.13970E+09
        -0.61018E+08
         0.97663E+08
         0.13546E+09
        -0.18873E+08
         0.21532E+08
         0.14277E+09
         0.17836E+09
         0.20577E+09
         0.20289E+09
         0.17485E+09
         0.14536E+09
         0.10210E+09
         0.44211E+08
        -0.11666E+08
        -0.41617E+08
        -0.54822E+08
        -0.95262E+08
        -0.17261E+09
        -0.20615E+09
        -0.20546E+09
        -0.20462E+09
        -0.20714E+09
        -0.20039E+09
        -0.17663E+09
        -0.15439E+09
        -0.81217E+08
         0.20815E+08
         0.49750E+08
         0.53118E+08
         0.88996E+08
         0.15828E+09
         0.19749E+09
         0.19846E+09
        -0.59043E+08
         0.20704E+08
        -0.39066E+08
        -0.15833E+09
         0.12951E+09
         0.15650E+09
         0.10554E+09
        -0.70514E+08
        -0.52420E+08
        -0.70802E+08
        -0.19442E+08
         0.29061E+08
         0.11860E+09
        -0.17140E+09
        -0.68096E+08
         0.15428E+09
         0.16086E+09
        -0.12884E+09
        -0.49024E+08
        -0.15545E+09
        -0.17921E+09
        -0.18156E+09
        -0.18366E+09
        -0.15728E+09
         0.54798E+08
         0.85592E+08
        -0.17574E+09
         0.41462E+08
        -0.15952E+09
        -0.85100E+08
         0.13824E+09
         0.16206E+09
        -0.12719E+09
        -0.13117E+09
         0.18415E+09
         0.16286E+09
         0.14714E+09
        -0.93573E+08
        -0.22360E+08
        -0.63550E+08
        -0.16398E+09
        -0.18512E+09
        -0.17941E+09
        -0.16361E+09
        -0.13964E+09
        -0.60985E+08
         0.97616E+08
         0.13549E+09
        -0.18705E+08
         0.21509E+08
         0.14276E+09
         0.17835E+09
         0.20577E+09
         0.20288E+09
         0.17483E+09
         0.14536E+09
         0.10209E+09
         0.44211E+08
        -0.11682E+08
        -0.41651E+08
        -0.54789E+08
        -0.95252E+08
        -0.17261E+09
        -0.20615E+09
        -0.20546E+09
        -0.20462E+09
        -0.20715E+09
        -0.20039E+09
        -0.17661E+09
        -0.15438E+09
        -0.81198E+08
         0.20823E+08
         0.49715E+08
         0.53100E+08
         0.88961E+08
         0.15827E+09
         0.19749E+09
         0.19847E+09
        -0.59102E+08
         0.20803E+08
        -0.39087E+08
        -0.15820E+09
         0.12944E+09
         0.15644E+09
         0.10588E+09
        -0.70272E+08
        -0.52365E+08
        -0.70550E+08
        -0.18839E+08
         0.29130E+08
         0.11863E+09
        -0.17135E+09
        -0.67990E+08
         0.15433E+09
         0.16076E+09
        -0.12846E+09
        -0.48971E+08
        -0.15519E+09
        -0.17918E+09
        -0.18155E+09
        -0.18365E+09
        -0.15731E+09
         0.54733E+08
         0.85766E+08
        -0.17573E+09
         0.40351E+08
        -0.15986E+09
        -0.85074E+08
         0.13833E+09
         0.16213E+09
        -0.12678E+09
        -0.13109E+09
         0.18416E+09
         0.16283E+09
         0.14712E+09
        -0.93569E+08
        -0.22512E+08
        -0.63662E+08
        -0.16396E+09
        -0.18514E+09
        -0.17941E+09
        -0.16357E+09
        -0.13959E+09
        -0.60953E+08
         0.97568E+08
         0.13551E+09
        -0.18533E+08
         0.21487E+08
         0.14275E+09
         0.17834E+09
         0.20577E+09
         0.20287E+09
         0.17482E+09
         0.14535E+09
         0.10207E+09
         0.44212E+08
        -0.11699E+08
        -0.41685E+08
        -0.54756E+08
        -0.95242E+08
        -0.17260E+09
        -0.20615E+09
        -0.20546E+09
        -0.20462E+09
        -0.20715E+09
        -0.20039E+09
        -0.17660E+09
        -0.15438E+09
        -0.81179E+08
         0.20830E+08
         0.49679E+08
         0.53081E+08
         0.88926E+08
         0.15827E+09
         0.19749E+09
         0.19847E+09
        -0.59160E+08
         0.20903E+08
        -0.39108E+08
        -0.15807E+09
         0.12937E+09
         0.15638E+09
         0.10621E+09
        -0.70031E+08
        -0.52308E+08
        -0.70297E+08
        -0.18240E+08
         0.29197E+08
         0.11865E+09
        -0.17129E+09
        -0.67884E+08
         0.15437E+09
         0.16066E+09
        -0.12809E+09
        -0.48917E+08
        -0.15494E+09
        -0.17915E+09
        -0.18155E+09
        -0.18365E+09
        -0.15734E+09
         0.54665E+08
         0.85940E+08
        -0.17572E+09
         0.39236E+08
        -0.16019E+09
        -0.85049E+08
         0.13843E+09
         0.16221E+09
        -0.12638E+09
        -0.13101E+09
         0.18418E+09
         0.16280E+09
         0.14711E+09
        -0.93565E+08
        -0.22666E+08
        -0.63771E+08
        -0.16395E+09
        -0.18517E+09
        -0.17940E+09
        -0.16353E+09
        -0.13953E+09
        -0.60921E+08
         0.97521E+08
         0.13553E+09
        -0.18364E+08
         0.21463E+08
         0.14274E+09
         0.17834E+09
         0.20576E+09
         0.20286E+09
         0.17480E+09
         0.14535E+09
         0.10205E+09
         0.44211E+08
        -0.11715E+08
        -0.41718E+08
        -0.54723E+08
        -0.95231E+08
        -0.17260E+09
        -0.20615E+09
        -0.20546E+09
        -0.20461E+09
        -0.20716E+09
        -0.20039E+09
        -0.17658E+09
        -0.15437E+09
        -0.81160E+08
         0.20838E+08
         0.49645E+08
         0.53063E+08
         0.88891E+08
         0.15827E+09
         0.19749E+09
         0.19848E+09
        -0.57018E+08
         0.18835E+08
        -0.34833E+08
        -0.13116E+09
         0.12281E+09
         0.14274E+09
         0.77307E+08
        -0.66449E+08
        -0.47863E+08
        -0.66531E+08
        -0.14006E+08
         0.28624E+08
         0.11522E+09
        -0.15230E+09
        -0.66453E+08
         0.14495E+09
         0.12849E+09
        -0.97452E+08
        -0.41645E+08
        -0.99193E+08
        -0.17493E+09
        -0.17663E+09
        -0.17893E+09
        -0.12294E+09
         0.48808E+08
         0.66226E+08
        -0.15650E+09
         0.27143E+08
        -0.10021E+09
        -0.75988E+08
         0.12704E+09
         0.12175E+09
        -0.10350E+09
        -0.10241E+09
         0.17751E+09
         0.15005E+09
         0.13987E+09
        -0.91146E+08
        -0.21922E+08
        -0.61029E+08
        -0.15988E+09
        -0.18017E+09
        -0.17501E+09
        -0.15816E+09
        -0.13334E+09
        -0.58963E+08
         0.91847E+08
         0.12627E+09
        -0.16452E+08
         0.19765E+08
         0.13745E+09
         0.16672E+09
         0.20445E+09
         0.20168E+09
         0.17385E+09
         0.14461E+09
         0.10155E+09
         0.44003E+08
        -0.11675E+08
        -0.41481E+08
        -0.54321E+08
        -0.94628E+08
        -0.17155E+09
        -0.20502E+09
        -0.20413E+09
        -0.20329E+09
        -0.20604E+09
        -0.19942E+09
        -0.17576E+09
        -0.15367E+09
        -0.80676E+08
         0.20736E+08
         0.49334E+08
         0.52731E+08
         0.88361E+08
         0.15734E+09
         0.19642E+09
         0.19738E+09
        -0.28529E+08
         0.63813E+07
        -0.11439E+08
        -0.36166E+08
         0.54776E+08
         0.51453E+08
         0.17738E+08
        -0.30008E+08
        -0.17511E+08
        -0.29525E+08
        -0.34997E+07
         0.17176E+08
         0.62536E+08
        -0.49549E+08
        -0.40841E+08
         0.59872E+08
         0.33239E+08
        -0.20423E+08
        -0.12113E+08
        -0.20237E+08
        -0.10199E+09
        -0.98271E+08
        -0.10103E+09
        -0.30565E+08
         0.16213E+08
         0.12769E+08
        -0.51138E+08
         0.45220E+07
        -0.20574E+08
        -0.25248E+08
         0.46619E+08
         0.28752E+08
        -0.27847E+08
        -0.25626E+08
         0.89043E+08
         0.56258E+08
         0.62801E+08
        -0.51466E+08
        -0.10815E+08
        -0.28557E+08
        -0.91630E+08
        -0.10032E+09
        -0.10073E+09
        -0.82261E+08
        -0.62199E+08
        -0.30969E+08
         0.38691E+08
         0.49861E+08
        -0.56351E+07
         0.74241E+07
         0.68556E+08
         0.67323E+08
         0.16357E+09
         0.16428E+09
         0.14310E+09
         0.12013E+09
         0.85236E+08
         0.37201E+08
        -0.97495E+07
        -0.33377E+08
        -0.43106E+08
        -0.76201E+08
        -0.13880E+09
        -0.16870E+09
        -0.16345E+09
        -0.16324E+09
        -0.17019E+09
        -0.16723E+09
        -0.14851E+09
        -0.12992E+09
        -0.65710E+08
         0.17050E+08
         0.40263E+08
         0.42794E+08
         0.72301E+08
         0.12795E+09
         0.16187E+09
         0.16211E+09
  
SCALARS                      stress_xy  double 1
LOOKUP_TABLE default
        -0.77831E+00
        -0.18270E+01
        -0.15664E+02
         0.55303E+00
        -0.16401E-08
         0.16028E-09
         0.24099E-08
         0.36710E-09
        -0.16527E+03
         0.72610E+02
         0.10727E-07
         0.85065E-08
         0.61875E+01
        -0.12839E+01
         0.94683E-09
        -0.28437E-09
         0.17774E+01
         0.31048E+02
         0.47137E-10
         0.71831E-09
        -0.23628E+02
        -0.14995E+03
        -0.14748E+03
         0.73040E-08
         0.58166E-08
        -0.84940E-08
        -0.15611E+02
        -0.13049E+03
         0.98346E-08
         0.15135E-07
        -0.47530E+01
         0.92113E+01
         0.74746E+00
        -0.51909E-09
         0.20478E-08
        -0.26192E-10
        -0.41930E+02
        -0.19497E+02
         0.54805E-08
         0.45401E-08
        -0.82191E+02
        -0.74192E+02
         0.93427E-08
         0.62964E-08
        -0.79693E+02
        -0.14628E+02
        -0.34034E-09
         0.25339E-08
         0.21289E+02
         0.74886E-09
        -0.49842E+01
        -0.16883E-10
         0.13096E+01
         0.56602E-08
         0.64855E+01
         0.87098E-09
         0.92542E+02
        -0.45039E+01
         0.20242E-10
        -0.99303E-10
         0.61548E+00
        -0.61974E+02
         0.55160E-09
         0.14149E-08
         0.26623E+01
        -0.11200E-09
         0.38276E+02
         0.89742E-09
        -0.20472E+03
        -0.74319E+02
         0.69319E-09
        -0.66380E-08
        -0.16717E+03
        -0.10613E-07
         0.68491E+02
         0.71087E-08
         0.21633E+03
         0.10591E-08
         0.37775E+03
         0.13772E-08
         0.73273E+03
         0.39919E+03
         0.32378E-08
        -0.82101E-09
         0.49274E+02
        -0.98797E-10
        -0.15103E+03
        -0.89107E-08
        -0.22239E+03
        -0.99495E-08
        -0.48934E+03
        -0.22313E+03
        -0.62982E-08
         0.69909E-08
         0.35866E+02
         0.63655E-08
         0.88325E+02
         0.27344E-08
         0.20640E+03
         0.72603E-08
         0.50773E+03
         0.28954E+03
         0.15568E-07
         0.77838E-08
        -0.83475E+03
         0.34972E+03
        -0.10114E-07
         0.12387E-07
        -0.20326E+04
        -0.28746E-07
        -0.26506E+04
        -0.31423E-07
        -0.23293E+04
        -0.21326E-07
        -0.19867E+04
        -0.22621E-08
        -0.86857E+03
         0.63759E-08
         0.11445E+04
         0.39477E-08
         0.25720E+04
         0.36088E-08
         0.34005E+04
         0.77429E-08
         0.33340E+04
         0.94141E-08
         0.27329E+04
         0.37090E-08
         0.14556E+04
         0.22613E-08
        -0.99664E+02
         0.36960E-08
        -0.12107E+04
         0.24775E-08
        -0.19525E+04
        -0.88351E-08
        -0.26651E+04
        -0.23183E-07
        -0.23875E+04
        -0.29420E-07
        -0.15336E+04
        -0.18208E-07
        -0.16799E+03
         0.34739E-08
         0.11346E+04
         0.73626E-08
         0.16407E+04
         0.11734E-07
         0.20078E+04
         0.23106E-07
         0.17998E+04
         0.29983E-07
         0.16750E+04
         0.21302E-07
         0.13833E+04
         0.16846E-07
        -0.85417E+02
         0.23038E+02
         0.23589E+02
        -0.14723E+02
         0.18866E+03
         0.15493E+03
         0.24711E+01
        -0.55731E+02
        -0.24619E+02
        -0.64347E+02
        -0.18502E+02
        -0.34187E+03
        -0.48743E+03
         0.18084E+02
         0.27750E+03
        -0.37018E+02
         0.27529E+02
         0.82126E+01
         0.16714E+02
        -0.13585E+02
         0.68226E+02
         0.59874E+02
        -0.18183E+03
         0.47622E+01
         0.40904E+02
         0.45066E+01
         0.75054E+00
         0.14713E+01
         0.18285E+02
        -0.60600E+02
        -0.32263E+02
         0.68779E+01
         0.11056E+02
        -0.87151E+00
        -0.45653E+02
        -0.15749E+03
        -0.31945E+03
         0.48365E+03
         0.25176E+03
         0.45554E+03
         0.88329E+03
         0.20413E+03
        -0.16465E+03
        -0.33204E+03
        -0.39382E+03
        -0.50391E+03
         0.62030E+02
         0.18561E+03
         0.57272E+02
         0.19303E+03
         0.60538E+03
         0.23275E+03
        -0.20682E+04
         0.26057E+04
        -0.63090E+04
        -0.74127E+04
        -0.70361E+04
        -0.42588E+04
         0.25431E+03
         0.27653E+04
         0.40087E+04
         0.65049E+04
         0.68533E+04
         0.36528E+04
         0.14714E+04
         0.62200E+03
        -0.10057E+04
        -0.39732E+04
        -0.66334E+04
        -0.75839E+04
        -0.46609E+04
         0.84424E+03
         0.30542E+04
         0.32188E+04
         0.50715E+04
         0.56373E+04
         0.42665E+04
         0.39356E+04
        -0.31193E+06
         0.93151E+05
        -0.17930E+06
        -0.20940E+06
         0.51691E+06
         0.36967E+06
         0.26693E+06
        -0.38491E+06
        -0.25013E+06
        -0.38116E+06
         0.12468E+06
        -0.17161E+06
        -0.55010E+06
         0.20126E+06
         0.40625E+06
        -0.39728E+06
         0.17888E+06
         0.14987E+06
         0.21245E+06
         0.15193E+06
         0.28701E+06
         0.21783E+06
        -0.13069E+06
         0.22325E+06
         0.25743E+06
        -0.12337E+06
         0.45836E+05
        -0.41441E+05
        -0.16685E+06
        -0.37733E+06
        -0.42217E+06
        -0.17049E+06
         0.32910E+06
         0.29552E+06
         0.84511E+05
        -0.34644E+06
        -0.48896E+06
         0.49540E+06
         0.11718E+06
         0.34010E+06
         0.48938E+06
        -0.14851E+06
        -0.29544E+06
        -0.42177E+06
        -0.51031E+06
        -0.34968E+06
         0.46326E+06
         0.47584E+06
        -0.10816E+06
         0.11743E+06
         0.53313E+06
         0.67917E+05
        -0.25412E+06
         0.35100E+06
        -0.67685E+06
        -0.73100E+06
        -0.62725E+06
        -0.30491E+06
         0.79886E+05
         0.27944E+06
         0.36962E+06
         0.59302E+06
         0.68597E+06
         0.27340E+06
         0.12886E+06
         0.11512E+06
        -0.49559E+05
        -0.38241E+06
        -0.65396E+06
        -0.73432E+06
        -0.52231E+06
         0.14345E+06
         0.33670E+06
         0.35417E+06
         0.55889E+06
         0.70983E+06
         0.44819E+06
         0.42956E+06
        -0.31230E+06
         0.93482E+05
        -0.17958E+06
        -0.21070E+06
         0.51688E+06
         0.36996E+06
         0.26805E+06
        -0.38395E+06
        -0.25018E+06
        -0.38036E+06
         0.12224E+06
        -0.17202E+06
        -0.55018E+06
         0.20153E+06
         0.40579E+06
        -0.39720E+06
         0.18028E+06
         0.14924E+06
         0.21231E+06
         0.15114E+06
         0.28765E+06
         0.21804E+06
        -0.13072E+06
         0.22316E+06
         0.25748E+06
        -0.12336E+06
         0.46365E+05
        -0.40889E+05
        -0.16691E+06
        -0.37732E+06
        -0.42223E+06
        -0.17016E+06
         0.32918E+06
         0.29581E+06
         0.83693E+05
        -0.34668E+06
        -0.48898E+06
         0.49556E+06
         0.11809E+06
         0.34074E+06
         0.48948E+06
        -0.14805E+06
        -0.29570E+06
        -0.42194E+06
        -0.51033E+06
        -0.34953E+06
         0.46321E+06
         0.47577E+06
        -0.10747E+06
         0.11714E+06
         0.53309E+06
         0.66965E+05
        -0.25396E+06
         0.35108E+06
        -0.67692E+06
        -0.73100E+06
        -0.62716E+06
        -0.30490E+06
         0.80003E+05
         0.27966E+06
         0.36940E+06
         0.59295E+06
         0.68593E+06
         0.27351E+06
         0.12886E+06
         0.11536E+06
        -0.49151E+05
        -0.38253E+06
        -0.65407E+06
        -0.73435E+06
        -0.52221E+06
         0.14352E+06
         0.33650E+06
         0.35406E+06
         0.55868E+06
         0.70973E+06
         0.44793E+06
         0.42921E+06
        -0.31268E+06
         0.93806E+05
        -0.17985E+06
        -0.21200E+06
         0.51684E+06
         0.37026E+06
         0.26916E+06
        -0.38298E+06
        -0.25022E+06
        -0.37956E+06
         0.11979E+06
        -0.17243E+06
        -0.55026E+06
         0.20178E+06
         0.40534E+06
        -0.39712E+06
         0.18169E+06
         0.14859E+06
         0.21218E+06
         0.15034E+06
         0.28829E+06
         0.21825E+06
        -0.13078E+06
         0.22305E+06
         0.25757E+06
        -0.12332E+06
         0.46932E+05
        -0.40352E+05
        -0.16686E+06
        -0.37732E+06
        -0.42229E+06
        -0.16976E+06
         0.32924E+06
         0.29610E+06
         0.82870E+05
        -0.34691E+06
        -0.48899E+06
         0.49572E+06
         0.11899E+06
         0.34137E+06
         0.48959E+06
        -0.14756E+06
        -0.29593E+06
        -0.42215E+06
        -0.51036E+06
        -0.34939E+06
         0.46316E+06
         0.47568E+06
        -0.10675E+06
         0.11683E+06
         0.53305E+06
         0.66014E+05
        -0.25380E+06
         0.35116E+06
        -0.67699E+06
        -0.73101E+06
        -0.62708E+06
        -0.30489E+06
         0.80121E+05
         0.27988E+06
         0.36919E+06
         0.59287E+06
         0.68589E+06
         0.27364E+06
         0.12886E+06
         0.11560E+06
        -0.48741E+05
        -0.38265E+06
        -0.65418E+06
        -0.73438E+06
        -0.52211E+06
         0.14359E+06
         0.33629E+06
         0.35394E+06
         0.55847E+06
         0.70963E+06
         0.44767E+06
         0.42887E+06
        -0.31306E+06
         0.94143E+05
        -0.18012E+06
        -0.21330E+06
         0.51680E+06
         0.37056E+06
         0.27026E+06
        -0.38201E+06
        -0.25023E+06
        -0.37872E+06
         0.11734E+06
        -0.17285E+06
        -0.55034E+06
         0.20206E+06
         0.40488E+06
        -0.39704E+06
         0.18311E+06
         0.14794E+06
         0.21205E+06
         0.14949E+06
         0.28894E+06
         0.21843E+06
        -0.13089E+06
         0.22287E+06
         0.25777E+06
        -0.12326E+06
         0.47519E+05
        -0.39906E+05
        -0.16650E+06
        -0.37733E+06
        -0.42234E+06
        -0.16921E+06
         0.32929E+06
         0.29639E+06
         0.82053E+05
        -0.34714E+06
        -0.48900E+06
         0.49588E+06
         0.11988E+06
         0.34198E+06
         0.48973E+06
        -0.14694E+06
        -0.29611E+06
        -0.42244E+06
        -0.51041E+06
        -0.34923E+06
         0.46311E+06
         0.47561E+06
        -0.10604E+06
         0.11653E+06
         0.53300E+06
         0.65064E+05
        -0.25364E+06
         0.35124E+06
        -0.67706E+06
        -0.73101E+06
        -0.62700E+06
        -0.30488E+06
         0.80239E+05
         0.28011E+06
         0.36897E+06
         0.59279E+06
         0.68586E+06
         0.27378E+06
         0.12887E+06
         0.11583E+06
        -0.48327E+05
        -0.38278E+06
        -0.65432E+06
        -0.73442E+06
        -0.52201E+06
         0.14366E+06
         0.33609E+06
         0.35383E+06
         0.55827E+06
         0.70953E+06
         0.44741E+06
         0.42852E+06
        -0.31343E+06
         0.94479E+05
        -0.18039E+06
        -0.21460E+06
         0.51676E+06
         0.37085E+06
         0.27136E+06
        -0.38103E+06
        -0.25022E+06
        -0.37784E+06
         0.11489E+06
        -0.17326E+06
        -0.55043E+06
         0.20234E+06
         0.40441E+06
        -0.39695E+06
         0.18455E+06
         0.14729E+06
         0.21190E+06
         0.14860E+06
         0.28960E+06
         0.21859E+06
        -0.13105E+06
         0.22261E+06
         0.25809E+06
        -0.12314E+06
         0.48173E+05
        -0.39540E+05
        -0.16581E+06
        -0.37733E+06
        -0.42237E+06
        -0.16850E+06
         0.32933E+06
         0.29668E+06
         0.81229E+05
        -0.34737E+06
        -0.48901E+06
         0.49604E+06
         0.12076E+06
         0.34258E+06
         0.48990E+06
        -0.14620E+06
        -0.29622E+06
        -0.42282E+06
        -0.51050E+06
        -0.34904E+06
         0.46307E+06
         0.47554E+06
        -0.10533E+06
         0.11623E+06
         0.53296E+06
         0.64105E+05
        -0.25348E+06
         0.35132E+06
        -0.67713E+06
        -0.73101E+06
        -0.62692E+06
        -0.30487E+06
         0.80356E+05
         0.28033E+06
         0.36874E+06
         0.59272E+06
         0.68584E+06
         0.27395E+06
         0.12889E+06
         0.11606E+06
        -0.47912E+05
        -0.38291E+06
        -0.65447E+06
        -0.73446E+06
        -0.52191E+06
         0.14373E+06
         0.33589E+06
         0.35372E+06
         0.55806E+06
         0.70943E+06
         0.44715E+06
         0.42818E+06
        -0.31379E+06
         0.94847E+05
        -0.18063E+06
        -0.21590E+06
         0.51672E+06
         0.37115E+06
         0.27244E+06
        -0.38005E+06
        -0.25019E+06
        -0.37698E+06
         0.11242E+06
        -0.17368E+06
        -0.55050E+06
         0.20265E+06
         0.40395E+06
        -0.39686E+06
         0.18602E+06
         0.14665E+06
         0.21174E+06
         0.14768E+06
         0.29025E+06
         0.21874E+06
        -0.13124E+06
         0.22233E+06
         0.25840E+06
        -0.12301E+06
         0.48878E+05
        -0.39204E+05
        -0.16458E+06
        -0.37737E+06
        -0.42240E+06
        -0.16770E+06
         0.32936E+06
         0.29698E+06
         0.80400E+05
        -0.34762E+06
        -0.48903E+06
         0.49619E+06
         0.12163E+06
         0.34318E+06
         0.49008E+06
        -0.14542E+06
        -0.29631E+06
        -0.42323E+06
        -0.51060E+06
        -0.34887E+06
         0.46301E+06
         0.47548E+06
        -0.10459E+06
         0.11596E+06
         0.53292E+06
         0.63143E+05
        -0.25332E+06
         0.35140E+06
        -0.67720E+06
        -0.73101E+06
        -0.62683E+06
        -0.30486E+06
         0.80472E+05
         0.28055E+06
         0.36852E+06
         0.59264E+06
         0.68582E+06
         0.27413E+06
         0.12891E+06
         0.11629E+06
        -0.47497E+05
        -0.38305E+06
        -0.65463E+06
        -0.73450E+06
        -0.52180E+06
         0.14380E+06
         0.33568E+06
         0.35360E+06
         0.55785E+06
         0.70933E+06
         0.44689E+06
         0.42783E+06
        -0.31412E+06
         0.95298E+05
        -0.18080E+06
        -0.21723E+06
         0.51669E+06
         0.37145E+06
         0.27352E+06
        -0.37908E+06
        -0.25017E+06
        -0.37615E+06
         0.10993E+06
        -0.17409E+06
        -0.55058E+06
         0.20307E+06
         0.40348E+06
        -0.39679E+06
         0.18752E+06
         0.14600E+06
         0.21161E+06
         0.14677E+06
         0.29090E+06
         0.21889E+06
        -0.13142E+06
         0.22205E+06
         0.25864E+06
        -0.12283E+06
         0.49708E+05
        -0.38859E+05
        -0.16304E+06
        -0.37743E+06
        -0.42241E+06
        -0.16685E+06
         0.32938E+06
         0.29728E+06
         0.79570E+05
        -0.34787E+06
        -0.48906E+06
         0.49634E+06
         0.12251E+06
         0.34379E+06
         0.49026E+06
        -0.14462E+06
        -0.29639E+06
        -0.42364E+06
        -0.51071E+06
        -0.34870E+06
         0.46292E+06
         0.47546E+06
        -0.10376E+06
         0.11576E+06
         0.53288E+06
         0.62166E+05
        -0.25316E+06
         0.35148E+06
        -0.67727E+06
        -0.73101E+06
        -0.62675E+06
        -0.30485E+06
         0.80588E+05
         0.28078E+06
         0.36831E+06
         0.59257E+06
         0.68580E+06
         0.27431E+06
         0.12893E+06
         0.11652E+06
        -0.47082E+05
        -0.38319E+06
        -0.65478E+06
        -0.73454E+06
        -0.52170E+06
         0.14385E+06
         0.33546E+06
         0.35349E+06
         0.55766E+06
         0.70923E+06
         0.44663E+06
         0.42749E+06
        -0.31443E+06
         0.95773E+05
        -0.18094E+06
        -0.21858E+06
         0.51665E+06
         0.37174E+06
         0.27458E+06
        -0.37811E+06
        -0.25016E+06
        -0.37534E+06
         0.10743E+06
        -0.17450E+06
        -0.55066E+06
         0.20351E+06
         0.40302E+06
        -0.39672E+06
         0.18904E+06
         0.14534E+06
         0.21146E+06
         0.14585E+06
         0.29155E+06
         0.21905E+06
        -0.13160E+06
         0.22179E+06
         0.25884E+06
        -0.12263E+06
         0.50570E+05
        -0.38504E+05
        -0.16147E+06
        -0.37751E+06
        -0.42243E+06
        -0.16596E+06
         0.32939E+06
         0.29759E+06
         0.78730E+05
        -0.34812E+06
        -0.48909E+06
         0.49648E+06
         0.12338E+06
         0.34439E+06
         0.49045E+06
        -0.14382E+06
        -0.29647E+06
        -0.42404E+06
        -0.51082E+06
        -0.34855E+06
         0.46281E+06
         0.47546E+06
        -0.10290E+06
         0.11561E+06
         0.53284E+06
         0.61185E+05
        -0.25300E+06
         0.35156E+06
        -0.67734E+06
        -0.73101E+06
        -0.62667E+06
        -0.30484E+06
         0.80704E+05
         0.28100E+06
         0.36809E+06
         0.59249E+06
         0.68578E+06
         0.27449E+06
         0.12895E+06
         0.11675E+06
        -0.46666E+05
        -0.38332E+06
        -0.65494E+06
        -0.73458E+06
        -0.52160E+06
         0.14390E+06
         0.33523E+06
         0.35338E+06
         0.55746E+06
         0.70913E+06
         0.44637E+06
         0.42714E+06
        -0.31475E+06
         0.96254E+05
        -0.18108E+06
        -0.21993E+06
         0.51661E+06
         0.37204E+06
         0.27563E+06
        -0.37714E+06
        -0.25015E+06
        -0.37454E+06
         0.10494E+06
        -0.17490E+06
        -0.55075E+06
         0.20397E+06
         0.40254E+06
        -0.39665E+06
         0.19056E+06
         0.14469E+06
         0.21131E+06
         0.14471E+06
         0.29220E+06
         0.21921E+06
        -0.13179E+06
         0.22152E+06
         0.25904E+06
        -0.12243E+06
         0.51453E+05
        -0.38128E+05
        -0.15988E+06
        -0.37758E+06
        -0.42243E+06
        -0.16508E+06
         0.32939E+06
         0.29789E+06
         0.77887E+05
        -0.34837E+06
        -0.48912E+06
         0.49662E+06
         0.12426E+06
         0.34498E+06
         0.49064E+06
        -0.14302E+06
        -0.29654E+06
        -0.42445E+06
        -0.51093E+06
        -0.34839E+06
         0.46272E+06
         0.47545E+06
        -0.10204E+06
         0.11546E+06
         0.53280E+06
         0.60199E+05
        -0.25284E+06
         0.35164E+06
        -0.67740E+06
        -0.73101E+06
        -0.62658E+06
        -0.30483E+06
         0.80820E+05
         0.28122E+06
         0.36787E+06
         0.59242E+06
         0.68576E+06
         0.27467E+06
         0.12898E+06
         0.11699E+06
        -0.46252E+05
        -0.38346E+06
        -0.65510E+06
        -0.73462E+06
        -0.52149E+06
         0.14396E+06
         0.33501E+06
         0.35326E+06
         0.55726E+06
         0.70902E+06
         0.44612E+06
         0.42679E+06
        -0.31506E+06
         0.96740E+05
        -0.18123E+06
        -0.22126E+06
         0.51658E+06
         0.37233E+06
         0.27668E+06
        -0.37617E+06
        -0.25014E+06
        -0.37374E+06
         0.10244E+06
        -0.17531E+06
        -0.55083E+06
         0.20441E+06
         0.40208E+06
        -0.39658E+06
         0.19207E+06
         0.14404E+06
         0.21116E+06
         0.14348E+06
         0.29285E+06
         0.21936E+06
        -0.13196E+06
         0.22125E+06
         0.25924E+06
        -0.12223E+06
         0.52312E+05
        -0.37737E+05
        -0.15827E+06
        -0.37766E+06
        -0.42244E+06
        -0.16419E+06
         0.32937E+06
         0.29819E+06
         0.77046E+05
        -0.34863E+06
        -0.48915E+06
         0.49676E+06
         0.12513E+06
         0.34559E+06
         0.49082E+06
        -0.14223E+06
        -0.29662E+06
        -0.42485E+06
        -0.51104E+06
        -0.34823E+06
         0.46261E+06
         0.47546E+06
        -0.10119E+06
         0.11530E+06
         0.53275E+06
         0.59214E+05
        -0.25268E+06
         0.35172E+06
        -0.67747E+06
        -0.73101E+06
        -0.62650E+06
        -0.30482E+06
         0.80936E+05
         0.28144E+06
         0.36764E+06
         0.59234E+06
         0.68573E+06
         0.27485E+06
         0.12900E+06
         0.11723E+06
        -0.45838E+05
        -0.38360E+06
        -0.65526E+06
        -0.73466E+06
        -0.52139E+06
         0.14401E+06
         0.33478E+06
         0.35314E+06
         0.55707E+06
         0.70892E+06
         0.44586E+06
         0.42644E+06
        -0.31538E+06
         0.97222E+05
        -0.18137E+06
        -0.22258E+06
         0.51654E+06
         0.37262E+06
         0.27771E+06
        -0.37519E+06
        -0.25012E+06
        -0.37294E+06
         0.99929E+05
        -0.17573E+06
        -0.55091E+06
         0.20487E+06
         0.40160E+06
        -0.39652E+06
         0.19359E+06
         0.14339E+06
         0.21103E+06
         0.14223E+06
         0.29350E+06
         0.21951E+06
        -0.13214E+06
         0.22099E+06
         0.25943E+06
        -0.12203E+06
         0.53185E+05
        -0.37322E+05
        -0.15663E+06
        -0.37773E+06
        -0.42245E+06
        -0.16331E+06
         0.32935E+06
         0.29850E+06
         0.76202E+05
        -0.34888E+06
        -0.48919E+06
         0.49690E+06
         0.12600E+06
         0.34619E+06
         0.49100E+06
        -0.14144E+06
        -0.29670E+06
        -0.42525E+06
        -0.51115E+06
        -0.34808E+06
         0.46251E+06
         0.47545E+06
        -0.10032E+06
         0.11514E+06
         0.53271E+06
         0.58224E+05
        -0.25252E+06
         0.35179E+06
        -0.67754E+06
        -0.73101E+06
        -0.62641E+06
        -0.30481E+06
         0.81049E+05
         0.28166E+06
         0.36742E+06
         0.59227E+06
         0.68571E+06
         0.27503E+06
         0.12903E+06
         0.11746E+06
        -0.45423E+05
        -0.38373E+06
        -0.65541E+06
        -0.73470E+06
        -0.52129E+06
         0.14406E+06
         0.33456E+06
         0.35303E+06
         0.55687E+06
         0.70882E+06
         0.44560E+06
         0.42610E+06
        -0.31569E+06
         0.97702E+05
        -0.18151E+06
        -0.22392E+06
         0.51650E+06
         0.37291E+06
         0.27874E+06
        -0.37422E+06
        -0.25010E+06
        -0.37215E+06
         0.97423E+05
        -0.17614E+06
        -0.55099E+06
         0.20532E+06
         0.40113E+06
        -0.39645E+06
         0.19510E+06
         0.14274E+06
         0.21088E+06
         0.14101E+06
         0.29415E+06
         0.21966E+06
        -0.13233E+06
         0.22073E+06
         0.25962E+06
        -0.12184E+06
         0.54038E+05
        -0.36892E+05
        -0.15498E+06
        -0.37781E+06
        -0.42245E+06
        -0.16242E+06
         0.32930E+06
         0.29880E+06
         0.75353E+05
        -0.34913E+06
        -0.48922E+06
         0.49703E+06
         0.12686E+06
         0.34679E+06
         0.49119E+06
        -0.14065E+06
        -0.29678E+06
        -0.42565E+06
        -0.51126E+06
        -0.34793E+06
         0.46241E+06
         0.47545E+06
        -0.99454E+05
         0.11499E+06
         0.53267E+06
         0.57233E+05
        -0.25236E+06
         0.35187E+06
        -0.67760E+06
        -0.73101E+06
        -0.62633E+06
        -0.30480E+06
         0.81163E+05
         0.28188E+06
         0.36720E+06
         0.59219E+06
         0.68569E+06
         0.27520E+06
         0.12905E+06
         0.11769E+06
        -0.45007E+05
        -0.38387E+06
        -0.65557E+06
        -0.73474E+06
        -0.52118E+06
         0.14411E+06
         0.33433E+06
         0.35291E+06
         0.55668E+06
         0.70872E+06
         0.44534E+06
         0.42575E+06
        -0.31600E+06
         0.98188E+05
        -0.18165E+06
        -0.22525E+06
         0.51646E+06
         0.37320E+06
         0.27976E+06
        -0.37324E+06
        -0.25008E+06
        -0.37134E+06
         0.94921E+05
        -0.17655E+06
        -0.55107E+06
         0.20576E+06
         0.40066E+06
        -0.39638E+06
         0.19661E+06
         0.14209E+06
         0.21074E+06
         0.13979E+06
         0.29480E+06
         0.21981E+06
        -0.13250E+06
         0.22047E+06
         0.25980E+06
        -0.12163E+06
         0.54916E+05
        -0.36440E+05
        -0.15331E+06
        -0.37788E+06
        -0.42246E+06
        -0.16152E+06
         0.32924E+06
         0.29910E+06
         0.74506E+05
        -0.34939E+06
        -0.48925E+06
         0.49717E+06
         0.12773E+06
         0.34739E+06
         0.49137E+06
        -0.13986E+06
        -0.29685E+06
        -0.42605E+06
        -0.51137E+06
        -0.34777E+06
         0.46230E+06
         0.47545E+06
        -0.98580E+05
         0.11483E+06
         0.53262E+06
         0.56243E+05
        -0.25220E+06
         0.35195E+06
        -0.67767E+06
        -0.73101E+06
        -0.62625E+06
        -0.30479E+06
         0.81280E+05
         0.28210E+06
         0.36698E+06
         0.59212E+06
         0.68567E+06
         0.27538E+06
         0.12907E+06
         0.11792E+06
        -0.44592E+05
        -0.38400E+06
        -0.65573E+06
        -0.73478E+06
        -0.52108E+06
         0.14416E+06
         0.33410E+06
         0.35280E+06
         0.55648E+06
         0.70862E+06
         0.44509E+06
         0.42540E+06
        -0.31632E+06
         0.98665E+05
        -0.18178E+06
        -0.22658E+06
         0.51642E+06
         0.37349E+06
         0.28076E+06
        -0.37226E+06
        -0.25006E+06
        -0.37054E+06
         0.92421E+05
        -0.17696E+06
        -0.55115E+06
         0.20621E+06
         0.40019E+06
        -0.39631E+06
         0.19812E+06
         0.14144E+06
         0.21062E+06
         0.13858E+06
         0.29545E+06
         0.21996E+06
        -0.13268E+06
         0.22021E+06
         0.25998E+06
        -0.12142E+06
         0.55771E+05
        -0.35973E+05
        -0.15162E+06
        -0.37794E+06
        -0.42246E+06
        -0.16063E+06
         0.32917E+06
         0.29940E+06
         0.73654E+05
        -0.34964E+06
        -0.48928E+06
         0.49730E+06
         0.12859E+06
         0.34800E+06
         0.49155E+06
        -0.13907E+06
        -0.29693E+06
        -0.42645E+06
        -0.51148E+06
        -0.34762E+06
         0.46219E+06
         0.47545E+06
        -0.97709E+05
         0.11467E+06
         0.53258E+06
         0.55256E+05
        -0.25203E+06
         0.35202E+06
        -0.67774E+06
        -0.73101E+06
        -0.62617E+06
        -0.30478E+06
         0.81395E+05
         0.28232E+06
         0.36676E+06
         0.59205E+06
         0.68564E+06
         0.27556E+06
         0.12910E+06
         0.11816E+06
        -0.44178E+05
        -0.38414E+06
        -0.65588E+06
        -0.73482E+06
        -0.52098E+06
         0.14421E+06
         0.33388E+06
         0.35269E+06
         0.55629E+06
         0.70852E+06
         0.44483E+06
         0.42505E+06
        -0.31664E+06
         0.99139E+05
        -0.18192E+06
        -0.22789E+06
         0.51638E+06
         0.37378E+06
         0.28176E+06
        -0.37128E+06
        -0.25004E+06
        -0.36974E+06
         0.89917E+05
        -0.17737E+06
        -0.55123E+06
         0.20664E+06
         0.39971E+06
        -0.39625E+06
         0.19963E+06
         0.14080E+06
         0.21047E+06
         0.13736E+06
         0.29610E+06
         0.22010E+06
        -0.13286E+06
         0.21995E+06
         0.26015E+06
        -0.12121E+06
         0.56640E+05
        -0.35484E+05
        -0.14992E+06
        -0.37801E+06
        -0.42246E+06
        -0.15973E+06
         0.32908E+06
         0.29971E+06
         0.72805E+05
        -0.34989E+06
        -0.48931E+06
         0.49742E+06
         0.12945E+06
         0.34859E+06
         0.49174E+06
        -0.13828E+06
        -0.29701E+06
        -0.42685E+06
        -0.51159E+06
        -0.34747E+06
         0.46209E+06
         0.47545E+06
        -0.96821E+05
         0.11452E+06
         0.53254E+06
         0.54260E+05
        -0.25187E+06
         0.35210E+06
        -0.67780E+06
        -0.73101E+06
        -0.62608E+06
        -0.30477E+06
         0.81508E+05
         0.28253E+06
         0.36654E+06
         0.59198E+06
         0.68562E+06
         0.27574E+06
         0.12912E+06
         0.11839E+06
        -0.43764E+05
        -0.38427E+06
        -0.65604E+06
        -0.73486E+06
        -0.52087E+06
         0.14426E+06
         0.33365E+06
         0.35258E+06
         0.55609E+06
         0.70841E+06
         0.44458E+06
         0.42470E+06
        -0.31695E+06
         0.99626E+05
        -0.18206E+06
        -0.22920E+06
         0.51634E+06
         0.37407E+06
         0.28275E+06
        -0.37029E+06
        -0.25002E+06
        -0.36893E+06
         0.87410E+05
        -0.17778E+06
        -0.55131E+06
         0.20709E+06
         0.39924E+06
        -0.39618E+06
         0.20114E+06
         0.14016E+06
         0.21033E+06
         0.13615E+06
         0.29674E+06
         0.22025E+06
        -0.13304E+06
         0.21970E+06
         0.26031E+06
        -0.12100E+06
         0.57485E+05
        -0.34977E+05
        -0.14821E+06
        -0.37807E+06
        -0.42246E+06
        -0.15883E+06
         0.32898E+06
         0.30001E+06
         0.71948E+05
        -0.35014E+06
        -0.48934E+06
         0.49755E+06
         0.13032E+06
         0.34919E+06
         0.49192E+06
        -0.13750E+06
        -0.29709E+06
        -0.42724E+06
        -0.51170E+06
        -0.34731E+06
         0.46199E+06
         0.47545E+06
        -0.95941E+05
         0.11436E+06
         0.53250E+06
         0.53262E+05
        -0.25171E+06
         0.35217E+06
        -0.67787E+06
        -0.73101E+06
        -0.62600E+06
        -0.30476E+06
         0.81620E+05
         0.28275E+06
         0.36632E+06
         0.59190E+06
         0.68560E+06
         0.27591E+06
         0.12914E+06
         0.11862E+06
        -0.43349E+05
        -0.38440E+06
        -0.65620E+06
        -0.73490E+06
        -0.52077E+06
         0.14430E+06
         0.33343E+06
         0.35246E+06
         0.55589E+06
         0.70831E+06
         0.44433E+06
         0.42435E+06
        -0.31727E+06
         0.10010E+06
        -0.18219E+06
        -0.23051E+06
         0.51630E+06
         0.37435E+06
         0.28374E+06
        -0.36931E+06
        -0.24999E+06
        -0.36812E+06
         0.84901E+05
        -0.17820E+06
        -0.55139E+06
         0.20752E+06
         0.39876E+06
        -0.39611E+06
         0.20266E+06
         0.13952E+06
         0.21020E+06
         0.13495E+06
         0.29739E+06
         0.22038E+06
        -0.13322E+06
         0.21945E+06
         0.26046E+06
        -0.12078E+06
         0.58354E+05
        -0.34443E+05
        -0.14647E+06
        -0.37814E+06
        -0.42246E+06
        -0.15793E+06
         0.32887E+06
         0.30031E+06
         0.71090E+05
        -0.35039E+06
        -0.48937E+06
         0.49767E+06
         0.13119E+06
         0.34980E+06
         0.49211E+06
        -0.13672E+06
        -0.29717E+06
        -0.42764E+06
        -0.51181E+06
        -0.34716E+06
         0.46188E+06
         0.47545E+06
        -0.95062E+05
         0.11420E+06
         0.53246E+06
         0.52270E+05
        -0.25154E+06
         0.35225E+06
        -0.67793E+06
        -0.73101E+06
        -0.62592E+06
        -0.30475E+06
         0.81731E+05
         0.28296E+06
         0.36610E+06
         0.59183E+06
         0.68558E+06
         0.27609E+06
         0.12916E+06
         0.11885E+06
        -0.42937E+05
        -0.38454E+06
        -0.65635E+06
        -0.73494E+06
        -0.52066E+06
         0.14435E+06
         0.33320E+06
         0.35235E+06
         0.55570E+06
         0.70821E+06
         0.44408E+06
         0.42400E+06
        -0.31758E+06
         0.10058E+06
        -0.18232E+06
        -0.23182E+06
         0.51626E+06
         0.37464E+06
         0.28470E+06
        -0.36832E+06
        -0.24994E+06
        -0.36727E+06
         0.82393E+05
        -0.17861E+06
        -0.55147E+06
         0.20796E+06
         0.39828E+06
        -0.39604E+06
         0.20418E+06
         0.13887E+06
         0.21008E+06
         0.13380E+06
         0.29803E+06
         0.22052E+06
        -0.13340E+06
         0.21919E+06
         0.26057E+06
        -0.12057E+06
         0.59216E+05
        -0.33870E+05
        -0.14472E+06
        -0.37823E+06
        -0.42246E+06
        -0.15701E+06
         0.32874E+06
         0.30062E+06
         0.70234E+05
        -0.35065E+06
        -0.48940E+06
         0.49777E+06
         0.13209E+06
         0.35040E+06
         0.49230E+06
        -0.13594E+06
        -0.29726E+06
        -0.42803E+06
        -0.51192E+06
        -0.34700E+06
         0.46178E+06
         0.47545E+06
        -0.94187E+05
         0.11403E+06
         0.53242E+06
         0.51275E+05
        -0.25138E+06
         0.35232E+06
        -0.67800E+06
        -0.73101E+06
        -0.62583E+06
        -0.30474E+06
         0.81844E+05
         0.28318E+06
         0.36588E+06
         0.59176E+06
         0.68557E+06
         0.27626E+06
         0.12917E+06
         0.11908E+06
        -0.42525E+05
        -0.38467E+06
        -0.65651E+06
        -0.73498E+06
        -0.52056E+06
         0.14440E+06
         0.33298E+06
         0.35223E+06
         0.55550E+06
         0.70811E+06
         0.44383E+06
         0.42365E+06
        -0.31790E+06
         0.10106E+06
        -0.18246E+06
        -0.23313E+06
         0.51621E+06
         0.37492E+06
         0.28567E+06
        -0.36734E+06
        -0.24988E+06
        -0.36639E+06
         0.79890E+05
        -0.17902E+06
        -0.55154E+06
         0.20841E+06
         0.39779E+06
        -0.39597E+06
         0.20573E+06
         0.13822E+06
         0.20995E+06
         0.13269E+06
         0.29867E+06
         0.22065E+06
        -0.13357E+06
         0.21894E+06
         0.26064E+06
        -0.12035E+06
         0.60119E+05
        -0.33251E+05
        -0.14296E+06
        -0.37831E+06
        -0.42245E+06
        -0.15611E+06
         0.32859E+06
         0.30092E+06
         0.69370E+05
        -0.35090E+06
        -0.48943E+06
         0.49787E+06
         0.13302E+06
         0.35101E+06
         0.49249E+06
        -0.13517E+06
        -0.29737E+06
        -0.42842E+06
        -0.51203E+06
        -0.34685E+06
         0.46167E+06
         0.47544E+06
        -0.93297E+05
         0.11388E+06
         0.53237E+06
         0.50270E+05
        -0.25122E+06
         0.35239E+06
        -0.67806E+06
        -0.73101E+06
        -0.62575E+06
        -0.30473E+06
         0.81955E+05
         0.28339E+06
         0.36567E+06
         0.59169E+06
         0.68556E+06
         0.27644E+06
         0.12916E+06
         0.11931E+06
        -0.42111E+05
        -0.38480E+06
        -0.65667E+06
        -0.73502E+06
        -0.52045E+06
         0.14445E+06
         0.33275E+06
         0.35212E+06
         0.55531E+06
         0.70801E+06
         0.44358E+06
         0.42329E+06
        -0.31821E+06
         0.10153E+06
        -0.18259E+06
        -0.23442E+06
         0.51617E+06
         0.37521E+06
         0.28662E+06
        -0.36635E+06
        -0.24981E+06
        -0.36551E+06
         0.77402E+05
        -0.17943E+06
        -0.55162E+06
         0.20884E+06
         0.39731E+06
        -0.39590E+06
         0.20727E+06
         0.13759E+06
         0.20981E+06
         0.13162E+06
         0.29932E+06
         0.22078E+06
        -0.13374E+06
         0.21871E+06
         0.26070E+06
        -0.12014E+06
         0.60998E+05
        -0.32601E+05
        -0.14121E+06
        -0.37839E+06
        -0.42245E+06
        -0.15522E+06
         0.32844E+06
         0.30122E+06
         0.68516E+05
        -0.35114E+06
        -0.48945E+06
         0.49796E+06
         0.13395E+06
         0.35160E+06
         0.49268E+06
        -0.13441E+06
        -0.29748E+06
        -0.42881E+06
        -0.51213E+06
        -0.34669E+06
         0.46157E+06
         0.47544E+06
        -0.92416E+05
         0.11371E+06
         0.53233E+06
         0.49270E+05
        -0.25105E+06
         0.35247E+06
        -0.67812E+06
        -0.73101E+06
        -0.62567E+06
        -0.30472E+06
         0.82065E+05
         0.28360E+06
         0.36546E+06
         0.59161E+06
         0.68555E+06
         0.27660E+06
         0.12915E+06
         0.11954E+06
        -0.41697E+05
        -0.38493E+06
        -0.65682E+06
        -0.73505E+06
        -0.52035E+06
         0.14450E+06
         0.33253E+06
         0.35200E+06
         0.55512E+06
         0.70790E+06
         0.44334E+06
         0.42294E+06
        -0.29731E+06
         0.85497E+05
        -0.15163E+06
        -0.18144E+06
         0.46960E+06
         0.32147E+06
         0.18732E+06
        -0.33392E+06
        -0.21605E+06
        -0.33185E+06
         0.52697E+05
        -0.17244E+06
        -0.52154E+06
         0.17108E+06
         0.38199E+06
        -0.35523E+06
         0.15256E+06
         0.10147E+06
         0.16400E+06
         0.76950E+05
         0.28677E+06
         0.20971E+06
        -0.12740E+06
         0.15604E+06
         0.21626E+06
        -0.89869E+05
         0.50669E+05
        -0.21619E+05
        -0.77326E+05
        -0.31319E+06
        -0.36650E+06
        -0.10629E+06
         0.24971E+06
         0.21660E+06
         0.63167E+05
        -0.30436E+06
        -0.44609E+06
         0.47364E+06
         0.12508E+06
         0.32326E+06
         0.46966E+06
        -0.12700E+06
        -0.28395E+06
        -0.40329E+06
        -0.47126E+06
        -0.32594E+06
         0.41399E+06
         0.41935E+06
        -0.77279E+05
         0.98537E+05
         0.49577E+06
         0.42818E+05
        -0.24785E+06
         0.34878E+06
        -0.67135E+06
        -0.72404E+06
        -0.62003E+06
        -0.30209E+06
         0.81424E+05
         0.28041E+06
         0.36061E+06
         0.58467E+06
         0.67779E+06
         0.27388E+06
         0.12753E+06
         0.11830E+06
        -0.40890E+05
        -0.38156E+06
        -0.65135E+06
        -0.72892E+06
        -0.51468E+06
         0.14311E+06
         0.32880E+06
         0.34798E+06
         0.54910E+06
         0.70003E+06
         0.43862E+06
         0.41824E+06
        -0.77628E+05
         0.11103E+05
        -0.18777E+05
        -0.17773E+05
         0.97348E+05
         0.45781E+05
         0.12849E+05
        -0.71258E+05
        -0.32508E+05
        -0.68528E+05
         0.39751E+04
        -0.62859E+05
        -0.15653E+06
         0.19773E+05
         0.14612E+06
        -0.66075E+05
         0.13080E+05
         0.69849E+04
         0.16476E+05
         0.44596E+04
         0.99382E+05
         0.66258E+05
        -0.41444E+05
         0.12561E+05
         0.26615E+05
        -0.52659E+04
         0.59632E+04
        -0.91305E+03
        -0.42802E+04
        -0.38235E+05
        -0.55534E+05
        -0.79714E+04
         0.23478E+05
         0.17924E+05
         0.16040E+05
        -0.45871E+05
        -0.93561E+05
         0.15325E+06
         0.31048E+05
         0.72689E+05
         0.15665E+06
        -0.40001E+05
        -0.95810E+05
        -0.11231E+06
        -0.10646E+06
        -0.91682E+05
         0.76994E+05
         0.69889E+05
        -0.10134E+05
         0.15001E+05
         0.12648E+06
         0.73023E+04
        -0.15937E+06
         0.23272E+06
        -0.45717E+06
        -0.50215E+06
        -0.43896E+06
        -0.21699E+06
         0.56974E+05
         0.18248E+06
         0.22845E+06
         0.38120E+06
         0.44603E+06
         0.18642E+06
         0.82198E+05
         0.76804E+05
        -0.27865E+05
        -0.26966E+06
        -0.46741E+06
        -0.52356E+06
        -0.34326E+06
         0.97181E+05
         0.22020E+06
         0.23048E+06
         0.36964E+06
         0.46539E+06
         0.29930E+06
         0.28342E+06
  
SCALARS                      strain_xx  double 1
LOOKUP_TABLE default
         0.20768E-04
         0.99097E-03
         0.11085E-01
         0.54828E-04
        -0.56442E-19
        -0.70959E-20
        -0.79339E-19
        -0.31646E-20
         0.85149E-01
         0.38607E-01
        -0.70981E-18
        -0.57589E-18
         0.14619E-03
         0.24287E-02
        -0.10797E-19
        -0.23694E-18
         0.11641E-03
         0.22437E-02
        -0.12363E-18
        -0.27422E-18
         0.45933E-02
         0.12541E-01
         0.11942E-01
        -0.12227E-18
        -0.26000E-19
        -0.79357E-19
         0.14026E-01
         0.87340E-02
        -0.42843E-18
        -0.26959E-18
         0.63589E-03
         0.29718E-02
         0.30259E-04
        -0.44411E-20
        -0.66321E-19
        -0.25172E-19
         0.54232E-02
         0.11747E-02
        -0.14619E-18
        -0.16573E-18
         0.20950E-01
         0.39807E-01
        -0.74385E-18
        -0.40453E-18
         0.25091E-01
         0.72643E-02
        -0.89707E-18
        -0.20783E-18
         0.17905E-02
        -0.81886E-19
         0.11922E-01
        -0.63450E-20
         0.18228E-02
        -0.31265E-18
         0.99933E-03
        -0.21877E-19
         0.19120E-01
         0.15328E-02
        -0.16054E-19
        -0.93799E-19
         0.72422E-05
         0.53951E-02
        -0.64223E-19
        -0.30201E-19
         0.37660E-03
        -0.64980E-21
         0.41162E-02
        -0.28113E-19
         0.16605E+00
         0.77668E-01
        -0.10983E-17
        -0.57770E-18
         0.31671E-01
        -0.30629E-18
         0.14619E-02
        -0.14656E-18
         0.14166E-01
        -0.56456E-20
         0.63920E-01
        -0.13589E-19
         0.11472E+00
         0.59677E-01
        -0.18251E-18
        -0.23871E-18
         0.49347E-01
        -0.27609E-18
         0.36838E-01
        -0.57232E-18
         0.13916E-01
        -0.23283E-18
         0.33683E-01
         0.18078E-01
        -0.42409E-19
        -0.79757E-19
         0.95941E-03
        -0.10973E-18
         0.73009E-02
        -0.19347E-19
         0.41676E-01
        -0.11798E-18
         0.90535E-01
         0.43117E-01
        -0.62722E-18
        -0.68298E-18
         0.51048E+00
         0.63921E+00
        -0.21415E-17
        -0.20797E-17
         0.49641E+00
        -0.15629E-17
         0.42255E+00
        -0.87285E-18
         0.21182E+00
        -0.26360E-18
         0.10489E+00
        -0.30142E-20
         0.13521E-01
        -0.38237E-19
         0.21600E-01
        -0.24475E-19
         0.12255E+00
        -0.23645E-19
         0.27101E+00
        -0.12024E-18
         0.51162E+00
        -0.43522E-18
         0.81128E+00
        -0.61976E-18
         0.99158E+00
        -0.55173E-18
         0.94455E+00
        -0.65242E-18
         0.83118E+00
        -0.10989E-17
         0.69272E+00
        -0.15281E-17
         0.53733E+00
        -0.13205E-17
         0.31799E+00
        -0.87219E-18
         0.10456E+00
        -0.19438E-18
         0.75051E-03
        -0.70876E-20
         0.32714E-01
        -0.41778E-19
         0.81453E-01
        -0.11171E-18
         0.18083E+00
        -0.42786E-18
         0.31573E+00
        -0.11521E-17
         0.55319E+00
        -0.16630E-17
         0.74423E+00
        -0.17397E-17
        -0.17098E-05
        -0.43840E-06
        -0.60807E-06
        -0.26449E-05
        -0.34602E-04
        -0.22254E-04
        -0.46324E-06
        -0.10496E-05
        -0.30722E-06
        -0.91824E-06
        -0.24005E-06
        -0.44240E-05
        -0.20215E-04
        -0.20742E-05
        -0.29160E-05
        -0.46697E-05
        -0.32470E-05
        -0.72273E-06
        -0.15776E-05
        -0.18626E-05
        -0.54096E-04
        -0.62517E-04
        -0.49198E-04
        -0.47956E-05
        -0.79791E-06
        -0.44200E-06
        -0.42967E-05
        -0.54329E-07
        -0.54257E-05
        -0.27523E-05
        -0.36990E-05
        -0.13289E-06
        -0.82096E-06
        -0.82073E-07
        -0.68225E-04
        -0.29523E-04
        -0.24890E-04
        -0.11790E-04
        -0.38078E-05
        -0.16423E-04
        -0.66464E-04
        -0.64264E-04
        -0.68640E-04
        -0.36649E-04
        -0.18006E-04
        -0.10096E-04
        -0.38390E-06
        -0.72122E-05
        -0.60014E-06
        -0.56967E-05
        -0.38190E-04
        -0.29448E-04
        -0.49274E-03
        -0.59546E-03
        -0.46898E-03
        -0.34662E-03
        -0.19130E-03
        -0.47328E-04
        -0.15809E-06
        -0.22367E-04
        -0.52307E-04
        -0.15340E-03
        -0.39808E-03
        -0.67460E-03
        -0.59223E-03
        -0.55398E-03
        -0.63653E-03
        -0.65019E-03
        -0.53626E-03
        -0.39654E-03
        -0.89055E-04
        -0.23018E-05
        -0.35592E-04
        -0.44188E-04
        -0.12572E-03
        -0.30653E-03
        -0.55073E-03
        -0.62273E-03
        -0.23541E-04
        -0.99199E-06
        -0.35954E-05
        -0.30482E-04
        -0.12825E-03
        -0.93663E-04
        -0.79505E-05
        -0.37888E-04
        -0.79992E-05
        -0.34243E-04
        -0.13975E-05
        -0.18602E-04
        -0.20133E-03
        -0.11840E-03
        -0.12702E-03
        -0.90862E-04
        -0.28160E-04
        -0.10102E-04
        -0.45751E-05
        -0.14110E-04
        -0.49675E-03
        -0.45119E-03
        -0.43935E-03
        -0.25703E-04
        -0.82919E-05
        -0.37593E-05
        -0.11056E-03
        -0.19491E-05
        -0.12383E-04
        -0.23028E-04
        -0.53633E-04
        -0.22457E-04
        -0.22561E-04
        -0.16805E-04
        -0.40791E-03
        -0.12426E-03
        -0.16349E-03
        -0.15621E-03
        -0.43790E-05
        -0.36810E-04
        -0.49681E-03
        -0.52570E-03
        -0.50228E-03
        -0.26260E-03
        -0.15573E-03
        -0.53313E-04
        -0.62273E-04
        -0.86792E-04
        -0.15166E-05
        -0.21986E-05
        -0.23099E-03
        -0.17925E-03
        -0.71255E-02
        -0.72362E-02
        -0.58306E-02
        -0.39666E-02
        -0.22082E-02
        -0.46837E-03
        -0.28874E-04
        -0.30318E-03
        -0.52615E-03
        -0.17678E-02
        -0.55774E-02
        -0.77621E-02
        -0.54595E-02
        -0.49417E-02
        -0.59974E-02
        -0.63605E-02
        -0.52984E-02
        -0.47402E-02
        -0.12306E-02
        -0.83132E-04
        -0.40670E-03
        -0.41747E-03
        -0.13195E-02
        -0.39558E-02
        -0.64808E-02
        -0.64401E-02
        -0.23630E-04
        -0.99937E-06
        -0.36089E-05
        -0.30523E-04
        -0.12801E-03
        -0.93490E-04
        -0.80519E-05
        -0.37696E-04
        -0.80167E-05
        -0.34189E-04
        -0.13415E-05
        -0.18693E-04
        -0.20157E-03
        -0.11781E-03
        -0.12689E-03
        -0.91050E-04
        -0.28284E-04
        -0.10046E-04
        -0.45706E-05
        -0.14061E-04
        -0.49666E-03
        -0.45109E-03
        -0.43929E-03
        -0.25706E-04
        -0.83293E-05
        -0.37719E-05
        -0.11062E-03
        -0.18766E-05
        -0.12558E-04
        -0.23057E-04
        -0.53789E-04
        -0.22451E-04
        -0.22374E-04
        -0.16820E-04
        -0.40832E-03
        -0.12414E-03
        -0.16339E-03
        -0.15672E-03
        -0.44632E-05
        -0.37042E-04
        -0.49744E-03
        -0.52631E-03
        -0.50233E-03
        -0.26252E-03
        -0.15562E-03
        -0.53258E-04
        -0.62249E-04
        -0.86850E-04
        -0.14945E-05
        -0.21836E-05
        -0.23070E-03
        -0.17872E-03
        -0.71206E-02
        -0.72324E-02
        -0.58296E-02
        -0.39666E-02
        -0.22069E-02
        -0.46809E-03
        -0.28939E-04
        -0.30356E-03
        -0.52526E-03
        -0.17664E-02
        -0.55757E-02
        -0.77624E-02
        -0.54584E-02
        -0.49411E-02
        -0.59989E-02
        -0.63632E-02
        -0.53002E-02
        -0.47420E-02
        -0.12299E-02
        -0.83208E-04
        -0.40611E-03
        -0.41714E-03
        -0.13176E-02
        -0.39509E-02
        -0.64743E-02
        -0.64343E-02
        -0.23719E-04
        -0.10067E-05
        -0.36225E-05
        -0.30563E-04
        -0.12775E-03
        -0.93322E-04
        -0.81545E-05
        -0.37505E-04
        -0.80332E-05
        -0.34132E-04
        -0.12868E-05
        -0.18784E-04
        -0.20182E-03
        -0.11723E-03
        -0.12675E-03
        -0.91244E-04
        -0.28410E-04
        -0.99901E-05
        -0.45661E-05
        -0.14013E-04
        -0.49658E-03
        -0.45099E-03
        -0.43924E-03
        -0.25709E-04
        -0.83694E-05
        -0.37855E-05
        -0.11069E-03
        -0.18062E-05
        -0.12735E-04
        -0.23086E-04
        -0.53950E-04
        -0.22447E-04
        -0.22186E-04
        -0.16835E-04
        -0.40873E-03
        -0.12404E-03
        -0.16328E-03
        -0.15722E-03
        -0.45483E-05
        -0.37277E-04
        -0.49807E-03
        -0.52693E-03
        -0.50240E-03
        -0.26246E-03
        -0.15551E-03
        -0.53206E-04
        -0.62226E-04
        -0.86907E-04
        -0.14721E-05
        -0.21682E-05
        -0.23041E-03
        -0.17819E-03
        -0.71157E-02
        -0.72287E-02
        -0.58286E-02
        -0.39667E-02
        -0.22055E-02
        -0.46781E-03
        -0.29006E-04
        -0.30393E-03
        -0.52438E-03
        -0.17650E-02
        -0.55740E-02
        -0.77627E-02
        -0.54574E-02
        -0.49406E-02
        -0.60005E-02
        -0.63661E-02
        -0.53022E-02
        -0.47439E-02
        -0.12292E-02
        -0.83284E-04
        -0.40551E-03
        -0.41681E-03
        -0.13156E-02
        -0.39461E-02
        -0.64679E-02
        -0.64286E-02
        -0.23809E-04
        -0.10142E-05
        -0.36358E-05
        -0.30603E-04
        -0.12750E-03
        -0.93149E-04
        -0.82564E-05
        -0.37313E-04
        -0.80478E-05
        -0.34064E-04
        -0.12333E-05
        -0.18876E-04
        -0.20206E-03
        -0.11665E-03
        -0.12662E-03
        -0.91455E-04
        -0.28542E-04
        -0.99338E-05
        -0.45622E-05
        -0.13963E-04
        -0.49652E-03
        -0.45092E-03
        -0.43924E-03
        -0.25711E-04
        -0.84171E-05
        -0.38023E-05
        -0.11074E-03
        -0.17393E-05
        -0.12912E-04
        -0.23113E-04
        -0.54124E-04
        -0.22452E-04
        -0.21998E-04
        -0.16851E-04
        -0.40913E-03
        -0.12393E-03
        -0.16318E-03
        -0.15772E-03
        -0.46340E-05
        -0.37511E-04
        -0.49872E-03
        -0.52759E-03
        -0.50254E-03
        -0.26240E-03
        -0.15539E-03
        -0.53149E-04
        -0.62208E-04
        -0.86967E-04
        -0.14497E-05
        -0.21528E-05
        -0.23011E-03
        -0.17767E-03
        -0.71108E-02
        -0.72250E-02
        -0.58275E-02
        -0.39667E-02
        -0.22042E-02
        -0.46752E-03
        -0.29072E-04
        -0.30431E-03
        -0.52349E-03
        -0.17636E-02
        -0.55723E-02
        -0.77632E-02
        -0.54567E-02
        -0.49401E-02
        -0.60022E-02
        -0.63694E-02
        -0.53043E-02
        -0.47457E-02
        -0.12286E-02
        -0.83360E-04
        -0.40492E-03
        -0.41649E-03
        -0.13137E-02
        -0.39413E-02
        -0.64615E-02
        -0.64229E-02
        -0.23898E-04
        -0.10218E-05
        -0.36493E-05
        -0.30643E-04
        -0.12726E-03
        -0.92977E-04
        -0.83604E-05
        -0.37121E-04
        -0.80602E-05
        -0.33986E-04
        -0.11809E-05
        -0.18968E-04
        -0.20231E-03
        -0.11608E-03
        -0.12648E-03
        -0.91682E-04
        -0.28681E-04
        -0.98774E-05
        -0.45572E-05
        -0.13913E-04
        -0.49649E-03
        -0.45087E-03
        -0.43928E-03
        -0.25715E-04
        -0.84726E-05
        -0.38215E-05
        -0.11079E-03
        -0.16758E-05
        -0.13091E-04
        -0.23139E-04
        -0.54310E-04
        -0.22463E-04
        -0.21810E-04
        -0.16866E-04
        -0.40955E-03
        -0.12381E-03
        -0.16308E-03
        -0.15822E-03
        -0.47201E-05
        -0.37749E-04
        -0.49940E-03
        -0.52830E-03
        -0.50273E-03
        -0.26237E-03
        -0.15526E-03
        -0.53088E-04
        -0.62194E-04
        -0.87032E-04
        -0.14277E-05
        -0.21377E-05
        -0.22982E-03
        -0.17714E-03
        -0.71059E-02
        -0.72212E-02
        -0.58265E-02
        -0.39667E-02
        -0.22028E-02
        -0.46724E-03
        -0.29138E-04
        -0.30468E-03
        -0.52261E-03
        -0.17622E-02
        -0.55705E-02
        -0.77638E-02
        -0.54562E-02
        -0.49398E-02
        -0.60041E-02
        -0.63731E-02
        -0.53066E-02
        -0.47475E-02
        -0.12279E-02
        -0.83436E-04
        -0.40433E-03
        -0.41616E-03
        -0.13118E-02
        -0.39364E-02
        -0.64551E-02
        -0.64171E-02
        -0.23984E-04
        -0.10301E-05
        -0.36613E-05
        -0.30682E-04
        -0.12701E-03
        -0.92806E-04
        -0.84649E-05
        -0.36925E-04
        -0.80721E-05
        -0.33907E-04
        -0.11295E-05
        -0.19060E-04
        -0.20255E-03
        -0.11550E-03
        -0.12634E-03
        -0.91913E-04
        -0.28819E-04
        -0.98212E-05
        -0.45520E-05
        -0.13865E-04
        -0.49648E-03
        -0.45084E-03
        -0.43935E-03
        -0.25719E-04
        -0.85280E-05
        -0.38414E-05
        -0.11083E-03
        -0.16138E-05
        -0.13271E-04
        -0.23169E-04
        -0.54495E-04
        -0.22473E-04
        -0.21621E-04
        -0.16879E-04
        -0.40997E-03
        -0.12371E-03
        -0.16298E-03
        -0.15872E-03
        -0.48070E-05
        -0.37987E-04
        -0.50008E-03
        -0.52903E-03
        -0.50296E-03
        -0.26235E-03
        -0.15515E-03
        -0.53035E-04
        -0.62176E-04
        -0.87095E-04
        -0.14053E-05
        -0.21238E-05
        -0.22954E-03
        -0.17663E-03
        -0.71011E-02
        -0.72175E-02
        -0.58254E-02
        -0.39668E-02
        -0.22014E-02
        -0.46696E-03
        -0.29202E-04
        -0.30506E-03
        -0.52172E-03
        -0.17608E-02
        -0.55687E-02
        -0.77644E-02
        -0.54558E-02
        -0.49394E-02
        -0.60060E-02
        -0.63770E-02
        -0.53090E-02
        -0.47493E-02
        -0.12272E-02
        -0.83504E-04
        -0.40372E-03
        -0.41583E-03
        -0.13098E-02
        -0.39316E-02
        -0.64487E-02
        -0.64114E-02
        -0.24063E-04
        -0.10400E-05
        -0.36706E-05
        -0.30721E-04
        -0.12676E-03
        -0.92639E-04
        -0.85720E-05
        -0.36726E-04
        -0.80848E-05
        -0.33831E-04
        -0.10791E-05
        -0.19152E-04
        -0.20280E-03
        -0.11492E-03
        -0.12620E-03
        -0.92145E-04
        -0.28953E-04
        -0.97646E-05
        -0.45479E-05
        -0.13818E-04
        -0.49647E-03
        -0.45082E-03
        -0.43943E-03
        -0.25725E-04
        -0.85771E-05
        -0.38590E-05
        -0.11087E-03
        -0.15515E-05
        -0.13455E-04
        -0.23203E-04
        -0.54670E-04
        -0.22474E-04
        -0.21429E-04
        -0.16889E-04
        -0.41040E-03
        -0.12362E-03
        -0.16289E-03
        -0.15921E-03
        -0.48954E-05
        -0.38231E-04
        -0.50077E-03
        -0.52976E-03
        -0.50320E-03
        -0.26233E-03
        -0.15505E-03
        -0.52986E-04
        -0.62148E-04
        -0.87153E-04
        -0.13811E-05
        -0.21132E-05
        -0.22929E-03
        -0.17611E-03
        -0.70962E-02
        -0.72138E-02
        -0.58243E-02
        -0.39668E-02
        -0.22001E-02
        -0.46667E-03
        -0.29267E-04
        -0.30543E-03
        -0.52085E-03
        -0.17594E-02
        -0.55669E-02
        -0.77650E-02
        -0.54554E-02
        -0.49391E-02
        -0.60079E-02
        -0.63809E-02
        -0.53114E-02
        -0.47510E-02
        -0.12265E-02
        -0.83560E-04
        -0.40310E-03
        -0.41551E-03
        -0.13080E-02
        -0.39269E-02
        -0.64423E-02
        -0.64057E-02
        -0.24138E-04
        -0.10506E-05
        -0.36786E-05
        -0.30758E-04
        -0.12653E-03
        -0.92466E-04
        -0.86810E-05
        -0.36526E-04
        -0.80980E-05
        -0.33759E-04
        -0.10297E-05
        -0.19245E-04
        -0.20306E-03
        -0.11435E-03
        -0.12606E-03
        -0.92376E-04
        -0.29084E-04
        -0.97079E-05
        -0.45431E-05
        -0.13774E-04
        -0.49646E-03
        -0.45079E-03
        -0.43950E-03
        -0.25730E-04
        -0.86231E-05
        -0.38755E-05
        -0.11092E-03
        -0.14902E-05
        -0.13642E-04
        -0.23240E-04
        -0.54840E-04
        -0.22472E-04
        -0.21235E-04
        -0.16897E-04
        -0.41085E-03
        -0.12354E-03
        -0.16281E-03
        -0.15971E-03
        -0.49846E-05
        -0.38474E-04
        -0.50146E-03
        -0.53052E-03
        -0.50345E-03
        -0.26233E-03
        -0.15495E-03
        -0.52947E-04
        -0.62116E-04
        -0.87208E-04
        -0.13564E-05
        -0.21039E-05
        -0.22905E-03
        -0.17561E-03
        -0.70913E-02
        -0.72101E-02
        -0.58232E-02
        -0.39668E-02
        -0.21987E-02
        -0.46639E-03
        -0.29332E-04
        -0.30581E-03
        -0.51997E-03
        -0.17580E-02
        -0.55651E-02
        -0.77656E-02
        -0.54550E-02
        -0.49388E-02
        -0.60099E-02
        -0.63848E-02
        -0.53138E-02
        -0.47526E-02
        -0.12258E-02
        -0.83613E-04
        -0.40247E-03
        -0.41519E-03
        -0.13061E-02
        -0.39221E-02
        -0.64359E-02
        -0.64000E-02
        -0.24214E-04
        -0.10613E-05
        -0.36864E-05
        -0.30795E-04
        -0.12629E-03
        -0.92294E-04
        -0.87901E-05
        -0.36326E-04
        -0.81114E-05
        -0.33688E-04
        -0.98160E-06
        -0.19337E-04
        -0.20331E-03
        -0.11377E-03
        -0.12592E-03
        -0.92606E-04
        -0.29216E-04
        -0.96517E-05
        -0.45382E-05
        -0.13728E-04
        -0.49644E-03
        -0.45076E-03
        -0.43958E-03
        -0.25737E-04
        -0.86691E-05
        -0.38919E-05
        -0.11097E-03
        -0.14302E-05
        -0.13831E-04
        -0.23277E-04
        -0.55011E-04
        -0.22469E-04
        -0.21043E-04
        -0.16905E-04
        -0.41130E-03
        -0.12345E-03
        -0.16274E-03
        -0.16021E-03
        -0.50750E-05
        -0.38717E-04
        -0.50215E-03
        -0.53126E-03
        -0.50369E-03
        -0.26234E-03
        -0.15487E-03
        -0.52908E-04
        -0.62084E-04
        -0.87262E-04
        -0.13318E-05
        -0.20951E-05
        -0.22882E-03
        -0.17511E-03
        -0.70864E-02
        -0.72065E-02
        -0.58221E-02
        -0.39669E-02
        -0.21974E-02
        -0.46610E-03
        -0.29396E-04
        -0.30618E-03
        -0.51909E-03
        -0.17566E-02
        -0.55633E-02
        -0.77663E-02
        -0.54545E-02
        -0.49385E-02
        -0.60118E-02
        -0.63887E-02
        -0.53162E-02
        -0.47542E-02
        -0.12250E-02
        -0.83667E-04
        -0.40184E-03
        -0.41487E-03
        -0.13042E-02
        -0.39174E-02
        -0.64295E-02
        -0.63943E-02
        -0.24290E-04
        -0.10722E-05
        -0.36942E-05
        -0.30832E-04
        -0.12605E-03
        -0.92123E-04
        -0.89005E-05
        -0.36127E-04
        -0.81248E-05
        -0.33616E-04
        -0.93465E-06
        -0.19430E-04
        -0.20357E-03
        -0.11320E-03
        -0.12578E-03
        -0.92836E-04
        -0.29347E-04
        -0.95962E-05
        -0.45332E-05
        -0.13684E-04
        -0.49643E-03
        -0.45073E-03
        -0.43965E-03
        -0.25744E-04
        -0.87153E-05
        -0.39083E-05
        -0.11103E-03
        -0.13717E-05
        -0.14020E-04
        -0.23313E-04
        -0.55181E-04
        -0.22465E-04
        -0.20852E-04
        -0.16913E-04
        -0.41174E-03
        -0.12338E-03
        -0.16266E-03
        -0.16071E-03
        -0.51663E-05
        -0.38965E-04
        -0.50285E-03
        -0.53201E-03
        -0.50393E-03
        -0.26234E-03
        -0.15478E-03
        -0.52865E-04
        -0.62052E-04
        -0.87319E-04
        -0.13077E-05
        -0.20856E-05
        -0.22857E-03
        -0.17460E-03
        -0.70815E-02
        -0.72028E-02
        -0.58210E-02
        -0.39669E-02
        -0.21960E-02
        -0.46581E-03
        -0.29460E-04
        -0.30654E-03
        -0.51821E-03
        -0.17552E-02
        -0.55615E-02
        -0.77669E-02
        -0.54541E-02
        -0.49381E-02
        -0.60137E-02
        -0.63926E-02
        -0.53187E-02
        -0.47559E-02
        -0.12243E-02
        -0.83719E-04
        -0.40120E-03
        -0.41454E-03
        -0.13024E-02
        -0.39126E-02
        -0.64232E-02
        -0.63886E-02
        -0.24365E-04
        -0.10830E-05
        -0.37024E-05
        -0.30869E-04
        -0.12582E-03
        -0.91957E-04
        -0.90105E-05
        -0.35928E-04
        -0.81381E-05
        -0.33546E-04
        -0.88878E-06
        -0.19524E-04
        -0.20382E-03
        -0.11264E-03
        -0.12564E-03
        -0.93066E-04
        -0.29479E-04
        -0.95409E-05
        -0.45293E-05
        -0.13638E-04
        -0.49641E-03
        -0.45071E-03
        -0.43973E-03
        -0.25751E-04
        -0.87610E-05
        -0.39246E-05
        -0.11108E-03
        -0.13144E-05
        -0.14210E-04
        -0.23349E-04
        -0.55352E-04
        -0.22462E-04
        -0.20662E-04
        -0.16921E-04
        -0.41219E-03
        -0.12329E-03
        -0.16258E-03
        -0.16121E-03
        -0.52585E-05
        -0.39209E-04
        -0.50354E-03
        -0.53275E-03
        -0.50417E-03
        -0.26233E-03
        -0.15468E-03
        -0.52826E-04
        -0.62019E-04
        -0.87374E-04
        -0.12836E-05
        -0.20764E-05
        -0.22834E-03
        -0.17410E-03
        -0.70766E-02
        -0.71991E-02
        -0.58198E-02
        -0.39668E-02
        -0.21946E-02
        -0.46553E-03
        -0.29523E-04
        -0.30691E-03
        -0.51734E-03
        -0.17538E-02
        -0.55597E-02
        -0.77675E-02
        -0.54536E-02
        -0.49378E-02
        -0.60157E-02
        -0.63965E-02
        -0.53211E-02
        -0.47575E-02
        -0.12236E-02
        -0.83769E-04
        -0.40057E-03
        -0.41422E-03
        -0.13005E-02
        -0.39079E-02
        -0.64169E-02
        -0.63829E-02
        -0.24441E-04
        -0.10939E-05
        -0.37100E-05
        -0.30906E-04
        -0.12558E-03
        -0.91786E-04
        -0.91220E-05
        -0.35730E-04
        -0.81513E-05
        -0.33475E-04
        -0.84419E-06
        -0.19618E-04
        -0.20408E-03
        -0.11207E-03
        -0.12550E-03
        -0.93296E-04
        -0.29611E-04
        -0.94852E-05
        -0.45247E-05
        -0.13594E-04
        -0.49639E-03
        -0.45067E-03
        -0.43981E-03
        -0.25759E-04
        -0.88067E-05
        -0.39415E-05
        -0.11113E-03
        -0.12586E-05
        -0.14399E-04
        -0.23387E-04
        -0.55524E-04
        -0.22459E-04
        -0.20471E-04
        -0.16930E-04
        -0.41265E-03
        -0.12321E-03
        -0.16250E-03
        -0.16170E-03
        -0.53518E-05
        -0.39459E-04
        -0.50424E-03
        -0.53349E-03
        -0.50442E-03
        -0.26233E-03
        -0.15459E-03
        -0.52788E-04
        -0.61987E-04
        -0.87431E-04
        -0.12596E-05
        -0.20677E-05
        -0.22810E-03
        -0.17360E-03
        -0.70717E-02
        -0.71955E-02
        -0.58187E-02
        -0.39668E-02
        -0.21933E-02
        -0.46525E-03
        -0.29586E-04
        -0.30728E-03
        -0.51647E-03
        -0.17524E-02
        -0.55578E-02
        -0.77681E-02
        -0.54532E-02
        -0.49375E-02
        -0.60176E-02
        -0.64004E-02
        -0.53235E-02
        -0.47592E-02
        -0.12229E-02
        -0.83821E-04
        -0.39994E-03
        -0.41390E-03
        -0.12987E-02
        -0.39032E-02
        -0.64105E-02
        -0.63772E-02
        -0.24517E-04
        -0.11049E-05
        -0.37177E-05
        -0.30942E-04
        -0.12535E-03
        -0.91615E-04
        -0.92338E-05
        -0.35532E-04
        -0.81642E-05
        -0.33402E-04
        -0.80087E-06
        -0.19712E-04
        -0.20433E-03
        -0.11151E-03
        -0.12535E-03
        -0.93526E-04
        -0.29743E-04
        -0.94296E-05
        -0.45202E-05
        -0.13549E-04
        -0.49638E-03
        -0.45065E-03
        -0.43988E-03
        -0.25767E-04
        -0.88519E-05
        -0.39579E-05
        -0.11118E-03
        -0.12039E-05
        -0.14592E-04
        -0.23423E-04
        -0.55695E-04
        -0.22456E-04
        -0.20282E-04
        -0.16938E-04
        -0.41309E-03
        -0.12313E-03
        -0.16243E-03
        -0.16220E-03
        -0.54462E-05
        -0.39707E-04
        -0.50495E-03
        -0.53423E-03
        -0.50466E-03
        -0.26233E-03
        -0.15451E-03
        -0.52743E-04
        -0.61954E-04
        -0.87486E-04
        -0.12358E-05
        -0.20584E-05
        -0.22786E-03
        -0.17309E-03
        -0.70668E-02
        -0.71918E-02
        -0.58176E-02
        -0.39669E-02
        -0.21919E-02
        -0.46496E-03
        -0.29651E-04
        -0.30765E-03
        -0.51559E-03
        -0.17510E-02
        -0.55560E-02
        -0.77688E-02
        -0.54528E-02
        -0.49372E-02
        -0.60196E-02
        -0.64043E-02
        -0.53259E-02
        -0.47608E-02
        -0.12222E-02
        -0.83872E-04
        -0.39931E-03
        -0.41359E-03
        -0.12968E-02
        -0.38984E-02
        -0.64042E-02
        -0.63715E-02
        -0.24594E-04
        -0.11158E-05
        -0.37253E-05
        -0.30978E-04
        -0.12512E-03
        -0.91444E-04
        -0.93450E-05
        -0.35335E-04
        -0.81772E-05
        -0.33330E-04
        -0.75876E-06
        -0.19806E-04
        -0.20459E-03
        -0.11095E-03
        -0.12521E-03
        -0.93756E-04
        -0.29875E-04
        -0.93746E-05
        -0.45165E-05
        -0.13506E-04
        -0.49636E-03
        -0.45062E-03
        -0.43997E-03
        -0.25774E-04
        -0.88972E-05
        -0.39744E-05
        -0.11123E-03
        -0.11508E-05
        -0.14785E-04
        -0.23459E-04
        -0.55866E-04
        -0.22452E-04
        -0.20093E-04
        -0.16946E-04
        -0.41354E-03
        -0.12305E-03
        -0.16235E-03
        -0.16269E-03
        -0.55414E-05
        -0.39959E-04
        -0.50564E-03
        -0.53497E-03
        -0.50490E-03
        -0.26233E-03
        -0.15441E-03
        -0.52704E-04
        -0.61921E-04
        -0.87541E-04
        -0.12123E-05
        -0.20493E-05
        -0.22763E-03
        -0.17260E-03
        -0.70619E-02
        -0.71882E-02
        -0.58165E-02
        -0.39669E-02
        -0.21906E-02
        -0.46467E-03
        -0.29715E-04
        -0.30800E-03
        -0.51471E-03
        -0.17496E-02
        -0.55542E-02
        -0.77694E-02
        -0.54523E-02
        -0.49368E-02
        -0.60215E-02
        -0.64083E-02
        -0.53283E-02
        -0.47625E-02
        -0.12215E-02
        -0.83920E-04
        -0.39868E-03
        -0.41327E-03
        -0.12950E-02
        -0.38937E-02
        -0.63979E-02
        -0.63659E-02
        -0.24671E-04
        -0.11267E-05
        -0.37330E-05
        -0.31015E-04
        -0.12488E-03
        -0.91274E-04
        -0.94580E-05
        -0.35138E-04
        -0.81903E-05
        -0.33259E-04
        -0.71780E-06
        -0.19902E-04
        -0.20484E-03
        -0.11039E-03
        -0.12507E-03
        -0.93987E-04
        -0.30008E-04
        -0.93198E-05
        -0.45120E-05
        -0.13460E-04
        -0.49635E-03
        -0.45059E-03
        -0.44003E-03
        -0.25782E-04
        -0.89423E-05
        -0.39908E-05
        -0.11128E-03
        -0.10988E-05
        -0.14980E-04
        -0.23495E-04
        -0.56037E-04
        -0.22448E-04
        -0.19905E-04
        -0.16954E-04
        -0.41399E-03
        -0.12297E-03
        -0.16227E-03
        -0.16318E-03
        -0.56374E-05
        -0.40209E-04
        -0.50633E-03
        -0.53571E-03
        -0.50514E-03
        -0.26233E-03
        -0.15432E-03
        -0.52666E-04
        -0.61888E-04
        -0.87598E-04
        -0.11887E-05
        -0.20404E-05
        -0.22739E-03
        -0.17209E-03
        -0.70570E-02
        -0.71846E-02
        -0.58154E-02
        -0.39669E-02
        -0.21892E-02
        -0.46439E-03
        -0.29777E-04
        -0.30836E-03
        -0.51384E-03
        -0.17482E-02
        -0.55524E-02
        -0.77701E-02
        -0.54519E-02
        -0.49365E-02
        -0.60235E-02
        -0.64122E-02
        -0.53308E-02
        -0.47641E-02
        -0.12208E-02
        -0.83969E-04
        -0.39805E-03
        -0.41296E-03
        -0.12931E-02
        -0.38890E-02
        -0.63916E-02
        -0.63602E-02
        -0.24747E-04
        -0.11379E-05
        -0.37407E-05
        -0.31051E-04
        -0.12465E-03
        -0.91109E-04
        -0.95708E-05
        -0.34941E-04
        -0.82033E-05
        -0.33188E-04
        -0.67796E-06
        -0.19996E-04
        -0.20510E-03
        -0.10983E-03
        -0.12492E-03
        -0.94218E-04
        -0.30140E-04
        -0.92656E-05
        -0.45075E-05
        -0.13417E-04
        -0.49633E-03
        -0.45056E-03
        -0.44012E-03
        -0.25789E-04
        -0.89868E-05
        -0.40074E-05
        -0.11133E-03
        -0.10481E-05
        -0.15175E-04
        -0.23530E-04
        -0.56208E-04
        -0.22445E-04
        -0.19718E-04
        -0.16962E-04
        -0.41445E-03
        -0.12289E-03
        -0.16220E-03
        -0.16368E-03
        -0.57349E-05
        -0.40459E-04
        -0.50702E-03
        -0.53645E-03
        -0.50538E-03
        -0.26232E-03
        -0.15424E-03
        -0.52623E-04
        -0.61856E-04
        -0.87652E-04
        -0.11655E-05
        -0.20312E-05
        -0.22715E-03
        -0.17159E-03
        -0.70521E-02
        -0.71809E-02
        -0.58143E-02
        -0.39669E-02
        -0.21878E-02
        -0.46410E-03
        -0.29838E-04
        -0.30871E-03
        -0.51297E-03
        -0.17468E-02
        -0.55506E-02
        -0.77707E-02
        -0.54514E-02
        -0.49362E-02
        -0.60254E-02
        -0.64161E-02
        -0.53332E-02
        -0.47657E-02
        -0.12200E-02
        -0.84018E-04
        -0.39742E-03
        -0.41264E-03
        -0.12913E-02
        -0.38842E-02
        -0.63853E-02
        -0.63545E-02
        -0.24824E-04
        -0.11491E-05
        -0.37486E-05
        -0.31087E-04
        -0.12442E-03
        -0.90939E-04
        -0.96847E-05
        -0.34746E-04
        -0.82158E-05
        -0.33113E-04
        -0.63929E-06
        -0.20092E-04
        -0.20536E-03
        -0.10928E-03
        -0.12477E-03
        -0.94450E-04
        -0.30273E-04
        -0.92116E-05
        -0.45033E-05
        -0.13372E-04
        -0.49632E-03
        -0.45053E-03
        -0.44019E-03
        -0.25798E-04
        -0.90304E-05
        -0.40239E-05
        -0.11137E-03
        -0.99814E-06
        -0.15370E-04
        -0.23566E-04
        -0.56381E-04
        -0.22442E-04
        -0.19532E-04
        -0.16971E-04
        -0.41491E-03
        -0.12280E-03
        -0.16212E-03
        -0.16416E-03
        -0.58341E-05
        -0.40714E-04
        -0.50770E-03
        -0.53718E-03
        -0.50561E-03
        -0.26232E-03
        -0.15414E-03
        -0.52584E-04
        -0.61824E-04
        -0.87710E-04
        -0.11426E-05
        -0.20220E-05
        -0.22691E-03
        -0.17110E-03
        -0.70472E-02
        -0.71773E-02
        -0.58131E-02
        -0.39669E-02
        -0.21865E-02
        -0.46381E-03
        -0.29899E-04
        -0.30907E-03
        -0.51211E-03
        -0.17454E-02
        -0.55488E-02
        -0.77715E-02
        -0.54511E-02
        -0.49358E-02
        -0.60273E-02
        -0.64200E-02
        -0.53356E-02
        -0.47673E-02
        -0.12193E-02
        -0.84067E-04
        -0.39679E-03
        -0.41232E-03
        -0.12894E-02
        -0.38795E-02
        -0.63790E-02
        -0.63488E-02
        -0.24901E-04
        -0.11602E-05
        -0.37560E-05
        -0.31123E-04
        -0.12419E-03
        -0.90770E-04
        -0.97986E-05
        -0.34550E-04
        -0.82271E-05
        -0.33031E-04
        -0.60180E-06
        -0.20188E-04
        -0.20561E-03
        -0.10872E-03
        -0.12462E-03
        -0.94681E-04
        -0.30406E-04
        -0.91573E-05
        -0.45003E-05
        -0.13329E-04
        -0.49630E-03
        -0.45050E-03
        -0.44027E-03
        -0.25805E-04
        -0.90714E-05
        -0.40411E-05
        -0.11140E-03
        -0.94819E-06
        -0.15568E-04
        -0.23604E-04
        -0.56554E-04
        -0.22438E-04
        -0.19346E-04
        -0.16979E-04
        -0.41535E-03
        -0.12273E-03
        -0.16205E-03
        -0.16464E-03
        -0.59371E-05
        -0.40964E-04
        -0.50833E-03
        -0.53785E-03
        -0.50582E-03
        -0.26232E-03
        -0.15405E-03
        -0.52542E-04
        -0.61792E-04
        -0.87767E-04
        -0.11200E-05
        -0.20129E-05
        -0.22668E-03
        -0.17059E-03
        -0.70424E-02
        -0.71737E-02
        -0.58120E-02
        -0.39669E-02
        -0.21851E-02
        -0.46354E-03
        -0.29960E-04
        -0.30943E-03
        -0.51125E-03
        -0.17440E-02
        -0.55470E-02
        -0.77727E-02
        -0.54509E-02
        -0.49356E-02
        -0.60292E-02
        -0.64239E-02
        -0.53380E-02
        -0.47689E-02
        -0.12186E-02
        -0.84116E-04
        -0.39617E-03
        -0.41200E-03
        -0.12876E-02
        -0.38748E-02
        -0.63727E-02
        -0.63432E-02
        -0.24978E-04
        -0.11713E-05
        -0.37635E-05
        -0.31158E-04
        -0.12395E-03
        -0.90600E-04
        -0.99136E-05
        -0.34355E-04
        -0.82372E-05
        -0.32940E-04
        -0.56554E-06
        -0.20283E-04
        -0.20587E-03
        -0.10816E-03
        -0.12447E-03
        -0.94911E-04
        -0.30537E-04
        -0.91033E-05
        -0.44961E-05
        -0.13285E-04
        -0.49629E-03
        -0.45045E-03
        -0.44035E-03
        -0.25813E-04
        -0.91092E-05
        -0.40575E-05
        -0.11141E-03
        -0.89807E-06
        -0.15766E-04
        -0.23640E-04
        -0.56727E-04
        -0.22435E-04
        -0.19161E-04
        -0.16988E-04
        -0.41581E-03
        -0.12265E-03
        -0.16197E-03
        -0.16511E-03
        -0.60437E-05
        -0.41217E-04
        -0.50890E-03
        -0.53846E-03
        -0.50600E-03
        -0.26232E-03
        -0.15397E-03
        -0.52504E-04
        -0.61760E-04
        -0.87823E-04
        -0.10974E-05
        -0.20040E-05
        -0.22644E-03
        -0.17009E-03
        -0.70374E-02
        -0.71701E-02
        -0.58108E-02
        -0.39669E-02
        -0.21838E-02
        -0.46325E-03
        -0.30021E-04
        -0.30978E-03
        -0.51040E-03
        -0.17425E-02
        -0.55450E-02
        -0.77742E-02
        -0.54510E-02
        -0.49353E-02
        -0.60311E-02
        -0.64278E-02
        -0.53404E-02
        -0.47705E-02
        -0.12179E-02
        -0.84164E-04
        -0.39554E-03
        -0.41168E-03
        -0.12857E-02
        -0.38701E-02
        -0.63663E-02
        -0.63375E-02
        -0.25056E-04
        -0.11826E-05
        -0.37713E-05
        -0.31195E-04
        -0.12372E-03
        -0.90436E-04
        -0.10028E-04
        -0.34162E-04
        -0.82468E-05
        -0.32849E-04
        -0.53066E-06
        -0.20377E-04
        -0.20612E-03
        -0.10760E-03
        -0.12431E-03
        -0.95142E-04
        -0.30669E-04
        -0.90500E-05
        -0.44918E-05
        -0.13242E-04
        -0.49627E-03
        -0.45041E-03
        -0.44042E-03
        -0.25821E-04
        -0.91459E-05
        -0.40740E-05
        -0.11141E-03
        -0.84914E-06
        -0.15965E-04
        -0.23676E-04
        -0.56900E-04
        -0.22431E-04
        -0.18979E-04
        -0.16996E-04
        -0.41628E-03
        -0.12257E-03
        -0.16189E-03
        -0.16557E-03
        -0.61524E-05
        -0.41463E-04
        -0.50945E-03
        -0.53905E-03
        -0.50616E-03
        -0.26232E-03
        -0.15387E-03
        -0.52465E-04
        -0.61730E-04
        -0.87884E-04
        -0.10753E-05
        -0.19947E-05
        -0.22621E-03
        -0.16960E-03
        -0.70326E-02
        -0.71665E-02
        -0.58098E-02
        -0.39669E-02
        -0.21824E-02
        -0.46295E-03
        -0.30080E-04
        -0.31012E-03
        -0.50956E-03
        -0.17410E-02
        -0.55431E-02
        -0.77759E-02
        -0.54511E-02
        -0.49350E-02
        -0.60330E-02
        -0.64317E-02
        -0.53428E-02
        -0.47721E-02
        -0.12172E-02
        -0.84217E-04
        -0.39493E-03
        -0.41137E-03
        -0.12839E-02
        -0.38654E-02
        -0.63601E-02
        -0.63319E-02
        -0.25389E-04
        -0.12040E-05
        -0.38191E-05
        -0.31543E-04
        -0.12478E-03
        -0.91211E-04
        -0.10237E-04
        -0.34355E-04
        -0.83390E-05
        -0.33124E-04
        -0.50671E-06
        -0.20677E-04
        -0.20855E-03
        -0.10828E-03
        -0.12561E-03
        -0.96318E-04
        -0.31112E-04
        -0.90907E-05
        -0.45320E-05
        -0.13332E-04
        -0.50132E-03
        -0.45506E-03
        -0.44491E-03
        -0.26090E-04
        -0.92768E-05
        -0.41301E-05
        -0.11267E-03
        -0.81349E-06
        -0.16324E-04
        -0.23962E-04
        -0.57642E-04
        -0.22654E-04
        -0.19003E-04
        -0.17181E-04
        -0.42119E-03
        -0.12379E-03
        -0.16351E-03
        -0.16791E-03
        -0.63222E-05
        -0.42152E-04
        -0.51568E-03
        -0.54554E-03
        -0.51173E-03
        -0.26493E-03
        -0.15536E-03
        -0.52973E-04
        -0.62354E-04
        -0.88870E-04
        -0.10668E-05
        -0.20061E-05
        -0.22840E-03
        -0.17090E-03
        -0.71207E-02
        -0.72555E-02
        -0.58851E-02
        -0.40179E-02
        -0.22098E-02
        -0.46882E-03
        -0.30571E-04
        -0.31463E-03
        -0.51577E-03
        -0.17639E-02
        -0.56177E-02
        -0.78798E-02
        -0.55177E-02
        -0.49927E-02
        -0.61053E-02
        -0.65105E-02
        -0.54079E-02
        -0.48332E-02
        -0.12326E-02
        -0.85423E-04
        -0.39940E-03
        -0.41610E-03
        -0.12983E-02
        -0.39094E-02
        -0.64328E-02
        -0.64045E-02
        -0.57758E-04
        -0.27789E-05
        -0.86603E-05
        -0.71894E-04
        -0.26370E-03
        -0.19614E-03
        -0.23543E-04
        -0.77360E-04
        -0.18841E-04
        -0.74336E-04
        -0.10907E-05
        -0.42435E-04
        -0.43960E-03
        -0.23740E-03
        -0.26048E-03
        -0.21926E-03
        -0.70570E-04
        -0.20618E-04
        -0.10054E-04
        -0.29746E-04
        -0.10526E-02
        -0.98077E-03
        -0.93842E-03
        -0.58753E-04
        -0.21249E-04
        -0.94609E-05
        -0.25143E-03
        -0.18015E-05
        -0.37922E-04
        -0.54787E-04
        -0.13137E-03
        -0.51367E-04
        -0.43115E-04
        -0.39211E-04
        -0.86017E-03
        -0.26638E-03
        -0.35221E-03
        -0.36445E-03
        -0.14197E-04
        -0.94777E-04
        -0.11260E-02
        -0.12070E-02
        -0.11287E-02
        -0.56656E-03
        -0.33032E-03
        -0.10661E-03
        -0.13181E-03
        -0.19266E-03
        -0.23029E-05
        -0.43404E-05
        -0.47218E-03
        -0.36554E-03
        -0.11613E-01
        -0.11780E-01
        -0.95725E-02
        -0.65648E-02
        -0.36086E-02
        -0.77067E-03
        -0.51606E-04
        -0.53878E-03
        -0.87897E-03
        -0.29753E-02
        -0.94901E-02
        -0.13230E-01
        -0.94279E-02
        -0.85662E-02
        -0.10210E-01
        -0.10647E-01
        -0.87925E-02
        -0.77962E-02
        -0.19904E-02
        -0.13854E-03
        -0.65806E-03
        -0.69082E-03
        -0.21425E-02
        -0.64951E-02
        -0.10617E-01
        -0.10493E-01
  
SCALARS                      strain_yy  double 1
LOOKUP_TABLE default
         0.76266E-03
         0.80956E-04
         0.56092E-03
         0.15551E-03
        -0.52684E-19
        -0.40023E-20
        -0.80916E-19
        -0.47075E-19
         0.76458E-02
         0.33595E-02
        -0.17921E-18
        -0.13890E-18
         0.55565E-02
         0.14335E-04
        -0.91784E-19
        -0.37729E-21
         0.74616E-03
         0.91323E-02
        -0.19867E-22
        -0.20800E-20
         0.23440E-02
         0.31939E-01
         0.36649E-01
        -0.48230E-18
        -0.14385E-17
        -0.10050E-17
         0.31104E-03
         0.31078E-01
        -0.24956E-18
        -0.93922E-18
         0.97236E-03
         0.69975E-03
         0.56120E-03
        -0.67070E-19
        -0.69894E-19
        -0.30126E-22
         0.83208E-02
         0.72042E-02
        -0.22712E-18
        -0.13748E-18
         0.78186E-02
         0.29984E-02
        -0.12972E-18
        -0.10833E-18
         0.67282E-02
         0.81634E-03
        -0.14274E-21
        -0.34151E-19
         0.50238E-02
        -0.75705E-20
         0.57284E-04
        -0.49661E-22
         0.16314E-04
        -0.11327E-18
         0.70399E-03
        -0.38332E-19
         0.74845E-02
         0.25137E-03
        -0.28211E-22
        -0.11622E-21
         0.14284E-02
         0.18615E-01
        -0.52371E-20
        -0.73274E-19
         0.52761E-03
        -0.21338E-19
         0.94853E-02
        -0.31668E-19
         0.58311E-02
         0.16296E-02
        -0.48364E-21
        -0.84315E-19
         0.19640E-01
        -0.40655E-18
         0.49051E-01
        -0.38114E-18
         0.49435E-01
        -0.21963E-18
         0.33678E-01
        -0.15430E-18
         0.74268E-01
         0.45131E-01
        -0.63497E-19
        -0.31214E-20
         0.93556E-03
        -0.39081E-22
         0.16404E-01
        -0.15336E-18
         0.89258E-01
        -0.47001E-18
         0.17024E+00
         0.64908E-01
        -0.10339E-17
        -0.67738E-18
         0.32606E-01
        -0.40818E-18
         0.26511E-01
        -0.42722E-18
         0.24858E-01
        -0.49390E-18
         0.68427E-01
         0.47784E-01
        -0.42713E-18
        -0.98063E-19
         0.28947E-01
         0.42358E-02
        -0.52809E-19
        -0.81550E-19
         0.17344E+00
        -0.58445E-18
         0.36423E+00
        -0.12505E-17
         0.53175E+00
        -0.19073E-17
         0.68606E+00
        -0.18767E-17
         0.89031E+00
        -0.11753E-17
         0.89527E+00
        -0.70386E-18
         0.79077E+00
        -0.60888E-18
         0.62721E+00
        -0.55117E-18
         0.34805E+00
        -0.22511E-18
         0.17047E+00
        -0.24537E-19
         0.46402E-01
        -0.10245E-19
         0.25211E-03
        -0.23146E-19
         0.46473E-01
        -0.61744E-20
         0.15411E+00
        -0.56469E-19
         0.36804E+00
        -0.44990E-18
         0.43606E+00
        -0.10970E-17
         0.49833E+00
        -0.18855E-17
         0.79436E+00
        -0.18822E-17
         0.87292E+00
        -0.14343E-17
         0.75769E+00
        -0.13624E-17
         0.49192E+00
        -0.13794E-17
         0.22837E+00
        -0.86256E-18
         0.11620E+00
        -0.30162E-18
         0.61247E-01
        -0.18033E-18
        -0.17829E-04
        -0.45116E-05
        -0.34649E-05
        -0.35854E-06
        -0.34040E-05
        -0.41401E-05
        -0.41981E-07
        -0.10419E-04
        -0.84449E-05
        -0.17148E-04
        -0.40512E-05
        -0.72465E-04
        -0.35449E-04
        -0.47819E-06
        -0.75459E-04
        -0.12755E-05
        -0.98850E-06
        -0.42435E-06
        -0.65136E-06
        -0.37982E-06
        -0.31112E-06
        -0.21569E-06
        -0.23480E-05
        -0.16836E-07
        -0.80118E-05
        -0.17467E-06
        -0.44070E-09
        -0.13549E-06
        -0.19016E-06
        -0.47587E-05
        -0.12076E-05
        -0.13243E-05
        -0.63835E-06
        -0.36185E-07
        -0.81666E-07
        -0.25609E-05
        -0.13264E-04
        -0.59875E-04
        -0.49753E-04
        -0.33442E-04
        -0.28315E-04
        -0.19487E-05
        -0.14319E-05
        -0.10642E-04
        -0.27710E-04
        -0.67587E-04
        -0.31428E-04
        -0.17438E-04
        -0.19749E-04
        -0.21024E-04
        -0.27135E-04
        -0.61720E-05
        -0.16508E-04
        -0.26192E-04
        -0.18935E-03
        -0.36921E-03
        -0.59715E-03
        -0.80232E-03
        -0.76911E-03
        -0.61866E-03
        -0.56431E-03
        -0.50151E-03
        -0.20438E-03
        -0.45161E-04
        -0.91540E-05
        -0.18099E-05
        -0.43729E-05
        -0.69863E-04
        -0.23583E-03
        -0.38712E-03
        -0.49535E-03
        -0.67390E-03
        -0.62633E-03
        -0.55921E-03
        -0.48019E-03
        -0.22193E-03
        -0.80914E-04
        -0.63869E-04
        -0.20417E-03
        -0.81219E-04
        -0.69549E-04
        -0.39129E-05
        -0.11732E-03
        -0.23732E-04
        -0.14923E-04
        -0.18238E-03
        -0.78432E-04
        -0.16133E-03
        -0.45095E-04
        -0.84462E-03
        -0.29645E-03
        -0.61220E-05
        -0.81985E-03
        -0.29364E-04
        -0.26967E-05
        -0.24580E-05
        -0.49935E-04
        -0.18665E-05
        -0.37096E-04
        -0.18700E-04
        -0.62850E-05
        -0.44777E-05
        -0.73157E-04
        -0.44758E-05
        -0.28182E-06
        -0.97394E-06
        -0.24850E-05
        -0.72797E-04
        -0.34105E-04
        -0.23665E-05
        -0.14248E-04
        -0.10742E-04
        -0.24421E-05
        -0.22693E-04
        -0.82725E-04
        -0.47356E-03
        -0.36827E-03
        -0.28602E-03
        -0.15436E-03
        -0.94250E-05
        -0.39987E-04
        -0.62392E-04
        -0.10345E-03
        -0.43169E-03
        -0.14617E-03
        -0.63920E-04
        -0.10097E-03
        -0.14072E-03
        -0.15107E-03
        -0.85051E-06
        -0.23466E-03
        -0.48013E-03
        -0.26000E-02
        -0.43423E-02
        -0.72327E-02
        -0.10414E-01
        -0.99922E-02
        -0.76217E-02
        -0.70000E-02
        -0.68517E-02
        -0.27020E-02
        -0.29351E-03
        -0.46612E-04
        -0.34225E-04
        -0.73408E-05
        -0.52822E-03
        -0.21199E-02
        -0.41057E-02
        -0.69546E-02
        -0.85510E-02
        -0.65947E-02
        -0.58948E-02
        -0.58591E-02
        -0.29048E-02
        -0.78387E-03
        -0.70280E-03
        -0.20442E-03
        -0.81248E-04
        -0.69618E-04
        -0.39705E-05
        -0.11735E-03
        -0.23769E-04
        -0.14960E-04
        -0.18299E-03
        -0.78714E-04
        -0.16254E-03
        -0.45149E-04
        -0.84447E-03
        -0.29660E-03
        -0.61223E-05
        -0.82195E-03
        -0.29367E-04
        -0.27460E-05
        -0.24506E-05
        -0.50003E-04
        -0.18457E-05
        -0.37280E-04
        -0.18736E-04
        -0.62880E-05
        -0.44734E-05
        -0.73822E-04
        -0.44596E-05
        -0.28850E-06
        -0.98486E-06
        -0.24524E-05
        -0.73105E-04
        -0.34117E-04
        -0.23562E-05
        -0.14311E-04
        -0.10777E-04
        -0.23965E-05
        -0.22723E-04
        -0.82718E-04
        -0.47501E-03
        -0.36986E-03
        -0.28668E-03
        -0.15460E-03
        -0.93744E-05
        -0.40069E-04
        -0.62456E-04
        -0.10346E-03
        -0.43170E-03
        -0.14620E-03
        -0.63844E-04
        -0.10070E-03
        -0.14034E-03
        -0.15094E-03
        -0.82495E-06
        -0.23422E-03
        -0.48019E-03
        -0.26009E-02
        -0.43424E-02
        -0.72310E-02
        -0.10407E-01
        -0.99838E-02
        -0.76171E-02
        -0.69971E-02
        -0.68479E-02
        -0.27008E-02
        -0.29379E-03
        -0.46604E-04
        -0.34366E-04
        -0.72217E-05
        -0.52878E-03
        -0.21218E-02
        -0.41076E-02
        -0.69543E-02
        -0.85499E-02
        -0.65938E-02
        -0.58944E-02
        -0.58561E-02
        -0.29007E-02
        -0.78214E-03
        -0.70095E-03
        -0.20468E-03
        -0.81280E-04
        -0.69688E-04
        -0.40292E-05
        -0.11738E-03
        -0.23808E-04
        -0.14998E-04
        -0.18361E-03
        -0.78998E-04
        -0.16374E-03
        -0.45203E-04
        -0.84433E-03
        -0.29675E-03
        -0.61211E-05
        -0.82404E-03
        -0.29371E-04
        -0.27963E-05
        -0.24432E-05
        -0.50072E-04
        -0.18247E-05
        -0.37466E-04
        -0.18771E-04
        -0.62928E-05
        -0.44679E-05
        -0.74482E-04
        -0.44410E-05
        -0.29573E-06
        -0.99654E-06
        -0.24169E-05
        -0.73404E-04
        -0.34128E-04
        -0.23437E-05
        -0.14375E-04
        -0.10812E-04
        -0.23510E-05
        -0.22754E-04
        -0.82706E-04
        -0.47648E-03
        -0.37146E-03
        -0.28735E-03
        -0.15485E-03
        -0.93186E-05
        -0.40147E-04
        -0.62537E-04
        -0.10349E-03
        -0.43172E-03
        -0.14623E-03
        -0.63764E-04
        -0.10043E-03
        -0.13996E-03
        -0.15082E-03
        -0.79988E-06
        -0.23378E-03
        -0.48024E-03
        -0.26019E-02
        -0.43425E-02
        -0.72292E-02
        -0.10400E-01
        -0.99754E-02
        -0.76125E-02
        -0.69941E-02
        -0.68442E-02
        -0.26997E-02
        -0.29408E-03
        -0.46599E-04
        -0.34507E-04
        -0.71029E-05
        -0.52936E-03
        -0.21238E-02
        -0.41095E-02
        -0.69541E-02
        -0.85488E-02
        -0.65929E-02
        -0.58939E-02
        -0.58531E-02
        -0.28965E-02
        -0.78042E-03
        -0.69910E-03
        -0.20494E-03
        -0.81309E-04
        -0.69759E-04
        -0.40885E-05
        -0.11740E-03
        -0.23847E-04
        -0.15037E-04
        -0.18422E-03
        -0.79283E-04
        -0.16494E-03
        -0.45257E-04
        -0.84419E-03
        -0.29691E-03
        -0.61213E-05
        -0.82614E-03
        -0.29376E-04
        -0.28478E-05
        -0.24356E-05
        -0.50146E-04
        -0.18026E-05
        -0.37656E-04
        -0.18802E-04
        -0.63037E-05
        -0.44591E-05
        -0.75122E-04
        -0.44168E-05
        -0.30329E-06
        -0.10121E-05
        -0.23734E-05
        -0.73674E-04
        -0.34133E-04
        -0.23269E-05
        -0.14438E-04
        -0.10847E-04
        -0.23062E-05
        -0.22783E-04
        -0.82695E-04
        -0.47796E-03
        -0.37309E-03
        -0.28807E-03
        -0.15514E-03
        -0.92479E-05
        -0.40210E-04
        -0.62659E-04
        -0.10355E-03
        -0.43177E-03
        -0.14628E-03
        -0.63688E-04
        -0.10017E-03
        -0.13959E-03
        -0.15068E-03
        -0.77525E-06
        -0.23335E-03
        -0.48030E-03
        -0.26029E-02
        -0.43425E-02
        -0.72275E-02
        -0.10393E-01
        -0.99670E-02
        -0.76079E-02
        -0.69912E-02
        -0.68404E-02
        -0.26987E-02
        -0.29443E-03
        -0.46601E-04
        -0.34646E-04
        -0.69842E-05
        -0.52998E-03
        -0.21261E-02
        -0.41118E-02
        -0.69539E-02
        -0.85478E-02
        -0.65920E-02
        -0.58934E-02
        -0.58502E-02
        -0.28924E-02
        -0.77872E-03
        -0.69726E-03
        -0.20519E-03
        -0.81339E-04
        -0.69829E-04
        -0.41480E-05
        -0.11743E-03
        -0.23885E-04
        -0.15074E-04
        -0.18483E-03
        -0.79569E-04
        -0.16612E-03
        -0.45311E-04
        -0.84404E-03
        -0.29706E-03
        -0.61220E-05
        -0.82825E-03
        -0.29381E-04
        -0.29007E-05
        -0.24280E-05
        -0.50222E-04
        -0.17794E-05
        -0.37850E-04
        -0.18830E-04
        -0.63202E-05
        -0.44466E-05
        -0.75741E-04
        -0.43863E-05
        -0.31182E-06
        -0.10313E-05
        -0.23216E-05
        -0.73916E-04
        -0.34133E-04
        -0.23049E-05
        -0.14502E-04
        -0.10882E-04
        -0.22614E-05
        -0.22813E-04
        -0.82688E-04
        -0.47944E-03
        -0.37475E-03
        -0.28883E-03
        -0.15547E-03
        -0.91615E-05
        -0.40258E-04
        -0.62827E-04
        -0.10365E-03
        -0.43187E-03
        -0.14634E-03
        -0.63619E-04
        -0.99904E-04
        -0.13921E-03
        -0.15056E-03
        -0.75086E-06
        -0.23291E-03
        -0.48035E-03
        -0.26038E-02
        -0.43426E-02
        -0.72257E-02
        -0.10386E-01
        -0.99586E-02
        -0.76034E-02
        -0.69883E-02
        -0.68366E-02
        -0.26978E-02
        -0.29484E-03
        -0.46610E-04
        -0.34783E-04
        -0.68663E-05
        -0.53065E-03
        -0.21287E-02
        -0.41143E-02
        -0.69538E-02
        -0.85467E-02
        -0.65910E-02
        -0.58929E-02
        -0.58472E-02
        -0.28883E-02
        -0.77701E-03
        -0.69542E-03
        -0.20543E-03
        -0.81358E-04
        -0.69898E-04
        -0.42086E-05
        -0.11746E-03
        -0.23923E-04
        -0.15108E-04
        -0.18542E-03
        -0.79857E-04
        -0.16728E-03
        -0.45373E-04
        -0.84391E-03
        -0.29722E-03
        -0.61242E-05
        -0.83035E-03
        -0.29388E-04
        -0.29552E-05
        -0.24205E-05
        -0.50299E-04
        -0.17559E-05
        -0.38044E-04
        -0.18857E-04
        -0.63394E-05
        -0.44329E-05
        -0.76348E-04
        -0.43540E-05
        -0.32112E-06
        -0.10528E-05
        -0.22668E-05
        -0.74146E-04
        -0.34129E-04
        -0.22807E-05
        -0.14566E-04
        -0.10919E-04
        -0.22169E-05
        -0.22846E-04
        -0.82687E-04
        -0.48095E-03
        -0.37644E-03
        -0.28962E-03
        -0.15581E-03
        -0.90705E-05
        -0.40300E-04
        -0.63009E-04
        -0.10378E-03
        -0.43201E-03
        -0.14642E-03
        -0.63562E-04
        -0.99655E-04
        -0.13884E-03
        -0.15043E-03
        -0.72688E-06
        -0.23247E-03
        -0.48041E-03
        -0.26048E-02
        -0.43427E-02
        -0.72240E-02
        -0.10379E-01
        -0.99501E-02
        -0.75987E-02
        -0.69854E-02
        -0.68327E-02
        -0.26969E-02
        -0.29527E-03
        -0.46623E-04
        -0.34920E-04
        -0.67494E-05
        -0.53135E-03
        -0.21314E-02
        -0.41168E-02
        -0.69536E-02
        -0.85456E-02
        -0.65902E-02
        -0.58925E-02
        -0.58442E-02
        -0.28842E-02
        -0.77531E-03
        -0.69359E-03
        -0.20565E-03
        -0.81353E-04
        -0.69965E-04
        -0.42712E-05
        -0.11749E-03
        -0.23962E-04
        -0.15134E-04
        -0.18595E-03
        -0.80151E-04
        -0.16838E-03
        -0.45447E-04
        -0.84383E-03
        -0.29741E-03
        -0.61336E-05
        -0.83249E-03
        -0.29398E-04
        -0.30116E-05
        -0.24130E-05
        -0.50377E-04
        -0.17325E-05
        -0.38240E-04
        -0.18885E-04
        -0.63588E-05
        -0.44195E-05
        -0.76943E-04
        -0.43216E-05
        -0.33226E-06
        -0.10758E-05
        -0.22116E-05
        -0.74370E-04
        -0.34123E-04
        -0.22549E-05
        -0.14633E-04
        -0.10958E-04
        -0.21726E-05
        -0.22881E-04
        -0.82691E-04
        -0.48247E-03
        -0.37815E-03
        -0.29041E-03
        -0.15616E-03
        -0.89779E-05
        -0.40340E-04
        -0.63192E-04
        -0.10391E-03
        -0.43219E-03
        -0.14654E-03
        -0.63541E-04
        -0.99447E-04
        -0.13848E-03
        -0.15030E-03
        -0.70299E-06
        -0.23203E-03
        -0.48046E-03
        -0.26057E-02
        -0.43427E-02
        -0.72222E-02
        -0.10371E-01
        -0.99416E-02
        -0.75941E-02
        -0.69825E-02
        -0.68289E-02
        -0.26961E-02
        -0.29571E-03
        -0.46636E-04
        -0.35059E-04
        -0.66335E-05
        -0.53204E-03
        -0.21341E-02
        -0.41193E-02
        -0.69532E-02
        -0.85445E-02
        -0.65895E-02
        -0.58922E-02
        -0.58412E-02
        -0.28800E-02
        -0.77361E-03
        -0.69175E-03
        -0.20586E-03
        -0.81343E-04
        -0.70033E-04
        -0.43352E-05
        -0.11752E-03
        -0.24000E-04
        -0.15154E-04
        -0.18645E-03
        -0.80449E-04
        -0.16947E-03
        -0.45529E-04
        -0.84374E-03
        -0.29761E-03
        -0.61446E-05
        -0.83462E-03
        -0.29409E-04
        -0.30692E-05
        -0.24054E-05
        -0.50455E-04
        -0.17093E-05
        -0.38437E-04
        -0.18913E-04
        -0.63777E-05
        -0.44066E-05
        -0.77534E-04
        -0.42894E-05
        -0.34403E-06
        -0.10997E-05
        -0.21570E-05
        -0.74592E-04
        -0.34116E-04
        -0.22281E-05
        -0.14701E-04
        -0.10998E-04
        -0.21284E-05
        -0.22919E-04
        -0.82704E-04
        -0.48402E-03
        -0.37987E-03
        -0.29120E-03
        -0.15651E-03
        -0.88858E-05
        -0.40379E-04
        -0.63377E-04
        -0.10405E-03
        -0.43238E-03
        -0.14667E-03
        -0.63531E-04
        -0.99257E-04
        -0.13813E-03
        -0.15018E-03
        -0.67952E-06
        -0.23159E-03
        -0.48051E-03
        -0.26066E-02
        -0.43428E-02
        -0.72205E-02
        -0.10364E-01
        -0.99332E-02
        -0.75895E-02
        -0.69796E-02
        -0.68250E-02
        -0.26952E-02
        -0.29614E-03
        -0.46649E-04
        -0.35199E-04
        -0.65183E-05
        -0.53273E-03
        -0.21368E-02
        -0.41218E-02
        -0.69528E-02
        -0.85434E-02
        -0.65889E-02
        -0.58919E-02
        -0.58381E-02
        -0.28759E-02
        -0.77191E-03
        -0.68992E-03
        -0.20608E-03
        -0.81333E-04
        -0.70100E-04
        -0.43997E-05
        -0.11755E-03
        -0.24039E-04
        -0.15175E-04
        -0.18696E-03
        -0.80749E-04
        -0.17056E-03
        -0.45606E-04
        -0.84366E-03
        -0.29780E-03
        -0.61572E-05
        -0.83678E-03
        -0.29421E-04
        -0.31277E-05
        -0.23977E-05
        -0.50533E-04
        -0.16861E-05
        -0.38634E-04
        -0.18942E-04
        -0.63967E-05
        -0.43938E-05
        -0.78126E-04
        -0.42576E-05
        -0.35632E-06
        -0.11237E-05
        -0.21031E-05
        -0.74816E-04
        -0.34108E-04
        -0.22017E-05
        -0.14770E-04
        -0.11038E-04
        -0.20845E-05
        -0.22954E-04
        -0.82713E-04
        -0.48557E-03
        -0.38160E-03
        -0.29199E-03
        -0.15686E-03
        -0.87947E-05
        -0.40419E-04
        -0.63563E-04
        -0.10420E-03
        -0.43258E-03
        -0.14680E-03
        -0.63523E-04
        -0.99069E-04
        -0.13779E-03
        -0.15006E-03
        -0.65633E-06
        -0.23116E-03
        -0.48056E-03
        -0.26075E-02
        -0.43428E-02
        -0.72187E-02
        -0.10357E-01
        -0.99246E-02
        -0.75849E-02
        -0.69767E-02
        -0.68211E-02
        -0.26943E-02
        -0.29657E-03
        -0.46664E-04
        -0.35342E-04
        -0.64044E-05
        -0.53342E-03
        -0.21395E-02
        -0.41243E-02
        -0.69524E-02
        -0.85422E-02
        -0.65883E-02
        -0.58917E-02
        -0.58350E-02
        -0.28718E-02
        -0.77022E-03
        -0.68809E-03
        -0.20628E-03
        -0.81320E-04
        -0.70166E-04
        -0.44642E-05
        -0.11758E-03
        -0.24076E-04
        -0.15195E-04
        -0.18746E-03
        -0.81048E-04
        -0.17165E-03
        -0.45689E-04
        -0.84357E-03
        -0.29801E-03
        -0.61680E-05
        -0.83893E-03
        -0.29432E-04
        -0.31869E-05
        -0.23900E-05
        -0.50609E-04
        -0.16629E-05
        -0.38830E-04
        -0.18969E-04
        -0.64150E-05
        -0.43809E-05
        -0.78720E-04
        -0.42259E-05
        -0.36848E-06
        -0.11476E-05
        -0.20501E-05
        -0.75039E-04
        -0.34100E-04
        -0.21754E-05
        -0.14837E-04
        -0.11078E-04
        -0.20410E-05
        -0.22992E-04
        -0.82726E-04
        -0.48712E-03
        -0.38332E-03
        -0.29279E-03
        -0.15721E-03
        -0.87042E-05
        -0.40459E-04
        -0.63747E-04
        -0.10434E-03
        -0.43277E-03
        -0.14694E-03
        -0.63519E-04
        -0.98878E-04
        -0.13744E-03
        -0.14994E-03
        -0.63364E-06
        -0.23072E-03
        -0.48061E-03
        -0.26084E-02
        -0.43429E-02
        -0.72170E-02
        -0.10350E-01
        -0.99161E-02
        -0.75803E-02
        -0.69739E-02
        -0.68172E-02
        -0.26934E-02
        -0.29700E-03
        -0.46679E-04
        -0.35484E-04
        -0.62919E-05
        -0.53412E-03
        -0.21423E-02
        -0.41267E-02
        -0.69520E-02
        -0.85411E-02
        -0.65876E-02
        -0.58914E-02
        -0.58319E-02
        -0.28677E-02
        -0.76854E-03
        -0.68626E-03
        -0.20649E-03
        -0.81306E-04
        -0.70233E-04
        -0.45292E-05
        -0.11761E-03
        -0.24115E-04
        -0.15218E-04
        -0.18796E-03
        -0.81349E-04
        -0.17274E-03
        -0.45770E-04
        -0.84348E-03
        -0.29821E-03
        -0.61800E-05
        -0.84109E-03
        -0.29444E-04
        -0.32469E-05
        -0.23824E-05
        -0.50687E-04
        -0.16397E-05
        -0.39028E-04
        -0.18996E-04
        -0.64341E-05
        -0.43683E-05
        -0.79314E-04
        -0.41944E-05
        -0.38106E-06
        -0.11714E-05
        -0.19979E-05
        -0.75262E-04
        -0.34093E-04
        -0.21494E-05
        -0.14906E-04
        -0.11118E-04
        -0.19979E-05
        -0.23029E-04
        -0.82739E-04
        -0.48868E-03
        -0.38506E-03
        -0.29357E-03
        -0.15756E-03
        -0.86142E-05
        -0.40498E-04
        -0.63929E-04
        -0.10448E-03
        -0.43297E-03
        -0.14707E-03
        -0.63511E-04
        -0.98691E-04
        -0.13710E-03
        -0.14982E-03
        -0.61129E-06
        -0.23028E-03
        -0.48065E-03
        -0.26093E-02
        -0.43430E-02
        -0.72152E-02
        -0.10343E-01
        -0.99075E-02
        -0.75756E-02
        -0.69710E-02
        -0.68133E-02
        -0.26926E-02
        -0.29743E-03
        -0.46694E-04
        -0.35625E-04
        -0.61798E-05
        -0.53481E-03
        -0.21450E-02
        -0.41292E-02
        -0.69516E-02
        -0.85400E-02
        -0.65870E-02
        -0.58912E-02
        -0.58288E-02
        -0.28635E-02
        -0.76687E-03
        -0.68443E-03
        -0.20670E-03
        -0.81294E-04
        -0.70300E-04
        -0.45953E-05
        -0.11764E-03
        -0.24153E-04
        -0.15238E-04
        -0.18847E-03
        -0.81652E-04
        -0.17383E-03
        -0.45852E-04
        -0.84340E-03
        -0.29840E-03
        -0.61919E-05
        -0.84324E-03
        -0.29455E-04
        -0.33074E-05
        -0.23746E-05
        -0.50764E-04
        -0.16169E-05
        -0.39226E-04
        -0.19023E-04
        -0.64532E-05
        -0.43559E-05
        -0.79910E-04
        -0.41632E-05
        -0.39356E-06
        -0.11953E-05
        -0.19463E-05
        -0.75484E-04
        -0.34085E-04
        -0.21235E-05
        -0.14974E-04
        -0.11159E-04
        -0.19549E-05
        -0.23065E-04
        -0.82748E-04
        -0.49025E-03
        -0.38680E-03
        -0.29437E-03
        -0.15791E-03
        -0.85256E-05
        -0.40537E-04
        -0.64114E-04
        -0.10463E-03
        -0.43317E-03
        -0.14720E-03
        -0.63507E-04
        -0.98503E-04
        -0.13676E-03
        -0.14970E-03
        -0.58936E-06
        -0.22984E-03
        -0.48070E-03
        -0.26102E-02
        -0.43430E-02
        -0.72135E-02
        -0.10336E-01
        -0.98990E-02
        -0.75710E-02
        -0.69682E-02
        -0.68093E-02
        -0.26917E-02
        -0.29786E-03
        -0.46708E-04
        -0.35766E-04
        -0.60684E-05
        -0.53551E-03
        -0.21477E-02
        -0.41316E-02
        -0.69513E-02
        -0.85389E-02
        -0.65864E-02
        -0.58909E-02
        -0.58257E-02
        -0.28594E-02
        -0.76520E-03
        -0.68261E-03
        -0.20691E-03
        -0.81281E-04
        -0.70367E-04
        -0.46620E-05
        -0.11767E-03
        -0.24191E-04
        -0.15259E-04
        -0.18897E-03
        -0.81954E-04
        -0.17492E-03
        -0.45934E-04
        -0.84332E-03
        -0.29861E-03
        -0.62024E-05
        -0.84541E-03
        -0.29466E-04
        -0.33686E-05
        -0.23668E-05
        -0.50841E-04
        -0.15943E-05
        -0.39425E-04
        -0.19050E-04
        -0.64720E-05
        -0.43435E-05
        -0.80507E-04
        -0.41318E-05
        -0.40664E-06
        -0.12192E-05
        -0.18955E-05
        -0.75706E-04
        -0.34077E-04
        -0.20974E-05
        -0.15041E-04
        -0.11199E-04
        -0.19125E-05
        -0.23104E-04
        -0.82760E-04
        -0.49181E-03
        -0.38855E-03
        -0.29516E-03
        -0.15827E-03
        -0.84364E-05
        -0.40576E-04
        -0.64300E-04
        -0.10477E-03
        -0.43335E-03
        -0.14734E-03
        -0.63500E-04
        -0.98317E-04
        -0.13641E-03
        -0.14957E-03
        -0.56789E-06
        -0.22940E-03
        -0.48075E-03
        -0.26111E-02
        -0.43431E-02
        -0.72118E-02
        -0.10329E-01
        -0.98904E-02
        -0.75664E-02
        -0.69653E-02
        -0.68053E-02
        -0.26908E-02
        -0.29830E-03
        -0.46722E-04
        -0.35908E-04
        -0.59583E-05
        -0.53620E-03
        -0.21504E-02
        -0.41341E-02
        -0.69509E-02
        -0.85378E-02
        -0.65858E-02
        -0.58906E-02
        -0.58226E-02
        -0.28553E-02
        -0.76354E-03
        -0.68079E-03
        -0.20711E-03
        -0.81270E-04
        -0.70434E-04
        -0.47291E-05
        -0.11770E-03
        -0.24229E-04
        -0.15282E-04
        -0.18947E-03
        -0.82257E-04
        -0.17602E-03
        -0.46016E-04
        -0.84323E-03
        -0.29881E-03
        -0.62143E-05
        -0.84757E-03
        -0.29477E-04
        -0.34306E-05
        -0.23591E-05
        -0.50918E-04
        -0.15719E-05
        -0.39624E-04
        -0.19077E-04
        -0.64910E-05
        -0.43311E-05
        -0.81107E-04
        -0.41005E-05
        -0.41958E-06
        -0.12431E-05
        -0.18456E-05
        -0.75929E-04
        -0.34068E-04
        -0.20718E-05
        -0.15110E-04
        -0.11240E-04
        -0.18703E-05
        -0.23140E-04
        -0.82768E-04
        -0.49340E-03
        -0.39030E-03
        -0.29595E-03
        -0.15862E-03
        -0.83479E-05
        -0.40615E-04
        -0.64485E-04
        -0.10492E-03
        -0.43355E-03
        -0.14748E-03
        -0.63493E-04
        -0.98127E-04
        -0.13607E-03
        -0.14946E-03
        -0.54695E-06
        -0.22896E-03
        -0.48079E-03
        -0.26119E-02
        -0.43432E-02
        -0.72100E-02
        -0.10322E-01
        -0.98818E-02
        -0.75617E-02
        -0.69624E-02
        -0.68013E-02
        -0.26899E-02
        -0.29873E-03
        -0.46736E-04
        -0.36051E-04
        -0.58497E-05
        -0.53689E-03
        -0.21532E-02
        -0.41366E-02
        -0.69505E-02
        -0.85367E-02
        -0.65852E-02
        -0.58904E-02
        -0.58195E-02
        -0.28512E-02
        -0.76189E-03
        -0.67897E-03
        -0.20732E-03
        -0.81259E-04
        -0.70501E-04
        -0.47965E-05
        -0.11773E-03
        -0.24267E-04
        -0.15303E-04
        -0.18997E-03
        -0.82563E-04
        -0.17712E-03
        -0.46098E-04
        -0.84315E-03
        -0.29900E-03
        -0.62244E-05
        -0.84975E-03
        -0.29489E-04
        -0.34935E-05
        -0.23515E-05
        -0.50995E-04
        -0.15494E-05
        -0.39824E-04
        -0.19104E-04
        -0.65096E-05
        -0.43191E-05
        -0.81709E-04
        -0.40695E-05
        -0.43295E-06
        -0.12667E-05
        -0.17965E-05
        -0.76153E-04
        -0.34060E-04
        -0.20462E-05
        -0.15178E-04
        -0.11281E-04
        -0.18286E-05
        -0.23178E-04
        -0.82780E-04
        -0.49498E-03
        -0.39206E-03
        -0.29674E-03
        -0.15898E-03
        -0.82600E-05
        -0.40655E-04
        -0.64669E-04
        -0.10506E-03
        -0.43375E-03
        -0.14761E-03
        -0.63490E-04
        -0.97939E-04
        -0.13572E-03
        -0.14934E-03
        -0.52626E-06
        -0.22852E-03
        -0.48083E-03
        -0.26128E-02
        -0.43432E-02
        -0.72083E-02
        -0.10315E-01
        -0.98732E-02
        -0.75570E-02
        -0.69596E-02
        -0.67973E-02
        -0.26890E-02
        -0.29916E-03
        -0.46750E-04
        -0.36194E-04
        -0.57418E-05
        -0.53758E-03
        -0.21559E-02
        -0.41391E-02
        -0.69502E-02
        -0.85356E-02
        -0.65846E-02
        -0.58901E-02
        -0.58164E-02
        -0.28471E-02
        -0.76024E-03
        -0.67715E-03
        -0.20752E-03
        -0.81243E-04
        -0.70567E-04
        -0.48643E-05
        -0.11776E-03
        -0.24306E-04
        -0.15324E-04
        -0.19047E-03
        -0.82870E-04
        -0.17822E-03
        -0.46181E-04
        -0.84307E-03
        -0.29921E-03
        -0.62360E-05
        -0.85190E-03
        -0.29500E-04
        -0.35572E-05
        -0.23437E-05
        -0.51073E-04
        -0.15272E-05
        -0.40024E-04
        -0.19129E-04
        -0.65284E-05
        -0.43072E-05
        -0.82313E-04
        -0.40384E-05
        -0.44618E-06
        -0.12903E-05
        -0.17483E-05
        -0.76376E-04
        -0.34052E-04
        -0.20209E-05
        -0.15246E-04
        -0.11323E-04
        -0.17870E-05
        -0.23215E-04
        -0.82791E-04
        -0.49658E-03
        -0.39382E-03
        -0.29751E-03
        -0.15933E-03
        -0.81728E-05
        -0.40695E-04
        -0.64851E-04
        -0.10521E-03
        -0.43395E-03
        -0.14775E-03
        -0.63483E-04
        -0.97754E-04
        -0.13538E-03
        -0.14921E-03
        -0.50597E-06
        -0.22808E-03
        -0.48087E-03
        -0.26136E-02
        -0.43433E-02
        -0.72066E-02
        -0.10308E-01
        -0.98645E-02
        -0.75523E-02
        -0.69567E-02
        -0.67932E-02
        -0.26881E-02
        -0.29959E-03
        -0.46763E-04
        -0.36335E-04
        -0.56348E-05
        -0.53826E-03
        -0.21586E-02
        -0.41416E-02
        -0.69498E-02
        -0.85344E-02
        -0.65840E-02
        -0.58898E-02
        -0.58132E-02
        -0.28430E-02
        -0.75861E-03
        -0.67534E-03
        -0.20772E-03
        -0.81230E-04
        -0.70635E-04
        -0.49328E-05
        -0.11779E-03
        -0.24344E-04
        -0.15346E-04
        -0.19097E-03
        -0.83178E-04
        -0.17932E-03
        -0.46263E-04
        -0.84299E-03
        -0.29941E-03
        -0.62458E-05
        -0.85409E-03
        -0.29512E-04
        -0.36219E-05
        -0.23359E-05
        -0.51150E-04
        -0.15055E-05
        -0.40225E-04
        -0.19154E-04
        -0.65472E-05
        -0.42952E-05
        -0.82919E-04
        -0.40073E-05
        -0.45996E-06
        -0.13138E-05
        -0.17006E-05
        -0.76594E-04
        -0.34043E-04
        -0.19956E-05
        -0.15315E-04
        -0.11364E-04
        -0.17459E-05
        -0.23251E-04
        -0.82799E-04
        -0.49818E-03
        -0.39558E-03
        -0.29829E-03
        -0.15968E-03
        -0.80867E-05
        -0.40735E-04
        -0.65038E-04
        -0.10536E-03
        -0.43415E-03
        -0.14789E-03
        -0.63480E-04
        -0.97569E-04
        -0.13504E-03
        -0.14909E-03
        -0.48624E-06
        -0.22764E-03
        -0.48091E-03
        -0.26145E-02
        -0.43434E-02
        -0.72048E-02
        -0.10300E-01
        -0.98558E-02
        -0.75477E-02
        -0.69538E-02
        -0.67891E-02
        -0.26873E-02
        -0.30003E-03
        -0.46773E-04
        -0.36475E-04
        -0.55293E-05
        -0.53895E-03
        -0.21614E-02
        -0.41440E-02
        -0.69494E-02
        -0.85333E-02
        -0.65833E-02
        -0.58896E-02
        -0.58101E-02
        -0.28389E-02
        -0.75698E-03
        -0.67353E-03
        -0.20793E-03
        -0.81218E-04
        -0.70701E-04
        -0.50021E-05
        -0.11782E-03
        -0.24381E-04
        -0.15368E-04
        -0.19147E-03
        -0.83489E-04
        -0.18042E-03
        -0.46345E-04
        -0.84291E-03
        -0.29961E-03
        -0.62569E-05
        -0.85625E-03
        -0.29523E-04
        -0.36879E-05
        -0.23280E-05
        -0.51227E-04
        -0.14848E-05
        -0.40425E-04
        -0.19178E-04
        -0.65664E-05
        -0.42831E-05
        -0.83527E-04
        -0.39767E-05
        -0.47382E-06
        -0.13374E-05
        -0.16538E-05
        -0.76800E-04
        -0.34034E-04
        -0.19701E-05
        -0.15383E-04
        -0.11405E-04
        -0.17052E-05
        -0.23290E-04
        -0.82811E-04
        -0.49980E-03
        -0.39734E-03
        -0.29903E-03
        -0.16003E-03
        -0.80001E-05
        -0.40778E-04
        -0.65223E-04
        -0.10550E-03
        -0.43435E-03
        -0.14802E-03
        -0.63473E-04
        -0.97380E-04
        -0.13470E-03
        -0.14898E-03
        -0.46688E-06
        -0.22720E-03
        -0.48094E-03
        -0.26154E-02
        -0.43434E-02
        -0.72031E-02
        -0.10293E-01
        -0.98472E-02
        -0.75431E-02
        -0.69510E-02
        -0.67848E-02
        -0.26865E-02
        -0.30047E-03
        -0.46777E-04
        -0.36616E-04
        -0.54249E-05
        -0.53964E-03
        -0.21641E-02
        -0.41465E-02
        -0.69491E-02
        -0.85322E-02
        -0.65828E-02
        -0.58893E-02
        -0.58069E-02
        -0.28348E-02
        -0.75536E-03
        -0.67172E-03
        -0.20813E-03
        -0.81206E-04
        -0.70768E-04
        -0.50717E-05
        -0.11785E-03
        -0.24418E-04
        -0.15389E-04
        -0.19196E-03
        -0.83803E-04
        -0.18153E-03
        -0.46427E-04
        -0.84282E-03
        -0.29981E-03
        -0.62680E-05
        -0.85844E-03
        -0.29534E-04
        -0.37555E-05
        -0.23201E-05
        -0.51305E-04
        -0.14652E-05
        -0.40627E-04
        -0.19201E-04
        -0.65853E-05
        -0.42714E-05
        -0.84138E-04
        -0.39459E-05
        -0.48850E-06
        -0.13609E-05
        -0.16077E-05
        -0.76993E-04
        -0.34025E-04
        -0.19452E-05
        -0.15451E-04
        -0.11447E-04
        -0.16647E-05
        -0.23327E-04
        -0.82821E-04
        -0.50145E-03
        -0.39909E-03
        -0.29975E-03
        -0.16037E-03
        -0.79142E-05
        -0.40822E-04
        -0.65407E-04
        -0.10565E-03
        -0.43455E-03
        -0.14816E-03
        -0.63467E-04
        -0.97196E-04
        -0.13435E-03
        -0.14885E-03
        -0.44778E-06
        -0.22676E-03
        -0.48098E-03
        -0.26162E-02
        -0.43435E-02
        -0.72013E-02
        -0.10286E-01
        -0.98385E-02
        -0.75384E-02
        -0.69480E-02
        -0.67802E-02
        -0.26859E-02
        -0.30092E-03
        -0.46774E-04
        -0.36758E-04
        -0.53210E-05
        -0.54032E-03
        -0.21668E-02
        -0.41490E-02
        -0.69487E-02
        -0.85310E-02
        -0.65821E-02
        -0.58890E-02
        -0.58037E-02
        -0.28307E-02
        -0.75375E-03
        -0.66991E-03
        -0.20834E-03
        -0.81194E-04
        -0.70839E-04
        -0.51416E-05
        -0.11788E-03
        -0.24457E-04
        -0.15413E-04
        -0.19245E-03
        -0.84121E-04
        -0.18263E-03
        -0.46510E-04
        -0.84275E-03
        -0.30001E-03
        -0.62776E-05
        -0.86061E-03
        -0.29546E-04
        -0.38241E-05
        -0.23122E-05
        -0.51384E-04
        -0.14462E-05
        -0.40829E-04
        -0.19225E-04
        -0.66030E-05
        -0.42604E-05
        -0.84751E-04
        -0.39163E-05
        -0.50301E-06
        -0.13836E-05
        -0.15629E-05
        -0.77183E-04
        -0.34018E-04
        -0.19208E-05
        -0.15520E-04
        -0.11489E-04
        -0.16251E-05
        -0.23363E-04
        -0.82826E-04
        -0.50309E-03
        -0.40084E-03
        -0.30044E-03
        -0.16071E-03
        -0.78303E-05
        -0.40870E-04
        -0.65589E-04
        -0.10579E-03
        -0.43475E-03
        -0.14829E-03
        -0.63462E-04
        -0.97011E-04
        -0.13401E-03
        -0.14874E-03
        -0.42920E-06
        -0.22631E-03
        -0.48103E-03
        -0.26170E-02
        -0.43436E-02
        -0.71996E-02
        -0.10279E-01
        -0.98298E-02
        -0.75338E-02
        -0.69450E-02
        -0.67756E-02
        -0.26852E-02
        -0.30135E-03
        -0.46765E-04
        -0.36899E-04
        -0.52181E-05
        -0.54100E-03
        -0.21695E-02
        -0.41514E-02
        -0.69484E-02
        -0.85299E-02
        -0.65815E-02
        -0.58887E-02
        -0.58006E-02
        -0.28267E-02
        -0.75215E-03
        -0.66812E-03
        -0.21070E-03
        -0.82059E-04
        -0.71675E-04
        -0.52626E-05
        -0.11919E-03
        -0.24751E-04
        -0.15606E-04
        -0.19497E-03
        -0.85288E-04
        -0.18562E-03
        -0.47097E-04
        -0.85203E-03
        -0.30342E-03
        -0.63564E-05
        -0.87254E-03
        -0.29866E-04
        -0.39298E-05
        -0.23279E-05
        -0.51998E-04
        -0.14446E-05
        -0.41446E-04
        -0.19450E-04
        -0.66782E-05
        -0.42995E-05
        -0.86251E-04
        -0.39368E-05
        -0.52215E-06
        -0.14164E-05
        -0.15438E-05
        -0.78225E-04
        -0.34372E-04
        -0.19237E-05
        -0.15745E-04
        -0.11649E-04
        -0.16072E-05
        -0.23628E-04
        -0.83677E-04
        -0.51029E-03
        -0.40698E-03
        -0.30445E-03
        -0.16280E-03
        -0.78522E-05
        -0.41376E-04
        -0.66377E-04
        -0.10697E-03
        -0.43946E-03
        -0.14991E-03
        -0.64073E-04
        -0.97817E-04
        -0.13509E-03
        -0.15022E-03
        -0.41560E-06
        -0.22879E-03
        -0.48742E-03
        -0.26520E-02
        -0.43993E-02
        -0.72925E-02
        -0.10412E-01
        -0.99571E-02
        -0.76333E-02
        -0.70384E-02
        -0.68668E-02
        -0.27216E-02
        -0.30562E-03
        -0.47303E-04
        -0.37463E-04
        -0.51815E-05
        -0.54788E-03
        -0.21974E-02
        -0.42054E-02
        -0.70399E-02
        -0.86418E-02
        -0.66631E-02
        -0.59602E-02
        -0.58699E-02
        -0.28581E-02
        -0.75994E-03
        -0.67466E-03
        -0.47884E-03
        -0.18821E-03
        -0.16252E-03
        -0.12116E-04
        -0.25245E-03
        -0.53398E-04
        -0.35726E-04
        -0.44062E-03
        -0.19314E-03
        -0.41788E-03
        -0.10440E-03
        -0.17476E-02
        -0.63961E-03
        -0.13987E-04
        -0.18126E-02
        -0.67955E-04
        -0.90135E-05
        -0.52820E-05
        -0.11548E-03
        -0.32103E-05
        -0.87341E-04
        -0.41965E-04
        -0.14074E-04
        -0.96812E-05
        -0.19814E-03
        -0.90008E-05
        -0.11875E-05
        -0.32635E-05
        -0.35230E-05
        -0.17919E-03
        -0.78240E-04
        -0.43536E-05
        -0.36069E-04
        -0.26637E-04
        -0.31972E-05
        -0.50890E-04
        -0.18024E-03
        -0.11066E-02
        -0.90762E-03
        -0.68336E-03
        -0.35561E-03
        -0.17311E-04
        -0.91433E-04
        -0.14204E-03
        -0.22753E-03
        -0.88473E-03
        -0.31704E-03
        -0.13857E-03
        -0.21357E-03
        -0.29256E-03
        -0.31073E-03
        -0.86334E-06
        -0.37255E-03
        -0.79210E-03
        -0.43144E-02
        -0.71877E-02
        -0.11912E-01
        -0.17126E-01
        -0.16757E-01
        -0.13065E-01
        -0.12006E-01
        -0.11587E-01
        -0.45977E-02
        -0.51317E-03
        -0.80743E-04
        -0.64423E-04
        -0.85536E-05
        -0.89603E-03
        -0.35737E-02
        -0.67843E-02
        -0.11373E-01
        -0.13995E-01
        -0.10982E-01
        -0.98989E-02
        -0.96897E-02
        -0.47474E-02
        -0.12534E-02
        -0.11042E-02
  
SCALARS                      strain_zz  double 1
LOOKUP_TABLE default
         0.20114E+02
         0.19858E+02
         0.20010E+02
         0.20312E+02
        -0.42005E-08
        -0.47101E-08
        -0.45101E-08
        -0.40973E-08
         0.19757E+02
         0.19895E+02
        -0.42356E-08
        -0.40990E-08
         0.19482E+02
         0.19472E+02
        -0.50328E-08
        -0.47321E-08
         0.20269E+02
         0.19483E+02
        -0.37187E-08
        -0.41246E-08
         0.19202E+02
         0.18943E+02
         0.19291E+02
        -0.49881E-08
        -0.43561E-08
        -0.44982E-08
         0.18981E+02
         0.18632E+02
        -0.47853E-08
        -0.40356E-08
         0.20254E+02
         0.19915E+02
         0.20582E+02
        -0.40836E-08
        -0.37963E-08
        -0.36910E-08
         0.20047E+02
         0.19622E+02
        -0.43203E-08
        -0.39423E-08
         0.19862E+02
         0.19516E+02
        -0.37339E-08
        -0.33056E-08
         0.20139E+02
         0.20287E+02
        -0.40919E-08
        -0.45721E-08
         0.19285E+02
        -0.39974E-08
         0.20259E+02
        -0.46971E-08
         0.18900E+02
        -0.42214E-08
         0.18799E+02
        -0.40492E-08
         0.18775E+02
         0.19162E+02
        -0.41256E-08
        -0.40179E-08
         0.20247E+02
         0.20095E+02
        -0.41370E-08
        -0.46768E-08
         0.20329E+02
        -0.39919E-08
         0.20162E+02
        -0.43567E-08
         0.19598E+02
         0.19650E+02
        -0.41937E-08
        -0.43943E-08
         0.19587E+02
        -0.44311E-08
         0.18506E+02
        -0.35009E-08
         0.18436E+02
        -0.33982E-08
         0.18430E+02
        -0.35830E-08
         0.18495E+02
         0.18743E+02
        -0.34138E-08
        -0.35591E-08
         0.19125E+02
        -0.33148E-08
         0.20111E+02
        -0.43469E-08
         0.19907E+02
        -0.44490E-08
         0.19680E+02
         0.19732E+02
        -0.42725E-08
        -0.43223E-08
         0.19867E+02
        -0.39259E-08
         0.19927E+02
        -0.38699E-08
         0.19840E+02
        -0.41428E-08
         0.19728E+02
         0.19851E+02
        -0.40626E-08
        -0.41818E-08
         0.19042E+02
         0.19084E+02
        -0.31542E-08
        -0.29667E-08
         0.18883E+02
        -0.30119E-08
         0.18936E+02
        -0.28879E-08
         0.18812E+02
        -0.28477E-08
         0.18395E+02
        -0.26911E-08
         0.17923E+02
        -0.23907E-08
         0.17695E+02
        -0.21527E-08
         0.17676E+02
        -0.21378E-08
         0.17698E+02
        -0.23183E-08
         0.17970E+02
        -0.24364E-08
         0.18284E+02
        -0.22247E-08
         0.18705E+02
        -0.20054E-08
         0.19078E+02
        -0.20031E-08
         0.19421E+02
        -0.22389E-08
         0.19634E+02
        -0.25529E-08
         0.19568E+02
        -0.27426E-08
         0.19277E+02
        -0.29620E-08
         0.19120E+02
        -0.31733E-08
         0.18821E+02
        -0.29070E-08
         0.18876E+02
        -0.25502E-08
         0.19029E+02
        -0.25423E-08
         0.19051E+02
        -0.27816E-08
         0.19182E+02
        -0.29654E-08
         0.19166E+02
        -0.28141E-08
         0.19172E+02
        -0.27206E-08
        -0.42590E+00
        -0.41514E+00
        -0.41664E+00
        -0.43034E+00
        -0.40411E+00
        -0.41786E+00
        -0.40072E+00
        -0.40985E+00
        -0.42824E+00
        -0.41701E+00
        -0.39050E+00
        -0.38724E+00
        -0.39570E+00
        -0.39632E+00
        -0.39083E+00
        -0.42971E+00
        -0.42723E+00
        -0.43408E+00
        -0.41394E+00
        -0.41779E+00
        -0.41222E+00
        -0.41588E+00
        -0.40905E+00
        -0.41090E+00
        -0.41747E+00
        -0.41701E+00
        -0.40562E+00
        -0.40669E+00
        -0.39787E+00
        -0.41106E+00
        -0.42849E+00
        -0.41499E+00
        -0.42840E+00
        -0.41966E+00
        -0.38500E+00
        -0.39670E+00
        -0.40205E+00
        -0.39571E+00
        -0.39489E+00
        -0.38418E+00
        -0.37606E+00
        -0.39536E+00
        -0.41243E+00
        -0.41021E+00
        -0.40153E+00
        -0.38543E+00
        -0.39925E+00
        -0.41318E+00
        -0.41224E+00
        -0.40149E+00
        -0.38994E+00
        -0.40537E+00
        -0.35515E+00
        -0.37057E+00
        -0.36801E+00
        -0.37151E+00
        -0.37053E+00
        -0.36219E+00
        -0.35354E+00
        -0.35078E+00
        -0.35205E+00
        -0.35113E+00
        -0.34737E+00
        -0.36981E+00
        -0.37800E+00
        -0.38110E+00
        -0.38614E+00
        -0.38988E+00
        -0.38966E+00
        -0.38310E+00
        -0.36034E+00
        -0.36588E+00
        -0.37384E+00
        -0.37381E+00
        -0.37244E+00
        -0.36487E+00
        -0.37598E+00
        -0.37997E+00
         0.25393E-03
         0.94004E-04
         0.88790E-04
         0.63103E-04
         0.26439E-03
         0.14895E-03
         0.15532E-04
         0.20476E-03
         0.12063E-03
         0.17804E-03
         0.19877E-04
         0.86286E-03
         0.50527E-03
         0.68065E-04
         0.92881E-03
         0.12914E-03
         0.49289E-04
         0.36663E-04
         0.55417E-04
         0.19701E-04
         0.53041E-03
         0.47960E-03
         0.43259E-03
         0.24849E-04
         0.58201E-04
         0.57657E-05
         0.33430E-04
        -0.59339E-04
        -0.16885E-04
         0.76008E-04
         0.95664E-04
         0.24253E-04
         0.61107E-04
         0.65037E-04
         0.41174E-03
         0.14872E-03
         0.25342E-03
         0.60826E-03
         0.35484E-03
         0.31388E-03
         0.65295E-03
         0.52976E-03
         0.53986E-03
         0.31357E-03
         0.24991E-03
         0.47811E-03
         0.21021E-03
         0.15693E-03
         0.11643E-03
         0.16526E-03
         0.40323E-03
         0.21118E-03
         0.73317E-02
         0.77311E-02
         0.84178E-02
         0.83298E-02
         0.94888E-02
         0.10949E-01
         0.10075E-01
         0.79848E-02
         0.75749E-02
         0.86500E-02
         0.83041E-02
         0.80736E-02
         0.55104E-02
         0.49978E-02
         0.59968E-02
         0.68594E-02
         0.73924E-02
         0.88210E-02
         0.81681E-02
         0.86459E-02
         0.70145E-02
         0.63151E-02
         0.71660E-02
         0.68480E-02
         0.72706E-02
         0.71661E-02
         0.25279E-03
         0.92506E-04
         0.87356E-04
         0.61838E-04
         0.26241E-03
         0.14717E-03
         0.13994E-04
         0.20349E-03
         0.11935E-03
         0.17733E-03
         0.17991E-04
         0.86060E-03
         0.50373E-03
         0.65614E-04
         0.92859E-03
         0.12773E-03
         0.47700E-04
         0.35243E-04
         0.53683E-04
         0.17749E-04
         0.52859E-03
         0.47766E-03
         0.43055E-03
         0.23015E-04
         0.56863E-04
         0.40154E-05
         0.31696E-04
        -0.61291E-04
        -0.18764E-04
         0.74242E-04
         0.94279E-04
         0.22583E-04
         0.59578E-04
         0.63697E-04
         0.41014E-03
         0.14691E-03
         0.25157E-03
         0.60800E-03
         0.35442E-03
         0.31271E-03
         0.65162E-03
         0.52817E-03
         0.53795E-03
         0.31164E-03
         0.24798E-03
         0.47608E-03
         0.20838E-03
         0.15517E-03
         0.11454E-03
         0.16327E-03
         0.40098E-03
         0.20894E-03
         0.73229E-02
         0.77241E-02
         0.84145E-02
         0.83267E-02
         0.94824E-02
         0.10938E-01
         0.10063E-01
         0.79768E-02
         0.75673E-02
         0.86410E-02
         0.82974E-02
         0.80706E-02
         0.55064E-02
         0.49945E-02
         0.59952E-02
         0.68596E-02
         0.73930E-02
         0.88214E-02
         0.81638E-02
         0.86414E-02
         0.70096E-02
         0.63113E-02
         0.71581E-02
         0.68359E-02
         0.72593E-02
         0.71554E-02
         0.25349E-03
         0.92847E-04
         0.87762E-04
         0.62305E-04
         0.26264E-03
         0.14748E-03
         0.14478E-04
         0.20430E-03
         0.11991E-03
         0.17855E-03
         0.18372E-04
         0.86096E-03
         0.50449E-03
         0.65495E-04
         0.93107E-03
         0.12760E-03
         0.47784E-04
         0.35545E-04
         0.53305E-04
         0.17323E-04
         0.52837E-03
         0.47747E-03
         0.42921E-03
         0.21691E-04
         0.56685E-04
         0.27870E-05
         0.32125E-04
        -0.61598E-04
        -0.19434E-04
         0.73099E-04
         0.94452E-04
         0.22191E-04
         0.59832E-04
         0.64205E-04
         0.41102E-03
         0.14727E-03
         0.25184E-03
         0.61035E-03
         0.35644E-03
         0.31372E-03
         0.65245E-03
         0.52796E-03
         0.53700E-03
         0.31038E-03
         0.24759E-03
         0.47633E-03
         0.20872E-03
         0.15554E-03
         0.11469E-03
         0.16337E-03
         0.40109E-03
         0.20887E-03
         0.73186E-02
         0.77213E-02
         0.84154E-02
         0.83276E-02
         0.94799E-02
         0.10931E-01
         0.10056E-01
         0.79734E-02
         0.75642E-02
         0.86366E-02
         0.82950E-02
         0.80712E-02
         0.55055E-02
         0.49947E-02
         0.59970E-02
         0.68624E-02
         0.73962E-02
         0.88254E-02
         0.81638E-02
         0.86415E-02
         0.70090E-02
         0.63114E-02
         0.71542E-02
         0.68279E-02
         0.72519E-02
         0.71485E-02
         0.25362E-03
         0.92754E-04
         0.87720E-04
         0.62190E-04
         0.26225E-03
         0.14721E-03
         0.14476E-04
         0.20449E-03
         0.11976E-03
         0.17888E-03
         0.18179E-04
         0.86069E-03
         0.50474E-03
         0.64698E-04
         0.93277E-03
         0.12654E-03
         0.46929E-04
         0.35238E-04
         0.51804E-04
         0.15667E-04
         0.52705E-03
         0.47615E-03
         0.42620E-03
         0.18728E-04
         0.54951E-04
        -0.78371E-08
         0.31695E-04
        -0.63179E-04
        -0.21784E-04
         0.69872E-04
         0.93875E-04
         0.20689E-04
         0.59491E-04
         0.64031E-04
         0.41112E-03
         0.14701E-03
         0.25158E-03
         0.61191E-03
         0.35764E-03
         0.31374E-03
         0.65215E-03
         0.52612E-03
         0.53421E-03
         0.30742E-03
         0.24602E-03
         0.47552E-03
         0.20816E-03
         0.15520E-03
         0.11413E-03
         0.16268E-03
         0.40037E-03
         0.20813E-03
         0.73128E-02
         0.77173E-02
         0.84148E-02
         0.83273E-02
         0.94765E-02
         0.10923E-01
         0.10047E-01
         0.79686E-02
         0.75598E-02
         0.86306E-02
         0.82911E-02
         0.80700E-02
         0.55029E-02
         0.49935E-02
         0.59977E-02
         0.68636E-02
         0.73978E-02
         0.88281E-02
         0.81623E-02
         0.86399E-02
         0.70071E-02
         0.63101E-02
         0.71488E-02
         0.68185E-02
         0.72435E-02
         0.71406E-02
         0.25358E-03
         0.92528E-04
         0.87583E-04
         0.62068E-04
         0.26185E-03
         0.14688E-03
         0.14393E-04
         0.20454E-03
         0.11951E-03
         0.17915E-03
         0.17974E-04
         0.86049E-03
         0.50497E-03
         0.63880E-04
         0.93461E-03
         0.12591E-03
         0.46298E-04
         0.34948E-04
         0.50842E-04
         0.14453E-04
         0.52628E-03
         0.47520E-03
         0.42440E-03
         0.16887E-04
         0.53882E-04
        -0.18029E-05
         0.31321E-04
        -0.64325E-04
        -0.23370E-04
         0.67798E-04
         0.93273E-04
         0.19596E-04
         0.58943E-04
         0.63766E-04
         0.41123E-03
         0.14671E-03
         0.25127E-03
         0.61359E-03
         0.35896E-03
         0.31402E-03
         0.65227E-03
         0.52511E-03
         0.53250E-03
         0.30564E-03
         0.24500E-03
         0.47503E-03
         0.20768E-03
         0.15468E-03
         0.11337E-03
         0.16184E-03
         0.39954E-03
         0.20728E-03
         0.73070E-02
         0.77133E-02
         0.84143E-02
         0.83270E-02
         0.94732E-02
         0.10916E-01
         0.10038E-01
         0.79639E-02
         0.75554E-02
         0.86250E-02
         0.82877E-02
         0.80697E-02
         0.55012E-02
         0.49926E-02
         0.59987E-02
         0.68663E-02
         0.74008E-02
         0.88315E-02
         0.81612E-02
         0.86383E-02
         0.70050E-02
         0.63087E-02
         0.71431E-02
         0.68090E-02
         0.72349E-02
         0.71328E-02
         0.25298E-03
         0.92049E-04
         0.87445E-04
         0.62359E-04
         0.26186E-03
         0.14706E-03
         0.14375E-04
         0.20428E-03
         0.11905E-03
         0.17910E-03
         0.18145E-04
         0.86095E-03
         0.50556E-03
         0.63385E-04
         0.93718E-03
         0.12630E-03
         0.46299E-04
         0.35259E-04
         0.51125E-04
         0.14548E-04
         0.52674E-03
         0.47552E-03
         0.42453E-03
         0.16842E-04
         0.53799E-04
        -0.20632E-05
         0.31274E-04
        -0.64486E-04
        -0.23145E-04
         0.67974E-04
         0.92512E-04
         0.19012E-04
         0.58109E-04
         0.63741E-04
         0.41183E-03
         0.14667E-03
         0.25113E-03
         0.61598E-03
         0.36108E-03
         0.31543E-03
         0.65372E-03
         0.52600E-03
         0.53298E-03
         0.30567E-03
         0.24489E-03
         0.47504E-03
         0.20729E-03
         0.15364E-03
         0.11194E-03
         0.16085E-03
         0.39899E-03
         0.20689E-03
         0.73026E-02
         0.77105E-02
         0.84149E-02
         0.83276E-02
         0.94706E-02
         0.10909E-01
         0.10030E-01
         0.79604E-02
         0.75525E-02
         0.86209E-02
         0.82861E-02
         0.80714E-02
         0.55014E-02
         0.49931E-02
         0.60012E-02
         0.68714E-02
         0.74063E-02
         0.88362E-02
         0.81607E-02
         0.86376E-02
         0.70034E-02
         0.63075E-02
         0.71380E-02
         0.68002E-02
         0.72273E-02
         0.71258E-02
         0.25187E-03
         0.91159E-04
         0.87000E-04
         0.62327E-04
         0.26146E-03
         0.14691E-03
         0.13830E-04
         0.20336E-03
         0.11806E-03
         0.17848E-03
         0.17717E-04
         0.86077E-03
         0.50570E-03
         0.62221E-04
         0.93904E-03
         0.12628E-03
         0.45813E-04
         0.35126E-04
         0.51017E-04
         0.14214E-04
         0.52679E-03
         0.47543E-03
         0.42449E-03
         0.16614E-04
         0.53389E-04
        -0.25266E-05
         0.30602E-04
        -0.65086E-04
        -0.23198E-04
         0.67951E-04
         0.91364E-04
         0.18054E-04
         0.56901E-04
         0.63368E-04
         0.41191E-03
         0.14625E-03
         0.25064E-03
         0.61768E-03
         0.36256E-03
         0.31629E-03
         0.65469E-03
         0.52661E-03
         0.53324E-03
         0.30555E-03
         0.24437E-03
         0.47442E-03
         0.20633E-03
         0.15210E-03
         0.11006E-03
         0.15942E-03
         0.39804E-03
         0.20615E-03
         0.72969E-02
         0.77066E-02
         0.84145E-02
         0.83275E-02
         0.94671E-02
         0.10901E-01
         0.10022E-01
         0.79559E-02
         0.75484E-02
         0.86154E-02
         0.82832E-02
         0.80723E-02
         0.55010E-02
         0.49928E-02
         0.60029E-02
         0.68759E-02
         0.74112E-02
         0.88398E-02
         0.81588E-02
         0.86356E-02
         0.70010E-02
         0.63055E-02
         0.71318E-02
         0.67907E-02
         0.72188E-02
         0.71180E-02
         0.25175E-03
         0.90828E-04
         0.86861E-04
         0.62247E-04
         0.26106E-03
         0.14659E-03
         0.13615E-04
         0.20323E-03
         0.11800E-03
         0.17900E-03
         0.17427E-04
         0.86051E-03
         0.50583E-03
         0.61330E-04
         0.94081E-03
         0.12629E-03
         0.45728E-04
         0.34886E-04
         0.50923E-04
         0.13940E-04
         0.52677E-03
         0.47522E-03
         0.42439E-03
         0.16437E-04
         0.53650E-04
        -0.27962E-05
         0.30351E-04
        -0.65419E-04
        -0.23380E-04
         0.67943E-04
         0.91097E-04
         0.17655E-04
         0.56428E-04
         0.63181E-04
         0.41205E-03
         0.14601E-03
         0.25032E-03
         0.61931E-03
         0.36401E-03
         0.31698E-03
         0.65536E-03
         0.52698E-03
         0.53334E-03
         0.30547E-03
         0.24409E-03
         0.47423E-03
         0.20609E-03
         0.15176E-03
         0.10943E-03
         0.15870E-03
         0.39732E-03
         0.20538E-03
         0.72911E-02
         0.77025E-02
         0.84140E-02
         0.83272E-02
         0.94636E-02
         0.10894E-01
         0.10013E-01
         0.79511E-02
         0.75440E-02
         0.86094E-02
         0.82798E-02
         0.80730E-02
         0.55004E-02
         0.49922E-02
         0.60042E-02
         0.68801E-02
         0.74157E-02
         0.88433E-02
         0.81572E-02
         0.86341E-02
         0.69995E-02
         0.63045E-02
         0.71263E-02
         0.67812E-02
         0.72103E-02
         0.71100E-02
         0.25230E-03
         0.91053E-04
         0.87100E-04
         0.62409E-04
         0.26107E-03
         0.14652E-03
         0.13976E-04
         0.20385E-03
         0.11855E-03
         0.18032E-03
         0.17683E-04
         0.86078E-03
         0.50648E-03
         0.61116E-04
         0.94325E-03
         0.12683E-03
         0.46176E-04
         0.34995E-04
         0.51307E-04
         0.14142E-04
         0.52722E-03
         0.47548E-03
         0.42477E-03
         0.16735E-04
         0.54555E-04
        -0.25257E-05
         0.30864E-04
        -0.65097E-04
        -0.22986E-04
         0.68457E-04
         0.91509E-04
         0.17841E-04
         0.56479E-04
         0.63312E-04
         0.41275E-03
         0.14618E-03
         0.25045E-03
         0.62165E-03
         0.36606E-03
         0.31821E-03
         0.65666E-03
         0.52790E-03
         0.53390E-03
         0.30591E-03
         0.24436E-03
         0.47461E-03
         0.20641E-03
         0.15208E-03
         0.10949E-03
         0.15856E-03
         0.39713E-03
         0.20491E-03
         0.72865E-02
         0.76996E-02
         0.84142E-02
         0.83275E-02
         0.94609E-02
         0.10887E-01
         0.10005E-01
         0.79473E-02
         0.75404E-02
         0.86044E-02
         0.82776E-02
         0.80747E-02
         0.55005E-02
         0.49923E-02
         0.60064E-02
         0.68851E-02
         0.74213E-02
         0.88479E-02
         0.81565E-02
         0.86336E-02
         0.69988E-02
         0.63044E-02
         0.71218E-02
         0.67727E-02
         0.72027E-02
         0.71029E-02
         0.25251E-03
         0.91031E-04
         0.87131E-04
         0.62393E-04
         0.26082E-03
         0.14628E-03
         0.14063E-04
         0.20404E-03
         0.11868E-03
         0.18114E-03
         0.17580E-04
         0.86063E-03
         0.50690E-03
         0.60397E-04
         0.94501E-03
         0.12693E-03
         0.46189E-04
         0.34744E-04
         0.51240E-04
         0.13914E-04
         0.52730E-03
         0.47534E-03
         0.42476E-03
         0.16618E-04
         0.55083E-04
        -0.26442E-05
         0.30830E-04
        -0.65160E-04
        -0.22933E-04
         0.68592E-04
         0.91537E-04
         0.17700E-04
         0.56167E-04
         0.63188E-04
         0.41305E-03
         0.14606E-03
         0.25033E-03
         0.62335E-03
         0.36768E-03
         0.31908E-03
         0.65752E-03
         0.52844E-03
         0.53402E-03
         0.30602E-03
         0.24434E-03
         0.47465E-03
         0.20635E-03
         0.15195E-03
         0.10912E-03
         0.15806E-03
         0.39662E-03
         0.20424E-03
         0.72809E-02
         0.76958E-02
         0.84136E-02
         0.83273E-02
         0.94577E-02
         0.10879E-01
         0.99960E-02
         0.79425E-02
         0.75364E-02
         0.85986E-02
         0.82744E-02
         0.80755E-02
         0.54998E-02
         0.49920E-02
         0.60080E-02
         0.68895E-02
         0.74264E-02
         0.88519E-02
         0.81553E-02
         0.86322E-02
         0.69971E-02
         0.63035E-02
         0.71167E-02
         0.67638E-02
         0.71944E-02
         0.70951E-02
         0.25261E-03
         0.90859E-04
         0.87083E-04
         0.62427E-04
         0.26048E-03
         0.14609E-03
         0.14053E-04
         0.20417E-03
         0.11882E-03
         0.18197E-03
         0.17461E-04
         0.86043E-03
         0.50721E-03
         0.59719E-04
         0.94679E-03
         0.12696E-03
         0.46239E-04
         0.34573E-04
         0.51145E-04
         0.13724E-04
         0.52734E-03
         0.47521E-03
         0.42470E-03
         0.16440E-04
         0.55613E-04
        -0.28573E-05
         0.30827E-04
        -0.65264E-04
        -0.22889E-04
         0.68759E-04
         0.91506E-04
         0.17486E-04
         0.55939E-04
         0.63207E-04
         0.41323E-03
         0.14585E-03
         0.25013E-03
         0.62506E-03
         0.36928E-03
         0.31994E-03
         0.65847E-03
         0.52900E-03
         0.53416E-03
         0.30605E-03
         0.24425E-03
         0.47466E-03
         0.20630E-03
         0.15184E-03
         0.10875E-03
         0.15758E-03
         0.39614E-03
         0.20365E-03
         0.72752E-02
         0.76918E-02
         0.84131E-02
         0.83272E-02
         0.94545E-02
         0.10871E-01
         0.99870E-02
         0.79378E-02
         0.75323E-02
         0.85930E-02
         0.82715E-02
         0.80763E-02
         0.54990E-02
         0.49916E-02
         0.60096E-02
         0.68938E-02
         0.74313E-02
         0.88558E-02
         0.81539E-02
         0.86307E-02
         0.69954E-02
         0.63025E-02
         0.71114E-02
         0.67547E-02
         0.71861E-02
         0.70872E-02
         0.25301E-03
         0.90929E-04
         0.87217E-04
         0.62638E-04
         0.26042E-03
         0.14611E-03
         0.14333E-04
         0.20470E-03
         0.11925E-03
         0.18311E-03
         0.17712E-04
         0.86062E-03
         0.50772E-03
         0.59484E-04
         0.94918E-03
         0.12737E-03
         0.46534E-04
         0.34681E-04
         0.51404E-04
         0.13874E-04
         0.52775E-03
         0.47543E-03
         0.42500E-03
         0.16622E-04
         0.56378E-04
        -0.26891E-05
         0.31180E-04
        -0.65065E-04
        -0.22460E-04
         0.69296E-04
         0.91866E-04
         0.17604E-04
         0.56029E-04
         0.63458E-04
         0.41382E-03
         0.14595E-03
         0.25014E-03
         0.62736E-03
         0.37134E-03
         0.32130E-03
         0.65979E-03
         0.52986E-03
         0.53466E-03
         0.30639E-03
         0.24443E-03
         0.47494E-03
         0.20653E-03
         0.15206E-03
         0.10872E-03
         0.15740E-03
         0.39594E-03
         0.20330E-03
         0.72704E-02
         0.76888E-02
         0.84134E-02
         0.83276E-02
         0.94513E-02
         0.10864E-01
         0.99789E-02
         0.79340E-02
         0.75289E-02
         0.85881E-02
         0.82693E-02
         0.80776E-02
         0.54990E-02
         0.49918E-02
         0.60118E-02
         0.68987E-02
         0.74366E-02
         0.88601E-02
         0.81530E-02
         0.86300E-02
         0.69946E-02
         0.63023E-02
         0.71068E-02
         0.67461E-02
         0.71785E-02
         0.70802E-02
         0.25321E-03
         0.90791E-04
         0.87173E-04
         0.62606E-04
         0.26007E-03
         0.14583E-03
         0.14286E-04
         0.20485E-03
         0.11943E-03
         0.18389E-03
         0.17528E-04
         0.86036E-03
         0.50790E-03
         0.58722E-04
         0.95104E-03
         0.12745E-03
         0.46545E-04
         0.34417E-04
         0.51270E-04
         0.13617E-04
         0.52768E-03
         0.47519E-03
         0.42483E-03
         0.16417E-04
         0.56797E-04
        -0.28772E-05
         0.30978E-04
        -0.65377E-04
        -0.22555E-04
         0.69391E-04
         0.91849E-04
         0.17401E-04
         0.55679E-04
         0.63350E-04
         0.41400E-03
         0.14573E-03
         0.24986E-03
         0.62904E-03
         0.37282E-03
         0.32203E-03
         0.66051E-03
         0.53019E-03
         0.53469E-03
         0.30629E-03
         0.24424E-03
         0.47485E-03
         0.20643E-03
         0.15186E-03
         0.10831E-03
         0.15691E-03
         0.39539E-03
         0.20261E-03
         0.72646E-02
         0.76849E-02
         0.84128E-02
         0.83272E-02
         0.94477E-02
         0.10856E-01
         0.99701E-02
         0.79293E-02
         0.75246E-02
         0.85821E-02
         0.82659E-02
         0.80780E-02
         0.54981E-02
         0.49911E-02
         0.60132E-02
         0.69029E-02
         0.74411E-02
         0.88636E-02
         0.81517E-02
         0.86286E-02
         0.69929E-02
         0.63015E-02
         0.71017E-02
         0.67370E-02
         0.71701E-02
         0.70723E-02
         0.25348E-03
         0.90747E-04
         0.87212E-04
         0.62671E-04
         0.25986E-03
         0.14566E-03
         0.14388E-04
         0.20514E-03
         0.11976E-03
         0.18490E-03
         0.17533E-04
         0.86034E-03
         0.50831E-03
         0.58199E-04
         0.95306E-03
         0.12766E-03
         0.46746E-04
         0.34312E-04
         0.51322E-04
         0.13536E-04
         0.52781E-03
         0.47514E-03
         0.42487E-03
         0.16376E-04
         0.57419E-04
        -0.29397E-05
         0.31098E-04
        -0.65440E-04
        -0.22473E-04
         0.69614E-04
         0.91915E-04
         0.17305E-04
         0.55467E-04
         0.63369E-04
         0.41437E-03
         0.14563E-03
         0.24972E-03
         0.63094E-03
         0.37446E-03
         0.32294E-03
         0.66152E-03
         0.53081E-03
         0.53494E-03
         0.30643E-03
         0.24425E-03
         0.47497E-03
         0.20646E-03
         0.15182E-03
         0.10802E-03
         0.15653E-03
         0.39501E-03
         0.20206E-03
         0.72593E-02
         0.76813E-02
         0.84124E-02
         0.83271E-02
         0.94446E-02
         0.10849E-01
         0.99614E-02
         0.79247E-02
         0.75205E-02
         0.85765E-02
         0.82632E-02
         0.80790E-02
         0.54976E-02
         0.49908E-02
         0.60149E-02
         0.69074E-02
         0.74461E-02
         0.88677E-02
         0.81505E-02
         0.86274E-02
         0.69915E-02
         0.63008E-02
         0.70967E-02
         0.67281E-02
         0.71620E-02
         0.70646E-02
         0.25415E-03
         0.91174E-04
         0.87644E-04
         0.63052E-04
         0.26009E-03
         0.14586E-03
         0.15020E-04
         0.20591E-03
         0.12037E-03
         0.18628E-03
         0.18086E-04
         0.86093E-03
         0.50927E-03
         0.58186E-04
         0.95567E-03
         0.12826E-03
         0.47294E-04
         0.34569E-04
         0.51805E-04
         0.13914E-04
         0.52849E-03
         0.47560E-03
         0.42542E-03
         0.16774E-04
         0.58507E-04
        -0.25523E-05
         0.31728E-04
        -0.64863E-04
        -0.21757E-04
         0.70385E-04
         0.92476E-04
         0.17684E-04
         0.55674E-04
         0.63685E-04
         0.41525E-03
         0.14601E-03
         0.25008E-03
         0.63338E-03
         0.37677E-03
         0.32447E-03
         0.66303E-03
         0.53194E-03
         0.53564E-03
         0.30709E-03
         0.24478E-03
         0.47562E-03
         0.20700E-03
         0.15229E-03
         0.10817E-03
         0.15650E-03
         0.39498E-03
         0.20183E-03
         0.72549E-02
         0.76786E-02
         0.84130E-02
         0.83277E-02
         0.94422E-02
         0.10842E-01
         0.99536E-02
         0.79209E-02
         0.75174E-02
         0.85718E-02
         0.82612E-02
         0.80808E-02
         0.54977E-02
         0.49913E-02
         0.60175E-02
         0.69128E-02
         0.74522E-02
         0.88727E-02
         0.81502E-02
         0.86271E-02
         0.69910E-02
         0.63008E-02
         0.70923E-02
         0.67199E-02
         0.71548E-02
         0.70579E-02
         0.25427E-03
         0.91048E-04
         0.87607E-04
         0.62988E-04
         0.25970E-03
         0.14558E-03
         0.14994E-04
         0.20601E-03
         0.12049E-03
         0.18701E-03
         0.17910E-04
         0.86074E-03
         0.50961E-03
         0.57419E-04
         0.95743E-03
         0.12830E-03
         0.47263E-04
         0.34344E-04
         0.51604E-04
         0.13616E-04
         0.52850E-03
         0.47537E-03
         0.42536E-03
         0.16528E-04
         0.58892E-04
        -0.28128E-05
         0.31554E-04
        -0.65080E-04
        -0.21658E-04
         0.70529E-04
         0.92507E-04
         0.17458E-04
         0.55399E-04
         0.63544E-04
         0.41539E-03
         0.14580E-03
         0.24991E-03
         0.63504E-03
         0.37833E-03
         0.32536E-03
         0.66386E-03
         0.53234E-03
         0.53563E-03
         0.30705E-03
         0.24463E-03
         0.47556E-03
         0.20692E-03
         0.15220E-03
         0.10779E-03
         0.15594E-03
         0.39441E-03
         0.20114E-03
         0.72490E-02
         0.76745E-02
         0.84122E-02
         0.83276E-02
         0.94391E-02
         0.10835E-01
         0.99445E-02
         0.79160E-02
         0.75131E-02
         0.85658E-02
         0.82579E-02
         0.80812E-02
         0.54968E-02
         0.49908E-02
         0.60192E-02
         0.69173E-02
         0.74571E-02
         0.88764E-02
         0.81488E-02
         0.86257E-02
         0.69894E-02
         0.62998E-02
         0.70869E-02
         0.67109E-02
         0.71466E-02
         0.70500E-02
         0.25427E-03
         0.90734E-04
         0.87378E-04
         0.62867E-04
         0.25921E-03
         0.14517E-03
         0.14865E-04
         0.20607E-03
         0.12053E-03
         0.18752E-03
         0.17689E-04
         0.86042E-03
         0.50978E-03
         0.56645E-04
         0.95915E-03
         0.12828E-03
         0.47114E-04
         0.34093E-04
         0.51453E-04
         0.13438E-04
         0.52848E-03
         0.47510E-03
         0.42526E-03
         0.16317E-04
         0.59075E-04
        -0.30689E-05
         0.31060E-04
        -0.65422E-04
        -0.20842E-04
         0.71147E-04
         0.92433E-04
         0.17151E-04
         0.55126E-04
         0.63464E-04
         0.41549E-03
         0.14549E-03
         0.24958E-03
         0.63652E-03
         0.37990E-03
         0.32685E-03
         0.66486E-03
         0.53271E-03
         0.53552E-03
         0.30701E-03
         0.24440E-03
         0.47540E-03
         0.20672E-03
         0.15201E-03
         0.10739E-03
         0.15542E-03
         0.39387E-03
         0.20042E-03
         0.72432E-02
         0.76705E-02
         0.84116E-02
         0.83273E-02
         0.94355E-02
         0.10827E-01
         0.99351E-02
         0.79110E-02
         0.75087E-02
         0.85601E-02
         0.82541E-02
         0.80807E-02
         0.54958E-02
         0.49902E-02
         0.60206E-02
         0.69215E-02
         0.74618E-02
         0.88800E-02
         0.81472E-02
         0.86240E-02
         0.69877E-02
         0.62988E-02
         0.70815E-02
         0.67017E-02
         0.71381E-02
         0.70419E-02
         0.25493E-03
         0.91126E-04
         0.87842E-04
         0.63308E-04
         0.25947E-03
         0.14540E-03
         0.15437E-04
         0.20683E-03
         0.12105E-03
         0.18845E-03
         0.18194E-04
         0.86087E-03
         0.51061E-03
         0.56605E-04
         0.96168E-03
         0.12889E-03
         0.47554E-04
         0.34330E-04
         0.52001E-04
         0.14106E-04
         0.52907E-03
         0.47549E-03
         0.42574E-03
         0.16747E-04
         0.59831E-04
        -0.26448E-05
         0.31011E-04
        -0.65067E-04
        -0.18614E-04
         0.72973E-04
         0.92936E-04
         0.17538E-04
         0.55328E-04
         0.63867E-04
         0.41641E-03
         0.14592E-03
         0.24992E-03
         0.63865E-03
         0.38229E-03
         0.32957E-03
         0.66674E-03
         0.53377E-03
         0.53601E-03
         0.30761E-03
         0.24493E-03
         0.47610E-03
         0.20727E-03
         0.15244E-03
         0.10758E-03
         0.15550E-03
         0.39396E-03
         0.20025E-03
         0.72389E-02
         0.76679E-02
         0.84123E-02
         0.83281E-02
         0.94329E-02
         0.10820E-01
         0.99273E-02
         0.79074E-02
         0.75058E-02
         0.85559E-02
         0.82512E-02
         0.80809E-02
         0.54957E-02
         0.49906E-02
         0.60229E-02
         0.69265E-02
         0.74675E-02
         0.88849E-02
         0.81471E-02
         0.86239E-02
         0.69873E-02
         0.62991E-02
         0.70774E-02
         0.66938E-02
         0.71309E-02
         0.70352E-02
         0.25383E-03
         0.89682E-04
         0.86514E-04
         0.62073E-04
         0.25761E-03
         0.14370E-03
         0.13987E-04
         0.20551E-03
         0.11986E-03
         0.18745E-03
         0.16460E-04
         0.85883E-03
         0.50915E-03
         0.54212E-04
         0.96164E-03
         0.12774E-03
         0.46125E-04
         0.32917E-04
         0.50484E-04
         0.12540E-04
         0.52746E-03
         0.47370E-03
         0.42409E-03
         0.15214E-04
         0.58568E-04
        -0.41087E-05
         0.28843E-04
        -0.66910E-04
        -0.19282E-04
         0.72129E-04
         0.91710E-04
         0.16004E-04
         0.53796E-04
         0.62426E-04
         0.41492E-03
         0.14416E-03
         0.24808E-03
         0.63835E-03
         0.38222E-03
         0.32941E-03
         0.66589E-03
         0.53239E-03
         0.53432E-03
         0.30608E-03
         0.24320E-03
         0.47423E-03
         0.20560E-03
         0.15088E-03
         0.10578E-03
         0.15343E-03
         0.39163E-03
         0.19800E-03
         0.72301E-02
         0.76610E-02
         0.84086E-02
         0.83246E-02
         0.94262E-02
         0.10809E-01
         0.99152E-02
         0.78995E-02
         0.74985E-02
         0.85467E-02
         0.82442E-02
         0.80781E-02
         0.54923E-02
         0.49877E-02
         0.60217E-02
         0.69280E-02
         0.74694E-02
         0.88854E-02
         0.81424E-02
         0.86193E-02
         0.69828E-02
         0.62954E-02
         0.70692E-02
         0.66817E-02
         0.71199E-02
         0.70246E-02
         0.25490E-03
         0.89781E-04
         0.86854E-04
         0.62693E-04
         0.25798E-03
         0.14409E-03
         0.14351E-04
         0.20680E-03
         0.12118E-03
         0.18990E-03
         0.16995E-04
         0.85889E-03
         0.50910E-03
         0.54860E-04
         0.96459E-03
         0.12906E-03
         0.47381E-04
         0.33589E-04
         0.51416E-04
         0.13372E-04
         0.52846E-03
         0.47429E-03
         0.42543E-03
         0.16359E-04
         0.60885E-04
        -0.30507E-05
         0.30737E-04
        -0.64838E-04
        -0.17395E-04
         0.73954E-04
         0.92731E-04
         0.16642E-04
         0.54084E-04
         0.62262E-04
         0.41563E-03
         0.14400E-03
         0.24751E-03
         0.64157E-03
         0.38545E-03
         0.33154E-03
         0.66757E-03
         0.53398E-03
         0.53568E-03
         0.30742E-03
         0.24390E-03
         0.47470E-03
         0.20597E-03
         0.15162E-03
         0.10611E-03
         0.15312E-03
         0.39142E-03
         0.19753E-03
         0.72261E-02
         0.76592E-02
         0.84088E-02
         0.83239E-02
         0.94217E-02
         0.10801E-01
         0.99082E-02
         0.78968E-02
         0.74960E-02
         0.85413E-02
         0.82418E-02
         0.80810E-02
         0.54937E-02
         0.49882E-02
         0.60249E-02
         0.69345E-02
         0.74762E-02
         0.88908E-02
         0.81419E-02
         0.86182E-02
         0.69823E-02
         0.62958E-02
         0.70659E-02
         0.66750E-02
         0.71136E-02
         0.70188E-02
         0.56544E-02
         0.57204E-02
         0.56742E-02
         0.51604E-02
         0.67237E-02
         0.61773E-02
         0.61093E-02
         0.63808E-02
         0.54268E-02
         0.63826E-02
         0.68060E-02
         0.87126E-02
         0.75501E-02
         0.70652E-02
         0.90497E-02
         0.53158E-02
         0.56276E-02
         0.49082E-02
         0.58690E-02
         0.60989E-02
         0.70023E-02
         0.69990E-02
         0.66379E-02
         0.55822E-02
         0.62725E-02
         0.53282E-02
         0.69730E-02
         0.66644E-02
         0.67179E-02
         0.64993E-02
         0.53344E-02
         0.55312E-02
         0.51854E-02
         0.54193E-02
         0.76102E-02
         0.65897E-02
         0.67033E-02
         0.83133E-02
         0.77685E-02
         0.75982E-02
         0.81507E-02
         0.76051E-02
         0.72378E-02
         0.63377E-02
         0.65353E-02
         0.77134E-02
         0.67546E-02
         0.62489E-02
         0.60571E-02
         0.63377E-02
         0.72467E-02
         0.64342E-02
         0.19903E-01
         0.20036E-01
         0.21042E-01
         0.20526E-01
         0.21983E-01
         0.23963E-01
         0.23133E-01
         0.20972E-01
         0.20685E-01
         0.22111E-01
         0.21415E-01
         0.20513E-01
         0.16535E-01
         0.15396E-01
         0.16609E-01
         0.17786E-01
         0.18465E-01
         0.20856E-01
         0.20939E-01
         0.21446E-01
         0.18746E-01
         0.17654E-01
         0.18837E-01
         0.18320E-01
         0.18663E-01
         0.18575E-01
         0.59340E-01
         0.61844E-01
         0.60962E-01
         0.55711E-01
         0.68544E-01
         0.64290E-01
         0.66689E-01
         0.67527E-01
         0.57849E-01
         0.67474E-01
         0.73121E-01
         0.83153E-01
         0.75017E-01
         0.75313E-01
         0.86221E-01
         0.56764E-01
         0.60758E-01
         0.53192E-01
         0.62729E-01
         0.65857E-01
         0.68914E-01
         0.70285E-01
         0.66082E-01
         0.60353E-01
         0.68044E-01
         0.58261E-01
         0.75046E-01
         0.73619E-01
         0.73972E-01
         0.70407E-01
         0.57309E-01
         0.60089E-01
         0.56139E-01
         0.58631E-01
         0.75167E-01
         0.68706E-01
         0.69086E-01
         0.83057E-01
         0.80529E-01
         0.79469E-01
         0.81424E-01
         0.77219E-01
         0.73130E-01
         0.64371E-01
         0.66846E-01
         0.75239E-01
         0.69304E-01
         0.65179E-01
         0.63838E-01
         0.66189E-01
         0.72100E-01
         0.66431E-01
         0.12865E+00
         0.12620E+00
         0.12985E+00
         0.12606E+00
         0.13114E+00
         0.13943E+00
         0.14036E+00
         0.13699E+00
         0.13718E+00
         0.14166E+00
         0.13750E+00
         0.12971E+00
         0.11355E+00
         0.10698E+00
         0.10875E+00
         0.11129E+00
         0.11305E+00
         0.12375E+00
         0.13046E+00
         0.13169E+00
         0.12046E+00
         0.11606E+00
         0.12076E+00
         0.11942E+00
         0.11878E+00
         0.11822E+00
  
SCALARS                      strain_yz  double 1
LOOKUP_TABLE default
        -0.10238E+00
         0.33129E-01
         0.87549E-01
         0.46476E-01
        -0.32493E-09
        -0.89558E-10
        -0.40269E-09
        -0.30715E-09
         0.32073E+00
        -0.21352E+00
        -0.59928E-09
        -0.52759E-09
         0.27164E+00
         0.13794E-01
         0.42888E-09
        -0.27497E-10
        -0.10169E+00
        -0.34823E+00
         0.63099E-11
         0.64562E-10
         0.17506E+00
         0.64122E+00
         0.69361E+00
         0.98313E-09
         0.16979E-08
         0.14192E-08
         0.63371E-01
         0.62695E+00
         0.70719E-09
         0.13719E-08
        -0.11604E+00
        -0.97545E-01
         0.88916E-01
         0.36662E-09
         0.37426E-09
        -0.77700E-11
        -0.33753E+00
        -0.31049E+00
         0.67465E-09
         0.52490E-09
        -0.32550E+00
        -0.19964E+00
         0.50986E-09
         0.46595E-09
        -0.30420E+00
        -0.10641E+00
        -0.16913E-10
         0.26161E-09
        -0.25689E+00
         0.12317E-09
        -0.28165E-01
        -0.99761E-11
        -0.14482E-01
         0.47645E-09
         0.94859E-01
         0.27716E-09
         0.30900E+00
        -0.57269E-01
         0.75191E-11
        -0.15261E-10
        -0.14062E+00
        -0.50543E+00
        -0.10245E-09
        -0.38320E-09
        -0.85644E-01
        -0.20679E-09
        -0.36148E+00
        -0.25192E-09
         0.27862E+00
         0.14766E+00
        -0.31133E-10
         0.41106E-09
         0.51190E+00
         0.90263E-09
         0.78466E+00
         0.87397E-09
         0.78600E+00
         0.66344E-09
         0.64836E+00
         0.55608E-09
         0.96353E+00
         0.75731E+00
         0.35672E-09
        -0.79091E-10
         0.11030E+00
        -0.88498E-11
        -0.47452E+00
        -0.55439E-09
        -0.11002E+01
        -0.97052E-09
        -0.15082E+01
        -0.93394E+00
        -0.14395E-08
        -0.11651E-08
        -0.66476E+00
        -0.90443E-09
        -0.60040E+00
        -0.92529E-09
        -0.57978E+00
        -0.99488E-09
        -0.95797E+00
        -0.80388E+00
        -0.92519E-09
        -0.44331E-09
         0.60842E+00
        -0.23272E+00
         0.32532E-09
        -0.40426E-09
         0.14801E+01
         0.10822E-08
         0.21449E+01
         0.15831E-08
         0.25838E+01
         0.19551E-08
         0.28971E+01
         0.19393E-08
         0.32484E+01
         0.15347E-08
         0.32339E+01
         0.11877E-08
         0.30377E+01
         0.11046E-08
         0.27078E+01
         0.10510E-08
         0.20353E+01
         0.67165E-09
         0.14357E+01
         0.22175E-09
         0.75798E+00
         0.14329E-09
        -0.56550E-01
         0.21537E-09
        -0.77600E+00
         0.11124E-09
        -0.14221E+01
        -0.33640E-09
        -0.21922E+01
        -0.94954E-09
        -0.23710E+01
        -0.14827E-08
        -0.25280E+01
        -0.19438E-08
        -0.31567E+01
        -0.19422E-08
        -0.33098E+01
        -0.16954E-08
        -0.30999E+01
        -0.16524E-08
        -0.25046E+01
        -0.16626E-08
        -0.17156E+01
        -0.13148E-08
        -0.12213E+01
        -0.77747E-09
        -0.88535E+00
        -0.60115E-09
        -0.63989E-02
        -0.32144E-02
        -0.28175E-02
        -0.90795E-03
        -0.27881E-02
        -0.30803E-02
        -0.30950E-03
        -0.48814E-02
        -0.44053E-02
        -0.62683E-02
         0.30364E-02
         0.12837E-01
         0.89878E-02
         0.10440E-02
         0.13105E-01
         0.17124E-02
        -0.15070E-02
         0.98827E-03
         0.12212E-02
        -0.93298E-03
         0.84378E-03
         0.70290E-03
        -0.23171E-02
         0.19625E-03
        -0.42848E-02
         0.63264E-03
         0.31730E-04
         0.55644E-03
         0.65846E-03
        -0.32995E-02
         0.16659E-02
        -0.17415E-02
         0.12112E-02
        -0.28804E-03
         0.43081E-03
         0.24160E-02
         0.55022E-02
         0.11681E-01
         0.10647E-01
         0.87170E-02
         0.80129E-02
         0.21072E-02
        -0.18103E-02
        -0.49337E-02
        -0.79523E-02
        -0.12394E-01
        -0.84666E-02
        -0.63179E-02
        -0.67228E-02
        -0.69268E-02
        -0.78577E-02
        -0.37549E-02
         0.61025E-02
        -0.77010E-02
         0.20700E-01
         0.28917E-01
         0.36770E-01
         0.42578E-01
         0.41645E-01
         0.37339E-01
         0.35666E-01
         0.33619E-01
         0.21453E-01
         0.10111E-01
         0.45569E-02
         0.20270E-02
        -0.31527E-02
        -0.12607E-01
        -0.23163E-01
        -0.29652E-01
        -0.33449E-01
        -0.39040E-01
        -0.37674E-01
        -0.35598E-01
        -0.32981E-01
        -0.22402E-01
        -0.13544E-01
        -0.12040E-01
        -0.20227E-01
        -0.12758E-01
        -0.11806E-01
        -0.28002E-02
        -0.15333E-01
        -0.68962E-02
        -0.54686E-02
        -0.19117E-01
        -0.12537E-01
        -0.17980E-01
         0.95064E-02
         0.41133E-01
         0.24371E-01
         0.35026E-02
         0.40525E-01
         0.76708E-02
        -0.23247E-02
         0.22194E-02
         0.10003E-01
         0.19340E-02
         0.86210E-02
         0.61210E-02
        -0.35486E-02
         0.29955E-02
        -0.12108E-01
         0.29949E-02
         0.75151E-03
         0.13971E-02
        -0.22316E-02
        -0.12078E-01
         0.82671E-02
         0.21777E-02
         0.53435E-02
         0.46397E-02
        -0.22120E-02
         0.67435E-02
         0.12875E-01
         0.30801E-01
         0.27164E-01
         0.23939E-01
         0.17585E-01
        -0.43455E-02
        -0.89507E-02
        -0.11181E-01
        -0.14398E-01
        -0.29410E-01
        -0.17114E-01
        -0.11318E-01
        -0.14224E-01
        -0.16792E-01
        -0.17398E-01
        -0.13055E-02
         0.21646E-01
        -0.30959E-01
         0.72031E-01
         0.93091E-01
         0.12011E+00
         0.14407E+00
         0.14115E+00
         0.12334E+00
         0.11822E+00
         0.11693E+00
         0.73433E-01
         0.24204E-01
         0.96517E-02
         0.82715E-02
        -0.38298E-02
        -0.32480E-01
        -0.65059E-01
        -0.90508E-01
        -0.11781E+00
        -0.13062E+00
        -0.11476E+00
        -0.10852E+00
        -0.10817E+00
        -0.76167E-01
        -0.39563E-01
        -0.37462E-01
        -0.20239E-01
        -0.12760E-01
        -0.11811E-01
        -0.28208E-02
        -0.15334E-01
        -0.69015E-02
        -0.54754E-02
        -0.19149E-01
        -0.12559E-01
        -0.18047E-01
         0.95120E-02
         0.41129E-01
         0.24377E-01
         0.35027E-02
         0.40576E-01
         0.76713E-02
        -0.23458E-02
         0.22161E-02
         0.10010E-01
         0.19233E-02
         0.86423E-02
         0.61268E-02
        -0.35495E-02
         0.29941E-02
        -0.12163E-01
         0.29895E-02
         0.76036E-03
         0.14049E-02
        -0.22169E-02
        -0.12104E-01
         0.82685E-02
         0.21730E-02
         0.53554E-02
         0.46473E-02
        -0.21913E-02
         0.67479E-02
         0.12874E-01
         0.30849E-01
         0.27223E-01
         0.23967E-01
         0.17599E-01
        -0.43338E-02
        -0.89598E-02
        -0.11187E-01
        -0.14398E-01
        -0.29410E-01
        -0.17116E-01
        -0.11311E-01
        -0.14205E-01
        -0.16770E-01
        -0.17391E-01
        -0.12857E-02
         0.21626E-01
        -0.30961E-01
         0.72045E-01
         0.93092E-01
         0.12009E+00
         0.14402E+00
         0.14109E+00
         0.12331E+00
         0.11819E+00
         0.11689E+00
         0.73417E-01
         0.24215E-01
         0.96509E-02
         0.82885E-02
        -0.37986E-02
        -0.32497E-01
        -0.65088E-01
        -0.90528E-01
        -0.11781E+00
        -0.13062E+00
        -0.11475E+00
        -0.10851E+00
        -0.10814E+00
        -0.76113E-01
        -0.39519E-01
        -0.37413E-01
        -0.20252E-01
        -0.12762E-01
        -0.11817E-01
        -0.28415E-02
        -0.15336E-01
        -0.69072E-02
        -0.54823E-02
        -0.19181E-01
        -0.12582E-01
        -0.18114E-01
         0.95177E-02
         0.41126E-01
         0.24383E-01
         0.35023E-02
         0.40628E-01
         0.76718E-02
        -0.23672E-02
         0.22127E-02
         0.10017E-01
         0.19123E-02
         0.86639E-02
         0.61325E-02
        -0.35508E-02
         0.29923E-02
        -0.12217E-01
         0.29833E-02
         0.76983E-03
         0.14132E-02
        -0.22008E-02
        -0.12128E-01
         0.82698E-02
         0.21672E-02
         0.53673E-02
         0.46548E-02
        -0.21704E-02
         0.67525E-02
         0.12873E-01
         0.30896E-01
         0.27281E-01
         0.23995E-01
         0.17613E-01
        -0.43209E-02
        -0.89685E-02
        -0.11194E-01
        -0.14400E-01
        -0.29411E-01
        -0.17118E-01
        -0.11304E-01
        -0.14187E-01
        -0.16747E-01
        -0.17384E-01
        -0.12660E-02
         0.21605E-01
        -0.30963E-01
         0.72058E-01
         0.93093E-01
         0.12008E+00
         0.14397E+00
         0.14104E+00
         0.12327E+00
         0.11817E+00
         0.11686E+00
         0.73402E-01
         0.24227E-01
         0.96504E-02
         0.83055E-02
        -0.37672E-02
        -0.32515E-01
        -0.65118E-01
        -0.90550E-01
        -0.11781E+00
        -0.13061E+00
        -0.11474E+00
        -0.10851E+00
        -0.10811E+00
        -0.76059E-01
        -0.39476E-01
        -0.37363E-01
        -0.20265E-01
        -0.12765E-01
        -0.11823E-01
        -0.28624E-02
        -0.15338E-01
        -0.69128E-02
        -0.54895E-02
        -0.19213E-01
        -0.12605E-01
        -0.18180E-01
         0.95234E-02
         0.41122E-01
         0.24390E-01
         0.35024E-02
         0.40680E-01
         0.76724E-02
        -0.23889E-02
         0.22093E-02
         0.10025E-01
         0.19007E-02
         0.86859E-02
         0.61377E-02
        -0.35539E-02
         0.29893E-02
        -0.12270E-01
         0.29751E-02
         0.77961E-03
         0.14242E-02
        -0.21809E-02
        -0.12151E-01
         0.82704E-02
         0.21594E-02
         0.53791E-02
         0.46623E-02
        -0.21496E-02
         0.67569E-02
         0.12873E-01
         0.30944E-01
         0.27341E-01
         0.24025E-01
         0.17629E-01
        -0.43044E-02
        -0.89755E-02
        -0.11205E-01
        -0.14404E-01
        -0.29412E-01
        -0.17121E-01
        -0.11297E-01
        -0.14168E-01
        -0.16725E-01
        -0.17376E-01
        -0.12464E-02
         0.21585E-01
        -0.30965E-01
         0.72072E-01
         0.93093E-01
         0.12007E+00
         0.14392E+00
         0.14098E+00
         0.12323E+00
         0.11814E+00
         0.11683E+00
         0.73388E-01
         0.24242E-01
         0.96505E-02
         0.83222E-02
        -0.37356E-02
        -0.32534E-01
        -0.65154E-01
        -0.90574E-01
        -0.11781E+00
        -0.13060E+00
        -0.11474E+00
        -0.10850E+00
        -0.10808E+00
        -0.76005E-01
        -0.39433E-01
        -0.37314E-01
        -0.20277E-01
        -0.12767E-01
        -0.11829E-01
        -0.28831E-02
        -0.15340E-01
        -0.69183E-02
        -0.54963E-02
        -0.19245E-01
        -0.12627E-01
        -0.18245E-01
         0.95291E-02
         0.41119E-01
         0.24396E-01
         0.35026E-02
         0.40732E-01
         0.76731E-02
        -0.24110E-02
         0.22058E-02
         0.10032E-01
         0.18884E-02
         0.87082E-02
         0.61423E-02
        -0.35585E-02
         0.29851E-02
        -0.12320E-01
         0.29648E-02
         0.79049E-03
         0.14376E-02
        -0.21570E-02
        -0.12171E-01
         0.82704E-02
         0.21492E-02
         0.53908E-02
         0.46699E-02
        -0.21286E-02
         0.67613E-02
         0.12872E-01
         0.30992E-01
         0.27402E-01
         0.24057E-01
         0.17648E-01
        -0.42843E-02
        -0.89809E-02
        -0.11220E-01
        -0.14411E-01
        -0.29416E-01
        -0.17124E-01
        -0.11291E-01
        -0.14149E-01
        -0.16702E-01
        -0.17368E-01
        -0.12266E-02
         0.21565E-01
        -0.30967E-01
         0.72085E-01
         0.93094E-01
         0.12005E+00
         0.14387E+00
         0.14092E+00
         0.12319E+00
         0.11812E+00
         0.11680E+00
         0.73376E-01
         0.24259E-01
         0.96514E-02
         0.83387E-02
        -0.37039E-02
        -0.32554E-01
        -0.65193E-01
        -0.90602E-01
        -0.11781E+00
        -0.13059E+00
        -0.11473E+00
        -0.10850E+00
        -0.10806E+00
        -0.75951E-01
        -0.39389E-01
        -0.37265E-01
        -0.20289E-01
        -0.12769E-01
        -0.11835E-01
        -0.29041E-02
        -0.15341E-01
        -0.69238E-02
        -0.55023E-02
        -0.19275E-01
        -0.12650E-01
        -0.18308E-01
         0.95356E-02
         0.41116E-01
         0.24402E-01
         0.35032E-02
         0.40783E-01
         0.76741E-02
        -0.24336E-02
         0.22024E-02
         0.10040E-01
         0.18759E-02
         0.87305E-02
         0.61467E-02
        -0.35639E-02
         0.29805E-02
        -0.12369E-01
         0.29539E-02
         0.80219E-03
         0.14525E-02
        -0.21314E-02
        -0.12190E-01
         0.82700E-02
         0.21379E-02
         0.54028E-02
         0.46778E-02
        -0.21076E-02
         0.67662E-02
         0.12872E-01
         0.31041E-01
         0.27464E-01
         0.24090E-01
         0.17667E-01
        -0.42630E-02
        -0.89856E-02
        -0.11236E-01
        -0.14420E-01
        -0.29420E-01
        -0.17129E-01
        -0.11286E-01
        -0.14132E-01
        -0.16680E-01
        -0.17361E-01
        -0.12069E-02
         0.21545E-01
        -0.30968E-01
         0.72098E-01
         0.93095E-01
         0.12004E+00
         0.14383E+00
         0.14086E+00
         0.12316E+00
         0.11809E+00
         0.11677E+00
         0.73365E-01
         0.24277E-01
         0.96528E-02
         0.83551E-02
        -0.36723E-02
        -0.32576E-01
        -0.65235E-01
        -0.90630E-01
        -0.11781E+00
        -0.13058E+00
        -0.11472E+00
        -0.10850E+00
        -0.10803E+00
        -0.75897E-01
        -0.39346E-01
        -0.37216E-01
        -0.20300E-01
        -0.12768E-01
        -0.11841E-01
        -0.29257E-02
        -0.15343E-01
        -0.69295E-02
        -0.55071E-02
        -0.19303E-01
        -0.12673E-01
        -0.18369E-01
         0.95434E-02
         0.41114E-01
         0.24411E-01
         0.35059E-02
         0.40836E-01
         0.76754E-02
        -0.24567E-02
         0.21990E-02
         0.10048E-01
         0.18633E-02
         0.87530E-02
         0.61512E-02
        -0.35694E-02
         0.29760E-02
        -0.12417E-01
         0.29429E-02
         0.81599E-03
         0.14684E-02
        -0.21053E-02
        -0.12208E-01
         0.82693E-02
         0.21257E-02
         0.54152E-02
         0.46861E-02
        -0.20864E-02
         0.67714E-02
         0.12872E-01
         0.31090E-01
         0.27526E-01
         0.24122E-01
         0.17687E-01
        -0.42411E-02
        -0.89901E-02
        -0.11253E-01
        -0.14430E-01
        -0.29426E-01
        -0.17136E-01
        -0.11284E-01
        -0.14117E-01
        -0.16658E-01
        -0.17354E-01
        -0.11869E-02
         0.21524E-01
        -0.30970E-01
         0.72111E-01
         0.93096E-01
         0.12002E+00
         0.14378E+00
         0.14080E+00
         0.12312E+00
         0.11807E+00
         0.11673E+00
         0.73353E-01
         0.24295E-01
         0.96541E-02
         0.83716E-02
        -0.36406E-02
        -0.32597E-01
        -0.65276E-01
        -0.90657E-01
        -0.11780E+00
        -0.13057E+00
        -0.11471E+00
        -0.10849E+00
        -0.10800E+00
        -0.75843E-01
        -0.39303E-01
        -0.37167E-01
        -0.20310E-01
        -0.12767E-01
        -0.11847E-01
        -0.29475E-02
        -0.15345E-01
        -0.69350E-02
        -0.55108E-02
        -0.19329E-01
        -0.12697E-01
        -0.18428E-01
         0.95520E-02
         0.41112E-01
         0.24419E-01
         0.35091E-02
         0.40888E-01
         0.76768E-02
        -0.24801E-02
         0.21955E-02
         0.10055E-01
         0.18508E-02
         0.87754E-02
         0.61558E-02
        -0.35747E-02
         0.29717E-02
        -0.12465E-01
         0.29319E-02
         0.83032E-03
         0.14846E-02
        -0.20791E-02
        -0.12226E-01
         0.82684E-02
         0.21131E-02
         0.54278E-02
         0.46947E-02
        -0.20651E-02
         0.67770E-02
         0.12873E-01
         0.31140E-01
         0.27588E-01
         0.24156E-01
         0.17707E-01
        -0.42193E-02
        -0.89944E-02
        -0.11269E-01
        -0.14440E-01
        -0.29433E-01
        -0.17144E-01
        -0.11283E-01
        -0.14103E-01
        -0.16637E-01
        -0.17347E-01
        -0.11669E-02
         0.21504E-01
        -0.30972E-01
         0.72123E-01
         0.93096E-01
         0.12001E+00
         0.14373E+00
         0.14074E+00
         0.12308E+00
         0.11805E+00
         0.11670E+00
         0.73341E-01
         0.24312E-01
         0.96555E-02
         0.83883E-02
        -0.36088E-02
        -0.32618E-01
        -0.65318E-01
        -0.90684E-01
        -0.11780E+00
        -0.13057E+00
        -0.11471E+00
        -0.10849E+00
        -0.10797E+00
        -0.75788E-01
        -0.39260E-01
        -0.37118E-01
        -0.20321E-01
        -0.12767E-01
        -0.11852E-01
        -0.29693E-02
        -0.15347E-01
        -0.69405E-02
        -0.55145E-02
        -0.19355E-01
        -0.12721E-01
        -0.18487E-01
         0.95601E-02
         0.41109E-01
         0.24427E-01
         0.35127E-02
         0.40941E-01
         0.76783E-02
        -0.25036E-02
         0.21920E-02
         0.10063E-01
         0.18382E-02
         0.87979E-02
         0.61605E-02
        -0.35800E-02
         0.29673E-02
        -0.12512E-01
         0.29210E-02
         0.84501E-03
         0.15006E-02
        -0.20530E-02
        -0.12244E-01
         0.82674E-02
         0.21006E-02
         0.54404E-02
         0.47032E-02
        -0.20436E-02
         0.67821E-02
         0.12874E-01
         0.31190E-01
         0.27651E-01
         0.24188E-01
         0.17727E-01
        -0.41976E-02
        -0.89988E-02
        -0.11286E-01
        -0.14450E-01
        -0.29440E-01
        -0.17151E-01
        -0.11282E-01
        -0.14090E-01
        -0.16617E-01
        -0.17340E-01
        -0.11468E-02
         0.21484E-01
        -0.30974E-01
         0.72136E-01
         0.93097E-01
         0.11999E+00
         0.14368E+00
         0.14068E+00
         0.12305E+00
         0.11802E+00
         0.11667E+00
         0.73329E-01
         0.24330E-01
         0.96571E-02
         0.84053E-02
        -0.35772E-02
        -0.32639E-01
        -0.65359E-01
        -0.90712E-01
        -0.11780E+00
        -0.13056E+00
        -0.11470E+00
        -0.10849E+00
        -0.10794E+00
        -0.75734E-01
        -0.39217E-01
        -0.37068E-01
        -0.20331E-01
        -0.12766E-01
        -0.11858E-01
        -0.29910E-02
        -0.15349E-01
        -0.69460E-02
        -0.55182E-02
        -0.19382E-01
        -0.12744E-01
        -0.18546E-01
         0.95687E-02
         0.41107E-01
         0.24435E-01
         0.35157E-02
         0.40993E-01
         0.76798E-02
        -0.25272E-02
         0.21885E-02
         0.10071E-01
         0.18255E-02
         0.88202E-02
         0.61649E-02
        -0.35851E-02
         0.29630E-02
        -0.12560E-01
         0.29101E-02
         0.85931E-03
         0.15165E-02
        -0.20270E-02
        -0.12263E-01
         0.82665E-02
         0.20880E-02
         0.54529E-02
         0.47117E-02
        -0.20222E-02
         0.67877E-02
         0.12875E-01
         0.31239E-01
         0.27714E-01
         0.24221E-01
         0.17747E-01
        -0.41760E-02
        -0.90033E-02
        -0.11302E-01
        -0.14460E-01
        -0.29446E-01
        -0.17159E-01
        -0.11282E-01
        -0.14076E-01
        -0.16596E-01
        -0.17333E-01
        -0.11268E-02
         0.21464E-01
        -0.30975E-01
         0.72148E-01
         0.93098E-01
         0.11998E+00
         0.14363E+00
         0.14062E+00
         0.12301E+00
         0.11800E+00
         0.11663E+00
         0.73318E-01
         0.24348E-01
         0.96587E-02
         0.84222E-02
        -0.35456E-02
        -0.32660E-01
        -0.65400E-01
        -0.90739E-01
        -0.11779E+00
        -0.13055E+00
        -0.11470E+00
        -0.10849E+00
        -0.10792E+00
        -0.75680E-01
        -0.39175E-01
        -0.37019E-01
        -0.20341E-01
        -0.12764E-01
        -0.11864E-01
        -0.30127E-02
        -0.15351E-01
        -0.69515E-02
        -0.55223E-02
        -0.19407E-01
        -0.12768E-01
        -0.18605E-01
         0.95772E-02
         0.41105E-01
         0.24443E-01
         0.35192E-02
         0.41046E-01
         0.76813E-02
        -0.25508E-02
         0.21850E-02
         0.10078E-01
         0.18127E-02
         0.88426E-02
         0.61693E-02
        -0.35905E-02
         0.29588E-02
        -0.12607E-01
         0.28992E-02
         0.87386E-03
         0.15322E-02
        -0.20010E-02
        -0.12281E-01
         0.82656E-02
         0.20754E-02
         0.54654E-02
         0.47203E-02
        -0.20007E-02
         0.67931E-02
         0.12876E-01
         0.31289E-01
         0.27776E-01
         0.24254E-01
         0.17767E-01
        -0.41543E-02
        -0.90076E-02
        -0.11318E-01
        -0.14469E-01
        -0.29453E-01
        -0.17167E-01
        -0.11281E-01
        -0.14063E-01
        -0.16575E-01
        -0.17326E-01
        -0.11068E-02
         0.21443E-01
        -0.30977E-01
         0.72160E-01
         0.93098E-01
         0.11996E+00
         0.14358E+00
         0.14056E+00
         0.12297E+00
         0.11797E+00
         0.11660E+00
         0.73305E-01
         0.24365E-01
         0.96602E-02
         0.84389E-02
        -0.35139E-02
        -0.32682E-01
        -0.65442E-01
        -0.90766E-01
        -0.11779E+00
        -0.13054E+00
        -0.11469E+00
        -0.10848E+00
        -0.10789E+00
        -0.75626E-01
        -0.39132E-01
        -0.36970E-01
        -0.20351E-01
        -0.12764E-01
        -0.11869E-01
        -0.30346E-02
        -0.15353E-01
        -0.69570E-02
        -0.55260E-02
        -0.19433E-01
        -0.12792E-01
        -0.18664E-01
         0.95858E-02
         0.41103E-01
         0.24451E-01
         0.35225E-02
         0.41098E-01
         0.76828E-02
        -0.25745E-02
         0.21815E-02
         0.10086E-01
         0.18001E-02
         0.88651E-02
         0.61736E-02
        -0.35958E-02
         0.29545E-02
        -0.12655E-01
         0.28885E-02
         0.88808E-03
         0.15477E-02
        -0.19749E-02
        -0.12299E-01
         0.82646E-02
         0.20629E-02
         0.54779E-02
         0.47289E-02
        -0.19791E-02
         0.67986E-02
         0.12877E-01
         0.31340E-01
         0.27839E-01
         0.24286E-01
         0.17787E-01
        -0.41329E-02
        -0.90119E-02
        -0.11334E-01
        -0.14479E-01
        -0.29460E-01
        -0.17175E-01
        -0.11281E-01
        -0.14050E-01
        -0.16554E-01
        -0.17319E-01
        -0.10867E-02
         0.21423E-01
        -0.30978E-01
         0.72173E-01
         0.93099E-01
         0.11995E+00
         0.14353E+00
         0.14050E+00
         0.12293E+00
         0.11795E+00
         0.11657E+00
         0.73293E-01
         0.24383E-01
         0.96617E-02
         0.84556E-02
        -0.34821E-02
        -0.32703E-01
        -0.65483E-01
        -0.90793E-01
        -0.11779E+00
        -0.13053E+00
        -0.11469E+00
        -0.10848E+00
        -0.10786E+00
        -0.75571E-01
        -0.39090E-01
        -0.36921E-01
        -0.20362E-01
        -0.12763E-01
        -0.11875E-01
        -0.30566E-02
        -0.15355E-01
        -0.69625E-02
        -0.55298E-02
        -0.19459E-01
        -0.12815E-01
        -0.18722E-01
         0.95944E-02
         0.41101E-01
         0.24460E-01
         0.35255E-02
         0.41151E-01
         0.76842E-02
        -0.25982E-02
         0.21779E-02
         0.10094E-01
         0.17875E-02
         0.88875E-02
         0.61780E-02
        -0.36010E-02
         0.29503E-02
        -0.12702E-01
         0.28775E-02
         0.90272E-03
         0.15631E-02
        -0.19490E-02
        -0.12317E-01
         0.82636E-02
         0.20502E-02
         0.54903E-02
         0.47375E-02
        -0.19575E-02
         0.68042E-02
         0.12878E-01
         0.31389E-01
         0.27902E-01
         0.24319E-01
         0.17806E-01
        -0.41112E-02
        -0.90163E-02
        -0.11351E-01
        -0.14489E-01
        -0.29466E-01
        -0.17183E-01
        -0.11280E-01
        -0.14036E-01
        -0.16533E-01
        -0.17312E-01
        -0.10668E-02
         0.21402E-01
        -0.30980E-01
         0.72185E-01
         0.93100E-01
         0.11994E+00
         0.14348E+00
         0.14044E+00
         0.12290E+00
         0.11792E+00
         0.11653E+00
         0.73281E-01
         0.24400E-01
         0.96631E-02
         0.84724E-02
        -0.34503E-02
        -0.32724E-01
        -0.65525E-01
        -0.90820E-01
        -0.11778E+00
        -0.13052E+00
        -0.11468E+00
        -0.10848E+00
        -0.10783E+00
        -0.75517E-01
        -0.39047E-01
        -0.36872E-01
        -0.20372E-01
        -0.12762E-01
        -0.11881E-01
        -0.30785E-02
        -0.15357E-01
        -0.69680E-02
        -0.55340E-02
        -0.19485E-01
        -0.12839E-01
        -0.18781E-01
         0.96029E-02
         0.41099E-01
         0.24468E-01
         0.35289E-02
         0.41204E-01
         0.76857E-02
        -0.26220E-02
         0.21743E-02
         0.10101E-01
         0.17748E-02
         0.89099E-02
         0.61824E-02
        -0.36063E-02
         0.29461E-02
        -0.12749E-01
         0.28666E-02
         0.91697E-03
         0.15784E-02
        -0.19232E-02
        -0.12335E-01
         0.82626E-02
         0.20376E-02
         0.55027E-02
         0.47461E-02
        -0.19358E-02
         0.68096E-02
         0.12878E-01
         0.31440E-01
         0.27965E-01
         0.24351E-01
         0.17826E-01
        -0.40896E-02
        -0.90206E-02
        -0.11367E-01
        -0.14499E-01
        -0.29473E-01
        -0.17191E-01
        -0.11280E-01
        -0.14023E-01
        -0.16513E-01
        -0.17305E-01
        -0.10469E-02
         0.21382E-01
        -0.30981E-01
         0.72197E-01
         0.93100E-01
         0.11992E+00
         0.14343E+00
         0.14037E+00
         0.12286E+00
         0.11790E+00
         0.11650E+00
         0.73269E-01
         0.24418E-01
         0.96646E-02
         0.84893E-02
        -0.34187E-02
        -0.32745E-01
        -0.65566E-01
        -0.90847E-01
        -0.11778E+00
        -0.13051E+00
        -0.11468E+00
        -0.10848E+00
        -0.10780E+00
        -0.75463E-01
        -0.39005E-01
        -0.36822E-01
        -0.20382E-01
        -0.12761E-01
        -0.11886E-01
        -0.31004E-02
        -0.15359E-01
        -0.69734E-02
        -0.55377E-02
        -0.19511E-01
        -0.12863E-01
        -0.18839E-01
         0.96115E-02
         0.41097E-01
         0.24476E-01
         0.35318E-02
         0.41257E-01
         0.76872E-02
        -0.26459E-02
         0.21708E-02
         0.10109E-01
         0.17621E-02
         0.89324E-02
         0.61867E-02
        -0.36115E-02
         0.29420E-02
        -0.12796E-01
         0.28558E-02
         0.93147E-03
         0.15933E-02
        -0.18974E-02
        -0.12353E-01
         0.82616E-02
         0.20250E-02
         0.55152E-02
         0.47547E-02
        -0.19141E-02
         0.68152E-02
         0.12879E-01
         0.31490E-01
         0.28028E-01
         0.24384E-01
         0.17846E-01
        -0.40680E-02
        -0.90250E-02
        -0.11383E-01
        -0.14509E-01
        -0.29480E-01
        -0.17198E-01
        -0.11279E-01
        -0.14009E-01
        -0.16492E-01
        -0.17298E-01
        -0.10269E-02
         0.21361E-01
        -0.30982E-01
         0.72209E-01
         0.93101E-01
         0.11991E+00
         0.14339E+00
         0.14031E+00
         0.12282E+00
         0.11788E+00
         0.11646E+00
         0.73257E-01
         0.24436E-01
         0.96660E-02
         0.85061E-02
        -0.33871E-02
        -0.32766E-01
        -0.65608E-01
        -0.90874E-01
        -0.11778E+00
        -0.13051E+00
        -0.11467E+00
        -0.10847E+00
        -0.10777E+00
        -0.75409E-01
        -0.38963E-01
        -0.36773E-01
        -0.20392E-01
        -0.12760E-01
        -0.11892E-01
        -0.31222E-02
        -0.15361E-01
        -0.69790E-02
        -0.55416E-02
        -0.19536E-01
        -0.12887E-01
        -0.18897E-01
         0.96201E-02
         0.41095E-01
         0.24484E-01
         0.35351E-02
         0.41309E-01
         0.76886E-02
        -0.26700E-02
         0.21672E-02
         0.10117E-01
         0.17495E-02
         0.89548E-02
         0.61908E-02
        -0.36167E-02
         0.29380E-02
        -0.12843E-01
         0.28448E-02
         0.94558E-03
         0.16080E-02
        -0.18718E-02
        -0.12371E-01
         0.82606E-02
         0.20124E-02
         0.55275E-02
         0.47634E-02
        -0.18922E-02
         0.68205E-02
         0.12880E-01
         0.31541E-01
         0.28090E-01
         0.24416E-01
         0.17866E-01
        -0.40465E-02
        -0.90295E-02
        -0.11399E-01
        -0.14520E-01
        -0.29486E-01
        -0.17206E-01
        -0.11279E-01
        -0.13996E-01
        -0.16471E-01
        -0.17291E-01
        -0.10069E-02
         0.21341E-01
        -0.30984E-01
         0.72221E-01
         0.93102E-01
         0.11989E+00
         0.14334E+00
         0.14025E+00
         0.12278E+00
         0.11785E+00
         0.11643E+00
         0.73246E-01
         0.24453E-01
         0.96674E-02
         0.85226E-02
        -0.33553E-02
        -0.32787E-01
        -0.65649E-01
        -0.90901E-01
        -0.11777E+00
        -0.13050E+00
        -0.11467E+00
        -0.10847E+00
        -0.10774E+00
        -0.75355E-01
        -0.38921E-01
        -0.36724E-01
        -0.20402E-01
        -0.12759E-01
        -0.11897E-01
        -0.31441E-02
        -0.15363E-01
        -0.69844E-02
        -0.55457E-02
        -0.19562E-01
        -0.12911E-01
        -0.18956E-01
         0.96287E-02
         0.41093E-01
         0.24492E-01
         0.35378E-02
         0.41362E-01
         0.76901E-02
        -0.26941E-02
         0.21636E-02
         0.10124E-01
         0.17369E-02
         0.89772E-02
         0.61948E-02
        -0.36219E-02
         0.29339E-02
        -0.12891E-01
         0.28339E-02
         0.96008E-03
         0.16226E-02
        -0.18461E-02
        -0.12389E-01
         0.82595E-02
         0.19998E-02
         0.55399E-02
         0.47721E-02
        -0.18703E-02
         0.68259E-02
         0.12881E-01
         0.31592E-01
         0.28153E-01
         0.24448E-01
         0.17886E-01
        -0.40251E-02
        -0.90340E-02
        -0.11416E-01
        -0.14530E-01
        -0.29493E-01
        -0.17215E-01
        -0.11279E-01
        -0.13983E-01
        -0.16450E-01
        -0.17284E-01
        -0.98709E-03
         0.21320E-01
        -0.30985E-01
         0.72232E-01
         0.93103E-01
         0.11988E+00
         0.14329E+00
         0.14019E+00
         0.12274E+00
         0.11783E+00
         0.11639E+00
         0.73234E-01
         0.24471E-01
         0.96684E-02
         0.85391E-02
        -0.33238E-02
        -0.32808E-01
        -0.65691E-01
        -0.90928E-01
        -0.11777E+00
        -0.13049E+00
        -0.11466E+00
        -0.10847E+00
        -0.10771E+00
        -0.75301E-01
        -0.38879E-01
        -0.36675E-01
        -0.20412E-01
        -0.12758E-01
        -0.11903E-01
        -0.31661E-02
        -0.15365E-01
        -0.69898E-02
        -0.55496E-02
        -0.19587E-01
        -0.12935E-01
        -0.19014E-01
         0.96372E-02
         0.41091E-01
         0.24500E-01
         0.35410E-02
         0.41414E-01
         0.76916E-02
        -0.27185E-02
         0.21599E-02
         0.10132E-01
         0.17250E-02
         0.89995E-02
         0.61987E-02
        -0.36272E-02
         0.29297E-02
        -0.12938E-01
         0.28230E-02
         0.97444E-03
         0.16371E-02
        -0.18205E-02
        -0.12406E-01
         0.82585E-02
         0.19870E-02
         0.55522E-02
         0.47808E-02
        -0.18484E-02
         0.68316E-02
         0.12882E-01
         0.31643E-01
         0.28216E-01
         0.24478E-01
         0.17905E-01
        -0.40035E-02
        -0.90387E-02
        -0.11432E-01
        -0.14540E-01
        -0.29500E-01
        -0.17222E-01
        -0.11278E-01
        -0.13969E-01
        -0.16429E-01
        -0.17277E-01
        -0.96724E-03
         0.21299E-01
        -0.30986E-01
         0.72244E-01
         0.93103E-01
         0.11986E+00
         0.14324E+00
         0.14013E+00
         0.12271E+00
         0.11780E+00
         0.11636E+00
         0.73224E-01
         0.24489E-01
         0.96688E-02
         0.85556E-02
        -0.32923E-02
        -0.32828E-01
        -0.65732E-01
        -0.90955E-01
        -0.11777E+00
        -0.13048E+00
        -0.11466E+00
        -0.10847E+00
        -0.10769E+00
        -0.75247E-01
        -0.38838E-01
        -0.36626E-01
        -0.20422E-01
        -0.12757E-01
        -0.11909E-01
        -0.31880E-02
        -0.15367E-01
        -0.69951E-02
        -0.55534E-02
        -0.19613E-01
        -0.12959E-01
        -0.19072E-01
         0.96458E-02
         0.41089E-01
         0.24509E-01
         0.35441E-02
         0.41467E-01
         0.76930E-02
        -0.27434E-02
         0.21563E-02
         0.10140E-01
         0.17135E-02
         0.90219E-02
         0.62025E-02
        -0.36324E-02
         0.29257E-02
        -0.12985E-01
         0.28121E-02
         0.98941E-03
         0.16515E-02
        -0.17950E-02
        -0.12421E-01
         0.82574E-02
         0.19744E-02
         0.55645E-02
         0.47894E-02
        -0.18263E-02
         0.68370E-02
         0.12882E-01
         0.31695E-01
         0.28278E-01
         0.24507E-01
         0.17924E-01
        -0.39820E-02
        -0.90436E-02
        -0.11448E-01
        -0.14550E-01
        -0.29507E-01
        -0.17230E-01
        -0.11277E-01
        -0.13956E-01
        -0.16408E-01
        -0.17270E-01
        -0.94725E-03
         0.21279E-01
        -0.30987E-01
         0.72256E-01
         0.93104E-01
         0.11985E+00
         0.14319E+00
         0.14007E+00
         0.12267E+00
         0.11778E+00
         0.11632E+00
         0.73215E-01
         0.24507E-01
         0.96685E-02
         0.85721E-02
        -0.32606E-02
        -0.32849E-01
        -0.65774E-01
        -0.90982E-01
        -0.11777E+00
        -0.13047E+00
        -0.11465E+00
        -0.10847E+00
        -0.10766E+00
        -0.75193E-01
        -0.38797E-01
        -0.36576E-01
        -0.20432E-01
        -0.12756E-01
        -0.11915E-01
        -0.32099E-02
        -0.15369E-01
        -0.70006E-02
        -0.55577E-02
        -0.19638E-01
        -0.12983E-01
        -0.19130E-01
         0.96544E-02
         0.41087E-01
         0.24517E-01
         0.35468E-02
         0.41519E-01
         0.76946E-02
        -0.27683E-02
         0.21526E-02
         0.10148E-01
         0.17024E-02
         0.90444E-02
         0.62062E-02
        -0.36373E-02
         0.29220E-02
        -0.13032E-01
         0.28015E-02
         0.10040E-02
         0.16652E-02
        -0.17698E-02
        -0.12437E-01
         0.82565E-02
         0.19620E-02
         0.55768E-02
         0.47983E-02
        -0.18044E-02
         0.68423E-02
         0.12883E-01
         0.31747E-01
         0.28340E-01
         0.24535E-01
         0.17943E-01
        -0.39608E-02
        -0.90489E-02
        -0.11464E-01
        -0.14560E-01
        -0.29514E-01
        -0.17238E-01
        -0.11277E-01
        -0.13943E-01
        -0.16387E-01
        -0.17263E-01
        -0.92739E-03
         0.21258E-01
        -0.30989E-01
         0.72268E-01
         0.93105E-01
         0.11984E+00
         0.14314E+00
         0.14001E+00
         0.12263E+00
         0.11775E+00
         0.11628E+00
         0.73206E-01
         0.24525E-01
         0.96675E-02
         0.85885E-02
        -0.32289E-02
        -0.32870E-01
        -0.65815E-01
        -0.91009E-01
        -0.11776E+00
        -0.13046E+00
        -0.11465E+00
        -0.10846E+00
        -0.10763E+00
        -0.75139E-01
        -0.38755E-01
        -0.36527E-01
        -0.20529E-01
        -0.12811E-01
        -0.11974E-01
        -0.32447E-02
        -0.15438E-01
        -0.70355E-02
        -0.55866E-02
        -0.19745E-01
        -0.13062E-01
        -0.19266E-01
         0.97041E-02
         0.41259E-01
         0.24627E-01
         0.35649E-02
         0.41750E-01
         0.77295E-02
        -0.28037E-02
         0.21581E-02
         0.10198E-01
         0.16998E-02
         0.91026E-02
         0.62358E-02
        -0.36542E-02
         0.29326E-02
        -0.13133E-01
         0.28063E-02
         0.10217E-02
         0.16829E-02
        -0.17570E-02
        -0.12507E-01
         0.82922E-02
         0.19617E-02
         0.56124E-02
         0.48274E-02
        -0.17923E-02
         0.68736E-02
         0.12935E-01
         0.31933E-01
         0.28521E-01
         0.24669E-01
         0.18037E-01
        -0.39617E-02
        -0.90946E-02
        -0.11521E-01
        -0.14625E-01
        -0.29637E-01
        -0.17313E-01
        -0.11320E-01
        -0.13987E-01
        -0.16436E-01
        -0.17329E-01
        -0.91163E-03
         0.21328E-01
        -0.31129E-01
         0.72595E-01
         0.93509E-01
         0.12035E+00
         0.14374E+00
         0.14060E+00
         0.12317E+00
         0.11828E+00
         0.11679E+00
         0.73537E-01
         0.24647E-01
         0.97050E-02
         0.86388E-02
        -0.32118E-02
        -0.33018E-01
        -0.66114E-01
        -0.91415E-01
        -0.11828E+00
        -0.13103E+00
        -0.11513E+00
        -0.10891E+00
        -0.10805E+00
        -0.75408E-01
        -0.38880E-01
        -0.36635E-01
        -0.30669E-01
        -0.19221E-01
        -0.17863E-01
        -0.48817E-02
        -0.22234E-01
        -0.10233E-01
        -0.83672E-02
        -0.29379E-01
        -0.19484E-01
        -0.28611E-01
         0.14288E-01
         0.58348E-01
         0.35350E-01
         0.52276E-02
         0.59390E-01
         0.11559E-01
        -0.42070E-02
         0.32246E-02
         0.15053E-01
         0.25086E-02
         0.13077E-01
         0.90621E-02
        -0.52519E-02
         0.43603E-02
        -0.19700E-01
         0.42058E-02
         0.15233E-02
         0.25259E-02
        -0.26243E-02
        -0.18727E-01
         0.12402E-01
         0.29241E-02
         0.84223E-02
         0.72347E-02
        -0.24993E-02
         0.99827E-02
         0.18785E-01
         0.46432E-01
         0.42071E-01
         0.36513E-01
         0.26329E-01
        -0.58133E-02
        -0.13370E-01
        -0.16689E-01
        -0.21114E-01
        -0.41575E-01
        -0.24914E-01
        -0.16482E-01
        -0.20467E-01
        -0.23945E-01
        -0.24652E-01
        -0.13007E-02
         0.26707E-01
        -0.38957E-01
         0.90851E-01
         0.11734E+00
         0.15090E+00
         0.18064E+00
         0.17868E+00
         0.15790E+00
         0.15138E+00
         0.14857E+00
         0.93660E-01
         0.31334E-01
         0.12468E-01
         0.11151E-01
        -0.40613E-02
        -0.41544E-01
        -0.82936E-01
        -0.11404E+00
        -0.14749E+00
        -0.16357E+00
        -0.14521E+00
        -0.13798E+00
        -0.13639E+00
        -0.95494E-01
        -0.49070E-01
        -0.46063E-01
  
SCALARS                      strain_xz  double 1
LOOKUP_TABLE default
        -0.16895E-01
         0.11591E+00
         0.38920E+00
        -0.27597E-01
        -0.33632E-09
         0.11925E-09
         0.39875E-09
         0.79636E-10
         0.10703E+01
         0.72383E+00
         0.11927E-08
         0.10743E-08
        -0.44062E-01
         0.17955E+00
        -0.14710E-09
        -0.68908E-09
         0.40165E-01
         0.17261E+00
        -0.49775E-09
        -0.74132E-09
         0.24506E+00
         0.40180E+00
         0.39594E+00
        -0.49501E-09
        -0.22826E-09
         0.39879E-09
         0.42555E+00
         0.33236E+00
        -0.92660E-09
        -0.73503E-09
        -0.93836E-01
         0.20102E+00
        -0.20647E-01
         0.94340E-10
        -0.36457E-09
        -0.22460E-09
        -0.27249E+00
        -0.12538E+00
        -0.54127E-09
        -0.57631E-09
        -0.53281E+00
        -0.72743E+00
        -0.12209E-08
        -0.90038E-09
        -0.58744E+00
        -0.31742E+00
        -0.13408E-08
        -0.64536E-09
         0.15336E+00
        -0.40509E-09
        -0.40632E+00
        -0.11276E-09
         0.15308E+00
        -0.79156E-09
        -0.11302E+00
        -0.20939E-09
        -0.49388E+00
        -0.14142E+00
        -0.17937E-09
        -0.43356E-09
         0.10012E-01
        -0.27210E+00
         0.35876E-09
         0.24602E-09
         0.72357E-01
        -0.36086E-10
         0.23813E+00
         0.23736E-09
         0.14868E+01
         0.10194E+01
         0.14836E-08
         0.10760E-08
         0.65005E+00
         0.78346E-09
        -0.13546E+00
        -0.54196E-09
        -0.42075E+00
        -0.10637E-09
        -0.89323E+00
        -0.16502E-09
        -0.11975E+01
        -0.87085E+00
        -0.60477E-09
        -0.69166E-09
        -0.80110E+00
        -0.74384E-09
        -0.71108E+00
        -0.10710E-08
        -0.43441E+00
        -0.68307E-09
        -0.67088E+00
        -0.49289E+00
        -0.29153E-09
         0.39979E-09
         0.11403E+00
         0.46895E-09
         0.31507E+00
         0.19690E-09
         0.75072E+00
         0.48624E-09
         0.11019E+01
         0.76361E+00
         0.11211E-08
         0.11699E-08
         0.25550E+01
         0.28588E+01
         0.20716E-08
         0.20415E-08
         0.25039E+01
         0.17698E-08
         0.23102E+01
         0.13226E-08
         0.16307E+01
         0.72681E-09
         0.11328E+01
         0.77721E-10
         0.40033E+00
        -0.27682E-09
        -0.50231E+00
        -0.22147E-09
        -0.11958E+01
        -0.21768E-09
        -0.17799E+01
        -0.49088E-09
        -0.24676E+01
        -0.93391E-09
        -0.31320E+01
        -0.11145E-08
        -0.35039E+01
        -0.10515E-08
        -0.34614E+01
        -0.11434E-08
        -0.32818E+01
        -0.14840E-08
        -0.30152E+01
        -0.17500E-08
        -0.26488E+01
        -0.16268E-08
        -0.20247E+01
        -0.13221E-08
        -0.11580E+01
        -0.62413E-09
        -0.97030E-01
         0.11918E-09
         0.64073E+00
         0.28935E-09
         0.10164E+01
         0.47315E-09
         0.15185E+01
         0.92599E-09
         0.20173E+01
         0.15195E-08
         0.26648E+01
         0.18256E-08
         0.30862E+01
         0.18672E-08
        -0.19816E-02
         0.10020E-02
         0.11803E-02
        -0.24660E-02
         0.88893E-02
         0.71416E-02
         0.10281E-02
        -0.15493E-02
        -0.84024E-03
        -0.14505E-02
         0.73912E-03
         0.31717E-02
         0.67871E-02
        -0.21742E-02
        -0.25762E-02
         0.32764E-02
         0.27313E-02
        -0.12897E-02
        -0.19005E-02
        -0.20660E-02
        -0.11126E-01
        -0.11967E-01
        -0.10606E-01
        -0.33122E-02
         0.13522E-02
        -0.10064E-02
        -0.31331E-02
        -0.35235E-03
        -0.35172E-02
        -0.25093E-02
         0.29156E-02
         0.55167E-03
        -0.13736E-02
        -0.43380E-03
         0.12452E-01
         0.82033E-02
         0.75372E-02
        -0.51833E-02
        -0.29454E-02
        -0.61086E-02
        -0.12276E-01
        -0.12101E-01
        -0.12533E-01
        -0.91557E-02
        -0.64103E-02
        -0.47902E-02
         0.93574E-03
         0.40631E-02
         0.11719E-02
         0.36056E-02
         0.93220E-02
         0.82019E-02
         0.33340E-01
         0.36719E-01
         0.32576E-01
         0.28018E-01
         0.20812E-01
         0.10341E-01
        -0.59706E-03
        -0.70997E-02
        -0.10859E-01
        -0.18594E-01
        -0.29940E-01
        -0.39079E-01
        -0.36653E-01
        -0.35463E-01
        -0.38037E-01
        -0.38461E-01
        -0.34928E-01
        -0.30010E-01
        -0.14183E-01
         0.22816E-02
         0.89808E-02
         0.10007E-01
         0.16876E-01
         0.26327E-01
         0.35336E-01
         0.37594E-01
        -0.68681E-02
         0.14099E-02
        -0.26842E-02
        -0.78157E-02
         0.16031E-01
         0.13700E-01
         0.39916E-02
        -0.87132E-02
        -0.40037E-02
        -0.82836E-02
        -0.16735E-02
         0.61044E-02
         0.20084E-01
        -0.15403E-01
        -0.15951E-01
         0.13494E-01
         0.75121E-02
        -0.44994E-02
        -0.30279E-02
        -0.53176E-02
        -0.31548E-01
        -0.30066E-01
        -0.29670E-01
        -0.71770E-02
         0.40764E-02
         0.27448E-02
        -0.14885E-01
         0.19764E-02
        -0.49816E-02
        -0.67931E-02
         0.10367E-01
         0.67085E-02
        -0.67240E-02
        -0.58032E-02
         0.28588E-01
         0.15780E-01
         0.18100E-01
        -0.17691E-01
        -0.29621E-02
        -0.85881E-02
        -0.31549E-01
        -0.32454E-01
        -0.31723E-01
        -0.22938E-01
        -0.17665E-01
        -0.10335E-01
         0.11171E-01
         0.13188E-01
        -0.17433E-02
         0.20990E-02
         0.21513E-01
         0.18952E-01
         0.11928E+00
         0.12019E+00
         0.10787E+00
         0.88972E-01
         0.66366E-01
         0.30553E-01
        -0.75877E-02
        -0.24600E-01
        -0.32411E-01
        -0.59392E-01
        -0.10550E+00
        -0.12447E+00
        -0.10446E+00
        -0.99391E-01
        -0.10947E+00
        -0.11271E+00
        -0.10285E+00
        -0.97250E-01
        -0.49559E-01
         0.12879E-01
         0.28499E-01
         0.28879E-01
         0.51331E-01
         0.88884E-01
         0.11376E+00
         0.11340E+00
        -0.68811E-02
         0.14152E-02
        -0.26893E-02
        -0.78209E-02
         0.16015E-01
         0.13687E-01
         0.40170E-02
        -0.86912E-02
        -0.40081E-02
        -0.82771E-02
        -0.16396E-02
         0.61192E-02
         0.20096E-01
        -0.15365E-01
        -0.15943E-01
         0.13508E-01
         0.75286E-02
        -0.44870E-02
        -0.30265E-02
        -0.53083E-02
        -0.31545E-01
        -0.30063E-01
        -0.29668E-01
        -0.71774E-02
         0.40856E-02
         0.27493E-02
        -0.14889E-01
         0.19393E-02
        -0.50166E-02
        -0.67975E-02
         0.10382E-01
         0.67076E-02
        -0.66960E-02
        -0.58058E-02
         0.28603E-01
         0.15772E-01
         0.18094E-01
        -0.17719E-01
        -0.29905E-02
        -0.86152E-02
        -0.31568E-01
        -0.32472E-01
        -0.31724E-01
        -0.22935E-01
        -0.17658E-01
        -0.10330E-01
         0.11169E-01
         0.13192E-01
        -0.17306E-02
         0.20918E-02
         0.21500E-01
         0.18924E-01
         0.11924E+00
         0.12016E+00
         0.10786E+00
         0.88973E-01
         0.66345E-01
         0.30544E-01
        -0.75964E-02
        -0.24615E-01
        -0.32383E-01
        -0.59369E-01
        -0.10549E+00
        -0.12447E+00
        -0.10444E+00
        -0.99386E-01
        -0.10948E+00
        -0.11273E+00
        -0.10287E+00
        -0.97269E-01
        -0.49546E-01
         0.12885E-01
         0.28478E-01
         0.28867E-01
         0.51293E-01
         0.88830E-01
         0.11370E+00
         0.11335E+00
        -0.68941E-02
         0.14203E-02
        -0.26943E-02
        -0.78261E-02
         0.16000E-01
         0.13675E-01
         0.40425E-02
        -0.86691E-02
        -0.40122E-02
        -0.82701E-02
        -0.16058E-02
         0.61341E-02
         0.20108E-01
        -0.15327E-01
        -0.15934E-01
         0.13522E-01
         0.75454E-02
        -0.44744E-02
        -0.30250E-02
        -0.52992E-02
        -0.31542E-01
        -0.30060E-01
        -0.29666E-01
        -0.71778E-02
         0.40954E-02
         0.27543E-02
        -0.14893E-01
         0.19026E-02
        -0.50518E-02
        -0.68017E-02
         0.10398E-01
         0.67071E-02
        -0.66678E-02
        -0.58084E-02
         0.28617E-01
         0.15766E-01
         0.18088E-01
        -0.17747E-01
        -0.30188E-02
        -0.86425E-02
        -0.31588E-01
        -0.32492E-01
        -0.31726E-01
        -0.22932E-01
        -0.17652E-01
        -0.10325E-01
         0.11166E-01
         0.13197E-01
        -0.17175E-02
         0.20844E-02
         0.21486E-01
         0.18896E-01
         0.11920E+00
         0.12013E+00
         0.10785E+00
         0.88973E-01
         0.66325E-01
         0.30535E-01
        -0.76051E-02
        -0.24631E-01
        -0.32356E-01
        -0.59345E-01
        -0.10547E+00
        -0.12448E+00
        -0.10444E+00
        -0.99380E-01
        -0.10949E+00
        -0.11276E+00
        -0.10289E+00
        -0.97288E-01
        -0.49532E-01
         0.12891E-01
         0.28457E-01
         0.28856E-01
         0.51256E-01
         0.88776E-01
         0.11364E+00
         0.11330E+00
        -0.69071E-02
         0.14256E-02
        -0.26993E-02
        -0.78313E-02
         0.15984E-01
         0.13662E-01
         0.40677E-02
        -0.86469E-02
        -0.40159E-02
        -0.82620E-02
        -0.15721E-02
         0.61492E-02
         0.20121E-01
        -0.15290E-01
        -0.15926E-01
         0.13538E-01
         0.75630E-02
        -0.44618E-02
        -0.30237E-02
        -0.52898E-02
        -0.31540E-01
        -0.30057E-01
        -0.29666E-01
        -0.71781E-02
         0.41070E-02
         0.27604E-02
        -0.14897E-01
         0.18670E-02
        -0.50869E-02
        -0.68057E-02
         0.10414E-01
         0.67077E-02
        -0.66395E-02
        -0.58110E-02
         0.28631E-01
         0.15759E-01
         0.18082E-01
        -0.17776E-01
        -0.30471E-02
        -0.86696E-02
        -0.31609E-01
        -0.32512E-01
        -0.31731E-01
        -0.22930E-01
        -0.17645E-01
        -0.10319E-01
         0.11165E-01
         0.13201E-01
        -0.17045E-02
         0.20770E-02
         0.21472E-01
         0.18868E-01
         0.11916E+00
         0.12010E+00
         0.10784E+00
         0.88974E-01
         0.66305E-01
         0.30526E-01
        -0.76138E-02
        -0.24646E-01
        -0.32329E-01
        -0.59322E-01
        -0.10546E+00
        -0.12448E+00
        -0.10443E+00
        -0.99376E-01
        -0.10951E+00
        -0.11279E+00
        -0.10291E+00
        -0.97307E-01
        -0.49518E-01
         0.12897E-01
         0.28436E-01
         0.28845E-01
         0.51218E-01
         0.88721E-01
         0.11359E+00
         0.11325E+00
        -0.69200E-02
         0.14310E-02
        -0.27043E-02
        -0.78364E-02
         0.15968E-01
         0.13650E-01
         0.40932E-02
        -0.86246E-02
        -0.40190E-02
        -0.82525E-02
        -0.15383E-02
         0.61641E-02
         0.20133E-01
        -0.15252E-01
        -0.15917E-01
         0.13554E-01
         0.75813E-02
        -0.44491E-02
        -0.30220E-02
        -0.52803E-02
        -0.31539E-01
        -0.30056E-01
        -0.29667E-01
        -0.71786E-02
         0.41205E-02
         0.27674E-02
        -0.14900E-01
         0.18326E-02
        -0.51219E-02
        -0.68095E-02
         0.10432E-01
         0.67094E-02
        -0.66111E-02
        -0.58136E-02
         0.28646E-01
         0.15751E-01
         0.18077E-01
        -0.17804E-01
        -0.30753E-02
        -0.86970E-02
        -0.31630E-01
        -0.32534E-01
        -0.31737E-01
        -0.22929E-01
        -0.17638E-01
        -0.10313E-01
         0.11164E-01
         0.13206E-01
        -0.16915E-02
         0.20697E-02
         0.21459E-01
         0.18840E-01
         0.11912E+00
         0.12007E+00
         0.10783E+00
         0.88974E-01
         0.66284E-01
         0.30517E-01
        -0.76224E-02
        -0.24661E-01
        -0.32301E-01
        -0.59298E-01
        -0.10544E+00
        -0.12448E+00
        -0.10442E+00
        -0.99372E-01
        -0.10953E+00
        -0.11282E+00
        -0.10293E+00
        -0.97325E-01
        -0.49504E-01
         0.12903E-01
         0.28416E-01
         0.28833E-01
         0.51180E-01
         0.88667E-01
         0.11353E+00
         0.11320E+00
        -0.69324E-02
         0.14367E-02
        -0.27087E-02
        -0.78414E-02
         0.15953E-01
         0.13637E-01
         0.41187E-02
        -0.86018E-02
        -0.40219E-02
        -0.82428E-02
        -0.15045E-02
         0.61790E-02
         0.20145E-01
        -0.15214E-01
        -0.15908E-01
         0.13572E-01
         0.75996E-02
        -0.44364E-02
        -0.30203E-02
        -0.52712E-02
        -0.31539E-01
        -0.30055E-01
        -0.29669E-01
        -0.71792E-02
         0.41340E-02
         0.27746E-02
        -0.14903E-01
         0.17984E-02
        -0.51572E-02
        -0.68139E-02
         0.10450E-01
         0.67109E-02
        -0.65824E-02
        -0.58159E-02
         0.28661E-01
         0.15745E-01
         0.18071E-01
        -0.17832E-01
        -0.31035E-02
        -0.87244E-02
        -0.31652E-01
        -0.32556E-01
        -0.31744E-01
        -0.22928E-01
        -0.17632E-01
        -0.10308E-01
         0.11162E-01
         0.13211E-01
        -0.16781E-02
         0.20630E-02
         0.21446E-01
         0.18813E-01
         0.11907E+00
         0.12004E+00
         0.10782E+00
         0.88975E-01
         0.66264E-01
         0.30508E-01
        -0.76309E-02
        -0.24676E-01
        -0.32274E-01
        -0.59274E-01
        -0.10542E+00
        -0.12449E+00
        -0.10442E+00
        -0.99369E-01
        -0.10955E+00
        -0.11285E+00
        -0.10296E+00
        -0.97343E-01
        -0.49490E-01
         0.12908E-01
         0.28394E-01
         0.28822E-01
         0.51143E-01
         0.88613E-01
         0.11348E+00
         0.11315E+00
        -0.69438E-02
         0.14437E-02
        -0.27121E-02
        -0.78463E-02
         0.15938E-01
         0.13625E-01
         0.41447E-02
        -0.85786E-02
        -0.40251E-02
        -0.82336E-02
        -0.14705E-02
         0.61940E-02
         0.20157E-01
        -0.15176E-01
        -0.15900E-01
         0.13589E-01
         0.76172E-02
        -0.44236E-02
        -0.30189E-02
        -0.52622E-02
        -0.31539E-01
        -0.30054E-01
        -0.29672E-01
        -0.71800E-02
         0.41459E-02
         0.27809E-02
        -0.14906E-01
         0.17634E-02
        -0.51927E-02
        -0.68189E-02
         0.10467E-01
         0.67111E-02
        -0.65531E-02
        -0.58176E-02
         0.28675E-01
         0.15739E-01
         0.18066E-01
        -0.17860E-01
        -0.31319E-02
        -0.87523E-02
        -0.31674E-01
        -0.32579E-01
        -0.31752E-01
        -0.22927E-01
        -0.17626E-01
        -0.10303E-01
         0.11159E-01
         0.13215E-01
        -0.16636E-02
         0.20578E-02
         0.21434E-01
         0.18786E-01
         0.11903E+00
         0.12000E+00
         0.10781E+00
         0.88975E-01
         0.66244E-01
         0.30498E-01
        -0.76393E-02
        -0.24692E-01
        -0.32247E-01
        -0.59251E-01
        -0.10540E+00
        -0.12449E+00
        -0.10442E+00
        -0.99366E-01
        -0.10956E+00
        -0.11289E+00
        -0.10298E+00
        -0.97360E-01
        -0.49476E-01
         0.12913E-01
         0.28373E-01
         0.28811E-01
         0.51106E-01
         0.88560E-01
         0.11342E+00
         0.11310E+00
        -0.69547E-02
         0.14510E-02
        -0.27151E-02
        -0.78510E-02
         0.15923E-01
         0.13612E-01
         0.41710E-02
        -0.85552E-02
        -0.40284E-02
        -0.82248E-02
        -0.14365E-02
         0.62089E-02
         0.20170E-01
        -0.15137E-01
        -0.15891E-01
         0.13606E-01
         0.76344E-02
        -0.44108E-02
        -0.30173E-02
        -0.52539E-02
        -0.31538E-01
        -0.30053E-01
        -0.29675E-01
        -0.71807E-02
         0.41570E-02
         0.27869E-02
        -0.14909E-01
         0.17281E-02
        -0.52287E-02
        -0.68243E-02
         0.10483E-01
         0.67107E-02
        -0.65234E-02
        -0.58190E-02
         0.28691E-01
         0.15734E-01
         0.18062E-01
        -0.17888E-01
        -0.31603E-02
        -0.87801E-02
        -0.31696E-01
        -0.32602E-01
        -0.31759E-01
        -0.22927E-01
        -0.17621E-01
        -0.10300E-01
         0.11157E-01
         0.13219E-01
        -0.16486E-02
         0.20533E-02
         0.21423E-01
         0.18759E-01
         0.11899E+00
         0.11997E+00
         0.10780E+00
         0.88975E-01
         0.66223E-01
         0.30489E-01
        -0.76478E-02
        -0.24707E-01
        -0.32220E-01
        -0.59228E-01
        -0.10539E+00
        -0.12450E+00
        -0.10441E+00
        -0.99362E-01
        -0.10958E+00
        -0.11292E+00
        -0.10300E+00
        -0.97377E-01
        -0.49462E-01
         0.12917E-01
         0.28350E-01
         0.28800E-01
         0.51070E-01
         0.88506E-01
         0.11336E+00
         0.11305E+00
        -0.69656E-02
         0.14583E-02
        -0.27180E-02
        -0.78557E-02
         0.15908E-01
         0.13600E-01
         0.41971E-02
        -0.85318E-02
        -0.40317E-02
        -0.82162E-02
        -0.14025E-02
         0.62238E-02
         0.20183E-01
        -0.15100E-01
        -0.15882E-01
         0.13623E-01
         0.76517E-02
        -0.43980E-02
        -0.30157E-02
        -0.52452E-02
        -0.31538E-01
        -0.30052E-01
        -0.29677E-01
        -0.71818E-02
         0.41680E-02
         0.27928E-02
        -0.14913E-01
         0.16930E-02
        -0.52647E-02
        -0.68298E-02
         0.10499E-01
         0.67103E-02
        -0.64938E-02
        -0.58204E-02
         0.28707E-01
         0.15729E-01
         0.18058E-01
        -0.17916E-01
        -0.31888E-02
        -0.88079E-02
        -0.31718E-01
        -0.32625E-01
        -0.31767E-01
        -0.22927E-01
        -0.17616E-01
        -0.10296E-01
         0.11154E-01
         0.13224E-01
        -0.16337E-02
         0.20490E-02
         0.21412E-01
         0.18732E-01
         0.11895E+00
         0.11994E+00
         0.10779E+00
         0.88976E-01
         0.66203E-01
         0.30480E-01
        -0.76562E-02
        -0.24722E-01
        -0.32193E-01
        -0.59204E-01
        -0.10537E+00
        -0.12450E+00
        -0.10441E+00
        -0.99359E-01
        -0.10960E+00
        -0.11296E+00
        -0.10303E+00
        -0.97394E-01
        -0.49447E-01
         0.12921E-01
         0.28328E-01
         0.28789E-01
         0.51034E-01
         0.88453E-01
         0.11331E+00
         0.11300E+00
        -0.69765E-02
         0.14658E-02
        -0.27208E-02
        -0.78605E-02
         0.15893E-01
         0.13587E-01
         0.42233E-02
        -0.85083E-02
        -0.40350E-02
        -0.82074E-02
        -0.13686E-02
         0.62387E-02
         0.20195E-01
        -0.15062E-01
        -0.15873E-01
         0.13639E-01
         0.76689E-02
        -0.43853E-02
        -0.30140E-02
        -0.52368E-02
        -0.31537E-01
        -0.30051E-01
        -0.29680E-01
        -0.71827E-02
         0.41791E-02
         0.27986E-02
        -0.14916E-01
         0.16580E-02
        -0.53006E-02
        -0.68351E-02
         0.10516E-01
         0.67098E-02
        -0.64643E-02
        -0.58218E-02
         0.28722E-01
         0.15724E-01
         0.18054E-01
        -0.17943E-01
        -0.32174E-02
        -0.88360E-02
        -0.31739E-01
        -0.32648E-01
        -0.31775E-01
        -0.22927E-01
        -0.17611E-01
        -0.10292E-01
         0.11151E-01
         0.13228E-01
        -0.16188E-02
         0.20443E-02
         0.21400E-01
         0.18705E-01
         0.11891E+00
         0.11991E+00
         0.10778E+00
         0.88976E-01
         0.66182E-01
         0.30470E-01
        -0.76646E-02
        -0.24736E-01
        -0.32165E-01
        -0.59181E-01
        -0.10535E+00
        -0.12451E+00
        -0.10440E+00
        -0.99356E-01
        -0.10962E+00
        -0.11299E+00
        -0.10305E+00
        -0.97410E-01
        -0.49433E-01
         0.12925E-01
         0.28306E-01
         0.28778E-01
         0.50997E-01
         0.88400E-01
         0.11325E+00
         0.11295E+00
        -0.69873E-02
         0.14732E-02
        -0.27239E-02
        -0.78651E-02
         0.15878E-01
         0.13575E-01
         0.42494E-02
        -0.84849E-02
        -0.40383E-02
        -0.81988E-02
        -0.13346E-02
         0.62538E-02
         0.20208E-01
        -0.15024E-01
        -0.15864E-01
         0.13656E-01
         0.76861E-02
        -0.43726E-02
        -0.30127E-02
        -0.52280E-02
        -0.31537E-01
        -0.30050E-01
        -0.29682E-01
        -0.71837E-02
         0.41901E-02
         0.28045E-02
        -0.14920E-01
         0.16230E-02
        -0.53364E-02
        -0.68404E-02
         0.10532E-01
         0.67093E-02
        -0.64347E-02
        -0.58232E-02
         0.28738E-01
         0.15718E-01
         0.18049E-01
        -0.17971E-01
        -0.32460E-02
        -0.88636E-02
        -0.31761E-01
        -0.32671E-01
        -0.31782E-01
        -0.22927E-01
        -0.17605E-01
        -0.10288E-01
         0.11148E-01
         0.13232E-01
        -0.16038E-02
         0.20398E-02
         0.21390E-01
         0.18678E-01
         0.11887E+00
         0.11988E+00
         0.10777E+00
         0.88975E-01
         0.66161E-01
         0.30461E-01
        -0.76727E-02
        -0.24751E-01
        -0.32138E-01
        -0.59158E-01
        -0.10534E+00
        -0.12451E+00
        -0.10440E+00
        -0.99352E-01
        -0.10963E+00
        -0.11302E+00
        -0.10307E+00
        -0.97427E-01
        -0.49418E-01
         0.12929E-01
         0.28283E-01
         0.28766E-01
         0.50961E-01
         0.88346E-01
         0.11320E+00
         0.11290E+00
        -0.69982E-02
         0.14806E-02
        -0.27267E-02
        -0.78698E-02
         0.15863E-01
         0.13562E-01
         0.42756E-02
        -0.84614E-02
        -0.40416E-02
        -0.81901E-02
        -0.13007E-02
         0.62689E-02
         0.20221E-01
        -0.14986E-01
        -0.15855E-01
         0.13673E-01
         0.77032E-02
        -0.43599E-02
        -0.30112E-02
        -0.52195E-02
        -0.31536E-01
        -0.30049E-01
        -0.29685E-01
        -0.71848E-02
         0.42010E-02
         0.28105E-02
        -0.14923E-01
         0.15882E-02
        -0.53719E-02
        -0.68459E-02
         0.10548E-01
         0.67088E-02
        -0.64050E-02
        -0.58246E-02
         0.28754E-01
         0.15713E-01
         0.18045E-01
        -0.17999E-01
        -0.32746E-02
        -0.88918E-02
        -0.31783E-01
        -0.32693E-01
        -0.31790E-01
        -0.22927E-01
        -0.17600E-01
        -0.10284E-01
         0.11145E-01
         0.13236E-01
        -0.15888E-02
         0.20355E-02
         0.21378E-01
         0.18651E-01
         0.11883E+00
         0.11985E+00
         0.10776E+00
         0.88976E-01
         0.66141E-01
         0.30452E-01
        -0.76809E-02
        -0.24766E-01
        -0.32111E-01
        -0.59134E-01
        -0.10532E+00
        -0.12452E+00
        -0.10440E+00
        -0.99349E-01
        -0.10965E+00
        -0.11306E+00
        -0.10310E+00
        -0.97444E-01
        -0.49404E-01
         0.12933E-01
         0.28261E-01
         0.28755E-01
         0.50925E-01
         0.88293E-01
         0.11314E+00
         0.11285E+00
        -0.70091E-02
         0.14880E-02
        -0.27295E-02
        -0.78745E-02
         0.15848E-01
         0.13549E-01
         0.43017E-02
        -0.84380E-02
        -0.40448E-02
        -0.81813E-02
        -0.12669E-02
         0.62838E-02
         0.20233E-01
        -0.14949E-01
        -0.15846E-01
         0.13690E-01
         0.77204E-02
        -0.43471E-02
        -0.30097E-02
        -0.52109E-02
        -0.31536E-01
        -0.30048E-01
        -0.29688E-01
        -0.71859E-02
         0.42117E-02
         0.28163E-02
        -0.14927E-01
         0.15533E-02
        -0.54077E-02
        -0.68512E-02
         0.10565E-01
         0.67083E-02
        -0.63753E-02
        -0.58261E-02
         0.28769E-01
         0.15708E-01
         0.18041E-01
        -0.18026E-01
        -0.33034E-02
        -0.89197E-02
        -0.31806E-01
        -0.32716E-01
        -0.31798E-01
        -0.22927E-01
        -0.17595E-01
        -0.10280E-01
         0.11142E-01
         0.13241E-01
        -0.15737E-02
         0.20310E-02
         0.21367E-01
         0.18624E-01
         0.11879E+00
         0.11982E+00
         0.10775E+00
         0.88976E-01
         0.66121E-01
         0.30443E-01
        -0.76893E-02
        -0.24781E-01
        -0.32084E-01
        -0.59110E-01
        -0.10530E+00
        -0.12452E+00
        -0.10439E+00
        -0.99346E-01
        -0.10967E+00
        -0.11309E+00
        -0.10312E+00
        -0.97461E-01
        -0.49390E-01
         0.12937E-01
         0.28239E-01
         0.28744E-01
         0.50889E-01
         0.88240E-01
         0.11309E+00
         0.11280E+00
        -0.70201E-02
         0.14953E-02
        -0.27323E-02
        -0.78791E-02
         0.15834E-01
         0.13537E-01
         0.43275E-02
        -0.84145E-02
        -0.40480E-02
        -0.81724E-02
        -0.12331E-02
         0.62987E-02
         0.20246E-01
        -0.14911E-01
        -0.15837E-01
         0.13707E-01
         0.77375E-02
        -0.43344E-02
        -0.30085E-02
        -0.52025E-02
        -0.31535E-01
        -0.30047E-01
        -0.29690E-01
        -0.71869E-02
         0.42225E-02
         0.28222E-02
        -0.14930E-01
         0.15186E-02
        -0.54434E-02
        -0.68565E-02
         0.10581E-01
         0.67078E-02
        -0.63455E-02
        -0.58274E-02
         0.28785E-01
         0.15703E-01
         0.18036E-01
        -0.18054E-01
        -0.33321E-02
        -0.89479E-02
        -0.31827E-01
        -0.32739E-01
        -0.31805E-01
        -0.22927E-01
        -0.17590E-01
        -0.10276E-01
         0.11139E-01
         0.13245E-01
        -0.15586E-02
         0.20265E-02
         0.21356E-01
         0.18597E-01
         0.11875E+00
         0.11979E+00
         0.10774E+00
         0.88976E-01
         0.66101E-01
         0.30433E-01
        -0.76976E-02
        -0.24795E-01
        -0.32057E-01
        -0.59087E-01
        -0.10528E+00
        -0.12453E+00
        -0.10439E+00
        -0.99343E-01
        -0.10969E+00
        -0.11313E+00
        -0.10314E+00
        -0.97477E-01
        -0.49375E-01
         0.12940E-01
         0.28217E-01
         0.28733E-01
         0.50852E-01
         0.88186E-01
         0.11303E+00
         0.11275E+00
        -0.70310E-02
         0.15026E-02
        -0.27351E-02
        -0.78837E-02
         0.15819E-01
         0.13524E-01
         0.43536E-02
        -0.83911E-02
        -0.40512E-02
        -0.81637E-02
        -0.11994E-02
         0.63140E-02
         0.20259E-01
        -0.14873E-01
        -0.15828E-01
         0.13724E-01
         0.77547E-02
        -0.43217E-02
        -0.30070E-02
        -0.51937E-02
        -0.31535E-01
        -0.30046E-01
        -0.29693E-01
        -0.71879E-02
         0.42332E-02
         0.28280E-02
        -0.14933E-01
         0.14840E-02
        -0.54791E-02
        -0.68617E-02
         0.10597E-01
         0.67072E-02
        -0.63157E-02
        -0.58288E-02
         0.28800E-01
         0.15698E-01
         0.18032E-01
        -0.18081E-01
        -0.33609E-02
        -0.89759E-02
        -0.31849E-01
        -0.32761E-01
        -0.31813E-01
        -0.22927E-01
        -0.17585E-01
        -0.10272E-01
         0.11136E-01
         0.13249E-01
        -0.15434E-02
         0.20221E-02
         0.21345E-01
         0.18570E-01
         0.11871E+00
         0.11976E+00
         0.10773E+00
         0.88976E-01
         0.66080E-01
         0.30424E-01
        -0.77057E-02
        -0.24810E-01
        -0.32030E-01
        -0.59063E-01
        -0.10527E+00
        -0.12453E+00
        -0.10438E+00
        -0.99339E-01
        -0.10970E+00
        -0.11316E+00
        -0.10317E+00
        -0.97494E-01
        -0.49361E-01
         0.12944E-01
         0.28194E-01
         0.28722E-01
         0.50816E-01
         0.88133E-01
         0.11297E+00
         0.11270E+00
        -0.70419E-02
         0.15101E-02
        -0.27379E-02
        -0.78883E-02
         0.15804E-01
         0.13512E-01
         0.43795E-02
        -0.83676E-02
        -0.40545E-02
        -0.81549E-02
        -0.11656E-02
         0.63290E-02
         0.20271E-01
        -0.14836E-01
        -0.15818E-01
         0.13741E-01
         0.77718E-02
        -0.43091E-02
        -0.30055E-02
        -0.51853E-02
        -0.31534E-01
        -0.30045E-01
        -0.29695E-01
        -0.71890E-02
         0.42437E-02
         0.28339E-02
        -0.14937E-01
         0.14493E-02
        -0.55147E-02
        -0.68668E-02
         0.10613E-01
         0.67068E-02
        -0.62860E-02
        -0.58302E-02
         0.28817E-01
         0.15692E-01
         0.18028E-01
        -0.18108E-01
        -0.33898E-02
        -0.90038E-02
        -0.31871E-01
        -0.32784E-01
        -0.31820E-01
        -0.22926E-01
        -0.17580E-01
        -0.10268E-01
         0.11133E-01
         0.13253E-01
        -0.15282E-02
         0.20175E-02
         0.21334E-01
         0.18543E-01
         0.11867E+00
         0.11973E+00
         0.10772E+00
         0.88976E-01
         0.66060E-01
         0.30415E-01
        -0.77137E-02
        -0.24824E-01
        -0.32003E-01
        -0.59040E-01
        -0.10525E+00
        -0.12454E+00
        -0.10438E+00
        -0.99336E-01
        -0.10972E+00
        -0.11320E+00
        -0.10319E+00
        -0.97510E-01
        -0.49346E-01
         0.12948E-01
         0.28172E-01
         0.28711E-01
         0.50780E-01
         0.88080E-01
         0.11292E+00
         0.11265E+00
        -0.70528E-02
         0.15174E-02
        -0.27408E-02
        -0.78929E-02
         0.15790E-01
         0.13499E-01
         0.44055E-02
        -0.83441E-02
        -0.40576E-02
        -0.81458E-02
        -0.11319E-02
         0.63441E-02
         0.20284E-01
        -0.14798E-01
        -0.15809E-01
         0.13757E-01
         0.77889E-02
        -0.42965E-02
        -0.30041E-02
        -0.51766E-02
        -0.31534E-01
        -0.30044E-01
        -0.29698E-01
        -0.71902E-02
         0.42540E-02
         0.28397E-02
        -0.14940E-01
         0.14143E-02
        -0.55500E-02
        -0.68720E-02
         0.10629E-01
         0.67063E-02
        -0.62564E-02
        -0.58318E-02
         0.28833E-01
         0.15687E-01
         0.18024E-01
        -0.18135E-01
        -0.34190E-02
        -0.90321E-02
        -0.31892E-01
        -0.32806E-01
        -0.31827E-01
        -0.22926E-01
        -0.17575E-01
        -0.10264E-01
         0.11130E-01
         0.13257E-01
        -0.15132E-02
         0.20129E-02
         0.21322E-01
         0.18516E-01
         0.11862E+00
         0.11970E+00
         0.10771E+00
         0.88976E-01
         0.66039E-01
         0.30405E-01
        -0.77215E-02
        -0.24838E-01
        -0.31976E-01
        -0.59016E-01
        -0.10523E+00
        -0.12455E+00
        -0.10438E+00
        -0.99333E-01
        -0.10974E+00
        -0.11323E+00
        -0.10321E+00
        -0.97527E-01
        -0.49332E-01
         0.12952E-01
         0.28150E-01
         0.28700E-01
         0.50743E-01
         0.88026E-01
         0.11286E+00
         0.11260E+00
        -0.70638E-02
         0.15248E-02
        -0.27435E-02
        -0.78974E-02
         0.15775E-01
         0.13487E-01
         0.44313E-02
        -0.83206E-02
        -0.40603E-02
        -0.81356E-02
        -0.10982E-02
         0.63592E-02
         0.20296E-01
        -0.14760E-01
        -0.15799E-01
         0.13774E-01
         0.78059E-02
        -0.42838E-02
        -0.30031E-02
        -0.51683E-02
        -0.31533E-01
        -0.30043E-01
        -0.29701E-01
        -0.71912E-02
         0.42637E-02
         0.28458E-02
        -0.14941E-01
         0.13785E-02
        -0.55856E-02
        -0.68775E-02
         0.10646E-01
         0.67057E-02
        -0.62265E-02
        -0.58332E-02
         0.28848E-01
         0.15682E-01
         0.18020E-01
        -0.18162E-01
        -0.34490E-02
        -0.90598E-02
        -0.31912E-01
        -0.32826E-01
        -0.31834E-01
        -0.22926E-01
        -0.17570E-01
        -0.10260E-01
         0.11127E-01
         0.13262E-01
        -0.14982E-02
         0.20084E-02
         0.21312E-01
         0.18489E-01
         0.11858E+00
         0.11967E+00
         0.10770E+00
         0.88976E-01
         0.66019E-01
         0.30396E-01
        -0.77294E-02
        -0.24853E-01
        -0.31949E-01
        -0.58992E-01
        -0.10522E+00
        -0.12455E+00
        -0.10437E+00
        -0.99330E-01
        -0.10976E+00
        -0.11327E+00
        -0.10324E+00
        -0.97543E-01
        -0.49317E-01
         0.12955E-01
         0.28128E-01
         0.28689E-01
         0.50707E-01
         0.87973E-01
         0.11281E+00
         0.11255E+00
        -0.70747E-02
         0.15321E-02
        -0.27463E-02
        -0.79020E-02
         0.15760E-01
         0.13474E-01
         0.44573E-02
        -0.82971E-02
        -0.40629E-02
        -0.81245E-02
        -0.10646E-02
         0.63742E-02
         0.20309E-01
        -0.14722E-01
        -0.15790E-01
         0.13791E-01
         0.78228E-02
        -0.42712E-02
        -0.30017E-02
        -0.51597E-02
        -0.31533E-01
        -0.30042E-01
        -0.29703E-01
        -0.71923E-02
         0.42725E-02
         0.28516E-02
        -0.14942E-01
         0.13416E-02
        -0.56211E-02
        -0.68828E-02
         0.10662E-01
         0.67052E-02
        -0.61967E-02
        -0.58346E-02
         0.28864E-01
         0.15677E-01
         0.18015E-01
        -0.18187E-01
        -0.34798E-02
        -0.90877E-02
        -0.31930E-01
        -0.32845E-01
        -0.31840E-01
        -0.22926E-01
        -0.17565E-01
        -0.10256E-01
         0.11125E-01
         0.13266E-01
        -0.14830E-02
         0.20039E-02
         0.21300E-01
         0.18462E-01
         0.11854E+00
         0.11964E+00
         0.10769E+00
         0.88976E-01
         0.65998E-01
         0.30387E-01
        -0.77372E-02
        -0.24867E-01
        -0.31922E-01
        -0.58967E-01
        -0.10520E+00
        -0.12457E+00
        -0.10437E+00
        -0.99327E-01
        -0.10977E+00
        -0.11330E+00
        -0.10326E+00
        -0.97559E-01
        -0.49303E-01
         0.12959E-01
         0.28105E-01
         0.28678E-01
         0.50671E-01
         0.87920E-01
         0.11275E+00
         0.11250E+00
        -0.70856E-02
         0.15394E-02
        -0.27491E-02
        -0.79066E-02
         0.15745E-01
         0.13462E-01
         0.44829E-02
        -0.82737E-02
        -0.40652E-02
        -0.81132E-02
        -0.10312E-02
         0.63890E-02
         0.20322E-01
        -0.14684E-01
        -0.15780E-01
         0.13808E-01
         0.78396E-02
        -0.42587E-02
        -0.30003E-02
        -0.51514E-02
        -0.31532E-01
        -0.30040E-01
        -0.29706E-01
        -0.71934E-02
         0.42811E-02
         0.28573E-02
        -0.14942E-01
         0.13045E-02
        -0.56563E-02
        -0.68880E-02
         0.10678E-01
         0.67046E-02
        -0.61671E-02
        -0.58361E-02
         0.28880E-01
         0.15672E-01
         0.18011E-01
        -0.18213E-01
        -0.35110E-02
        -0.91148E-02
        -0.31947E-01
        -0.32863E-01
        -0.31845E-01
        -0.22926E-01
        -0.17559E-01
        -0.10253E-01
         0.11122E-01
         0.13271E-01
        -0.14679E-02
         0.19993E-02
         0.21290E-01
         0.18435E-01
         0.11850E+00
         0.11961E+00
         0.10768E+00
         0.88976E-01
         0.65978E-01
         0.30377E-01
        -0.77449E-02
        -0.24881E-01
        -0.31896E-01
        -0.58941E-01
        -0.10518E+00
        -0.12458E+00
        -0.10438E+00
        -0.99324E-01
        -0.10979E+00
        -0.11333E+00
        -0.10328E+00
        -0.97576E-01
        -0.49289E-01
         0.12963E-01
         0.28084E-01
         0.28667E-01
         0.50635E-01
         0.87867E-01
         0.11270E+00
         0.11245E+00
        -0.71262E-02
         0.15518E-02
        -0.27639E-02
        -0.79438E-02
         0.15796E-01
         0.13506E-01
         0.45248E-02
        -0.82885E-02
        -0.40843E-02
        -0.81387E-02
        -0.10066E-02
         0.64273E-02
         0.20417E-01
        -0.14713E-01
        -0.15841E-01
         0.13881E-01
         0.78887E-02
        -0.42648E-02
        -0.30107E-02
        -0.51637E-02
        -0.31658E-01
        -0.30162E-01
        -0.29826E-01
        -0.72242E-02
         0.43072E-02
         0.28744E-02
        -0.15009E-01
         0.12754E-02
        -0.57132E-02
        -0.69221E-02
         0.10738E-01
         0.67317E-02
        -0.61658E-02
        -0.58625E-02
         0.29015E-01
         0.15733E-01
         0.18081E-01
        -0.18317E-01
        -0.35548E-02
        -0.91790E-02
        -0.32102E-01
        -0.33021E-01
        -0.31984E-01
        -0.23017E-01
        -0.17625E-01
        -0.10290E-01
         0.11166E-01
         0.13331E-01
        -0.14607E-02
         0.20029E-02
         0.21368E-01
         0.18486E-01
         0.11899E+00
         0.12010E+00
         0.10814E+00
         0.89363E-01
         0.66250E-01
         0.30502E-01
        -0.77906E-02
        -0.25006E-01
        -0.32019E-01
        -0.59193E-01
        -0.10565E+00
        -0.12515E+00
        -0.10482E+00
        -0.99729E-01
        -0.11025E+00
        -0.11382E+00
        -0.10372E+00
        -0.98001E-01
        -0.49492E-01
         0.13028E-01
         0.28186E-01
         0.28777E-01
         0.50818E-01
         0.88193E-01
         0.11312E+00
         0.11287E+00
        -0.10652E-01
         0.23355E-02
        -0.41235E-02
        -0.11892E-01
         0.22724E-01
         0.19613E-01
         0.67924E-02
        -0.12310E-01
        -0.60853E-02
        -0.12067E-01
        -0.14604E-02
         0.90923E-02
         0.29307E-01
        -0.21537E-01
        -0.22514E-01
         0.20763E-01
         0.11772E-01
        -0.63710E-02
        -0.44417E-02
        -0.76360E-02
        -0.45395E-01
        -0.43810E-01
        -0.42884E-01
        -0.10742E-01
         0.64513E-02
         0.43120E-02
        -0.22165E-01
         0.18767E-02
        -0.86099E-02
        -0.10355E-01
         0.16070E-01
         0.10044E-01
        -0.92082E-02
        -0.87778E-02
         0.40994E-01
         0.22839E-01
         0.26260E-01
        -0.26647E-01
        -0.52618E-02
        -0.13598E-01
        -0.46851E-01
        -0.48543E-01
        -0.46974E-01
        -0.33332E-01
        -0.25441E-01
        -0.14432E-01
         0.16064E-01
         0.19435E-01
        -0.21254E-02
         0.29166E-02
         0.30389E-01
         0.26765E-01
         0.14911E+00
         0.15023E+00
         0.13533E+00
         0.11214E+00
         0.83057E-01
         0.38320E-01
        -0.99155E-02
        -0.32066E-01
        -0.40958E-01
        -0.75287E-01
        -0.13456E+00
        -0.15910E+00
        -0.13473E+00
        -0.12858E+00
        -0.14031E+00
        -0.14321E+00
        -0.13009E+00
        -0.12225E+00
        -0.61703E-01
         0.16274E-01
         0.35546E-01
         0.36451E-01
         0.64134E-01
         0.11170E+00
         0.14282E+00
         0.14200E+00
  
SCALARS                      strain_xy  double 1
LOOKUP_TABLE default
         0.12585E-03
         0.28324E-03
         0.24936E-02
        -0.92337E-04
        -0.54531E-19
         0.53291E-20
         0.80124E-19
         0.12205E-19
         0.25515E-01
        -0.11389E-01
         0.35665E-18
         0.28283E-18
        -0.90127E-03
         0.18659E-03
         0.31480E-19
        -0.94549E-20
        -0.29472E-03
        -0.45266E-02
         0.15672E-20
         0.23882E-19
         0.32813E-02
         0.20014E-01
         0.20921E-01
         0.24284E-18
         0.19339E-18
        -0.28241E-18
         0.20887E-02
         0.16475E-01
         0.32698E-18
         0.50320E-18
         0.78633E-03
        -0.14421E-02
        -0.13031E-03
        -0.17259E-19
         0.68084E-19
        -0.87082E-21
         0.67176E-02
         0.29090E-02
         0.18222E-18
         0.15095E-18
         0.12798E-01
         0.10925E-01
         0.31063E-18
         0.20934E-18
         0.12993E-01
         0.24352E-02
        -0.11316E-19
         0.84247E-19
        -0.29992E-02
         0.24898E-19
         0.82640E-03
        -0.56134E-21
        -0.17244E-03
         0.18819E-18
        -0.83876E-03
         0.28958E-19
        -0.11963E-01
         0.62072E-03
         0.67299E-21
        -0.33016E-20
        -0.10171E-03
         0.10021E-01
         0.18340E-19
         0.47042E-19
        -0.44576E-03
        -0.37237E-20
        -0.62485E-02
         0.29838E-19
         0.31117E-01
         0.11250E-01
         0.23047E-19
        -0.22070E-18
         0.24940E-01
        -0.35288E-18
        -0.84679E-02
         0.23635E-18
        -0.26463E-01
         0.35213E-19
        -0.46397E-01
         0.45790E-19
        -0.92305E-01
        -0.51897E-01
         0.10765E-18
        -0.27297E-19
        -0.67947E-02
        -0.32848E-20
         0.24583E-01
        -0.29626E-18
         0.35244E-01
        -0.33080E-18
         0.75725E-01
         0.34255E-01
        -0.20940E-18
         0.23243E-18
        -0.55931E-02
         0.21164E-18
        -0.13912E-01
         0.90913E-19
        -0.32187E-01
         0.24139E-18
        -0.78709E-01
        -0.45391E-01
         0.51759E-18
         0.25880E-18
         0.12156E+00
        -0.52034E-01
        -0.33629E-18
         0.41183E-18
         0.29342E+00
        -0.95574E-18
         0.39230E+00
        -0.10448E-17
         0.33561E+00
        -0.70906E-18
         0.26826E+00
        -0.75210E-19
         0.10972E+00
         0.21199E-18
        -0.13906E+00
         0.13125E-18
        -0.31130E+00
         0.11999E-18
        -0.41229E+00
         0.25744E-18
        -0.42199E+00
         0.31300E-18
        -0.37188E+00
         0.12332E-18
        -0.21450E+00
         0.75183E-19
         0.15431E-01
         0.12289E-18
         0.19654E+00
         0.82373E-19
         0.32673E+00
        -0.29375E-18
         0.44470E+00
        -0.77078E-18
         0.37238E+00
        -0.97817E-18
         0.22827E+00
        -0.60539E-18
         0.24417E-01
         0.11550E-18
        -0.16899E+00
         0.24479E-18
        -0.24843E+00
         0.39012E-18
        -0.29825E+00
         0.76824E-18
        -0.26852E+00
         0.99686E-18
        -0.25353E+00
         0.70823E-18
        -0.21350E+00
         0.56011E-18
        -0.55212E-05
         0.14064E-05
         0.14515E-05
        -0.97380E-06
         0.10853E-04
         0.95987E-05
         0.13945E-06
        -0.33068E-05
        -0.16107E-05
        -0.39681E-05
        -0.98615E-06
        -0.17905E-04
        -0.26769E-04
         0.99591E-06
         0.14834E-04
        -0.24405E-05
         0.17916E-05
         0.55380E-06
         0.10137E-05
        -0.84109E-06
         0.41025E-05
         0.36721E-05
        -0.10748E-04
         0.28414E-06
         0.25284E-05
         0.27786E-06
         0.43515E-07
         0.85797E-07
         0.10157E-05
        -0.36190E-05
        -0.21135E-05
         0.41951E-06
         0.72392E-06
        -0.54496E-07
        -0.23604E-05
        -0.86951E-05
        -0.18170E-04
         0.26570E-04
         0.13764E-04
         0.23435E-04
         0.43381E-04
         0.11191E-04
        -0.99140E-05
        -0.19749E-04
        -0.22337E-04
        -0.26122E-04
         0.34735E-05
         0.11215E-04
         0.34427E-05
         0.10944E-04
         0.32191E-04
         0.13482E-04
        -0.90189E-04
         0.12489E-03
        -0.29800E-03
        -0.35774E-03
        -0.33799E-03
        -0.19486E-03
         0.11027E-04
         0.11763E-03
         0.17181E-03
         0.27737E-03
         0.28524E-03
         0.17455E-03
         0.73629E-04
         0.31665E-04
        -0.52759E-04
        -0.21313E-03
        -0.35562E-03
        -0.39180E-03
        -0.21003E-03
         0.39385E-04
         0.14931E-03
         0.15719E-03
         0.24570E-03
         0.26083E-03
         0.21110E-03
         0.19943E-03
        -0.69328E-04
         0.89760E-05
        -0.15813E-04
        -0.10921E-04
         0.12267E-03
         0.47147E-04
         0.10892E-04
        -0.83125E-04
        -0.25048E-04
        -0.74327E-04
         0.79386E-05
        -0.12535E-03
        -0.24430E-03
         0.26923E-04
         0.32271E-03
        -0.51653E-04
         0.87143E-05
         0.49831E-05
         0.15115E-04
         0.51320E-05
         0.13575E-03
         0.91854E-04
        -0.52548E-04
         0.10728E-04
         0.24630E-04
        -0.41020E-05
         0.55819E-05
        -0.13778E-05
        -0.55473E-05
        -0.40943E-04
        -0.42768E-04
        -0.72900E-05
         0.17929E-04
         0.13436E-04
         0.31562E-04
        -0.53102E-04
        -0.11630E-03
         0.27199E-03
         0.40158E-04
         0.10261E-03
         0.27693E-03
        -0.70390E-04
        -0.14172E-03
        -0.12800E-03
        -0.12693E-03
        -0.15171E-03
         0.95406E-04
         0.74483E-04
        -0.12375E-04
         0.17589E-04
         0.18681E-03
         0.12347E-04
        -0.12931E-02
         0.18640E-02
        -0.38935E-02
        -0.41502E-02
        -0.39964E-02
        -0.22085E-02
         0.53713E-03
         0.15201E-02
         0.19191E-02
         0.34803E-02
         0.38820E-02
         0.15094E-02
         0.50446E-03
         0.41125E-03
        -0.20982E-03
        -0.18330E-02
        -0.33514E-02
        -0.44115E-02
        -0.29255E-02
         0.84313E-03
         0.16377E-02
         0.15687E-02
         0.27805E-02
         0.33898E-02
         0.22539E-02
         0.21275E-02
        -0.69502E-04
         0.90109E-05
        -0.15851E-04
        -0.11009E-04
         0.12256E-03
         0.47140E-04
         0.10975E-04
        -0.83055E-04
        -0.25120E-04
        -0.74545E-04
         0.77825E-05
        -0.12564E-03
        -0.24451E-03
         0.26857E-04
         0.32295E-03
        -0.51709E-04
         0.88129E-05
         0.49618E-05
         0.15118E-04
         0.50943E-05
         0.13607E-03
         0.91932E-04
        -0.52557E-04
         0.10723E-04
         0.24797E-04
        -0.41013E-05
         0.56493E-05
        -0.13595E-05
        -0.55494E-05
        -0.41056E-04
        -0.42838E-04
        -0.72731E-05
         0.17894E-04
         0.13464E-04
         0.31282E-04
        -0.53112E-04
        -0.11626E-03
         0.27284E-03
         0.40630E-04
         0.10305E-03
         0.27731E-03
        -0.70241E-04
        -0.14187E-03
        -0.12805E-03
        -0.12689E-03
        -0.15163E-03
         0.95398E-04
         0.74464E-04
        -0.12268E-04
         0.17506E-04
         0.18661E-03
         0.12142E-04
        -0.12914E-02
         0.18636E-02
        -0.38939E-02
        -0.41502E-02
        -0.39947E-02
        -0.22071E-02
         0.53752E-03
         0.15206E-02
         0.19171E-02
         0.34779E-02
         0.38806E-02
         0.15101E-02
         0.50437E-03
         0.41207E-03
        -0.20814E-03
        -0.18343E-02
        -0.33535E-02
        -0.44134E-02
        -0.29246E-02
         0.84346E-03
         0.16364E-02
         0.15680E-02
         0.27777E-02
         0.33853E-02
         0.22503E-02
         0.21237E-02
        -0.69677E-04
         0.90455E-05
        -0.15889E-04
        -0.11097E-04
         0.12245E-03
         0.47137E-04
         0.11059E-04
        -0.82983E-04
        -0.25191E-04
        -0.74758E-04
         0.76267E-05
        -0.12593E-03
        -0.24472E-03
         0.26788E-04
         0.32318E-03
        -0.51768E-04
         0.89130E-05
         0.49404E-05
         0.15121E-04
         0.50567E-05
         0.13640E-03
         0.92007E-04
        -0.52574E-04
         0.10717E-04
         0.24967E-04
        -0.41002E-05
         0.57213E-05
        -0.13416E-05
        -0.55479E-05
        -0.41166E-04
        -0.42909E-04
        -0.72533E-05
         0.17858E-04
         0.13492E-04
         0.30999E-04
        -0.53125E-04
        -0.11621E-03
         0.27370E-03
         0.41104E-04
         0.10350E-03
         0.27772E-03
        -0.70073E-04
        -0.14202E-03
        -0.12811E-03
        -0.12686E-03
        -0.15156E-03
         0.95389E-04
         0.74442E-04
        -0.12159E-04
         0.17420E-04
         0.18641E-03
         0.11939E-04
        -0.12898E-02
         0.18632E-02
        -0.38943E-02
        -0.41503E-02
        -0.39930E-02
        -0.22057E-02
         0.53791E-03
         0.15211E-02
         0.19151E-02
         0.34756E-02
         0.38792E-02
         0.15109E-02
         0.50429E-03
         0.41290E-03
        -0.20645E-03
        -0.18357E-02
        -0.33557E-02
        -0.44153E-02
        -0.29237E-02
         0.84379E-03
         0.16351E-02
         0.15674E-02
         0.27750E-02
         0.33808E-02
         0.22467E-02
         0.21200E-02
        -0.69853E-04
         0.90811E-05
        -0.15926E-04
        -0.11186E-04
         0.12235E-03
         0.47131E-04
         0.11142E-04
        -0.82909E-04
        -0.25260E-04
        -0.74956E-04
         0.74710E-05
        -0.12623E-03
        -0.24494E-03
         0.26722E-04
         0.32342E-03
        -0.51832E-04
         0.90158E-05
         0.49188E-05
         0.15125E-04
         0.50170E-05
         0.13674E-03
         0.92079E-04
        -0.52619E-04
         0.10707E-04
         0.25146E-04
        -0.40980E-05
         0.57954E-05
        -0.13268E-05
        -0.55358E-05
        -0.41266E-04
        -0.42981E-04
        -0.72279E-05
         0.17822E-04
         0.13520E-04
         0.30717E-04
        -0.53136E-04
        -0.11616E-03
         0.27456E-03
         0.41580E-04
         0.10395E-03
         0.27815E-03
        -0.69851E-04
        -0.14215E-03
        -0.12823E-03
        -0.12685E-03
        -0.15149E-03
         0.95392E-04
         0.74423E-04
        -0.12051E-04
         0.17335E-04
         0.18621E-03
         0.11736E-04
        -0.12881E-02
         0.18628E-02
        -0.38947E-02
        -0.41504E-02
        -0.39913E-02
        -0.22043E-02
         0.53830E-03
         0.15216E-02
         0.19131E-02
         0.34733E-02
         0.38779E-02
         0.15118E-02
         0.50427E-03
         0.41371E-03
        -0.20475E-03
        -0.18373E-02
        -0.33582E-02
        -0.44174E-02
        -0.29229E-02
         0.84412E-03
         0.16338E-02
         0.15667E-02
         0.27722E-02
         0.33764E-02
         0.22431E-02
         0.21162E-02
        -0.70026E-04
         0.91167E-05
        -0.15963E-04
        -0.11274E-04
         0.12224E-03
         0.47125E-04
         0.11226E-04
        -0.82832E-04
        -0.25325E-04
        -0.75138E-04
         0.73148E-05
        -0.12653E-03
        -0.24515E-03
         0.26658E-04
         0.32366E-03
        -0.51901E-04
         0.91212E-05
         0.48972E-05
         0.15128E-04
         0.49756E-05
         0.13708E-03
         0.92142E-04
        -0.52691E-04
         0.10693E-04
         0.25332E-04
        -0.40942E-05
         0.58775E-05
        -0.13146E-05
        -0.55128E-05
        -0.41356E-04
        -0.43055E-04
        -0.71955E-05
         0.17784E-04
         0.13547E-04
         0.30433E-04
        -0.53147E-04
        -0.11612E-03
         0.27542E-03
         0.42058E-04
         0.10442E-03
         0.27864E-03
        -0.69570E-04
        -0.14226E-03
        -0.12839E-03
        -0.12686E-03
        -0.15142E-03
         0.95402E-04
         0.74410E-04
        -0.11943E-04
         0.17250E-04
         0.18601E-03
         0.11533E-04
        -0.12865E-02
         0.18625E-02
        -0.38950E-02
        -0.41504E-02
        -0.39896E-02
        -0.22029E-02
         0.53868E-03
         0.15220E-02
         0.19111E-02
         0.34709E-02
         0.38766E-02
         0.15130E-02
         0.50429E-03
         0.41451E-03
        -0.20304E-03
        -0.18390E-02
        -0.33610E-02
        -0.44196E-02
        -0.29220E-02
         0.84445E-03
         0.16325E-02
         0.15660E-02
         0.27695E-02
         0.33719E-02
         0.22396E-02
         0.21125E-02
        -0.70193E-04
         0.91545E-05
        -0.15997E-04
        -0.11364E-04
         0.12214E-03
         0.47119E-04
         0.11309E-04
        -0.82744E-04
        -0.25389E-04
        -0.75311E-04
         0.71589E-05
        -0.12683E-03
        -0.24536E-03
         0.26596E-04
         0.32390E-03
        -0.51973E-04
         0.92287E-05
         0.48757E-05
         0.15132E-04
         0.49341E-05
         0.13743E-03
         0.92205E-04
        -0.52775E-04
         0.10678E-04
         0.25516E-04
        -0.40897E-05
         0.59656E-05
        -0.13034E-05
        -0.54848E-05
        -0.41447E-04
        -0.43126E-04
        -0.71591E-05
         0.17747E-04
         0.13576E-04
         0.30147E-04
        -0.53164E-04
        -0.11609E-03
         0.27629E-03
         0.42539E-04
         0.10489E-03
         0.27913E-03
        -0.69271E-04
        -0.14237E-03
        -0.12857E-03
        -0.12689E-03
        -0.15137E-03
         0.95413E-04
         0.74404E-04
        -0.11834E-04
         0.17172E-04
         0.18582E-03
         0.11331E-04
        -0.12848E-02
         0.18621E-02
        -0.38954E-02
        -0.41505E-02
        -0.39879E-02
        -0.22014E-02
         0.53904E-03
         0.15225E-02
         0.19090E-02
         0.34686E-02
         0.38754E-02
         0.15141E-02
         0.50434E-03
         0.41532E-03
        -0.20134E-03
        -0.18408E-02
        -0.33639E-02
        -0.44217E-02
        -0.29212E-02
         0.84474E-03
         0.16311E-02
         0.15653E-02
         0.27668E-02
         0.33674E-02
         0.22360E-02
         0.21088E-02
        -0.70346E-04
         0.91984E-05
        -0.16025E-04
        -0.11455E-04
         0.12204E-03
         0.47115E-04
         0.11390E-04
        -0.82639E-04
        -0.25456E-04
        -0.75476E-04
         0.70030E-05
        -0.12713E-03
        -0.24559E-03
         0.26550E-04
         0.32413E-03
        -0.52047E-04
         0.93378E-05
         0.48541E-05
         0.15136E-04
         0.48929E-05
         0.13779E-03
         0.92270E-04
        -0.52860E-04
         0.10663E-04
         0.25689E-04
        -0.40837E-05
         0.60695E-05
        -0.12920E-05
        -0.54550E-05
        -0.41540E-04
        -0.43191E-04
        -0.71187E-05
         0.17708E-04
         0.13604E-04
         0.29860E-04
        -0.53185E-04
        -0.11606E-03
         0.27716E-03
         0.43026E-04
         0.10537E-03
         0.27964E-03
        -0.68965E-04
        -0.14248E-03
        -0.12875E-03
        -0.12693E-03
        -0.15133E-03
         0.95430E-04
         0.74416E-04
        -0.11719E-04
         0.17107E-04
         0.18564E-03
         0.11127E-04
        -0.12832E-02
         0.18617E-02
        -0.38957E-02
        -0.41505E-02
        -0.39862E-02
        -0.22000E-02
         0.53941E-03
         0.15230E-02
         0.19070E-02
         0.34662E-02
         0.38741E-02
         0.15153E-02
         0.50440E-03
         0.41612E-03
        -0.19963E-03
        -0.18425E-02
        -0.33668E-02
        -0.44239E-02
        -0.29203E-02
         0.84497E-03
         0.16298E-02
         0.15647E-02
         0.27641E-02
         0.33630E-02
         0.22324E-02
         0.21050E-02
        -0.70493E-04
         0.92444E-05
        -0.16051E-04
        -0.11547E-04
         0.12194E-03
         0.47109E-04
         0.11470E-04
        -0.82525E-04
        -0.25524E-04
        -0.75639E-04
         0.68469E-05
        -0.12743E-03
        -0.24583E-03
         0.26507E-04
         0.32437E-03
        -0.52122E-04
         0.94480E-05
         0.48323E-05
         0.15140E-04
         0.48523E-05
         0.13814E-03
         0.92336E-04
        -0.52943E-04
         0.10648E-04
         0.25857E-04
        -0.40772E-05
         0.61775E-05
        -0.12802E-05
        -0.54246E-05
        -0.41636E-04
        -0.43254E-04
        -0.70759E-05
         0.17669E-04
         0.13632E-04
         0.29571E-04
        -0.53212E-04
        -0.11604E-03
         0.27803E-03
         0.43514E-04
         0.10585E-03
         0.28015E-03
        -0.68659E-04
        -0.14258E-03
        -0.12894E-03
        -0.12698E-03
        -0.15131E-03
         0.95450E-04
         0.74434E-04
        -0.11603E-04
         0.17048E-04
         0.18547E-03
         0.10924E-04
        -0.12815E-02
         0.18613E-02
        -0.38960E-02
        -0.41506E-02
        -0.39844E-02
        -0.21986E-02
         0.53977E-03
         0.15235E-02
         0.19050E-02
         0.34638E-02
         0.38728E-02
         0.15165E-02
         0.50445E-03
         0.41694E-03
        -0.19792E-03
        -0.18443E-02
        -0.33697E-02
        -0.44260E-02
        -0.29193E-02
         0.84519E-03
         0.16284E-02
         0.15641E-02
         0.27614E-02
         0.33585E-02
         0.22289E-02
         0.21013E-02
        -0.70639E-04
         0.92908E-05
        -0.16075E-04
        -0.11640E-04
         0.12184E-03
         0.47102E-04
         0.11549E-04
        -0.82410E-04
        -0.25593E-04
        -0.75801E-04
         0.66908E-05
        -0.12773E-03
        -0.24606E-03
         0.26468E-04
         0.32461E-03
        -0.52197E-04
         0.95591E-05
         0.48106E-05
         0.15144E-04
         0.48112E-05
         0.13849E-03
         0.92403E-04
        -0.53027E-04
         0.10634E-04
         0.26025E-04
        -0.40706E-05
         0.62882E-05
        -0.12677E-05
        -0.53933E-05
        -0.41731E-04
        -0.43317E-04
        -0.70336E-05
         0.17629E-04
         0.13660E-04
         0.29280E-04
        -0.53233E-04
        -0.11602E-03
         0.27891E-03
         0.44007E-04
         0.10633E-03
         0.28066E-03
        -0.68354E-04
        -0.14268E-03
        -0.12913E-03
        -0.12703E-03
        -0.15128E-03
         0.95467E-04
         0.74453E-04
        -0.11487E-04
         0.16991E-04
         0.18530E-03
         0.10720E-04
        -0.12799E-02
         0.18610E-02
        -0.38963E-02
        -0.41506E-02
        -0.39827E-02
        -0.21972E-02
         0.54014E-03
         0.15239E-02
         0.19030E-02
         0.34615E-02
         0.38716E-02
         0.15177E-02
         0.50451E-03
         0.41777E-03
        -0.19622E-03
        -0.18460E-02
        -0.33726E-02
        -0.44281E-02
        -0.29184E-02
         0.84540E-03
         0.16271E-02
         0.15634E-02
         0.27587E-02
         0.33541E-02
         0.22253E-02
         0.20976E-02
        -0.70785E-04
         0.93375E-05
        -0.16100E-04
        -0.11732E-04
         0.12174E-03
         0.47095E-04
         0.11629E-04
        -0.82295E-04
        -0.25661E-04
        -0.75962E-04
         0.65347E-05
        -0.12803E-03
        -0.24630E-03
         0.26424E-04
         0.32484E-03
        -0.52272E-04
         0.96710E-05
         0.47891E-05
         0.15147E-04
         0.47703E-05
         0.13884E-03
         0.92467E-04
        -0.53107E-04
         0.10620E-04
         0.26193E-04
        -0.40640E-05
         0.63961E-05
        -0.12547E-05
        -0.53612E-05
        -0.41826E-04
        -0.43379E-04
        -0.69909E-05
         0.17589E-04
         0.13688E-04
         0.28989E-04
        -0.53260E-04
        -0.11600E-03
         0.27979E-03
         0.44501E-04
         0.10681E-03
         0.28116E-03
        -0.68049E-04
        -0.14279E-03
        -0.12932E-03
        -0.12708E-03
        -0.15126E-03
         0.95486E-04
         0.74474E-04
        -0.11371E-04
         0.16931E-04
         0.18513E-03
         0.10518E-04
        -0.12782E-02
         0.18606E-02
        -0.38966E-02
        -0.41506E-02
        -0.39810E-02
        -0.21957E-02
         0.54049E-03
         0.15244E-02
         0.19010E-02
         0.34591E-02
         0.38703E-02
         0.15188E-02
         0.50457E-03
         0.41860E-03
        -0.19452E-03
        -0.18478E-02
        -0.33755E-02
        -0.44302E-02
        -0.29175E-02
         0.84561E-03
         0.16257E-02
         0.15628E-02
         0.27560E-02
         0.33496E-02
         0.22218E-02
         0.20939E-02
        -0.70931E-04
         0.93838E-05
        -0.16125E-04
        -0.11824E-04
         0.12165E-03
         0.47090E-04
         0.11710E-04
        -0.82178E-04
        -0.25730E-04
        -0.76123E-04
         0.63781E-05
        -0.12833E-03
        -0.24654E-03
         0.26384E-04
         0.32507E-03
        -0.52347E-04
         0.97834E-05
         0.47676E-05
         0.15152E-04
         0.47289E-05
         0.13919E-03
         0.92530E-04
        -0.53191E-04
         0.10606E-04
         0.26360E-04
        -0.40573E-05
         0.65060E-05
        -0.12409E-05
        -0.53282E-05
        -0.41920E-04
        -0.43441E-04
        -0.69484E-05
         0.17549E-04
         0.13716E-04
         0.28697E-04
        -0.53284E-04
        -0.11598E-03
         0.28068E-03
         0.44998E-04
         0.10729E-03
         0.28167E-03
        -0.67744E-04
        -0.14289E-03
        -0.12950E-03
        -0.12713E-03
        -0.15124E-03
         0.95506E-04
         0.74493E-04
        -0.11255E-04
         0.16872E-04
         0.18496E-03
         0.10316E-04
        -0.12765E-02
         0.18602E-02
        -0.38969E-02
        -0.41506E-02
        -0.39793E-02
        -0.21943E-02
         0.54083E-03
         0.15248E-02
         0.18990E-02
         0.34568E-02
         0.38691E-02
         0.15200E-02
         0.50463E-03
         0.41941E-03
        -0.19281E-03
        -0.18496E-02
        -0.33784E-02
        -0.44322E-02
        -0.29165E-02
         0.84580E-03
         0.16244E-02
         0.15621E-02
         0.27533E-02
         0.33452E-02
         0.22183E-02
         0.20901E-02
        -0.71077E-04
         0.94301E-05
        -0.16150E-04
        -0.11917E-04
         0.12155E-03
         0.47084E-04
         0.11790E-04
        -0.82060E-04
        -0.25799E-04
        -0.76282E-04
         0.62216E-05
        -0.12863E-03
        -0.24677E-03
         0.26343E-04
         0.32530E-03
        -0.52422E-04
         0.98963E-05
         0.47459E-05
         0.15156E-04
         0.46883E-05
         0.13954E-03
         0.92591E-04
        -0.53275E-04
         0.10593E-04
         0.26528E-04
        -0.40508E-05
         0.66134E-05
        -0.12266E-05
        -0.52939E-05
        -0.42016E-04
        -0.43503E-04
        -0.69059E-05
         0.17508E-04
         0.13745E-04
         0.28402E-04
        -0.53309E-04
        -0.11596E-03
         0.28156E-03
         0.45498E-04
         0.10778E-03
         0.28218E-03
        -0.67441E-04
        -0.14299E-03
        -0.12969E-03
        -0.12718E-03
        -0.15122E-03
         0.95523E-04
         0.74515E-04
        -0.11139E-04
         0.16816E-04
         0.18479E-03
         0.10115E-04
        -0.12749E-02
         0.18598E-02
        -0.38972E-02
        -0.41507E-02
        -0.39776E-02
        -0.21929E-02
         0.54118E-03
         0.15253E-02
         0.18971E-02
         0.34544E-02
         0.38678E-02
         0.15211E-02
         0.50469E-03
         0.42023E-03
        -0.19110E-03
        -0.18513E-02
        -0.33813E-02
        -0.44343E-02
        -0.29156E-02
         0.84601E-03
         0.16230E-02
         0.15615E-02
         0.27506E-02
         0.33408E-02
         0.22148E-02
         0.20864E-02
        -0.71224E-04
         0.94768E-05
        -0.16174E-04
        -0.12010E-04
         0.12145E-03
         0.47077E-04
         0.11870E-04
        -0.81942E-04
        -0.25867E-04
        -0.76439E-04
         0.60652E-05
        -0.12893E-03
        -0.24702E-03
         0.26299E-04
         0.32554E-03
        -0.52496E-04
         0.10010E-04
         0.47242E-05
         0.15160E-04
         0.46478E-05
         0.13989E-03
         0.92655E-04
        -0.53357E-04
         0.10579E-04
         0.26695E-04
        -0.40439E-05
         0.67239E-05
        -0.12116E-05
        -0.52592E-05
        -0.42110E-04
        -0.43565E-04
        -0.68629E-05
         0.17466E-04
         0.13773E-04
         0.28107E-04
        -0.53336E-04
        -0.11594E-03
         0.28244E-03
         0.46001E-04
         0.10826E-03
         0.28270E-03
        -0.67134E-04
        -0.14310E-03
        -0.12988E-03
        -0.12723E-03
        -0.15118E-03
         0.95543E-04
         0.74535E-04
        -0.11023E-04
         0.16757E-04
         0.18461E-03
         0.99145E-05
        -0.12732E-02
         0.18594E-02
        -0.38974E-02
        -0.41507E-02
        -0.39759E-02
        -0.21915E-02
         0.54153E-03
         0.15257E-02
         0.18951E-02
         0.34520E-02
         0.38665E-02
         0.15223E-02
         0.50474E-03
         0.42105E-03
        -0.18938E-03
        -0.18531E-02
        -0.33842E-02
        -0.44364E-02
        -0.29147E-02
         0.84621E-03
         0.16217E-02
         0.15609E-02
         0.27479E-02
         0.33364E-02
         0.22113E-02
         0.20827E-02
        -0.71370E-04
         0.95228E-05
        -0.16198E-04
        -0.12104E-04
         0.12135E-03
         0.47071E-04
         0.11950E-04
        -0.81822E-04
        -0.25935E-04
        -0.76595E-04
         0.59089E-05
        -0.12923E-03
        -0.24725E-03
         0.26258E-04
         0.32577E-03
        -0.52571E-04
         0.10124E-04
         0.47027E-05
         0.15165E-04
         0.46075E-05
         0.14024E-03
         0.92717E-04
        -0.53440E-04
         0.10566E-04
         0.26863E-04
        -0.40370E-05
         0.68315E-05
        -0.11960E-05
        -0.52237E-05
        -0.42205E-04
        -0.43626E-04
        -0.68204E-05
         0.17424E-04
         0.13801E-04
         0.27811E-04
        -0.53360E-04
        -0.11592E-03
         0.28332E-03
         0.46506E-04
         0.10875E-03
         0.28321E-03
        -0.66827E-04
        -0.14320E-03
        -0.13006E-03
        -0.12728E-03
        -0.15116E-03
         0.95563E-04
         0.74554E-04
        -0.10907E-04
         0.16699E-04
         0.18445E-03
         0.97160E-05
        -0.12716E-02
         0.18590E-02
        -0.38977E-02
        -0.41508E-02
        -0.39742E-02
        -0.21900E-02
         0.54188E-03
         0.15261E-02
         0.18930E-02
         0.34496E-02
         0.38652E-02
         0.15235E-02
         0.50480E-03
         0.42187E-03
        -0.18768E-03
        -0.18549E-02
        -0.33871E-02
        -0.44385E-02
        -0.29137E-02
         0.84640E-03
         0.16203E-02
         0.15602E-02
         0.27452E-02
         0.33319E-02
         0.22078E-02
         0.20790E-02
        -0.71517E-04
         0.95685E-05
        -0.16223E-04
        -0.12197E-04
         0.12125E-03
         0.47063E-04
         0.12030E-04
        -0.81702E-04
        -0.26004E-04
        -0.76751E-04
         0.57523E-05
        -0.12954E-03
        -0.24749E-03
         0.26213E-04
         0.32600E-03
        -0.52645E-04
         0.10239E-04
         0.46814E-05
         0.15169E-04
         0.45668E-05
         0.14059E-03
         0.92779E-04
        -0.53521E-04
         0.10552E-04
         0.27031E-04
        -0.40300E-05
         0.69411E-05
        -0.11798E-05
        -0.51876E-05
        -0.42299E-04
        -0.43688E-04
        -0.67774E-05
         0.17382E-04
         0.13830E-04
         0.27514E-04
        -0.53387E-04
        -0.11590E-03
         0.28421E-03
         0.47013E-04
         0.10923E-03
         0.28372E-03
        -0.66521E-04
        -0.14331E-03
        -0.13025E-03
        -0.12733E-03
        -0.15114E-03
         0.95579E-04
         0.74576E-04
        -0.10790E-04
         0.16641E-04
         0.18427E-03
         0.95166E-05
        -0.12699E-02
         0.18586E-02
        -0.38980E-02
        -0.41508E-02
        -0.39725E-02
        -0.21886E-02
         0.54221E-03
         0.15265E-02
         0.18911E-02
         0.34472E-02
         0.38640E-02
         0.15246E-02
         0.50485E-03
         0.42270E-03
        -0.18597E-03
        -0.18566E-02
        -0.33901E-02
        -0.44406E-02
        -0.29128E-02
         0.84659E-03
         0.16189E-02
         0.15596E-02
         0.27425E-02
         0.33275E-02
         0.22044E-02
         0.20753E-02
        -0.71663E-04
         0.96151E-05
        -0.16247E-04
        -0.12290E-04
         0.12115E-03
         0.47058E-04
         0.12110E-04
        -0.81580E-04
        -0.26073E-04
        -0.76906E-04
         0.55954E-05
        -0.12984E-03
        -0.24773E-03
         0.26171E-04
         0.32622E-03
        -0.52720E-04
         0.10355E-04
         0.46600E-05
         0.15173E-04
         0.45266E-05
         0.14094E-03
         0.92838E-04
        -0.53603E-04
         0.10539E-04
         0.27198E-04
        -0.40229E-05
         0.70479E-05
        -0.11629E-05
        -0.51508E-05
        -0.42393E-04
        -0.43749E-04
        -0.67349E-05
         0.17339E-04
         0.13858E-04
         0.27214E-04
        -0.53411E-04
        -0.11588E-03
         0.28509E-03
         0.47524E-04
         0.10971E-03
         0.28422E-03
        -0.66214E-04
        -0.14341E-03
        -0.13043E-03
        -0.12739E-03
        -0.15111E-03
         0.95599E-04
         0.74595E-04
        -0.10674E-04
         0.16583E-04
         0.18410E-03
         0.93177E-05
        -0.12682E-02
         0.18582E-02
        -0.38983E-02
        -0.41508E-02
        -0.39708E-02
        -0.21872E-02
         0.54253E-03
         0.15269E-02
         0.18891E-02
         0.34448E-02
         0.38628E-02
         0.15258E-02
         0.50490E-03
         0.42350E-03
        -0.18426E-03
        -0.18584E-02
        -0.33930E-02
        -0.44427E-02
        -0.29119E-02
         0.84678E-03
         0.16176E-02
         0.15590E-02
         0.27398E-02
         0.33231E-02
         0.22009E-02
         0.20716E-02
        -0.71809E-04
         0.96612E-05
        -0.16272E-04
        -0.12383E-04
         0.12106E-03
         0.47051E-04
         0.12191E-04
        -0.81458E-04
        -0.26141E-04
        -0.77057E-04
         0.54383E-05
        -0.13014E-03
        -0.24796E-03
         0.26125E-04
         0.32644E-03
        -0.52795E-04
         0.10471E-04
         0.46386E-05
         0.15177E-04
         0.44867E-05
         0.14129E-03
         0.92894E-04
        -0.53684E-04
         0.10527E-04
         0.27364E-04
        -0.40156E-05
         0.71573E-05
        -0.11451E-05
        -0.51127E-05
        -0.42485E-04
        -0.43811E-04
        -0.66922E-05
         0.17295E-04
         0.13887E-04
         0.26914E-04
        -0.53436E-04
        -0.11586E-03
         0.28598E-03
         0.48040E-04
         0.11020E-03
         0.28473E-03
        -0.65909E-04
        -0.14351E-03
        -0.13062E-03
        -0.12744E-03
        -0.15109E-03
         0.95619E-04
         0.74618E-04
        -0.10559E-04
         0.16524E-04
         0.18393E-03
         0.91211E-05
        -0.12666E-02
         0.18578E-02
        -0.38985E-02
        -0.41509E-02
        -0.39690E-02
        -0.21857E-02
         0.54284E-03
         0.15273E-02
         0.18871E-02
         0.34423E-02
         0.38615E-02
         0.15270E-02
         0.50494E-03
         0.42431E-03
        -0.18256E-03
        -0.18601E-02
        -0.33959E-02
        -0.44448E-02
        -0.29110E-02
         0.84697E-03
         0.16162E-02
         0.15583E-02
         0.27371E-02
         0.33187E-02
         0.21974E-02
         0.20679E-02
        -0.71956E-04
         0.97071E-05
        -0.16296E-04
        -0.12477E-04
         0.12096E-03
         0.47043E-04
         0.12271E-04
        -0.81334E-04
        -0.26208E-04
        -0.77197E-04
         0.52812E-05
        -0.13045E-03
        -0.24820E-03
         0.26081E-04
         0.32666E-03
        -0.52870E-04
         0.10589E-04
         0.46171E-05
         0.15183E-04
         0.44487E-05
         0.14164E-03
         0.92949E-04
        -0.53768E-04
         0.10513E-04
         0.27527E-04
        -0.40088E-05
         0.72652E-05
        -0.11261E-05
        -0.50741E-05
        -0.42576E-04
        -0.43872E-04
        -0.66487E-05
         0.17251E-04
         0.13916E-04
         0.26613E-04
        -0.53464E-04
        -0.11584E-03
         0.28686E-03
         0.48570E-04
         0.11068E-03
         0.28521E-03
        -0.65596E-04
        -0.14362E-03
        -0.13080E-03
        -0.12749E-03
        -0.15107E-03
         0.95636E-04
         0.74638E-04
        -0.10444E-04
         0.16466E-04
         0.18377E-03
         0.89245E-05
        -0.12649E-02
         0.18575E-02
        -0.38988E-02
        -0.41509E-02
        -0.39673E-02
        -0.21843E-02
         0.54316E-03
         0.15278E-02
         0.18851E-02
         0.34398E-02
         0.38603E-02
         0.15282E-02
         0.50496E-03
         0.42511E-03
        -0.18085E-03
        -0.18619E-02
        -0.33988E-02
        -0.44468E-02
        -0.29100E-02
         0.84717E-03
         0.16149E-02
         0.15577E-02
         0.27344E-02
         0.33143E-02
         0.21940E-02
         0.20642E-02
        -0.72102E-04
         0.97528E-05
        -0.16320E-04
        -0.12571E-04
         0.12086E-03
         0.47035E-04
         0.12352E-04
        -0.81209E-04
        -0.26274E-04
        -0.77327E-04
         0.51241E-05
        -0.13075E-03
        -0.24844E-03
         0.26037E-04
         0.32687E-03
        -0.52944E-04
         0.10709E-04
         0.45957E-05
         0.15188E-04
         0.44118E-05
         0.14199E-03
         0.93001E-04
        -0.53850E-04
         0.10500E-04
         0.27684E-04
        -0.40013E-05
         0.73772E-05
        -0.11055E-05
        -0.50347E-05
        -0.42663E-04
        -0.43933E-04
        -0.66060E-05
         0.17206E-04
         0.13945E-04
         0.26310E-04
        -0.53488E-04
        -0.11582E-03
         0.28774E-03
         0.49112E-04
         0.11115E-03
         0.28568E-03
        -0.65280E-04
        -0.14372E-03
        -0.13099E-03
        -0.12754E-03
        -0.15105E-03
         0.95656E-04
         0.74658E-04
        -0.10328E-04
         0.16409E-04
         0.18359E-03
         0.87271E-05
        -0.12633E-02
         0.18571E-02
        -0.38990E-02
        -0.41509E-02
        -0.39656E-02
        -0.21829E-02
         0.54347E-03
         0.15282E-02
         0.18832E-02
         0.34372E-02
         0.38592E-02
         0.15295E-02
         0.50494E-03
         0.42592E-03
        -0.17914E-03
        -0.18636E-02
        -0.34017E-02
        -0.44489E-02
        -0.29091E-02
         0.84735E-03
         0.16135E-02
         0.15571E-02
         0.27317E-02
         0.33099E-02
         0.21906E-02
         0.20605E-02
        -0.72249E-04
         0.97988E-05
        -0.16345E-04
        -0.12665E-04
         0.12077E-03
         0.47030E-04
         0.12432E-04
        -0.81084E-04
        -0.26339E-04
        -0.77455E-04
         0.49680E-05
        -0.13105E-03
        -0.24867E-03
         0.25990E-04
         0.32708E-03
        -0.53019E-04
         0.10830E-04
         0.45745E-05
         0.15192E-04
         0.43761E-05
         0.14235E-03
         0.93053E-04
        -0.53927E-04
         0.10489E-04
         0.27841E-04
        -0.39944E-05
         0.74861E-05
        -0.10839E-05
        -0.49951E-05
        -0.42748E-04
        -0.43996E-04
        -0.65640E-05
         0.17162E-04
         0.13974E-04
         0.26009E-04
        -0.53513E-04
        -0.11580E-03
         0.28862E-03
         0.49660E-04
         0.11161E-03
         0.28613E-03
        -0.64968E-04
        -0.14383E-03
        -0.13117E-03
        -0.12759E-03
        -0.15103E-03
         0.95677E-04
         0.74681E-04
        -0.10214E-04
         0.16350E-04
         0.18343E-03
         0.85318E-05
        -0.12616E-02
         0.18567E-02
        -0.38993E-02
        -0.41510E-02
        -0.39639E-02
        -0.21815E-02
         0.54377E-03
         0.15285E-02
         0.18812E-02
         0.34345E-02
         0.38580E-02
         0.15308E-02
         0.50489E-03
         0.42673E-03
        -0.17743E-03
        -0.18653E-02
        -0.34046E-02
        -0.44510E-02
        -0.29082E-02
         0.84756E-03
         0.16122E-02
         0.15564E-02
         0.27290E-02
         0.33055E-02
         0.21872E-02
         0.20568E-02
        -0.73140E-04
         0.99396E-05
        -0.16545E-04
        -0.12884E-04
         0.12196E-03
         0.47513E-04
         0.12639E-04
        -0.81841E-04
        -0.26669E-04
        -0.78412E-04
         0.48852E-05
        -0.13273E-03
        -0.25155E-03
         0.26235E-04
         0.33105E-03
        -0.53634E-04
         0.11057E-04
         0.46002E-05
         0.15351E-04
         0.43886E-05
         0.14414E-03
         0.94079E-04
        -0.54509E-04
         0.10591E-04
         0.28287E-04
        -0.40323E-05
         0.76702E-05
        -0.10734E-05
        -0.50201E-05
        -0.43294E-04
        -0.44512E-04
        -0.66015E-05
         0.17297E-04
         0.14147E-04
         0.26018E-04
        -0.54082E-04
        -0.11697E-03
         0.29271E-03
         0.50725E-04
         0.11328E-03
         0.28974E-03
        -0.65450E-04
        -0.14551E-03
        -0.13261E-03
        -0.12891E-03
        -0.15258E-03
         0.96683E-04
         0.75460E-04
        -0.10215E-04
         0.16462E-04
         0.18523E-03
         0.84276E-05
        -0.12764E-02
         0.18805E-02
        -0.39506E-02
        -0.42043E-02
        -0.40143E-02
        -0.22094E-02
         0.55173E-03
         0.15497E-02
         0.19053E-02
         0.34802E-02
         0.39101E-02
         0.15518E-02
         0.51088E-03
         0.43248E-03
        -0.17786E-03
        -0.18886E-02
        -0.34472E-02
        -0.45084E-02
        -0.29457E-02
         0.85919E-03
         0.16313E-02
         0.15748E-02
         0.27606E-02
         0.33427E-02
         0.22110E-02
         0.20787E-02
        -0.16630E-03
         0.22870E-04
        -0.37516E-04
        -0.29514E-04
         0.25801E-03
         0.10234E-03
         0.29002E-04
        -0.18463E-03
        -0.60324E-04
        -0.17625E-03
         0.10671E-04
        -0.27232E-03
        -0.53026E-03
         0.57623E-04
         0.68712E-03
        -0.12207E-03
         0.25221E-04
         0.10436E-04
         0.34073E-04
         0.97721E-05
         0.30321E-03
         0.20287E-03
        -0.11492E-03
         0.23849E-04
         0.64886E-04
        -0.92280E-05
         0.17279E-04
        -0.24247E-05
        -0.11559E-04
        -0.99082E-04
        -0.10138E-03
        -0.14954E-04
         0.39435E-04
         0.32318E-04
         0.52441E-04
        -0.11643E-03
        -0.25196E-03
         0.63506E-03
         0.11351E-03
         0.25449E-03
         0.63279E-03
        -0.14455E-03
        -0.32125E-03
        -0.28368E-03
        -0.27415E-03
        -0.30712E-03
         0.20442E-03
         0.16339E-03
        -0.22177E-04
         0.35634E-04
         0.38304E-03
         0.17765E-04
        -0.20800E-02
         0.30546E-02
        -0.64265E-02
        -0.68692E-02
        -0.65562E-02
        -0.36330E-02
         0.92993E-03
         0.26531E-02
         0.32486E-02
         0.58716E-02
         0.66055E-02
         0.26056E-02
         0.87249E-03
         0.74288E-03
        -0.29552E-03
        -0.30887E-02
        -0.56055E-02
        -0.72727E-02
        -0.47577E-02
         0.13924E-02
         0.26882E-02
         0.26150E-02
         0.45564E-02
         0.55529E-02
         0.36479E-02
         0.34039E-02
  
SCALARS                      strain_eq  double 1
LOOKUP_TABLE default
         0.16424E+02
         0.16215E+02
         0.16344E+02
         0.16585E+02
         0.34719E-08
         0.38497E-08
         0.37402E-08
         0.33654E-08
         0.16183E+02
         0.16267E+02
         0.37863E-08
         0.36209E-08
         0.15910E+02
         0.15900E+02
         0.41425E-08
         0.39449E-08
         0.16550E+02
         0.15914E+02
         0.30902E-08
         0.34756E-08
         0.15682E+02
         0.15491E+02
         0.15778E+02
         0.42665E-08
         0.40699E-08
         0.40481E-08
         0.15506E+02
         0.15235E+02
         0.41325E-08
         0.37533E-08
         0.16538E+02
         0.16263E+02
         0.16805E+02
         0.33628E-08
         0.31578E-08
         0.30248E-08
         0.16376E+02
         0.16026E+02
         0.36661E-08
         0.33423E-08
         0.16233E+02
         0.15958E+02
         0.34101E-08
         0.29419E-08
         0.16461E+02
         0.16569E+02
         0.36824E-08
         0.38187E-08
         0.15750E+02
         0.33003E-08
         0.16548E+02
         0.38374E-08
         0.15433E+02
         0.36081E-08
         0.15350E+02
         0.33304E-08
         0.15345E+02
         0.15647E+02
         0.33749E-08
         0.33187E-08
         0.16533E+02
         0.16421E+02
         0.34052E-08
         0.38546E-08
         0.16599E+02
         0.32684E-08
         0.16470E+02
         0.35796E-08
         0.16098E+02
         0.16089E+02
         0.38289E-08
         0.38265E-08
         0.16021E+02
         0.38723E-08
         0.15138E+02
         0.30953E-08
         0.15088E+02
         0.28810E-08
         0.15102E+02
         0.30012E-08
         0.15206E+02
         0.15361E+02
         0.29029E-08
         0.30151E-08
         0.15644E+02
         0.28396E-08
         0.16451E+02
         0.38126E-08
         0.16312E+02
         0.38825E-08
         0.16182E+02
         0.16157E+02
         0.38789E-08
         0.38050E-08
         0.16240E+02
         0.34146E-08
         0.16289E+02
         0.33433E-08
         0.16236E+02
         0.36162E-08
         0.16196E+02
         0.16259E+02
         0.37176E-08
         0.37075E-08
         0.15847E+02
         0.15939E+02
         0.35350E-08
         0.34121E-08
         0.15789E+02
         0.34330E-08
         0.15897E+02
         0.33517E-08
         0.15772E+02
         0.33477E-08
         0.15456E+02
         0.31385E-08
         0.15132E+02
         0.26557E-08
         0.14952E+02
         0.22440E-08
         0.14935E+02
         0.21764E-08
         0.14945E+02
         0.23188E-08
         0.15147E+02
         0.23920E-08
         0.15470E+02
         0.22408E-08
         0.15846E+02
         0.20451E-08
         0.16100E+02
         0.21166E-08
         0.16344E+02
         0.25089E-08
         0.16501E+02
         0.29290E-08
         0.16480E+02
         0.31217E-08
         0.16158E+02
         0.33333E-08
         0.15945E+02
         0.35030E-08
         0.15808E+02
         0.32683E-08
         0.15914E+02
         0.28775E-08
         0.16002E+02
         0.28719E-08
         0.15928E+02
         0.31603E-08
         0.15964E+02
         0.33534E-08
         0.16020E+02
         0.32449E-08
         0.16100E+02
         0.31725E-08
         0.34783E+00
         0.33899E+00
         0.34020E+00
         0.35138E+00
         0.33013E+00
         0.34130E+00
         0.32719E+00
         0.33470E+00
         0.34970E+00
         0.34057E+00
         0.31886E+00
         0.31654E+00
         0.32335E+00
         0.32361E+00
         0.31949E+00
         0.35088E+00
         0.34885E+00
         0.35443E+00
         0.33799E+00
         0.34114E+00
         0.33682E+00
         0.33985E+00
         0.33423E+00
         0.33552E+00
         0.34090E+00
         0.34049E+00
         0.33121E+00
         0.33206E+00
         0.32489E+00
         0.33566E+00
         0.34988E+00
         0.33884E+00
         0.34979E+00
         0.34265E+00
         0.31468E+00
         0.32406E+00
         0.32845E+00
         0.32343E+00
         0.32268E+00
         0.31392E+00
         0.30752E+00
         0.32312E+00
         0.33707E+00
         0.33515E+00
         0.32806E+00
         0.31508E+00
         0.32613E+00
         0.33747E+00
         0.33669E+00
         0.32794E+00
         0.31870E+00
         0.33115E+00
         0.29261E+00
         0.30566E+00
         0.30377E+00
         0.30688E+00
         0.30645E+00
         0.30002E+00
         0.29264E+00
         0.28976E+00
         0.29066E+00
         0.29011E+00
         0.28680E+00
         0.30553E+00
         0.31157E+00
         0.31386E+00
         0.31834E+00
         0.32175E+00
         0.32181E+00
         0.31657E+00
         0.29720E+00
         0.30213E+00
         0.30850E+00
         0.30819E+00
         0.30709E+00
         0.30058E+00
         0.31008E+00
         0.31358E+00
         0.24667E-01
         0.14821E-01
         0.13980E-01
         0.95867E-02
         0.25616E-01
         0.17711E-01
         0.78178E-02
         0.24260E-01
         0.15197E-01
         0.22860E-01
         0.11146E-01
         0.48027E-01
         0.36470E-01
         0.18241E-01
         0.50300E-01
         0.17923E-01
         0.90803E-02
         0.57932E-02
         0.12069E-01
         0.65338E-02
         0.37769E-01
         0.35434E-01
         0.34507E-01
         0.89802E-02
         0.14752E-01
         0.46909E-02
         0.17209E-01
         0.27952E-02
         0.63030E-02
         0.16002E-01
         0.15311E-01
         0.81443E-02
         0.99175E-02
         0.85796E-02
         0.33113E-01
         0.19816E-01
         0.25650E-01
         0.41022E-01
         0.31555E-01
         0.29370E-01
         0.41713E-01
         0.37814E-01
         0.38065E-01
         0.29468E-01
         0.26316E-01
         0.35999E-01
         0.23600E-01
         0.20068E-01
         0.16548E-01
         0.19542E-01
         0.31952E-01
         0.21937E-01
         0.14024E+00
         0.14359E+00
         0.15009E+00
         0.14900E+00
         0.15883E+00
         0.17052E+00
         0.16364E+00
         0.14552E+00
         0.14181E+00
         0.15176E+00
         0.14874E+00
         0.14671E+00
         0.12129E+00
         0.11531E+00
         0.12667E+00
         0.13567E+00
         0.14079E+00
         0.15374E+00
         0.14789E+00
         0.15189E+00
         0.13678E+00
         0.12987E+00
         0.13850E+00
         0.13539E+00
         0.13932E+00
         0.13815E+00
         0.24686E-01
         0.14825E-01
         0.13988E-01
         0.96004E-02
         0.25605E-01
         0.17701E-01
         0.78415E-02
         0.24283E-01
         0.15223E-01
         0.22927E-01
         0.11146E-01
         0.48025E-01
         0.36485E-01
         0.18198E-01
         0.50352E-01
         0.17938E-01
         0.91057E-02
         0.57787E-02
         0.12076E-01
         0.65194E-02
         0.37772E-01
         0.35432E-01
         0.34505E-01
         0.89800E-02
         0.14816E-01
         0.46899E-02
         0.17215E-01
         0.27656E-02
         0.63331E-02
         0.16030E-01
         0.15326E-01
         0.81416E-02
         0.99008E-02
         0.85874E-02
         0.33128E-01
         0.19810E-01
         0.25644E-01
         0.41085E-01
         0.31626E-01
         0.29411E-01
         0.41741E-01
         0.37833E-01
         0.38070E-01
         0.29468E-01
         0.26311E-01
         0.35997E-01
         0.23600E-01
         0.20066E-01
         0.16525E-01
         0.19515E-01
         0.31934E-01
         0.21903E-01
         0.14019E+00
         0.14356E+00
         0.15009E+00
         0.14900E+00
         0.15880E+00
         0.17046E+00
         0.16357E+00
         0.14548E+00
         0.14177E+00
         0.15172E+00
         0.14871E+00
         0.14672E+00
         0.12128E+00
         0.11530E+00
         0.12668E+00
         0.13570E+00
         0.14083E+00
         0.15377E+00
         0.14788E+00
         0.15188E+00
         0.13676E+00
         0.12986E+00
         0.13845E+00
         0.13531E+00
         0.13925E+00
         0.13808E+00
         0.24704E-01
         0.14828E-01
         0.13996E-01
         0.96142E-02
         0.25593E-01
         0.17691E-01
         0.78653E-02
         0.24307E-01
         0.15250E-01
         0.22994E-01
         0.11146E-01
         0.48024E-01
         0.36499E-01
         0.18155E-01
         0.50404E-01
         0.17952E-01
         0.91316E-02
         0.57639E-02
         0.12083E-01
         0.65053E-02
         0.37775E-01
         0.35429E-01
         0.34503E-01
         0.89796E-02
         0.14879E-01
         0.46885E-02
         0.17221E-01
         0.27371E-02
         0.63629E-02
         0.16057E-01
         0.15341E-01
         0.81390E-02
         0.98840E-02
         0.85951E-02
         0.33143E-01
         0.19805E-01
         0.25638E-01
         0.41149E-01
         0.31697E-01
         0.29452E-01
         0.41769E-01
         0.37853E-01
         0.38075E-01
         0.29468E-01
         0.26307E-01
         0.35997E-01
         0.23601E-01
         0.20065E-01
         0.16501E-01
         0.19488E-01
         0.31916E-01
         0.21870E-01
         0.14014E+00
         0.14352E+00
         0.15009E+00
         0.14900E+00
         0.15878E+00
         0.17041E+00
         0.16350E+00
         0.14544E+00
         0.14174E+00
         0.15167E+00
         0.14869E+00
         0.14672E+00
         0.12127E+00
         0.11530E+00
         0.12670E+00
         0.13574E+00
         0.14086E+00
         0.15381E+00
         0.14787E+00
         0.15187E+00
         0.13675E+00
         0.12986E+00
         0.13840E+00
         0.13522E+00
         0.13917E+00
         0.13801E+00
         0.24723E-01
         0.14831E-01
         0.14004E-01
         0.96280E-02
         0.25581E-01
         0.17681E-01
         0.78894E-02
         0.24330E-01
         0.15276E-01
         0.23059E-01
         0.11146E-01
         0.48022E-01
         0.36514E-01
         0.18112E-01
         0.50456E-01
         0.17968E-01
         0.91584E-02
         0.57491E-02
         0.12091E-01
         0.64905E-02
         0.37780E-01
         0.35428E-01
         0.34504E-01
         0.89787E-02
         0.14941E-01
         0.46863E-02
         0.17225E-01
         0.27120E-02
         0.63910E-02
         0.16082E-01
         0.15357E-01
         0.81369E-02
         0.98671E-02
         0.86029E-02
         0.33157E-01
         0.19799E-01
         0.25632E-01
         0.41213E-01
         0.31769E-01
         0.29495E-01
         0.41799E-01
         0.37874E-01
         0.38082E-01
         0.29472E-01
         0.26304E-01
         0.35996E-01
         0.23603E-01
         0.20064E-01
         0.16478E-01
         0.19461E-01
         0.31898E-01
         0.21836E-01
         0.14009E+00
         0.14349E+00
         0.15009E+00
         0.14901E+00
         0.15875E+00
         0.17035E+00
         0.16343E+00
         0.14540E+00
         0.14170E+00
         0.15162E+00
         0.14866E+00
         0.14673E+00
         0.12126E+00
         0.11529E+00
         0.12672E+00
         0.13578E+00
         0.14090E+00
         0.15384E+00
         0.14786E+00
         0.15186E+00
         0.13673E+00
         0.12985E+00
         0.13835E+00
         0.13513E+00
         0.13909E+00
         0.13793E+00
         0.24741E-01
         0.14835E-01
         0.14012E-01
         0.96418E-02
         0.25570E-01
         0.17671E-01
         0.79132E-02
         0.24353E-01
         0.15302E-01
         0.23123E-01
         0.11146E-01
         0.48021E-01
         0.36528E-01
         0.18070E-01
         0.50508E-01
         0.17986E-01
         0.91863E-02
         0.57342E-02
         0.12098E-01
         0.64753E-02
         0.37786E-01
         0.35427E-01
         0.34506E-01
         0.89773E-02
         0.15001E-01
         0.46831E-02
         0.17230E-01
         0.26900E-02
         0.64174E-02
         0.16104E-01
         0.15373E-01
         0.81352E-02
         0.98502E-02
         0.86107E-02
         0.33172E-01
         0.19794E-01
         0.25626E-01
         0.41278E-01
         0.31843E-01
         0.29540E-01
         0.41831E-01
         0.37896E-01
         0.38091E-01
         0.29478E-01
         0.26302E-01
         0.35998E-01
         0.23605E-01
         0.20064E-01
         0.16455E-01
         0.19434E-01
         0.31881E-01
         0.21802E-01
         0.14003E+00
         0.14345E+00
         0.15009E+00
         0.14901E+00
         0.15872E+00
         0.17029E+00
         0.16336E+00
         0.14536E+00
         0.14167E+00
         0.15158E+00
         0.14864E+00
         0.14674E+00
         0.12126E+00
         0.11529E+00
         0.12673E+00
         0.13582E+00
         0.14095E+00
         0.15388E+00
         0.14786E+00
         0.15186E+00
         0.13672E+00
         0.12984E+00
         0.13831E+00
         0.13504E+00
         0.13901E+00
         0.13786E+00
         0.24759E-01
         0.14837E-01
         0.14020E-01
         0.96556E-02
         0.25558E-01
         0.17661E-01
         0.79364E-02
         0.24374E-01
         0.15328E-01
         0.23185E-01
         0.11147E-01
         0.48020E-01
         0.36543E-01
         0.18027E-01
         0.50560E-01
         0.18003E-01
         0.92143E-02
         0.57193E-02
         0.12106E-01
         0.64606E-02
         0.37793E-01
         0.35427E-01
         0.34509E-01
         0.89759E-02
         0.15060E-01
         0.46796E-02
         0.17234E-01
         0.26698E-02
         0.64435E-02
         0.16125E-01
         0.15389E-01
         0.81328E-02
         0.98334E-02
         0.86185E-02
         0.33187E-01
         0.19789E-01
         0.25621E-01
         0.41342E-01
         0.31917E-01
         0.29587E-01
         0.41863E-01
         0.37918E-01
         0.38100E-01
         0.29485E-01
         0.26303E-01
         0.36001E-01
         0.23609E-01
         0.20064E-01
         0.16433E-01
         0.19408E-01
         0.31864E-01
         0.21769E-01
         0.13998E+00
         0.14342E+00
         0.15009E+00
         0.14901E+00
         0.15870E+00
         0.17023E+00
         0.16330E+00
         0.14533E+00
         0.14163E+00
         0.15153E+00
         0.14861E+00
         0.14675E+00
         0.12125E+00
         0.11529E+00
         0.12675E+00
         0.13586E+00
         0.14100E+00
         0.15392E+00
         0.14785E+00
         0.15185E+00
         0.13670E+00
         0.12983E+00
         0.13826E+00
         0.13495E+00
         0.13893E+00
         0.13779E+00
         0.24775E-01
         0.14838E-01
         0.14027E-01
         0.96696E-02
         0.25547E-01
         0.17651E-01
         0.79588E-02
         0.24393E-01
         0.15355E-01
         0.23245E-01
         0.11150E-01
         0.48020E-01
         0.36560E-01
         0.17985E-01
         0.50613E-01
         0.18021E-01
         0.92418E-02
         0.57044E-02
         0.12115E-01
         0.64460E-02
         0.37799E-01
         0.35427E-01
         0.34513E-01
         0.89748E-02
         0.15117E-01
         0.46753E-02
         0.17238E-01
         0.26502E-02
         0.64701E-02
         0.16147E-01
         0.15403E-01
         0.81288E-02
         0.98163E-02
         0.86260E-02
         0.33202E-01
         0.19785E-01
         0.25617E-01
         0.41408E-01
         0.31992E-01
         0.29633E-01
         0.41897E-01
         0.37941E-01
         0.38110E-01
         0.29493E-01
         0.26305E-01
         0.36006E-01
         0.23614E-01
         0.20066E-01
         0.16414E-01
         0.19382E-01
         0.31848E-01
         0.21736E-01
         0.13993E+00
         0.14339E+00
         0.15008E+00
         0.14901E+00
         0.15867E+00
         0.17018E+00
         0.16323E+00
         0.14529E+00
         0.14160E+00
         0.15149E+00
         0.14859E+00
         0.14676E+00
         0.12125E+00
         0.11529E+00
         0.12677E+00
         0.13591E+00
         0.14105E+00
         0.15395E+00
         0.14784E+00
         0.15184E+00
         0.13669E+00
         0.12982E+00
         0.13821E+00
         0.13486E+00
         0.13886E+00
         0.13771E+00
         0.24791E-01
         0.14838E-01
         0.14034E-01
         0.96835E-02
         0.25537E-01
         0.17641E-01
         0.79805E-02
         0.24409E-01
         0.15382E-01
         0.23303E-01
         0.11154E-01
         0.48020E-01
         0.36576E-01
         0.17943E-01
         0.50665E-01
         0.18039E-01
         0.92691E-02
         0.56893E-02
         0.12123E-01
         0.64321E-02
         0.37806E-01
         0.35427E-01
         0.34517E-01
         0.89736E-02
         0.15173E-01
         0.46709E-02
         0.17243E-01
         0.26312E-02
         0.64975E-02
         0.16168E-01
         0.15417E-01
         0.81239E-02
         0.97992E-02
         0.86335E-02
         0.33219E-01
         0.19783E-01
         0.25613E-01
         0.41474E-01
         0.32068E-01
         0.29680E-01
         0.41930E-01
         0.37965E-01
         0.38120E-01
         0.29501E-01
         0.26307E-01
         0.36011E-01
         0.23620E-01
         0.20069E-01
         0.16396E-01
         0.19358E-01
         0.31833E-01
         0.21704E-01
         0.13988E+00
         0.14335E+00
         0.15008E+00
         0.14901E+00
         0.15865E+00
         0.17012E+00
         0.16316E+00
         0.14525E+00
         0.14156E+00
         0.15144E+00
         0.14857E+00
         0.14677E+00
         0.12125E+00
         0.11529E+00
         0.12679E+00
         0.13595E+00
         0.14110E+00
         0.15399E+00
         0.14783E+00
         0.15183E+00
         0.13668E+00
         0.12982E+00
         0.13816E+00
         0.13478E+00
         0.13878E+00
         0.13764E+00
         0.24806E-01
         0.14838E-01
         0.14041E-01
         0.96975E-02
         0.25526E-01
         0.17631E-01
         0.80022E-02
         0.24426E-01
         0.15409E-01
         0.23361E-01
         0.11157E-01
         0.48020E-01
         0.36592E-01
         0.17901E-01
         0.50719E-01
         0.18057E-01
         0.92964E-02
         0.56742E-02
         0.12131E-01
         0.64178E-02
         0.37812E-01
         0.35427E-01
         0.34521E-01
         0.89728E-02
         0.15229E-01
         0.46665E-02
         0.17248E-01
         0.26128E-02
         0.65251E-02
         0.16190E-01
         0.15431E-01
         0.81192E-02
         0.97823E-02
         0.86409E-02
         0.33235E-01
         0.19779E-01
         0.25610E-01
         0.41540E-01
         0.32143E-01
         0.29727E-01
         0.41963E-01
         0.37988E-01
         0.38130E-01
         0.29510E-01
         0.26310E-01
         0.36017E-01
         0.23625E-01
         0.20073E-01
         0.16379E-01
         0.19334E-01
         0.31818E-01
         0.21671E-01
         0.13983E+00
         0.14332E+00
         0.15008E+00
         0.14901E+00
         0.15862E+00
         0.17006E+00
         0.16309E+00
         0.14521E+00
         0.14152E+00
         0.15139E+00
         0.14854E+00
         0.14678E+00
         0.12124E+00
         0.11528E+00
         0.12681E+00
         0.13600E+00
         0.14115E+00
         0.15402E+00
         0.14782E+00
         0.15182E+00
         0.13667E+00
         0.12981E+00
         0.13812E+00
         0.13469E+00
         0.13870E+00
         0.13757E+00
         0.24821E-01
         0.14838E-01
         0.14048E-01
         0.97116E-02
         0.25515E-01
         0.17621E-01
         0.80240E-02
         0.24443E-01
         0.15436E-01
         0.23420E-01
         0.11161E-01
         0.48021E-01
         0.36609E-01
         0.17860E-01
         0.50771E-01
         0.18075E-01
         0.93238E-02
         0.56593E-02
         0.12139E-01
         0.64038E-02
         0.37819E-01
         0.35427E-01
         0.34524E-01
         0.89719E-02
         0.15285E-01
         0.46621E-02
         0.17253E-01
         0.25951E-02
         0.65529E-02
         0.16211E-01
         0.15446E-01
         0.81143E-02
         0.97654E-02
         0.86484E-02
         0.33251E-01
         0.19776E-01
         0.25606E-01
         0.41606E-01
         0.32219E-01
         0.29773E-01
         0.41997E-01
         0.38011E-01
         0.38140E-01
         0.29518E-01
         0.26313E-01
         0.36023E-01
         0.23631E-01
         0.20076E-01
         0.16362E-01
         0.19309E-01
         0.31803E-01
         0.21639E-01
         0.13978E+00
         0.14328E+00
         0.15008E+00
         0.14901E+00
         0.15859E+00
         0.17000E+00
         0.16302E+00
         0.14517E+00
         0.14149E+00
         0.15135E+00
         0.14852E+00
         0.14679E+00
         0.12124E+00
         0.11528E+00
         0.12683E+00
         0.13605E+00
         0.14119E+00
         0.15406E+00
         0.14781E+00
         0.15181E+00
         0.13665E+00
         0.12981E+00
         0.13807E+00
         0.13460E+00
         0.13862E+00
         0.13749E+00
         0.24837E-01
         0.14837E-01
         0.14056E-01
         0.97255E-02
         0.25504E-01
         0.17611E-01
         0.80460E-02
         0.24459E-01
         0.15463E-01
         0.23478E-01
         0.11166E-01
         0.48021E-01
         0.36626E-01
         0.17818E-01
         0.50825E-01
         0.18093E-01
         0.93512E-02
         0.56445E-02
         0.12147E-01
         0.63893E-02
         0.37825E-01
         0.35427E-01
         0.34528E-01
         0.89711E-02
         0.15341E-01
         0.46577E-02
         0.17258E-01
         0.25778E-02
         0.65809E-02
         0.16232E-01
         0.15460E-01
         0.81095E-02
         0.97487E-02
         0.86559E-02
         0.33268E-01
         0.19773E-01
         0.25603E-01
         0.41672E-01
         0.32295E-01
         0.29820E-01
         0.42030E-01
         0.38034E-01
         0.38149E-01
         0.29526E-01
         0.26316E-01
         0.36029E-01
         0.23637E-01
         0.20079E-01
         0.16344E-01
         0.19284E-01
         0.31788E-01
         0.21607E-01
         0.13973E+00
         0.14325E+00
         0.15008E+00
         0.14901E+00
         0.15857E+00
         0.16995E+00
         0.16295E+00
         0.14513E+00
         0.14145E+00
         0.15130E+00
         0.14849E+00
         0.14680E+00
         0.12123E+00
         0.11528E+00
         0.12685E+00
         0.13609E+00
         0.14124E+00
         0.15410E+00
         0.14780E+00
         0.15180E+00
         0.13664E+00
         0.12980E+00
         0.13802E+00
         0.13451E+00
         0.13855E+00
         0.13742E+00
         0.24852E-01
         0.14837E-01
         0.14063E-01
         0.97397E-02
         0.25493E-01
         0.17601E-01
         0.80679E-02
         0.24476E-01
         0.15491E-01
         0.23536E-01
         0.11170E-01
         0.48021E-01
         0.36642E-01
         0.17777E-01
         0.50877E-01
         0.18111E-01
         0.93787E-02
         0.56294E-02
         0.12155E-01
         0.63754E-02
         0.37831E-01
         0.35427E-01
         0.34532E-01
         0.89704E-02
         0.15397E-01
         0.46536E-02
         0.17263E-01
         0.25613E-02
         0.66089E-02
         0.16254E-01
         0.15474E-01
         0.81047E-02
         0.97319E-02
         0.86635E-02
         0.33284E-01
         0.19770E-01
         0.25599E-01
         0.41738E-01
         0.32370E-01
         0.29866E-01
         0.42063E-01
         0.38056E-01
         0.38159E-01
         0.29534E-01
         0.26318E-01
         0.36035E-01
         0.23642E-01
         0.20083E-01
         0.16327E-01
         0.19260E-01
         0.31773E-01
         0.21574E-01
         0.13968E+00
         0.14322E+00
         0.15007E+00
         0.14901E+00
         0.15854E+00
         0.16989E+00
         0.16288E+00
         0.14509E+00
         0.14142E+00
         0.15125E+00
         0.14847E+00
         0.14681E+00
         0.12123E+00
         0.11528E+00
         0.12687E+00
         0.13614E+00
         0.14129E+00
         0.15413E+00
         0.14779E+00
         0.15179E+00
         0.13663E+00
         0.12979E+00
         0.13797E+00
         0.13442E+00
         0.13847E+00
         0.13735E+00
         0.24867E-01
         0.14837E-01
         0.14070E-01
         0.97538E-02
         0.25482E-01
         0.17591E-01
         0.80898E-02
         0.24492E-01
         0.15518E-01
         0.23594E-01
         0.11175E-01
         0.48021E-01
         0.36659E-01
         0.17735E-01
         0.50931E-01
         0.18128E-01
         0.94061E-02
         0.56143E-02
         0.12163E-01
         0.63612E-02
         0.37838E-01
         0.35427E-01
         0.34535E-01
         0.89697E-02
         0.15452E-01
         0.46493E-02
         0.17268E-01
         0.25451E-02
         0.66374E-02
         0.16275E-01
         0.15488E-01
         0.80998E-02
         0.97152E-02
         0.86709E-02
         0.33300E-01
         0.19767E-01
         0.25596E-01
         0.41804E-01
         0.32446E-01
         0.29913E-01
         0.42097E-01
         0.38079E-01
         0.38169E-01
         0.29543E-01
         0.26321E-01
         0.36040E-01
         0.23648E-01
         0.20086E-01
         0.16310E-01
         0.19235E-01
         0.31757E-01
         0.21541E-01
         0.13963E+00
         0.14318E+00
         0.15007E+00
         0.14901E+00
         0.15852E+00
         0.16983E+00
         0.16281E+00
         0.14505E+00
         0.14138E+00
         0.15120E+00
         0.14844E+00
         0.14682E+00
         0.12122E+00
         0.11527E+00
         0.12689E+00
         0.13618E+00
         0.14134E+00
         0.15417E+00
         0.14778E+00
         0.15178E+00
         0.13662E+00
         0.12979E+00
         0.13792E+00
         0.13434E+00
         0.13839E+00
         0.13727E+00
         0.24882E-01
         0.14837E-01
         0.14077E-01
         0.97679E-02
         0.25472E-01
         0.17581E-01
         0.81119E-02
         0.24509E-01
         0.15545E-01
         0.23651E-01
         0.11180E-01
         0.48022E-01
         0.36676E-01
         0.17694E-01
         0.50983E-01
         0.18146E-01
         0.94337E-02
         0.55994E-02
         0.12171E-01
         0.63473E-02
         0.37844E-01
         0.35427E-01
         0.34539E-01
         0.89690E-02
         0.15508E-01
         0.46451E-02
         0.17272E-01
         0.25297E-02
         0.66663E-02
         0.16296E-01
         0.15502E-01
         0.80950E-02
         0.96986E-02
         0.86785E-02
         0.33317E-01
         0.19764E-01
         0.25592E-01
         0.41870E-01
         0.32522E-01
         0.29959E-01
         0.42130E-01
         0.38102E-01
         0.38179E-01
         0.29551E-01
         0.26324E-01
         0.36046E-01
         0.23654E-01
         0.20089E-01
         0.16292E-01
         0.19211E-01
         0.31742E-01
         0.21509E-01
         0.13958E+00
         0.14315E+00
         0.15007E+00
         0.14901E+00
         0.15849E+00
         0.16977E+00
         0.16274E+00
         0.14501E+00
         0.14135E+00
         0.15116E+00
         0.14842E+00
         0.14683E+00
         0.12122E+00
         0.11527E+00
         0.12691E+00
         0.13623E+00
         0.14139E+00
         0.15420E+00
         0.14777E+00
         0.15177E+00
         0.13661E+00
         0.12978E+00
         0.13788E+00
         0.13425E+00
         0.13832E+00
         0.13720E+00
         0.24897E-01
         0.14837E-01
         0.14084E-01
         0.97822E-02
         0.25461E-01
         0.17571E-01
         0.81340E-02
         0.24526E-01
         0.15572E-01
         0.23709E-01
         0.11185E-01
         0.48022E-01
         0.36692E-01
         0.17652E-01
         0.51037E-01
         0.18164E-01
         0.94613E-02
         0.55845E-02
         0.12179E-01
         0.63330E-02
         0.37851E-01
         0.35427E-01
         0.34542E-01
         0.89683E-02
         0.15564E-01
         0.46409E-02
         0.17277E-01
         0.25147E-02
         0.66954E-02
         0.16318E-01
         0.15516E-01
         0.80901E-02
         0.96821E-02
         0.86860E-02
         0.33333E-01
         0.19761E-01
         0.25589E-01
         0.41936E-01
         0.32599E-01
         0.30006E-01
         0.42163E-01
         0.38125E-01
         0.38189E-01
         0.29559E-01
         0.26327E-01
         0.36052E-01
         0.23660E-01
         0.20093E-01
         0.16275E-01
         0.19186E-01
         0.31727E-01
         0.21477E-01
         0.13952E+00
         0.14312E+00
         0.15007E+00
         0.14901E+00
         0.15846E+00
         0.16971E+00
         0.16267E+00
         0.14497E+00
         0.14131E+00
         0.15111E+00
         0.14840E+00
         0.14684E+00
         0.12121E+00
         0.11527E+00
         0.12693E+00
         0.13627E+00
         0.14144E+00
         0.15424E+00
         0.14776E+00
         0.15176E+00
         0.13659E+00
         0.12978E+00
         0.13783E+00
         0.13416E+00
         0.13824E+00
         0.13713E+00
         0.24912E-01
         0.14837E-01
         0.14091E-01
         0.97963E-02
         0.25450E-01
         0.17561E-01
         0.81560E-02
         0.24542E-01
         0.15600E-01
         0.23767E-01
         0.11190E-01
         0.48022E-01
         0.36709E-01
         0.17611E-01
         0.51089E-01
         0.18182E-01
         0.94890E-02
         0.55697E-02
         0.12187E-01
         0.63191E-02
         0.37857E-01
         0.35427E-01
         0.34546E-01
         0.89677E-02
         0.15619E-01
         0.46367E-02
         0.17282E-01
         0.25002E-02
         0.67247E-02
         0.16339E-01
         0.15530E-01
         0.80855E-02
         0.96658E-02
         0.86936E-02
         0.33350E-01
         0.19758E-01
         0.25586E-01
         0.42003E-01
         0.32674E-01
         0.30051E-01
         0.42196E-01
         0.38148E-01
         0.38199E-01
         0.29567E-01
         0.26330E-01
         0.36057E-01
         0.23666E-01
         0.20096E-01
         0.16258E-01
         0.19162E-01
         0.31712E-01
         0.21444E-01
         0.13947E+00
         0.14308E+00
         0.15007E+00
         0.14901E+00
         0.15844E+00
         0.16965E+00
         0.16260E+00
         0.14493E+00
         0.14128E+00
         0.15106E+00
         0.14837E+00
         0.14685E+00
         0.12121E+00
         0.11527E+00
         0.12695E+00
         0.13632E+00
         0.14149E+00
         0.15427E+00
         0.14775E+00
         0.15175E+00
         0.13658E+00
         0.12977E+00
         0.13778E+00
         0.13407E+00
         0.13816E+00
         0.13706E+00
         0.24927E-01
         0.14836E-01
         0.14098E-01
         0.98106E-02
         0.25440E-01
         0.17551E-01
         0.81783E-02
         0.24559E-01
         0.15627E-01
         0.23825E-01
         0.11195E-01
         0.48023E-01
         0.36726E-01
         0.17569E-01
         0.51142E-01
         0.18200E-01
         0.95168E-02
         0.55548E-02
         0.12195E-01
         0.63049E-02
         0.37864E-01
         0.35426E-01
         0.34550E-01
         0.89672E-02
         0.15675E-01
         0.46325E-02
         0.17287E-01
         0.24861E-02
         0.67539E-02
         0.16359E-01
         0.15544E-01
         0.80808E-02
         0.96495E-02
         0.87013E-02
         0.33366E-01
         0.19755E-01
         0.25582E-01
         0.42069E-01
         0.32750E-01
         0.30097E-01
         0.42229E-01
         0.38170E-01
         0.38208E-01
         0.29576E-01
         0.26332E-01
         0.36064E-01
         0.23672E-01
         0.20099E-01
         0.16241E-01
         0.19137E-01
         0.31697E-01
         0.21412E-01
         0.13942E+00
         0.14305E+00
         0.15006E+00
         0.14901E+00
         0.15841E+00
         0.16960E+00
         0.16253E+00
         0.14489E+00
         0.14124E+00
         0.15101E+00
         0.14835E+00
         0.14686E+00
         0.12120E+00
         0.11527E+00
         0.12696E+00
         0.13636E+00
         0.14153E+00
         0.15431E+00
         0.14774E+00
         0.15174E+00
         0.13657E+00
         0.12976E+00
         0.13773E+00
         0.13398E+00
         0.13809E+00
         0.13698E+00
         0.24942E-01
         0.14836E-01
         0.14105E-01
         0.98249E-02
         0.25429E-01
         0.17541E-01
         0.82004E-02
         0.24575E-01
         0.15655E-01
         0.23882E-01
         0.11200E-01
         0.48023E-01
         0.36742E-01
         0.17528E-01
         0.51195E-01
         0.18218E-01
         0.95446E-02
         0.55398E-02
         0.12203E-01
         0.62915E-02
         0.37870E-01
         0.35426E-01
         0.34554E-01
         0.89664E-02
         0.15730E-01
         0.46286E-02
         0.17290E-01
         0.24718E-02
         0.67836E-02
         0.16379E-01
         0.15558E-01
         0.80759E-02
         0.96332E-02
         0.87089E-02
         0.33383E-01
         0.19753E-01
         0.25579E-01
         0.42136E-01
         0.32826E-01
         0.30141E-01
         0.42260E-01
         0.38191E-01
         0.38217E-01
         0.29584E-01
         0.26335E-01
         0.36069E-01
         0.23677E-01
         0.20103E-01
         0.16223E-01
         0.19113E-01
         0.31683E-01
         0.21379E-01
         0.13937E+00
         0.14302E+00
         0.15006E+00
         0.14902E+00
         0.15838E+00
         0.16954E+00
         0.16246E+00
         0.14485E+00
         0.14121E+00
         0.15096E+00
         0.14832E+00
         0.14687E+00
         0.12120E+00
         0.11526E+00
         0.12698E+00
         0.13641E+00
         0.14158E+00
         0.15434E+00
         0.14773E+00
         0.15173E+00
         0.13656E+00
         0.12976E+00
         0.13768E+00
         0.13390E+00
         0.13801E+00
         0.13691E+00
         0.24957E-01
         0.14836E-01
         0.14112E-01
         0.98392E-02
         0.25418E-01
         0.17531E-01
         0.82225E-02
         0.24591E-01
         0.15682E-01
         0.23939E-01
         0.11206E-01
         0.48023E-01
         0.36759E-01
         0.17486E-01
         0.51248E-01
         0.18235E-01
         0.95724E-02
         0.55249E-02
         0.12211E-01
         0.62779E-02
         0.37877E-01
         0.35425E-01
         0.34558E-01
         0.89659E-02
         0.15785E-01
         0.46245E-02
         0.17291E-01
         0.24575E-02
         0.68136E-02
         0.16398E-01
         0.15572E-01
         0.80712E-02
         0.96170E-02
         0.87166E-02
         0.33399E-01
         0.19750E-01
         0.25575E-01
         0.42203E-01
         0.32902E-01
         0.30184E-01
         0.42289E-01
         0.38209E-01
         0.38225E-01
         0.29592E-01
         0.26338E-01
         0.36075E-01
         0.23683E-01
         0.20106E-01
         0.16206E-01
         0.19088E-01
         0.31667E-01
         0.21347E-01
         0.13932E+00
         0.14298E+00
         0.15006E+00
         0.14902E+00
         0.15836E+00
         0.16948E+00
         0.16239E+00
         0.14481E+00
         0.14117E+00
         0.15091E+00
         0.14830E+00
         0.14689E+00
         0.12120E+00
         0.11526E+00
         0.12700E+00
         0.13645E+00
         0.14163E+00
         0.15438E+00
         0.14772E+00
         0.15172E+00
         0.13655E+00
         0.12975E+00
         0.13763E+00
         0.13381E+00
         0.13793E+00
         0.13684E+00
         0.24973E-01
         0.14836E-01
         0.14120E-01
         0.98536E-02
         0.25408E-01
         0.17521E-01
         0.82449E-02
         0.24607E-01
         0.15710E-01
         0.23995E-01
         0.11211E-01
         0.48024E-01
         0.36775E-01
         0.17444E-01
         0.51301E-01
         0.18253E-01
         0.96004E-02
         0.55101E-02
         0.12219E-01
         0.62647E-02
         0.37883E-01
         0.35424E-01
         0.34561E-01
         0.89654E-02
         0.15840E-01
         0.46207E-02
         0.17293E-01
         0.24431E-02
         0.68436E-02
         0.16416E-01
         0.15586E-01
         0.80666E-02
         0.96011E-02
         0.87244E-02
         0.33416E-01
         0.19747E-01
         0.25571E-01
         0.42269E-01
         0.32977E-01
         0.30225E-01
         0.42317E-01
         0.38227E-01
         0.38232E-01
         0.29601E-01
         0.26341E-01
         0.36081E-01
         0.23689E-01
         0.20110E-01
         0.16189E-01
         0.19064E-01
         0.31652E-01
         0.21315E-01
         0.13927E+00
         0.14295E+00
         0.15006E+00
         0.14902E+00
         0.15833E+00
         0.16942E+00
         0.16232E+00
         0.14477E+00
         0.14113E+00
         0.15085E+00
         0.14828E+00
         0.14691E+00
         0.12120E+00
         0.11526E+00
         0.12702E+00
         0.13650E+00
         0.14168E+00
         0.15441E+00
         0.14771E+00
         0.15171E+00
         0.13653E+00
         0.12975E+00
         0.13759E+00
         0.13372E+00
         0.13786E+00
         0.13676E+00
         0.25514E-01
         0.15617E-01
         0.14927E-01
         0.10767E-01
         0.26088E-01
         0.18294E-01
         0.96848E-02
         0.25271E-01
         0.16412E-01
         0.24706E-01
         0.12562E-01
         0.48744E-01
         0.37452E-01
         0.18409E-01
         0.52095E-01
         0.18852E-01
         0.10704E-01
         0.68207E-02
         0.13180E-01
         0.80126E-02
         0.38466E-01
         0.36023E-01
         0.35120E-01
         0.10091E-01
         0.16762E-01
         0.63595E-02
         0.18281E-01
         0.59627E-02
         0.88161E-02
         0.17338E-01
         0.16260E-01
         0.92708E-02
         0.10517E-01
         0.98223E-02
         0.34140E-01
         0.20542E-01
         0.26249E-01
         0.43050E-01
         0.33790E-01
         0.31021E-01
         0.43039E-01
         0.38905E-01
         0.38851E-01
         0.30170E-01
         0.26980E-01
         0.36771E-01
         0.24420E-01
         0.20829E-01
         0.16975E-01
         0.19807E-01
         0.32315E-01
         0.22009E-01
         0.14066E+00
         0.14433E+00
         0.15154E+00
         0.15045E+00
         0.15983E+00
         0.17103E+00
         0.16389E+00
         0.14627E+00
         0.14263E+00
         0.15243E+00
         0.14982E+00
         0.14838E+00
         0.12238E+00
         0.11634E+00
         0.12818E+00
         0.13773E+00
         0.14296E+00
         0.15586E+00
         0.14919E+00
         0.15322E+00
         0.13784E+00
         0.13098E+00
         0.13886E+00
         0.13493E+00
         0.13908E+00
         0.13799E+00
         0.61262E-01
         0.55224E-01
         0.54090E-01
         0.47848E-01
         0.66933E-01
         0.58378E-01
         0.55855E-01
         0.66280E-01
         0.52788E-01
         0.65734E-01
         0.61964E-01
         0.96235E-01
         0.81018E-01
         0.66606E-01
         0.10167E+00
         0.53862E-01
         0.51666E-01
         0.44207E-01
         0.54330E-01
         0.54567E-01
         0.78375E-01
         0.77217E-01
         0.73489E-01
         0.51064E-01
         0.60495E-01
         0.48075E-01
         0.66429E-01
         0.60220E-01
         0.61286E-01
         0.62573E-01
         0.52335E-01
         0.50528E-01
         0.48049E-01
         0.49641E-01
         0.77565E-01
         0.63051E-01
         0.67617E-01
         0.91770E-01
         0.81980E-01
         0.78960E-01
         0.90953E-01
         0.84635E-01
         0.82139E-01
         0.67937E-01
         0.66607E-01
         0.79730E-01
         0.66135E-01
         0.60812E-01
         0.57284E-01
         0.60800E-01
         0.74213E-01
         0.62446E-01
         0.20427E+00
         0.20697E+00
         0.21632E+00
         0.21412E+00
         0.22624E+00
         0.24216E+00
         0.23668E+00
         0.21737E+00
         0.21318E+00
         0.22474E+00
         0.22040E+00
         0.21541E+00
         0.18184E+00
         0.17288E+00
         0.18501E+00
         0.19491E+00
         0.20089E+00
         0.21821E+00
         0.21342E+00
         0.21845E+00
         0.19890E+00
         0.19029E+00
         0.20026E+00
         0.19592E+00
         0.19976E+00
         0.19779E+00
  
SCALARS                     nodal_mass  double 1
LOOKUP_TABLE default
         0.24608E-05
         0.19551E-05
         0.20945E-05
         0.35953E-05
         0.12304E-05
         0.97770E-06
         0.10472E-05
         0.17973E-05
         0.19315E-05
         0.24627E-05
         0.96570E-06
         0.12312E-05
         0.13823E-05
         0.16614E-05
         0.69133E-06
         0.83095E-06
         0.27274E-05
         0.20125E-05
         0.13635E-05
         0.10066E-05
         0.81737E-06
         0.15393E-05
         0.16929E-05
         0.40889E-06
         0.76975E-06
         0.84649E-06
         0.13859E-05
         0.17532E-05
         0.69345E-06
         0.87672E-06
         0.32470E-05
         0.25355E-05
         0.32225E-05
         0.16233E-05
         0.12675E-05
         0.16109E-05
         0.18980E-05
         0.21673E-05
         0.94902E-06
         0.10836E-05
         0.20482E-05
         0.22683E-05
         0.10242E-05
         0.11342E-05
         0.17426E-05
         0.10823E-05
         0.87140E-06
         0.54121E-06
         0.20598E-05
         0.10301E-05
         0.17103E-05
         0.85523E-06
         0.17977E-05
         0.89958E-06
         0.18362E-05
         0.91859E-06
         0.15911E-05
         0.19369E-05
         0.79575E-06
         0.96860E-06
         0.24553E-05
         0.17361E-05
         0.12277E-05
         0.86816E-06
         0.27409E-05
         0.13702E-05
         0.23792E-05
         0.11891E-05
         0.10821E-05
         0.16705E-05
         0.54106E-06
         0.83538E-06
         0.18955E-05
         0.94787E-06
         0.20026E-05
         0.10014E-05
         0.19316E-05
         0.96578E-06
         0.15181E-05
         0.75906E-06
         0.95443E-06
         0.15782E-05
         0.47723E-06
         0.78918E-06
         0.20886E-05
         0.10443E-05
         0.16867E-05
         0.84342E-06
         0.14838E-05
         0.74203E-06
         0.97224E-06
         0.16569E-05
         0.48620E-06
         0.82849E-06
         0.22482E-05
         0.11241E-05
         0.23568E-05
         0.11783E-05
         0.19018E-05
         0.95085E-06
         0.11709E-05
         0.20091E-05
         0.58544E-06
         0.10044E-05
         0.74681E-06
         0.94889E-06
         0.37348E-06
         0.47447E-06
         0.88885E-06
         0.44455E-06
         0.10466E-05
         0.52333E-06
         0.10205E-05
         0.51021E-06
         0.99108E-06
         0.49550E-06
         0.10560E-05
         0.52791E-06
         0.11142E-05
         0.55694E-06
         0.10497E-05
         0.52469E-06
         0.82085E-06
         0.41039E-06
         0.66950E-06
         0.33475E-06
         0.86397E-06
         0.43199E-06
         0.11504E-05
         0.57519E-06
         0.12637E-05
         0.63182E-06
         0.12132E-05
         0.60658E-06
         0.10948E-05
         0.54745E-06
         0.99429E-06
         0.49718E-06
         0.80759E-06
         0.40382E-06
         0.67982E-06
         0.33995E-06
         0.88797E-06
         0.44401E-06
         0.11753E-05
         0.58766E-06
         0.12140E-05
         0.60702E-06
         0.98236E-06
         0.49125E-06
         0.79766E-06
         0.39889E-06
         0.97540E-06
         0.48769E-06
         0.11548E-05
         0.57743E-06
         0.24609E-05
         0.19547E-05
         0.20946E-05
         0.35969E-05
         0.19318E-05
         0.24634E-05
         0.13815E-05
         0.16603E-05
         0.27283E-05
         0.20111E-05
         0.81658E-06
         0.15390E-05
         0.16927E-05
         0.13839E-05
         0.17528E-05
         0.32479E-05
         0.25367E-05
         0.32241E-05
         0.18980E-05
         0.21675E-05
         0.20481E-05
         0.22684E-05
         0.17424E-05
         0.10822E-05
         0.20589E-05
         0.17102E-05
         0.17950E-05
         0.18344E-05
         0.15904E-05
         0.19365E-05
         0.24555E-05
         0.17359E-05
         0.27423E-05
         0.23814E-05
         0.10820E-05
         0.16702E-05
         0.18953E-05
         0.20025E-05
         0.19317E-05
         0.15181E-05
         0.95442E-06
         0.15780E-05
         0.20884E-05
         0.16864E-05
         0.14835E-05
         0.97197E-06
         0.16567E-05
         0.22482E-05
         0.23571E-05
         0.19022E-05
         0.11709E-05
         0.20101E-05
         0.74658E-06
         0.94886E-06
         0.88841E-06
         0.10467E-05
         0.10207E-05
         0.99128E-06
         0.10565E-05
         0.11150E-05
         0.10503E-05
         0.82102E-06
         0.66954E-06
         0.86398E-06
         0.11506E-05
         0.12640E-05
         0.12133E-05
         0.10948E-05
         0.99421E-06
         0.80751E-06
         0.67970E-06
         0.88789E-06
         0.11752E-05
         0.12140E-05
         0.98215E-06
         0.79747E-06
         0.97551E-06
         0.11548E-05
         0.24611E-05
         0.19543E-05
         0.20949E-05
         0.35987E-05
         0.19321E-05
         0.24642E-05
         0.13808E-05
         0.16594E-05
         0.27293E-05
         0.20098E-05
         0.81582E-06
         0.15388E-05
         0.16927E-05
         0.13821E-05
         0.17525E-05
         0.32489E-05
         0.25379E-05
         0.32257E-05
         0.18982E-05
         0.21678E-05
         0.20480E-05
         0.22685E-05
         0.17423E-05
         0.10821E-05
         0.20580E-05
         0.17101E-05
         0.17924E-05
         0.18326E-05
         0.15898E-05
         0.19361E-05
         0.24558E-05
         0.17357E-05
         0.27438E-05
         0.23836E-05
         0.10821E-05
         0.16699E-05
         0.18951E-05
         0.20024E-05
         0.19318E-05
         0.15183E-05
         0.95445E-06
         0.15778E-05
         0.20884E-05
         0.16862E-05
         0.14831E-05
         0.97174E-06
         0.16566E-05
         0.22483E-05
         0.23575E-05
         0.19026E-05
         0.11709E-05
         0.20112E-05
         0.74636E-06
         0.94886E-06
         0.88800E-06
         0.10467E-05
         0.10210E-05
         0.99152E-06
         0.10570E-05
         0.11159E-05
         0.10509E-05
         0.82122E-06
         0.66961E-06
         0.86402E-06
         0.11507E-05
         0.12643E-05
         0.12135E-05
         0.10948E-05
         0.99417E-06
         0.80747E-06
         0.67961E-06
         0.88784E-06
         0.11752E-05
         0.12140E-05
         0.98197E-06
         0.79731E-06
         0.97565E-06
         0.11548E-05
         0.24612E-05
         0.19539E-05
         0.20950E-05
         0.36004E-05
         0.19324E-05
         0.24650E-05
         0.13801E-05
         0.16584E-05
         0.27303E-05
         0.20085E-05
         0.81504E-06
         0.15385E-05
         0.16925E-05
         0.13801E-05
         0.17521E-05
         0.32498E-05
         0.25390E-05
         0.32274E-05
         0.18982E-05
         0.21681E-05
         0.20479E-05
         0.22686E-05
         0.17421E-05
         0.10820E-05
         0.20571E-05
         0.17099E-05
         0.17897E-05
         0.18308E-05
         0.15891E-05
         0.19356E-05
         0.24561E-05
         0.17355E-05
         0.27453E-05
         0.23857E-05
         0.10820E-05
         0.16696E-05
         0.18948E-05
         0.20022E-05
         0.19320E-05
         0.15183E-05
         0.95445E-06
         0.15776E-05
         0.20883E-05
         0.16859E-05
         0.14828E-05
         0.97149E-06
         0.16564E-05
         0.22483E-05
         0.23578E-05
         0.19030E-05
         0.11710E-05
         0.20122E-05
         0.74613E-06
         0.94884E-06
         0.88756E-06
         0.10467E-05
         0.10212E-05
         0.99173E-06
         0.10574E-05
         0.11167E-05
         0.10515E-05
         0.82140E-06
         0.66966E-06
         0.86404E-06
         0.11509E-05
         0.12646E-05
         0.12136E-05
         0.10947E-05
         0.99410E-06
         0.80740E-06
         0.67950E-06
         0.88777E-06
         0.11752E-05
         0.12140E-05
         0.98177E-06
         0.79713E-06
         0.97576E-06
         0.11547E-05
         0.24613E-05
         0.19535E-05
         0.20952E-05
         0.36022E-05
         0.19327E-05
         0.24657E-05
         0.13794E-05
         0.16574E-05
         0.27313E-05
         0.20072E-05
         0.81426E-06
         0.15382E-05
         0.16924E-05
         0.13782E-05
         0.17517E-05
         0.32508E-05
         0.25402E-05
         0.32290E-05
         0.18983E-05
         0.21684E-05
         0.20479E-05
         0.22687E-05
         0.17420E-05
         0.10819E-05
         0.20563E-05
         0.17098E-05
         0.17870E-05
         0.18290E-05
         0.15884E-05
         0.19352E-05
         0.24563E-05
         0.17353E-05
         0.27467E-05
         0.23879E-05
         0.10820E-05
         0.16693E-05
         0.18946E-05
         0.20021E-05
         0.19321E-05
         0.15184E-05
         0.95445E-06
         0.15773E-05
         0.20882E-05
         0.16857E-05
         0.14824E-05
         0.97124E-06
         0.16563E-05
         0.22484E-05
         0.23582E-05
         0.19034E-05
         0.11710E-05
         0.20132E-05
         0.74590E-06
         0.94883E-06
         0.88713E-06
         0.10468E-05
         0.10215E-05
         0.99194E-06
         0.10579E-05
         0.11175E-05
         0.10521E-05
         0.82159E-06
         0.66972E-06
         0.86406E-06
         0.11510E-05
         0.12649E-05
         0.12138E-05
         0.10947E-05
         0.99404E-06
         0.80734E-06
         0.67940E-06
         0.88771E-06
         0.11752E-05
         0.12140E-05
         0.98157E-06
         0.79696E-06
         0.97588E-06
         0.11547E-05
         0.24615E-05
         0.19531E-05
         0.20954E-05
         0.36039E-05
         0.19331E-05
         0.24665E-05
         0.13787E-05
         0.16564E-05
         0.27322E-05
         0.20059E-05
         0.81349E-06
         0.15380E-05
         0.16923E-05
         0.13763E-05
         0.17514E-05
         0.32518E-05
         0.25414E-05
         0.32306E-05
         0.18984E-05
         0.21687E-05
         0.20478E-05
         0.22688E-05
         0.17418E-05
         0.10818E-05
         0.20554E-05
         0.17096E-05
         0.17843E-05
         0.18272E-05
         0.15878E-05
         0.19347E-05
         0.24566E-05
         0.17351E-05
         0.27482E-05
         0.23901E-05
         0.10820E-05
         0.16690E-05
         0.18943E-05
         0.20019E-05
         0.19322E-05
         0.15185E-05
         0.95446E-06
         0.15771E-05
         0.20881E-05
         0.16855E-05
         0.14821E-05
         0.97100E-06
         0.16562E-05
         0.22484E-05
         0.23586E-05
         0.19038E-05
         0.11710E-05
         0.20142E-05
         0.74568E-06
         0.94882E-06
         0.88671E-06
         0.10468E-05
         0.10217E-05
         0.99216E-06
         0.10583E-05
         0.11183E-05
         0.10528E-05
         0.82178E-06
         0.66977E-06
         0.86408E-06
         0.11512E-05
         0.12652E-05
         0.12139E-05
         0.10947E-05
         0.99398E-06
         0.80728E-06
         0.67930E-06
         0.88766E-06
         0.11752E-05
         0.12140E-05
         0.98138E-06
         0.79679E-06
         0.97601E-06
         0.11547E-05
         0.24616E-05
         0.19527E-05
         0.20956E-05
         0.36056E-05
         0.19334E-05
         0.24672E-05
         0.13779E-05
         0.16554E-05
         0.27332E-05
         0.20046E-05
         0.81271E-06
         0.15377E-05
         0.16922E-05
         0.13744E-05
         0.17510E-05
         0.32527E-05
         0.25425E-05
         0.32322E-05
         0.18984E-05
         0.21689E-05
         0.20477E-05
         0.22689E-05
         0.17416E-05
         0.10816E-05
         0.20545E-05
         0.17095E-05
         0.17817E-05
         0.18254E-05
         0.15871E-05
         0.19343E-05
         0.24568E-05
         0.17349E-05
         0.27496E-05
         0.23922E-05
         0.10820E-05
         0.16686E-05
         0.18941E-05
         0.20018E-05
         0.19324E-05
         0.15186E-05
         0.95446E-06
         0.15769E-05
         0.20880E-05
         0.16852E-05
         0.14817E-05
         0.97074E-06
         0.16560E-05
         0.22484E-05
         0.23589E-05
         0.19042E-05
         0.11710E-05
         0.20152E-05
         0.74544E-06
         0.94880E-06
         0.88627E-06
         0.10469E-05
         0.10219E-05
         0.99237E-06
         0.10588E-05
         0.11191E-05
         0.10534E-05
         0.82196E-06
         0.66982E-06
         0.86410E-06
         0.11513E-05
         0.12654E-05
         0.12140E-05
         0.10947E-05
         0.99391E-06
         0.80721E-06
         0.67919E-06
         0.88759E-06
         0.11751E-05
         0.12140E-05
         0.98118E-06
         0.79661E-06
         0.97612E-06
         0.11546E-05
         0.24618E-05
         0.19523E-05
         0.20957E-05
         0.36073E-05
         0.19337E-05
         0.24680E-05
         0.13772E-05
         0.16545E-05
         0.27341E-05
         0.20033E-05
         0.81194E-06
         0.15374E-05
         0.16921E-05
         0.13725E-05
         0.17506E-05
         0.32537E-05
         0.25437E-05
         0.32339E-05
         0.18985E-05
         0.21692E-05
         0.20476E-05
         0.22690E-05
         0.17414E-05
         0.10815E-05
         0.20536E-05
         0.17093E-05
         0.17790E-05
         0.18236E-05
         0.15864E-05
         0.19339E-05
         0.24571E-05
         0.17347E-05
         0.27511E-05
         0.23944E-05
         0.10820E-05
         0.16683E-05
         0.18938E-05
         0.20016E-05
         0.19325E-05
         0.15186E-05
         0.95446E-06
         0.15767E-05
         0.20878E-05
         0.16850E-05
         0.14814E-05
         0.97050E-06
         0.16559E-05
         0.22484E-05
         0.23593E-05
         0.19046E-05
         0.11711E-05
         0.20162E-05
         0.74522E-06
         0.94878E-06
         0.88584E-06
         0.10469E-05
         0.10222E-05
         0.99258E-06
         0.10593E-05
         0.11199E-05
         0.10540E-05
         0.82215E-06
         0.66988E-06
         0.86413E-06
         0.11515E-05
         0.12657E-05
         0.12142E-05
         0.10946E-05
         0.99385E-06
         0.80715E-06
         0.67909E-06
         0.88752E-06
         0.11751E-05
         0.12140E-05
         0.98098E-06
         0.79643E-06
         0.97624E-06
         0.11546E-05
         0.24619E-05
         0.19519E-05
         0.20959E-05
         0.36091E-05
         0.19340E-05
         0.24688E-05
         0.13765E-05
         0.16535E-05
         0.27351E-05
         0.20020E-05
         0.81117E-06
         0.15372E-05
         0.16920E-05
         0.13706E-05
         0.17503E-05
         0.32546E-05
         0.25448E-05
         0.32355E-05
         0.18986E-05
         0.21695E-05
         0.20475E-05
         0.22691E-05
         0.17413E-05
         0.10814E-05
         0.20527E-05
         0.17092E-05
         0.17763E-05
         0.18219E-05
         0.15858E-05
         0.19334E-05
         0.24573E-05
         0.17345E-05
         0.27525E-05
         0.23966E-05
         0.10820E-05
         0.16680E-05
         0.18936E-05
         0.20015E-05
         0.19326E-05
         0.15187E-05
         0.95447E-06
         0.15765E-05
         0.20878E-05
         0.16848E-05
         0.14810E-05
         0.97025E-06
         0.16557E-05
         0.22485E-05
         0.23597E-05
         0.19050E-05
         0.11711E-05
         0.20172E-05
         0.74499E-06
         0.94877E-06
         0.88541E-06
         0.10469E-05
         0.10224E-05
         0.99280E-06
         0.10597E-05
         0.11207E-05
         0.10546E-05
         0.82234E-06
         0.66994E-06
         0.86415E-06
         0.11517E-05
         0.12660E-05
         0.12143E-05
         0.10946E-05
         0.99379E-06
         0.80709E-06
         0.67898E-06
         0.88746E-06
         0.11751E-05
         0.12140E-05
         0.98079E-06
         0.79626E-06
         0.97636E-06
         0.11546E-05
         0.24621E-05
         0.19515E-05
         0.20961E-05
         0.36108E-05
         0.19343E-05
         0.24695E-05
         0.13758E-05
         0.16525E-05
         0.27361E-05
         0.20006E-05
         0.81039E-06
         0.15369E-05
         0.16919E-05
         0.13686E-05
         0.17499E-05
         0.32556E-05
         0.25460E-05
         0.32371E-05
         0.18986E-05
         0.21697E-05
         0.20474E-05
         0.22692E-05
         0.17411E-05
         0.10813E-05
         0.20519E-05
         0.17091E-05
         0.17736E-05
         0.18201E-05
         0.15851E-05
         0.19330E-05
         0.24575E-05
         0.17342E-05
         0.27540E-05
         0.23987E-05
         0.10820E-05
         0.16677E-05
         0.18933E-05
         0.20014E-05
         0.19328E-05
         0.15188E-05
         0.95448E-06
         0.15763E-05
         0.20876E-05
         0.16845E-05
         0.14807E-05
         0.97000E-06
         0.16556E-05
         0.22485E-05
         0.23600E-05
         0.19053E-05
         0.11711E-05
         0.20182E-05
         0.74476E-06
         0.94875E-06
         0.88498E-06
         0.10470E-05
         0.10227E-05
         0.99301E-06
         0.10602E-05
         0.11215E-05
         0.10553E-05
         0.82252E-06
         0.66999E-06
         0.86417E-06
         0.11518E-05
         0.12663E-05
         0.12145E-05
         0.10946E-05
         0.99373E-06
         0.80702E-06
         0.67888E-06
         0.88740E-06
         0.11751E-05
         0.12140E-05
         0.98058E-06
         0.79608E-06
         0.97648E-06
         0.11546E-05
         0.24622E-05
         0.19511E-05
         0.20963E-05
         0.36125E-05
         0.19346E-05
         0.24703E-05
         0.13751E-05
         0.16515E-05
         0.27370E-05
         0.19993E-05
         0.80962E-06
         0.15366E-05
         0.16917E-05
         0.13667E-05
         0.17495E-05
         0.32565E-05
         0.25471E-05
         0.32388E-05
         0.18987E-05
         0.21700E-05
         0.20473E-05
         0.22693E-05
         0.17409E-05
         0.10812E-05
         0.20510E-05
         0.17089E-05
         0.17710E-05
         0.18183E-05
         0.15844E-05
         0.19325E-05
         0.24578E-05
         0.17340E-05
         0.27554E-05
         0.24009E-05
         0.10820E-05
         0.16674E-05
         0.18931E-05
         0.20012E-05
         0.19329E-05
         0.15189E-05
         0.95448E-06
         0.15760E-05
         0.20875E-05
         0.16843E-05
         0.14803E-05
         0.96975E-06
         0.16555E-05
         0.22485E-05
         0.23604E-05
         0.19057E-05
         0.11712E-05
         0.20192E-05
         0.74453E-06
         0.94874E-06
         0.88455E-06
         0.10470E-05
         0.10229E-05
         0.99322E-06
         0.10606E-05
         0.11223E-05
         0.10559E-05
         0.82270E-06
         0.67004E-06
         0.86419E-06
         0.11520E-05
         0.12666E-05
         0.12146E-05
         0.10945E-05
         0.99366E-06
         0.80696E-06
         0.67877E-06
         0.88733E-06
         0.11751E-05
         0.12140E-05
         0.98038E-06
         0.79590E-06
         0.97660E-06
         0.11545E-05
         0.24623E-05
         0.19507E-05
         0.20964E-05
         0.36142E-05
         0.19349E-05
         0.24710E-05
         0.13743E-05
         0.16505E-05
         0.27380E-05
         0.19980E-05
         0.80885E-06
         0.15364E-05
         0.16916E-05
         0.13648E-05
         0.17492E-05
         0.32575E-05
         0.25483E-05
         0.32404E-05
         0.18988E-05
         0.21703E-05
         0.20473E-05
         0.22694E-05
         0.17407E-05
         0.10811E-05
         0.20501E-05
         0.17088E-05
         0.17683E-05
         0.18165E-05
         0.15837E-05
         0.19321E-05
         0.24580E-05
         0.17338E-05
         0.27569E-05
         0.24031E-05
         0.10820E-05
         0.16670E-05
         0.18928E-05
         0.20011E-05
         0.19330E-05
         0.15189E-05
         0.95448E-06
         0.15758E-05
         0.20874E-05
         0.16840E-05
         0.14800E-05
         0.96950E-06
         0.16553E-05
         0.22485E-05
         0.23608E-05
         0.19061E-05
         0.11712E-05
         0.20202E-05
         0.74430E-06
         0.94872E-06
         0.88412E-06
         0.10470E-05
         0.10231E-05
         0.99344E-06
         0.10611E-05
         0.11231E-05
         0.10565E-05
         0.82289E-06
         0.67009E-06
         0.86422E-06
         0.11521E-05
         0.12669E-05
         0.12147E-05
         0.10945E-05
         0.99360E-06
         0.80690E-06
         0.67867E-06
         0.88727E-06
         0.11750E-05
         0.12140E-05
         0.98019E-06
         0.79573E-06
         0.97672E-06
         0.11545E-05
         0.24625E-05
         0.19503E-05
         0.20966E-05
         0.36160E-05
         0.19352E-05
         0.24718E-05
         0.13736E-05
         0.16496E-05
         0.27389E-05
         0.19967E-05
         0.80807E-06
         0.15361E-05
         0.16915E-05
         0.13629E-05
         0.17488E-05
         0.32584E-05
         0.25495E-05
         0.32420E-05
         0.18988E-05
         0.21705E-05
         0.20472E-05
         0.22695E-05
         0.17406E-05
         0.10810E-05
         0.20492E-05
         0.17086E-05
         0.17656E-05
         0.18147E-05
         0.15831E-05
         0.19317E-05
         0.24583E-05
         0.17336E-05
         0.27583E-05
         0.24053E-05
         0.10820E-05
         0.16667E-05
         0.18926E-05
         0.20009E-05
         0.19331E-05
         0.15190E-05
         0.95449E-06
         0.15756E-05
         0.20873E-05
         0.16838E-05
         0.14796E-05
         0.96925E-06
         0.16552E-05
         0.22486E-05
         0.23611E-05
         0.19065E-05
         0.11712E-05
         0.20212E-05
         0.74407E-06
         0.94870E-06
         0.88368E-06
         0.10471E-05
         0.10234E-05
         0.99365E-06
         0.10616E-05
         0.11239E-05
         0.10571E-05
         0.82307E-06
         0.67014E-06
         0.86424E-06
         0.11523E-05
         0.12672E-05
         0.12149E-05
         0.10945E-05
         0.99354E-06
         0.80683E-06
         0.67856E-06
         0.88721E-06
         0.11750E-05
         0.12140E-05
         0.97999E-06
         0.79555E-06
         0.97684E-06
         0.11545E-05
         0.24626E-05
         0.19499E-05
         0.20968E-05
         0.36177E-05
         0.19355E-05
         0.24725E-05
         0.13729E-05
         0.16486E-05
         0.27399E-05
         0.19954E-05
         0.80730E-06
         0.15358E-05
         0.16914E-05
         0.13610E-05
         0.17484E-05
         0.32594E-05
         0.25506E-05
         0.32437E-05
         0.18989E-05
         0.21708E-05
         0.20471E-05
         0.22696E-05
         0.17404E-05
         0.10808E-05
         0.20483E-05
         0.17085E-05
         0.17629E-05
         0.18129E-05
         0.15824E-05
         0.19312E-05
         0.24585E-05
         0.17334E-05
         0.27598E-05
         0.24074E-05
         0.10820E-05
         0.16664E-05
         0.18923E-05
         0.20008E-05
         0.19333E-05
         0.15191E-05
         0.95449E-06
         0.15754E-05
         0.20872E-05
         0.16835E-05
         0.14793E-05
         0.96901E-06
         0.16550E-05
         0.22486E-05
         0.23615E-05
         0.19069E-05
         0.11713E-05
         0.20222E-05
         0.74384E-06
         0.94869E-06
         0.88325E-06
         0.10471E-05
         0.10236E-05
         0.99386E-06
         0.10620E-05
         0.11247E-05
         0.10577E-05
         0.82326E-06
         0.67020E-06
         0.86426E-06
         0.11524E-05
         0.12674E-05
         0.12150E-05
         0.10944E-05
         0.99348E-06
         0.80677E-06
         0.67846E-06
         0.88714E-06
         0.11750E-05
         0.12140E-05
         0.97979E-06
         0.79538E-06
         0.97696E-06
         0.11544E-05
         0.24628E-05
         0.19495E-05
         0.20970E-05
         0.36194E-05
         0.19358E-05
         0.24733E-05
         0.13722E-05
         0.16476E-05
         0.27409E-05
         0.19941E-05
         0.80652E-06
         0.15355E-05
         0.16913E-05
         0.13591E-05
         0.17481E-05
         0.32604E-05
         0.25518E-05
         0.32453E-05
         0.18990E-05
         0.21711E-05
         0.20470E-05
         0.22697E-05
         0.17402E-05
         0.10807E-05
         0.20474E-05
         0.17084E-05
         0.17603E-05
         0.18111E-05
         0.15817E-05
         0.19308E-05
         0.24588E-05
         0.17332E-05
         0.27613E-05
         0.24096E-05
         0.10819E-05
         0.16661E-05
         0.18921E-05
         0.20006E-05
         0.19334E-05
         0.15192E-05
         0.95450E-06
         0.15752E-05
         0.20871E-05
         0.16833E-05
         0.14789E-05
         0.96876E-06
         0.16549E-05
         0.22486E-05
         0.23619E-05
         0.19073E-05
         0.11713E-05
         0.20232E-05
         0.74362E-06
         0.94868E-06
         0.88282E-06
         0.10472E-05
         0.10238E-05
         0.99408E-06
         0.10625E-05
         0.11255E-05
         0.10584E-05
         0.82345E-06
         0.67025E-06
         0.86428E-06
         0.11526E-05
         0.12677E-05
         0.12152E-05
         0.10944E-05
         0.99342E-06
         0.80671E-06
         0.67836E-06
         0.88709E-06
         0.11750E-05
         0.12140E-05
         0.97959E-06
         0.79521E-06
         0.97708E-06
         0.11544E-05
         0.24629E-05
         0.19491E-05
         0.20972E-05
         0.36212E-05
         0.19361E-05
         0.24741E-05
         0.13715E-05
         0.16466E-05
         0.27418E-05
         0.19928E-05
         0.80575E-06
         0.15353E-05
         0.16912E-05
         0.13572E-05
         0.17477E-05
         0.32613E-05
         0.25529E-05
         0.32469E-05
         0.18990E-05
         0.21714E-05
         0.20469E-05
         0.22698E-05
         0.17400E-05
         0.10806E-05
         0.20466E-05
         0.17082E-05
         0.17576E-05
         0.18093E-05
         0.15810E-05
         0.19303E-05
         0.24590E-05
         0.17330E-05
         0.27627E-05
         0.24118E-05
         0.10819E-05
         0.16658E-05
         0.18919E-05
         0.20005E-05
         0.19335E-05
         0.15192E-05
         0.95450E-06
         0.15750E-05
         0.20870E-05
         0.16831E-05
         0.14786E-05
         0.96851E-06
         0.16548E-05
         0.22487E-05
         0.23622E-05
         0.19077E-05
         0.11713E-05
         0.20242E-05
         0.74339E-06
         0.94866E-06
         0.88239E-06
         0.10472E-05
         0.10241E-05
         0.99429E-06
         0.10630E-05
         0.11263E-05
         0.10590E-05
         0.82363E-06
         0.67030E-06
         0.86430E-06
         0.11527E-05
         0.12680E-05
         0.12153E-05
         0.10944E-05
         0.99335E-06
         0.80665E-06
         0.67825E-06
         0.88702E-06
         0.11749E-05
         0.12140E-05
         0.97939E-06
         0.79503E-06
         0.97720E-06
         0.11544E-05
         0.24631E-05
         0.19487E-05
         0.20973E-05
         0.36229E-05
         0.19364E-05
         0.24748E-05
         0.13707E-05
         0.16456E-05
         0.27428E-05
         0.19915E-05
         0.80498E-06
         0.15350E-05
         0.16911E-05
         0.13553E-05
         0.17473E-05
         0.32623E-05
         0.25541E-05
         0.32486E-05
         0.18991E-05
         0.21716E-05
         0.20468E-05
         0.22699E-05
         0.17399E-05
         0.10805E-05
         0.20457E-05
         0.17081E-05
         0.17549E-05
         0.18075E-05
         0.15804E-05
         0.19299E-05
         0.24592E-05
         0.17328E-05
         0.27642E-05
         0.24140E-05
         0.10819E-05
         0.16654E-05
         0.18916E-05
         0.20003E-05
         0.19337E-05
         0.15193E-05
         0.95450E-06
         0.15748E-05
         0.20869E-05
         0.16828E-05
         0.14782E-05
         0.96826E-06
         0.16546E-05
         0.22487E-05
         0.23626E-05
         0.19081E-05
         0.11714E-05
         0.20253E-05
         0.74316E-06
         0.94864E-06
         0.88196E-06
         0.10472E-05
         0.10243E-05
         0.99450E-06
         0.10634E-05
         0.11271E-05
         0.10596E-05
         0.82381E-06
         0.67036E-06
         0.86432E-06
         0.11529E-05
         0.12683E-05
         0.12154E-05
         0.10943E-05
         0.99329E-06
         0.80658E-06
         0.67815E-06
         0.88696E-06
         0.11749E-05
         0.12140E-05
         0.97919E-06
         0.79485E-06
         0.97732E-06
         0.11544E-05
         0.24632E-05
         0.19483E-05
         0.20975E-05
         0.36246E-05
         0.19368E-05
         0.24756E-05
         0.13700E-05
         0.16447E-05
         0.27437E-05
         0.19902E-05
         0.80421E-06
         0.15347E-05
         0.16910E-05
         0.13534E-05
         0.17470E-05
         0.32632E-05
         0.25552E-05
         0.32502E-05
         0.18992E-05
         0.21719E-05
         0.20467E-05
         0.22700E-05
         0.17397E-05
         0.10804E-05
         0.20448E-05
         0.17079E-05
         0.17523E-05
         0.18057E-05
         0.15797E-05
         0.19295E-05
         0.24595E-05
         0.17326E-05
         0.27656E-05
         0.24161E-05
         0.10819E-05
         0.16651E-05
         0.18914E-05
         0.20002E-05
         0.19338E-05
         0.15194E-05
         0.95451E-06
         0.15745E-05
         0.20868E-05
         0.16826E-05
         0.14779E-05
         0.96801E-06
         0.16545E-05
         0.22487E-05
         0.23630E-05
         0.19085E-05
         0.11714E-05
         0.20263E-05
         0.74293E-06
         0.94863E-06
         0.88153E-06
         0.10473E-05
         0.10245E-05
         0.99472E-06
         0.10639E-05
         0.11279E-05
         0.10602E-05
         0.82400E-06
         0.67041E-06
         0.86435E-06
         0.11530E-05
         0.12686E-05
         0.12156E-05
         0.10943E-05
         0.99323E-06
         0.80652E-06
         0.67804E-06
         0.88690E-06
         0.11749E-05
         0.12140E-05
         0.97900E-06
         0.79468E-06
         0.97744E-06
         0.11543E-05
         0.24633E-05
         0.19479E-05
         0.20977E-05
         0.36264E-05
         0.19371E-05
         0.24763E-05
         0.13693E-05
         0.16437E-05
         0.27447E-05
         0.19888E-05
         0.80343E-06
         0.15345E-05
         0.16908E-05
         0.13515E-05
         0.17466E-05
         0.32642E-05
         0.25564E-05
         0.32518E-05
         0.18992E-05
         0.21722E-05
         0.20466E-05
         0.22701E-05
         0.17395E-05
         0.10803E-05
         0.20439E-05
         0.17078E-05
         0.17496E-05
         0.18039E-05
         0.15790E-05
         0.19290E-05
         0.24597E-05
         0.17323E-05
         0.27671E-05
         0.24183E-05
         0.10819E-05
         0.16648E-05
         0.18911E-05
         0.20001E-05
         0.19339E-05
         0.15195E-05
         0.95452E-06
         0.15743E-05
         0.20867E-05
         0.16823E-05
         0.14775E-05
         0.96776E-06
         0.16543E-05
         0.22487E-05
         0.23633E-05
         0.19089E-05
         0.11714E-05
         0.20273E-05
         0.74270E-06
         0.94861E-06
         0.88109E-06
         0.10473E-05
         0.10248E-05
         0.99493E-06
         0.10643E-05
         0.11287E-05
         0.10609E-05
         0.82418E-06
         0.67046E-06
         0.86437E-06
         0.11532E-05
         0.12689E-05
         0.12157E-05
         0.10943E-05
         0.99316E-06
         0.80646E-06
         0.67794E-06
         0.88683E-06
         0.11749E-05
         0.12140E-05
         0.97879E-06
         0.79450E-06
         0.97755E-06
         0.11543E-05
         0.24635E-05
         0.19475E-05
         0.20979E-05
         0.36281E-05
         0.19374E-05
         0.24771E-05
         0.13686E-05
         0.16427E-05
         0.27456E-05
         0.19875E-05
         0.80266E-06
         0.15342E-05
         0.16907E-05
         0.13496E-05
         0.17463E-05
         0.32651E-05
         0.25575E-05
         0.32534E-05
         0.18993E-05
         0.21724E-05
         0.20466E-05
         0.22702E-05
         0.17393E-05
         0.10802E-05
         0.20430E-05
         0.17076E-05
         0.17469E-05
         0.18021E-05
         0.15784E-05
         0.19286E-05
         0.24600E-05
         0.17321E-05
         0.27685E-05
         0.24205E-05
         0.10819E-05
         0.16645E-05
         0.18909E-05
         0.19999E-05
         0.19341E-05
         0.15195E-05
         0.95452E-06
         0.15741E-05
         0.20866E-05
         0.16821E-05
         0.14772E-05
         0.96751E-06
         0.16542E-05
         0.22488E-05
         0.23637E-05
         0.19092E-05
         0.11715E-05
         0.20283E-05
         0.74247E-06
         0.94860E-06
         0.88066E-06
         0.10473E-05
         0.10250E-05
         0.99514E-06
         0.10648E-05
         0.11295E-05
         0.10615E-05
         0.82437E-06
         0.67052E-06
         0.86439E-06
         0.11533E-05
         0.12691E-05
         0.12159E-05
         0.10942E-05
         0.99310E-06
         0.80639E-06
         0.67783E-06
         0.88676E-06
         0.11748E-05
         0.12140E-05
         0.97859E-06
         0.79433E-06
         0.97767E-06
         0.11543E-05
         0.24636E-05
         0.19471E-05
         0.20980E-05
         0.36298E-05
         0.19377E-05
         0.24779E-05
         0.13679E-05
         0.16417E-05
         0.27466E-05
         0.19862E-05
         0.80189E-06
         0.15339E-05
         0.16906E-05
         0.13477E-05
         0.17459E-05
         0.32661E-05
         0.25587E-05
         0.32551E-05
         0.18994E-05
         0.21727E-05
         0.20465E-05
         0.22703E-05
         0.17392E-05
         0.10800E-05
         0.20421E-05
         0.17075E-05
         0.17443E-05
         0.18003E-05
         0.15777E-05
         0.19281E-05
         0.24602E-05
         0.17319E-05
         0.27700E-05
         0.24227E-05
         0.10819E-05
         0.16642E-05
         0.18906E-05
         0.19998E-05
         0.19342E-05
         0.15196E-05
         0.95453E-06
         0.15739E-05
         0.20865E-05
         0.16819E-05
         0.14768E-05
         0.96727E-06
         0.16541E-05
         0.22488E-05
         0.23640E-05
         0.19096E-05
         0.11715E-05
         0.20293E-05
         0.74225E-06
         0.94859E-06
         0.88023E-06
         0.10474E-05
         0.10253E-05
         0.99535E-06
         0.10653E-05
         0.11303E-05
         0.10621E-05
         0.82456E-06
         0.67057E-06
         0.86441E-06
         0.11535E-05
         0.12694E-05
         0.12160E-05
         0.10942E-05
         0.99304E-06
         0.80633E-06
         0.67773E-06
         0.88671E-06
         0.11748E-05
         0.12140E-05
         0.97840E-06
         0.79415E-06
         0.97780E-06
         0.11542E-05
         0.24637E-05
         0.19466E-05
         0.20982E-05
         0.36315E-05
         0.19380E-05
         0.24786E-05
         0.13671E-05
         0.16407E-05
         0.27475E-05
         0.19849E-05
         0.80110E-06
         0.15336E-05
         0.16905E-05
         0.13457E-05
         0.17455E-05
         0.32669E-05
         0.25598E-05
         0.32567E-05
         0.18994E-05
         0.21729E-05
         0.20464E-05
         0.22703E-05
         0.17390E-05
         0.10799E-05
         0.20412E-05
         0.17073E-05
         0.17416E-05
         0.17985E-05
         0.15770E-05
         0.19277E-05
         0.24604E-05
         0.17317E-05
         0.27714E-05
         0.24248E-05
         0.10819E-05
         0.16638E-05
         0.18903E-05
         0.19996E-05
         0.19343E-05
         0.15196E-05
         0.95451E-06
         0.15737E-05
         0.20864E-05
         0.16816E-05
         0.14765E-05
         0.96700E-06
         0.16539E-05
         0.22488E-05
         0.23644E-05
         0.19100E-05
         0.11715E-05
         0.20303E-05
         0.74200E-06
         0.94855E-06
         0.87978E-06
         0.10474E-05
         0.10255E-05
         0.99555E-06
         0.10657E-05
         0.11311E-05
         0.10627E-05
         0.82472E-06
         0.67061E-06
         0.86442E-06
         0.11536E-05
         0.12697E-05
         0.12161E-05
         0.10941E-05
         0.99295E-06
         0.80625E-06
         0.67761E-06
         0.88662E-06
         0.11748E-05
         0.12140E-05
         0.97818E-06
         0.79396E-06
         0.97790E-06
         0.11542E-05
         0.24639E-05
         0.19463E-05
         0.20984E-05
         0.36333E-05
         0.19383E-05
         0.24794E-05
         0.13664E-05
         0.16398E-05
         0.27485E-05
         0.19836E-05
         0.80034E-06
         0.15334E-05
         0.16904E-05
         0.13439E-05
         0.17452E-05
         0.32679E-05
         0.25610E-05
         0.32583E-05
         0.18995E-05
         0.21732E-05
         0.20463E-05
         0.22704E-05
         0.17388E-05
         0.10798E-05
         0.20404E-05
         0.17072E-05
         0.17389E-05
         0.17967E-05
         0.15763E-05
         0.19272E-05
         0.24607E-05
         0.17315E-05
         0.27729E-05
         0.24270E-05
         0.10819E-05
         0.16635E-05
         0.18901E-05
         0.19995E-05
         0.19345E-05
         0.15197E-05
         0.95453E-06
         0.15735E-05
         0.20863E-05
         0.16814E-05
         0.14761E-05
         0.96677E-06
         0.16538E-05
         0.22488E-05
         0.23647E-05
         0.19104E-05
         0.11716E-05
         0.20313E-05
         0.74179E-06
         0.94855E-06
         0.87936E-06
         0.10475E-05
         0.10257E-05
         0.99577E-06
         0.10662E-05
         0.11319E-05
         0.10633E-05
         0.82492E-06
         0.67068E-06
         0.86446E-06
         0.11538E-05
         0.12700E-05
         0.12163E-05
         0.10941E-05
         0.99291E-06
         0.80620E-06
         0.67752E-06
         0.88657E-06
         0.11748E-05
         0.12140E-05
         0.97800E-06
         0.79380E-06
         0.97803E-06
         0.11542E-05
         0.12320E-05
         0.97306E-06
         0.10493E-05
         0.18171E-05
         0.96926E-06
         0.12399E-05
         0.68306E-06
         0.81967E-06
         0.13745E-05
         0.99152E-06
         0.39999E-06
         0.76665E-06
         0.84519E-06
         0.67148E-06
         0.87252E-06
         0.16343E-05
         0.12808E-05
         0.16296E-05
         0.94981E-06
         0.10867E-05
         0.10232E-05
         0.11353E-05
         0.86940E-06
         0.53990E-06
         0.10200E-05
         0.85360E-06
         0.86884E-06
         0.89793E-06
         0.78802E-06
         0.96354E-06
         0.12305E-05
         0.86572E-06
         0.13869E-05
         0.12141E-05
         0.54095E-06
         0.83170E-06
         0.94503E-06
         0.99975E-06
         0.96729E-06
         0.75992E-06
         0.47728E-06
         0.78670E-06
         0.10432E-05
         0.84065E-06
         0.73800E-06
         0.48334E-06
         0.82688E-06
         0.11245E-05
         0.11825E-05
         0.95534E-06
         0.58581E-06
         0.10159E-05
         0.37085E-06
         0.47429E-06
         0.43959E-06
         0.52375E-06
         0.51294E-06
         0.49796E-06
         0.53322E-06
         0.56619E-06
         0.53185E-06
         0.41252E-06
         0.33536E-06
         0.43225E-06
         0.57696E-06
         0.63509E-06
         0.60820E-06
         0.54708E-06
         0.49646E-06
         0.40310E-06
         0.33875E-06
         0.44329E-06
         0.58740E-06
         0.60700E-06
         0.48897E-06
         0.39687E-06
         0.48906E-06
         0.57710E-06
  
SCALARS                 Poissons_ratio  double 1
LOOKUP_TABLE default
         0.30000E+00
         0.30000E+00
         0.30000E+00
         0.30000E+00
         0.30000E+00
         0.30000E+00
         0.30000E+00
         0.30000E+00
         0.30000E+00
         0.30000E+00
         0.30000E+00
         0.30000E+00
         0.30000E+00
         0.30000E+00
         0.30000E+00
         0.30000E+00
         0.30000E+00
         0.30000E+00
         0.30000E+00
         0.30000E+00
         0.30000E+00
         0.30000E+00
         0.30000E+00
         0.30000E+00
         0.30000E+00
         0.30000E+00
         0.30000E+00
         0.30000E+00
         0.30000E+00
         0.30000E+00
         0.30000E+00
         0.30000E+00
         0.30000E+00
         0.30000E+00
         0.30000E+00
         0.30000E+00
         0.30000E+00
         0.30000E+00
         0.30000E+00
         0.30000E+00
         0.30000E+00
         0.30000E+00
         0.30000E+00
         0.30000E+00
         0.30000E+00
         0.30000E+00
         0.30000E+00
         0.30000E+00
         0.30000E+00
         0.30000E+00
         0.30000E+00
         0.30000E+00
         0.30000E+00
         0.30000E+00
         0.30000E+00
         0.30000E+00
         0.30000E+00
         0.30000E+00
         0.30000E+00
         0.30000E+00
         0.30000E+00
         0.30000E+00
         0.30000E+00
         0.30000E+00
         0.30000E+00
         0.30000E+00
         0.30000E+00
         0.30000E+00
         0.30000E+00
         0.30000E+00
         0.30000E+00
         0.30000E+00
         0.30000E+00
         0.30000E+00
         0.30000E+00
         0.30000E+00
         0.30000E+00
         0.30000E+00
         0.30000E+00
         0.30000E+00
         0.30000E+00
         0.30000E+00
         0.30000E+00
         0.30000E+00
         0.30000E+00
         0.30000E+00
         0.30000E+00
         0.30000E+00
         0.30000E+00
         0.30000E+00
         0.30000E+00
         0.30000E+00
         0.30000E+00
         0.30000E+00
         0.30000E+00
         0.30000E+00
         0.30000E+00
         0.30000E+00
         0.30000E+00
         0.30000E+00
         0.30000E+00
         0.30000E+00
         0.30000E+00
         0.30000E+00
         0.30000E+00
         0.30000E+00
         0.30000E+00
         0.30000E+00
         0.30000E+00
         0.30000E+00
         0.30000E+00
         0.30000E+00
         0.30000E+00
         0.30000E+00
         0.30000E+00
         0.30000E+00
         0.30000E+00
         0.30000E+00
         0.30000E+00
         0.30000E+00
         0.30000E+00
         0.30000E+00
         0.30000E+00
         0.30000E+00
         0.30000E+00
         0.30000E+00
         0.30000E+00
         0.30000E+00
         0.30000E+00
         0.30000E+00
         0.30000E+00
         0.30000E+00
         0.30000E+00
         0.30000E+00
         0.30000E+00
         0.30000E+00
         0.30000E+00
         0.30000E+00
         0.30000E+00
         0.30000E+00
         0.30000E+00
         0.30000E+00
         0.30000E+00
         0.30000E+00
         0.30000E+00
         0.30000E+00
         0.30000E+00
         0.30000E+00
         0.30000E+00
         0.30000E+00
         0.30000E+00
         0.30000E+00
         0.30000E+00
         0.30000E+00
         0.30000E+00
         0.30000E+00
         0.30000E+00
         0.30000E+00
         0.30000E+00
         0.30000E+00
         0.30000E+00
         0.30000E+00
         0.30000E+00
         0.30000E+00
         0.30000E+00
         0.30000E+00
         0.30000E+00
         0.30000E+00
         0.30000E+00
         0.30000E+00
         0.30000E+00
         0.30000E+00
         0.30000E+00
         0.30000E+00
         0.30000E+00
         0.30000E+00
         0.30000E+00
         0.30000E+00
         0.30000E+00
         0.30000E+00
         0.30000E+00
         0.30000E+00
         0.30000E+00
         0.30000E+00
         0.30000E+00
         0.30000E+00
         0.30000E+00
         0.30000E+00
         0.30000E+00
         0.30000E+00
         0.30000E+00
         0.30000E+00
         0.30000E+00
         0.30000E+00
         0.30000E+00
         0.30000E+00
         0.30000E+00
         0.30000E+00
         0.30000E+00
         0.30000E+00
         0.30000E+00
         0.30000E+00
         0.30000E+00
         0.30000E+00
         0.30000E+00
         0.30000E+00
         0.30000E+00
         0.30000E+00
         0.30000E+00
         0.30000E+00
         0.30000E+00
         0.30000E+00
         0.30000E+00
         0.30000E+00
         0.30000E+00
         0.30000E+00
         0.30000E+00
         0.30000E+00
         0.30000E+00
         0.30000E+00
         0.30000E+00
         0.30000E+00
         0.30000E+00
         0.30000E+00
         0.30000E+00
         0.30000E+00
         0.30000E+00
         0.30000E+00
         0.30000E+00
         0.30000E+00
         0.30000E+00
         0.30000E+00
         0.30000E+00
         0.30000E+00
         0.30000E+00
         0.30000E+00
         0.30000E+00
         0.30000E+00
         0.30000E+00
         0.30000E+00
         0.30000E+00
         0.30000E+00
         0.30000E+00
         0.30000E+00
         0.30000E+00
         0.30000E+00
         0.30000E+00
         0.30000E+00
         0.30000E+00
         0.30000E+00
         0.30000E+00
         0.30000E+00
         0.30000E+00
         0.30000E+00
         0.30000E+00
         0.30000E+00
         0.30000E+00
         0.30000E+00
         0.30000E+00
         0.30000E+00
         0.30000E+00
         0.30000E+00
         0.30000E+00
         0.30000E+00
         0.30000E+00
         0.30000E+00
         0.30000E+00
         0.30000E+00
         0.30000E+00
         0.30000E+00
         0.30000E+00
         0.30000E+00
         0.30000E+00
         0.30000E+00
         0.30000E+00
         0.30000E+00
         0.30000E+00
         0.30000E+00
         0.30000E+00
         0.30000E+00
         0.30000E+00
         0.30000E+00
         0.30000E+00
         0.30000E+00
         0.30000E+00
         0.30000E+00
         0.30000E+00
         0.30000E+00
         0.30000E+00
         0.30000E+00
         0.30000E+00
         0.30000E+00
         0.30000E+00
         0.30000E+00
         0.30000E+00
         0.30000E+00
         0.30000E+00
         0.30000E+00
         0.30000E+00
         0.30000E+00
         0.30000E+00
         0.30000E+00
         0.30000E+00
         0.30000E+00
         0.30000E+00
         0.30000E+00
         0.30000E+00
         0.30000E+00
         0.30000E+00
         0.30000E+00
         0.30000E+00
         0.30000E+00
         0.30000E+00
         0.30000E+00
         0.30000E+00
         0.30000E+00
         0.30000E+00
         0.30000E+00
         0.30000E+00
         0.30000E+00
         0.30000E+00
         0.30000E+00
         0.30000E+00
         0.30000E+00
         0.30000E+00
         0.30000E+00
         0.30000E+00
         0.30000E+00
         0.30000E+00
         0.30000E+00
         0.30000E+00
         0.30000E+00
         0.30000E+00
         0.30000E+00
         0.30000E+00
         0.30000E+00
         0.30000E+00
         0.30000E+00
         0.30000E+00
         0.30000E+00
         0.30000E+00
         0.30000E+00
         0.30000E+00
         0.30000E+00
         0.30000E+00
         0.30000E+00
         0.30000E+00
         0.30000E+00
         0.30000E+00
         0.30000E+00
         0.30000E+00
         0.30000E+00
         0.30000E+00
         0.30000E+00
         0.30000E+00
         0.30000E+00
         0.30000E+00
         0.30000E+00
         0.30000E+00
         0.30000E+00
         0.30000E+00
         0.30000E+00
         0.30000E+00
         0.30000E+00
         0.30000E+00
         0.30000E+00
         0.30000E+00
         0.30000E+00
         0.30000E+00
         0.30000E+00
         0.30000E+00
         0.30000E+00
         0.30000E+00
         0.30000E+00
         0.30000E+00
         0.30000E+00
         0.30000E+00
         0.30000E+00
         0.30000E+00
         0.30000E+00
         0.30000E+00
         0.30000E+00
         0.30000E+00
         0.30000E+00
         0.30000E+00
         0.30000E+00
         0.30000E+00
         0.30000E+00
         0.30000E+00
         0.30000E+00
         0.30000E+00
         0.30000E+00
         0.30000E+00
         0.30000E+00
         0.30000E+00
         0.30000E+00
         0.30000E+00
         0.30000E+00
         0.30000E+00
         0.30000E+00
         0.30000E+00
         0.30000E+00
         0.30000E+00
         0.30000E+00
         0.30000E+00
         0.30000E+00
         0.30000E+00
         0.30000E+00
         0.30000E+00
         0.30000E+00
         0.30000E+00
         0.30000E+00
         0.30000E+00
         0.30000E+00
         0.30000E+00
         0.30000E+00
         0.30000E+00
         0.30000E+00
         0.30000E+00
         0.30000E+00
         0.30000E+00
         0.30000E+00
         0.30000E+00
         0.30000E+00
         0.30000E+00
         0.30000E+00
         0.30000E+00
         0.30000E+00
         0.30000E+00
         0.30000E+00
         0.30000E+00
         0.30000E+00
         0.30000E+00
         0.30000E+00
         0.30000E+00
         0.30000E+00
         0.30000E+00
         0.30000E+00
         0.30000E+00
         0.30000E+00
         0.30000E+00
         0.30000E+00
         0.30000E+00
         0.30000E+00
         0.30000E+00
         0.30000E+00
         0.30000E+00
         0.30000E+00
         0.30000E+00
         0.30000E+00
         0.30000E+00
         0.30000E+00
         0.30000E+00
         0.30000E+00
         0.30000E+00
         0.30000E+00
         0.30000E+00
         0.30000E+00
         0.30000E+00
         0.30000E+00
         0.30000E+00
         0.30000E+00
         0.30000E+00
         0.30000E+00
         0.30000E+00
         0.30000E+00
         0.30000E+00
         0.30000E+00
         0.30000E+00
         0.30000E+00
         0.30000E+00
         0.30000E+00
         0.30000E+00
         0.30000E+00
         0.30000E+00
         0.30000E+00
         0.30000E+00
         0.30000E+00
         0.30000E+00
         0.30000E+00
         0.30000E+00
         0.30000E+00
         0.30000E+00
         0.30000E+00
         0.30000E+00
         0.30000E+00
         0.30000E+00
         0.30000E+00
         0.30000E+00
         0.30000E+00
         0.30000E+00
         0.30000E+00
         0.30000E+00
         0.30000E+00
         0.30000E+00
         0.30000E+00
         0.30000E+00
         0.30000E+00
         0.30000E+00
         0.30000E+00
         0.30000E+00
         0.30000E+00
         0.30000E+00
         0.30000E+00
         0.30000E+00
         0.30000E+00
         0.30000E+00
         0.30000E+00
         0.30000E+00
         0.30000E+00
         0.30000E+00
         0.30000E+00
         0.30000E+00
         0.30000E+00
         0.30000E+00
         0.30000E+00
         0.30000E+00
         0.30000E+00
         0.30000E+00
         0.30000E+00
         0.30000E+00
         0.30000E+00
         0.30000E+00
         0.30000E+00
         0.30000E+00
         0.30000E+00
         0.30000E+00
         0.30000E+00
         0.30000E+00
         0.30000E+00
         0.30000E+00
         0.30000E+00
         0.30000E+00
         0.30000E+00
         0.30000E+00
         0.30000E+00
         0.30000E+00
         0.30000E+00
         0.30000E+00
         0.30000E+00
         0.30000E+00
         0.30000E+00
         0.30000E+00
         0.30000E+00
         0.30000E+00
         0.30000E+00
         0.30000E+00
         0.30000E+00
         0.30000E+00
         0.30000E+00
         0.30000E+00
         0.30000E+00
         0.30000E+00
         0.30000E+00
         0.30000E+00
         0.30000E+00
         0.30000E+00
         0.30000E+00
         0.30000E+00
         0.30000E+00
         0.30000E+00
         0.30000E+00
         0.30000E+00
         0.30000E+00
         0.30000E+00
         0.30000E+00
         0.30000E+00
         0.30000E+00
         0.30000E+00
         0.30000E+00
         0.30000E+00
         0.30000E+00
         0.30000E+00
         0.30000E+00
         0.30000E+00
         0.30000E+00
         0.30000E+00
         0.30000E+00
         0.30000E+00
         0.30000E+00
         0.30000E+00
         0.30000E+00
         0.30000E+00
         0.30000E+00
         0.30000E+00
         0.30000E+00
         0.30000E+00
         0.30000E+00
         0.30000E+00
         0.30000E+00
         0.30000E+00
         0.30000E+00
         0.30000E+00
         0.30000E+00
         0.30000E+00
         0.30000E+00
         0.30000E+00
         0.30000E+00
         0.30000E+00
         0.30000E+00
         0.30000E+00
         0.30000E+00
         0.30000E+00
         0.30000E+00
         0.30000E+00
         0.30000E+00
         0.30000E+00
         0.30000E+00
         0.30000E+00
         0.30000E+00
         0.30000E+00
         0.30000E+00
         0.30000E+00
         0.30000E+00
         0.30000E+00
         0.30000E+00
         0.30000E+00
         0.30000E+00
         0.30000E+00
         0.30000E+00
         0.30000E+00
         0.30000E+00
         0.30000E+00
         0.30000E+00
         0.30000E+00
         0.30000E+00
         0.30000E+00
         0.30000E+00
         0.30000E+00
         0.30000E+00
         0.30000E+00
         0.30000E+00
         0.30000E+00
         0.30000E+00
         0.30000E+00
         0.30000E+00
         0.30000E+00
         0.30000E+00
         0.30000E+00
         0.30000E+00
         0.30000E+00
         0.30000E+00
         0.30000E+00
         0.30000E+00
         0.30000E+00
         0.30000E+00
         0.30000E+00
         0.30000E+00
         0.30000E+00
         0.30000E+00
         0.30000E+00
         0.30000E+00
         0.30000E+00
         0.30000E+00
         0.30000E+00
         0.30000E+00
         0.30000E+00
         0.30000E+00
         0.30000E+00
         0.30000E+00
         0.30000E+00
         0.30000E+00
         0.30000E+00
         0.30000E+00
         0.30000E+00
         0.30000E+00
         0.30000E+00
         0.30000E+00
         0.30000E+00
         0.30000E+00
         0.30000E+00
         0.30000E+00
         0.30000E+00
         0.30000E+00
         0.30000E+00
         0.30000E+00
         0.30000E+00
         0.30000E+00
         0.30000E+00
         0.30000E+00
         0.30000E+00
         0.30000E+00
         0.30000E+00
         0.30000E+00
         0.30000E+00
         0.30000E+00
         0.30000E+00
         0.30000E+00
         0.30000E+00
         0.30000E+00
         0.30000E+00
         0.30000E+00
         0.30000E+00
         0.30000E+00
         0.30000E+00
         0.30000E+00
         0.30000E+00
         0.30000E+00
         0.30000E+00
         0.30000E+00
         0.30000E+00
         0.30000E+00
         0.30000E+00
         0.30000E+00
         0.30000E+00
         0.30000E+00
         0.30000E+00
         0.30000E+00
         0.30000E+00
         0.30000E+00
         0.30000E+00
         0.30000E+00
         0.30000E+00
         0.30000E+00
         0.30000E+00
         0.30000E+00
         0.30000E+00
         0.30000E+00
         0.30000E+00
         0.30000E+00
         0.30000E+00
         0.30000E+00
         0.30000E+00
         0.30000E+00
         0.30000E+00
         0.30000E+00
         0.30000E+00
         0.30000E+00
         0.30000E+00
         0.30000E+00
         0.30000E+00
         0.30000E+00
         0.30000E+00
         0.30000E+00
         0.30000E+00
         0.30000E+00
         0.30000E+00
         0.30000E+00
         0.30000E+00
         0.30000E+00
         0.30000E+00
         0.30000E+00
         0.30000E+00
         0.30000E+00
         0.30000E+00
         0.30000E+00
         0.30000E+00
         0.30000E+00
         0.30000E+00
         0.30000E+00
         0.30000E+00
         0.30000E+00
         0.30000E+00
         0.30000E+00
         0.30000E+00
         0.30000E+00
         0.30000E+00
         0.30000E+00
         0.30000E+00
         0.30000E+00
         0.30000E+00
         0.30000E+00
         0.30000E+00
         0.30000E+00
         0.30000E+00
         0.30000E+00
         0.30000E+00
         0.30000E+00
         0.30000E+00
         0.30000E+00
         0.30000E+00
         0.30000E+00
         0.30000E+00
         0.30000E+00
         0.30000E+00
         0.30000E+00
         0.30000E+00
         0.30000E+00
         0.30000E+00
         0.30000E+00
         0.30000E+00
         0.30000E+00
         0.30000E+00
         0.30000E+00
         0.30000E+00
         0.30000E+00
         0.30000E+00
         0.30000E+00
         0.30000E+00
         0.30000E+00
         0.30000E+00
         0.30000E+00
         0.30000E+00
         0.30000E+00
         0.30000E+00
         0.30000E+00
         0.30000E+00
         0.30000E+00
         0.30000E+00
         0.30000E+00
         0.30000E+00
         0.30000E+00
         0.30000E+00
         0.30000E+00
         0.30000E+00
         0.30000E+00
         0.30000E+00
         0.30000E+00
         0.30000E+00
         0.30000E+00
         0.30000E+00
         0.30000E+00
         0.30000E+00
         0.30000E+00
         0.30000E+00
         0.30000E+00
         0.30000E+00
         0.30000E+00
         0.30000E+00
         0.30000E+00
         0.30000E+00
         0.30000E+00
         0.30000E+00
         0.30000E+00
         0.30000E+00
         0.30000E+00
         0.30000E+00
         0.30000E+00
         0.30000E+00
         0.30000E+00
         0.30000E+00
         0.30000E+00
         0.30000E+00
         0.30000E+00
         0.30000E+00
         0.30000E+00
         0.30000E+00
         0.30000E+00
         0.30000E+00
         0.30000E+00
         0.30000E+00
         0.30000E+00
         0.30000E+00
         0.30000E+00
         0.30000E+00
         0.30000E+00
         0.30000E+00
         0.30000E+00
         0.30000E+00
         0.30000E+00
         0.30000E+00
         0.30000E+00
         0.30000E+00
         0.30000E+00
         0.30000E+00
         0.30000E+00
         0.30000E+00
         0.30000E+00
         0.30000E+00
         0.30000E+00
         0.30000E+00
         0.30000E+00
         0.30000E+00
         0.30000E+00
         0.30000E+00
         0.30000E+00
         0.30000E+00
         0.30000E+00
         0.30000E+00
         0.30000E+00
         0.30000E+00
         0.30000E+00
         0.30000E+00
         0.30000E+00
         0.30000E+00
         0.30000E+00
         0.30000E+00
         0.30000E+00
         0.30000E+00
         0.30000E+00
         0.30000E+00
         0.30000E+00
         0.30000E+00
         0.30000E+00
         0.30000E+00
         0.30000E+00
         0.30000E+00
         0.30000E+00
         0.30000E+00
         0.30000E+00
         0.30000E+00
         0.30000E+00
         0.30000E+00
         0.30000E+00
         0.30000E+00
         0.30000E+00
         0.30000E+00
         0.30000E+00
         0.30000E+00
         0.30000E+00
         0.30000E+00
         0.30000E+00
         0.30000E+00
         0.30000E+00
         0.30000E+00
         0.30000E+00
         0.30000E+00
         0.30000E+00
         0.30000E+00
         0.30000E+00
         0.30000E+00
         0.30000E+00
         0.30000E+00
         0.30000E+00
         0.30000E+00
         0.30000E+00
         0.30000E+00
         0.30000E+00
         0.30000E+00
         0.30000E+00
         0.30000E+00
         0.30000E+00
         0.30000E+00
         0.30000E+00
         0.30000E+00
         0.30000E+00
         0.30000E+00
         0.30000E+00
         0.30000E+00
         0.30000E+00
         0.30000E+00
         0.30000E+00
         0.30000E+00
         0.30000E+00
         0.30000E+00
         0.30000E+00
         0.30000E+00
         0.30000E+00
         0.30000E+00
         0.30000E+00
         0.30000E+00
         0.30000E+00
         0.30000E+00
         0.30000E+00
         0.30000E+00
         0.30000E+00
         0.30000E+00
         0.30000E+00
         0.30000E+00
         0.30000E+00
         0.30000E+00
         0.30000E+00
         0.30000E+00
         0.30000E+00
         0.30000E+00
         0.30000E+00
         0.30000E+00
         0.30000E+00
         0.30000E+00
         0.30000E+00
         0.30000E+00
         0.30000E+00
         0.30000E+00
         0.30000E+00
         0.30000E+00
         0.30000E+00
         0.30000E+00
         0.30000E+00
         0.30000E+00
         0.30000E+00
         0.30000E+00
         0.30000E+00
         0.30000E+00
         0.30000E+00
         0.30000E+00
         0.30000E+00
         0.30000E+00
         0.30000E+00
         0.30000E+00
         0.30000E+00
         0.30000E+00
         0.30000E+00
         0.30000E+00
         0.30000E+00
         0.30000E+00
         0.30000E+00
         0.30000E+00
         0.30000E+00
         0.30000E+00
         0.30000E+00
         0.30000E+00
         0.30000E+00
         0.30000E+00
         0.30000E+00
         0.30000E+00
         0.30000E+00
         0.30000E+00
         0.30000E+00
         0.30000E+00
         0.30000E+00
         0.30000E+00
         0.30000E+00
         0.30000E+00
         0.30000E+00
         0.30000E+00
         0.30000E+00
         0.30000E+00
         0.30000E+00
         0.30000E+00
         0.30000E+00
         0.30000E+00
         0.30000E+00
         0.30000E+00
         0.30000E+00
         0.30000E+00
         0.30000E+00
         0.30000E+00
         0.30000E+00
         0.30000E+00
         0.30000E+00
         0.30000E+00
         0.30000E+00
         0.30000E+00
         0.30000E+00
         0.30000E+00
         0.30000E+00
         0.30000E+00
         0.30000E+00
         0.30000E+00
         0.30000E+00
         0.30000E+00
         0.30000E+00
         0.30000E+00
         0.30000E+00
         0.30000E+00
         0.30000E+00
         0.30000E+00
         0.30000E+00
         0.30000E+00
         0.30000E+00
         0.30000E+00
         0.30000E+00
         0.30000E+00
         0.30000E+00
         0.30000E+00
         0.30000E+00
         0.30000E+00
         0.30000E+00
         0.30000E+00
         0.30000E+00
         0.30000E+00
         0.30000E+00
         0.30000E+00
         0.30000E+00
         0.30000E+00
         0.30000E+00
         0.30000E+00
         0.30000E+00
         0.30000E+00
         0.30000E+00
         0.30000E+00
         0.30000E+00
         0.30000E+00
         0.30000E+00
         0.30000E+00
         0.30000E+00
         0.30000E+00
         0.30000E+00
         0.30000E+00
         0.30000E+00
         0.30000E+00
         0.30000E+00
         0.30000E+00
         0.30000E+00
         0.30000E+00
         0.30000E+00
         0.30000E+00
         0.30000E+00
         0.30000E+00
         0.30000E+00
         0.30000E+00
         0.30000E+00
         0.30000E+00
         0.30000E+00
         0.30000E+00
         0.30000E+00
         0.30000E+00
         0.30000E+00
         0.30000E+00
         0.30000E+00
         0.30000E+00
         0.30000E+00
         0.30000E+00
         0.30000E+00
         0.30000E+00
         0.30000E+00
         0.30000E+00
         0.30000E+00
         0.30000E+00
         0.30000E+00
         0.30000E+00
         0.30000E+00
         0.30000E+00
         0.30000E+00
         0.30000E+00
         0.30000E+00
         0.30000E+00
         0.30000E+00
         0.30000E+00
         0.30000E+00
         0.30000E+00
         0.30000E+00
         0.30000E+00
         0.30000E+00
         0.30000E+00
         0.30000E+00
         0.30000E+00
         0.30000E+00
         0.30000E+00
         0.30000E+00
         0.30000E+00
         0.30000E+00
         0.30000E+00
         0.30000E+00
         0.30000E+00
         0.30000E+00
         0.30000E+00
         0.30000E+00
         0.30000E+00
         0.30000E+00
         0.30000E+00
         0.30000E+00
         0.30000E+00
         0.30000E+00
         0.30000E+00
         0.30000E+00
         0.30000E+00
         0.30000E+00
         0.30000E+00
         0.30000E+00
         0.30000E+00
         0.30000E+00
         0.30000E+00
         0.30000E+00
         0.30000E+00
         0.30000E+00
         0.30000E+00
         0.30000E+00
         0.30000E+00
         0.30000E+00
         0.30000E+00
         0.30000E+00
         0.30000E+00
         0.30000E+00
         0.30000E+00
         0.30000E+00
         0.30000E+00
         0.30000E+00
         0.30000E+00
         0.30000E+00
         0.30000E+00
         0.30000E+00
         0.30000E+00
         0.30000E+00
         0.30000E+00
         0.30000E+00
         0.30000E+00
         0.30000E+00
         0.30000E+00
         0.30000E+00
         0.30000E+00
         0.30000E+00
         0.30000E+00
         0.30000E+00
         0.30000E+00
         0.30000E+00
         0.30000E+00
         0.30000E+00
         0.30000E+00
         0.30000E+00
         0.30000E+00
         0.30000E+00
         0.30000E+00
         0.30000E+00
         0.30000E+00
         0.30000E+00
         0.30000E+00
         0.30000E+00
         0.30000E+00
         0.30000E+00
         0.30000E+00
         0.30000E+00
         0.30000E+00
         0.30000E+00
         0.30000E+00
         0.30000E+00
         0.30000E+00
         0.30000E+00
         0.30000E+00
         0.30000E+00
         0.30000E+00
         0.30000E+00
         0.30000E+00
         0.30000E+00
         0.30000E+00
         0.30000E+00
         0.30000E+00
         0.30000E+00
         0.30000E+00
         0.30000E+00
         0.30000E+00
         0.30000E+00
         0.30000E+00
         0.30000E+00
         0.30000E+00
         0.30000E+00
         0.30000E+00
         0.30000E+00
         0.30000E+00
         0.30000E+00
         0.30000E+00
         0.30000E+00
         0.30000E+00
         0.30000E+00
         0.30000E+00
         0.30000E+00
         0.30000E+00
         0.30000E+00
         0.30000E+00
         0.30000E+00
         0.30000E+00
         0.30000E+00
         0.30000E+00
         0.30000E+00
         0.30000E+00
         0.30000E+00
         0.30000E+00
         0.30000E+00
         0.30000E+00
         0.30000E+00
         0.30000E+00
         0.30000E+00
         0.30000E+00
         0.30000E+00
         0.30000E+00
         0.30000E+00
         0.30000E+00
         0.30000E+00
         0.30000E+00
         0.30000E+00
         0.30000E+00
         0.30000E+00
         0.30000E+00
         0.30000E+00
         0.30000E+00
         0.30000E+00
         0.30000E+00
         0.30000E+00
         0.30000E+00
         0.30000E+00
         0.30000E+00
         0.30000E+00
         0.30000E+00
         0.30000E+00
         0.30000E+00
         0.30000E+00
         0.30000E+00
         0.30000E+00
         0.30000E+00
         0.30000E+00
         0.30000E+00
         0.30000E+00
         0.30000E+00
         0.30000E+00
         0.30000E+00
         0.30000E+00
         0.30000E+00
         0.30000E+00
         0.30000E+00
         0.30000E+00
         0.30000E+00
         0.30000E+00
         0.30000E+00
         0.30000E+00
         0.30000E+00
         0.30000E+00
         0.30000E+00
         0.30000E+00
         0.30000E+00
         0.30000E+00
         0.30000E+00
         0.30000E+00
         0.30000E+00
         0.30000E+00
         0.30000E+00
         0.30000E+00
         0.30000E+00
         0.30000E+00
         0.30000E+00
         0.30000E+00
         0.30000E+00
         0.30000E+00
         0.30000E+00
         0.30000E+00
         0.30000E+00
         0.30000E+00
         0.30000E+00
         0.30000E+00
         0.30000E+00
         0.30000E+00
         0.30000E+00
         0.30000E+00
         0.30000E+00
         0.30000E+00
         0.30000E+00
         0.30000E+00
         0.30000E+00
         0.30000E+00
         0.30000E+00
         0.30000E+00
         0.30000E+00
         0.30000E+00
         0.30000E+00
         0.30000E+00
         0.30000E+00
         0.30000E+00
         0.30000E+00
         0.30000E+00
         0.30000E+00
         0.30000E+00
         0.30000E+00
         0.30000E+00
         0.30000E+00
         0.30000E+00
         0.30000E+00
         0.30000E+00
         0.30000E+00
         0.30000E+00
         0.30000E+00
         0.30000E+00
         0.30000E+00
         0.30000E+00
         0.30000E+00
         0.30000E+00
         0.30000E+00
         0.30000E+00
         0.30000E+00
         0.30000E+00
         0.30000E+00
         0.30000E+00
         0.30000E+00
         0.30000E+00
         0.30000E+00
         0.30000E+00
         0.30000E+00
         0.30000E+00
         0.30000E+00
         0.30000E+00
         0.30000E+00
         0.30000E+00
         0.30000E+00
         0.30000E+00
         0.30000E+00
         0.30000E+00
         0.30000E+00
         0.30000E+00
         0.30000E+00
         0.30000E+00
         0.30000E+00
         0.30000E+00
         0.30000E+00
         0.30000E+00
         0.30000E+00
         0.30000E+00
         0.30000E+00
         0.30000E+00
         0.30000E+00
         0.30000E+00
         0.30000E+00
         0.30000E+00
         0.30000E+00
         0.30000E+00
         0.30000E+00
         0.30000E+00
         0.30000E+00
         0.30000E+00
         0.30000E+00
         0.30000E+00
         0.30000E+00
         0.30000E+00
         0.30000E+00
         0.30000E+00
         0.30000E+00
         0.30000E+00
         0.30000E+00
         0.30000E+00
         0.30000E+00
         0.30000E+00
         0.30000E+00
         0.30000E+00
         0.30000E+00
         0.30000E+00
         0.30000E+00
         0.30000E+00
         0.30000E+00
         0.30000E+00
         0.30000E+00
         0.30000E+00
         0.30000E+00
         0.30000E+00
         0.30000E+00
         0.30000E+00
         0.30000E+00
         0.30000E+00
         0.30000E+00
         0.30000E+00
         0.30000E+00
         0.30000E+00
         0.30000E+00
         0.30000E+00
         0.30000E+00
         0.30000E+00
         0.30000E+00
         0.30000E+00
         0.30000E+00
         0.30000E+00
         0.30000E+00
         0.30000E+00
         0.30000E+00
         0.30000E+00
         0.30000E+00
         0.30000E+00
         0.30000E+00
         0.30000E+00
         0.30000E+00
         0.30000E+00
         0.30000E+00
         0.30000E+00
         0.30000E+00
         0.30000E+00
         0.30000E+00
         0.30000E+00
         0.30000E+00
         0.30000E+00
         0.30000E+00
         0.30000E+00
         0.30000E+00
         0.30000E+00
         0.30000E+00
         0.30000E+00
         0.30000E+00
         0.30000E+00
         0.30000E+00
         0.30000E+00
         0.30000E+00
         0.30000E+00
         0.30000E+00
         0.30000E+00
         0.30000E+00
         0.30000E+00
         0.30000E+00
         0.30000E+00
         0.30000E+00
         0.30000E+00
         0.30000E+00
         0.30000E+00
         0.30000E+00
         0.30000E+00
         0.30000E+00
         0.30000E+00
         0.30000E+00
         0.30000E+00
         0.30000E+00
         0.30000E+00
         0.30000E+00
         0.30000E+00
         0.30000E+00
         0.30000E+00
         0.30000E+00
         0.30000E+00
         0.30000E+00
         0.30000E+00
         0.30000E+00
         0.30000E+00
         0.30000E+00
         0.30000E+00
         0.30000E+00
         0.30000E+00
         0.30000E+00
         0.30000E+00
         0.30000E+00
         0.30000E+00
         0.30000E+00
         0.30000E+00
         0.30000E+00
         0.30000E+00
         0.30000E+00
         0.30000E+00
         0.30000E+00
         0.30000E+00
         0.30000E+00
         0.30000E+00
         0.30000E+00
         0.30000E+00
         0.30000E+00
         0.30000E+00
         0.30000E+00
         0.30000E+00
         0.30000E+00
         0.30000E+00
         0.30000E+00
         0.30000E+00
         0.30000E+00
         0.30000E+00
         0.30000E+00
         0.30000E+00
         0.30000E+00
         0.30000E+00
         0.30000E+00
         0.30000E+00
         0.30000E+00
         0.30000E+00
         0.30000E+00
         0.30000E+00
         0.30000E+00
         0.30000E+00
         0.30000E+00
         0.30000E+00
         0.30000E+00
         0.30000E+00
         0.30000E+00
         0.30000E+00
         0.30000E+00
         0.30000E+00
         0.30000E+00
         0.30000E+00
         0.30000E+00
         0.30000E+00
         0.30000E+00
         0.30000E+00
         0.30000E+00
         0.30000E+00
         0.30000E+00
         0.30000E+00
         0.30000E+00
         0.30000E+00
         0.30000E+00
         0.30000E+00
         0.30000E+00
         0.30000E+00
         0.30000E+00
         0.30000E+00
         0.30000E+00
         0.30000E+00
         0.30000E+00
         0.30000E+00
         0.30000E+00
         0.30000E+00
         0.30000E+00
         0.30000E+00
         0.30000E+00
         0.30000E+00
         0.30000E+00
         0.30000E+00
         0.30000E+00
         0.30000E+00
         0.30000E+00
         0.30000E+00
         0.30000E+00
         0.30000E+00
         0.30000E+00
         0.30000E+00
         0.30000E+00
         0.30000E+00
         0.30000E+00
         0.30000E+00
         0.30000E+00
         0.30000E+00
         0.30000E+00
         0.30000E+00
         0.30000E+00
         0.30000E+00
         0.30000E+00
         0.30000E+00
         0.30000E+00
         0.30000E+00
         0.30000E+00
         0.30000E+00
         0.30000E+00
         0.30000E+00
         0.30000E+00
         0.30000E+00
         0.30000E+00
         0.30000E+00
         0.30000E+00
         0.30000E+00
         0.30000E+00
         0.30000E+00
         0.30000E+00
         0.30000E+00
         0.30000E+00
         0.30000E+00
         0.30000E+00
         0.30000E+00
         0.30000E+00
         0.30000E+00
         0.30000E+00
         0.30000E+00
         0.30000E+00
         0.30000E+00
         0.30000E+00
         0.30000E+00
         0.30000E+00
         0.30000E+00
         0.30000E+00
         0.30000E+00
         0.30000E+00
         0.30000E+00
         0.30000E+00
         0.30000E+00
         0.30000E+00
         0.30000E+00
         0.30000E+00
         0.30000E+00
         0.30000E+00
         0.30000E+00
         0.30000E+00
         0.30000E+00
         0.30000E+00
         0.30000E+00
         0.30000E+00
         0.30000E+00
         0.30000E+00
         0.30000E+00
         0.30000E+00
         0.30000E+00
         0.30000E+00
         0.30000E+00
         0.30000E+00
         0.30000E+00
         0.30000E+00
         0.30000E+00
         0.30000E+00
         0.30000E+00
         0.30000E+00
         0.30000E+00
         0.30000E+00
         0.30000E+00
         0.30000E+00
         0.30000E+00
         0.30000E+00
         0.30000E+00
         0.30000E+00
         0.30000E+00
         0.30000E+00
         0.30000E+00
         0.30000E+00
         0.30000E+00
         0.30000E+00
         0.30000E+00
         0.30000E+00
         0.30000E+00
         0.30000E+00
         0.30000E+00
         0.30000E+00
         0.30000E+00
         0.30000E+00
         0.30000E+00
         0.30000E+00
         0.30000E+00
         0.30000E+00
         0.30000E+00
         0.30000E+00
         0.30000E+00
         0.30000E+00
         0.30000E+00
         0.30000E+00
         0.30000E+00
         0.30000E+00
         0.30000E+00
         0.30000E+00
         0.30000E+00
         0.30000E+00
         0.30000E+00
         0.30000E+00
         0.30000E+00
         0.30000E+00
         0.30000E+00
         0.30000E+00
         0.30000E+00
         0.30000E+00
         0.30000E+00
         0.30000E+00
         0.30000E+00
         0.30000E+00
         0.30000E+00
         0.30000E+00
         0.30000E+00
         0.30000E+00
         0.30000E+00
         0.30000E+00
         0.30000E+00
         0.30000E+00
         0.30000E+00
         0.30000E+00
         0.30000E+00
         0.30000E+00
         0.30000E+00
         0.30000E+00
         0.30000E+00
         0.30000E+00
         0.30000E+00
         0.30000E+00
         0.30000E+00
         0.30000E+00
         0.30000E+00
         0.30000E+00
         0.30000E+00
         0.30000E+00
         0.30000E+00
         0.30000E+00
         0.30000E+00
         0.30000E+00
         0.30000E+00
         0.30000E+00
         0.30000E+00
         0.30000E+00
         0.30000E+00
         0.30000E+00
         0.30000E+00
         0.30000E+00
         0.30000E+00
         0.30000E+00
         0.30000E+00
         0.30000E+00
         0.30000E+00
         0.30000E+00
         0.30000E+00
         0.30000E+00
         0.30000E+00
         0.30000E+00
         0.30000E+00
         0.30000E+00
         0.30000E+00
         0.30000E+00
         0.30000E+00
         0.30000E+00
         0.30000E+00
         0.30000E+00
         0.30000E+00
         0.30000E+00
         0.30000E+00
         0.30000E+00
         0.30000E+00
         0.30000E+00
         0.30000E+00
         0.30000E+00
         0.30000E+00
         0.30000E+00
         0.30000E+00
         0.30000E+00
         0.30000E+00
         0.30000E+00
         0.30000E+00
         0.30000E+00
         0.30000E+00
         0.30000E+00
         0.30000E+00
         0.30000E+00
         0.30000E+00
         0.30000E+00
         0.30000E+00
         0.30000E+00
         0.30000E+00
         0.30000E+00
         0.30000E+00
         0.30000E+00
         0.30000E+00
         0.30000E+00
         0.30000E+00
         0.30000E+00
         0.30000E+00
         0.30000E+00
         0.30000E+00
         0.30000E+00
         0.30000E+00
         0.30000E+00
         0.30000E+00
         0.30000E+00
         0.30000E+00
         0.30000E+00
         0.30000E+00
         0.30000E+00
         0.30000E+00
         0.30000E+00
         0.30000E+00
         0.30000E+00
         0.30000E+00
         0.30000E+00
         0.30000E+00
         0.30000E+00
         0.30000E+00
         0.30000E+00
         0.30000E+00
         0.30000E+00
         0.30000E+00
         0.30000E+00
         0.30000E+00
         0.30000E+00
         0.30000E+00
         0.30000E+00
         0.30000E+00
         0.30000E+00
         0.30000E+00
         0.30000E+00
         0.30000E+00
         0.30000E+00
         0.30000E+00
         0.30000E+00
         0.30000E+00
         0.30000E+00
         0.30000E+00
         0.30000E+00
         0.30000E+00
         0.30000E+00
         0.30000E+00
         0.30000E+00
         0.30000E+00
         0.30000E+00
         0.30000E+00
         0.30000E+00
         0.30000E+00
         0.30000E+00
         0.30000E+00
         0.30000E+00
         0.30000E+00
         0.30000E+00
         0.30000E+00
         0.30000E+00
         0.30000E+00
         0.30000E+00
         0.30000E+00
         0.30000E+00
         0.30000E+00
         0.30000E+00
         0.30000E+00
         0.30000E+00
         0.30000E+00
         0.30000E+00
         0.30000E+00
         0.30000E+00
         0.30000E+00
         0.30000E+00
         0.30000E+00
         0.30000E+00
         0.30000E+00
         0.30000E+00
         0.30000E+00
         0.30000E+00
         0.30000E+00
         0.30000E+00
         0.30000E+00
         0.30000E+00
         0.30000E+00
         0.30000E+00
         0.30000E+00
         0.30000E+00
         0.30000E+00
         0.30000E+00
         0.30000E+00
         0.30000E+00
         0.30000E+00
         0.30000E+00
         0.30000E+00
         0.30000E+00
         0.30000E+00
         0.30000E+00
         0.30000E+00
         0.30000E+00
         0.30000E+00
         0.30000E+00
         0.30000E+00
         0.30000E+00
         0.30000E+00
         0.30000E+00
         0.30000E+00
         0.30000E+00
         0.30000E+00
         0.30000E+00
         0.30000E+00
         0.30000E+00
         0.30000E+00
         0.30000E+00
         0.30000E+00
         0.30000E+00
         0.30000E+00
         0.30000E+00
         0.30000E+00
         0.30000E+00
         0.30000E+00
         0.30000E+00
         0.30000E+00
         0.30000E+00
         0.30000E+00
         0.30000E+00
         0.30000E+00
         0.30000E+00
         0.30000E+00
         0.30000E+00
         0.30000E+00
         0.30000E+00
         0.30000E+00
         0.30000E+00
         0.30000E+00
         0.30000E+00
         0.30000E+00
         0.30000E+00
         0.30000E+00
         0.30000E+00
         0.30000E+00
         0.30000E+00
         0.30000E+00
         0.30000E+00
         0.30000E+00
         0.30000E+00
         0.30000E+00
         0.30000E+00
         0.30000E+00
         0.30000E+00
         0.30000E+00
         0.30000E+00
         0.30000E+00
         0.30000E+00
         0.30000E+00
         0.30000E+00
         0.30000E+00
         0.30000E+00
         0.30000E+00
         0.30000E+00
         0.30000E+00
         0.30000E+00
         0.30000E+00
         0.30000E+00
         0.30000E+00
         0.30000E+00
         0.30000E+00
         0.30000E+00
         0.30000E+00
         0.30000E+00
         0.30000E+00
  
SCALARS                 Youngs_modulus  double 1
LOOKUP_TABLE default
         0.78200E+11
         0.78200E+11
         0.78200E+11
         0.78200E+11
         0.78200E+11
         0.78200E+11
         0.78200E+11
         0.78200E+11
         0.78200E+11
         0.78200E+11
         0.78200E+11
         0.78200E+11
         0.78200E+11
         0.78200E+11
         0.78200E+11
         0.78200E+11
         0.78200E+11
         0.78200E+11
         0.78200E+11
         0.78200E+11
         0.78200E+11
         0.78200E+11
         0.78200E+11
         0.78200E+11
         0.78200E+11
         0.78200E+11
         0.78200E+11
         0.78200E+11
         0.78200E+11
         0.78200E+11
         0.78200E+11
         0.78200E+11
         0.78200E+11
         0.78200E+11
         0.78200E+11
         0.78200E+11
         0.78200E+11
         0.78200E+11
         0.78200E+11
         0.78200E+11
         0.78200E+11
         0.78200E+11
         0.78200E+11
         0.78200E+11
         0.78200E+11
         0.78200E+11
         0.78200E+11
         0.78200E+11
         0.78200E+11
         0.78200E+11
         0.78200E+11
         0.78200E+11
         0.78200E+11
         0.78200E+11
         0.78200E+11
         0.78200E+11
         0.78200E+11
         0.78200E+11
         0.78200E+11
         0.78200E+11
         0.78200E+11
         0.78200E+11
         0.78200E+11
         0.78200E+11
         0.78200E+11
         0.78200E+11
         0.78200E+11
         0.78200E+11
         0.78200E+11
         0.78200E+11
         0.78200E+11
         0.78200E+11
         0.78200E+11
         0.78200E+11
         0.78200E+11
         0.78200E+11
         0.78200E+11
         0.78200E+11
         0.78200E+11
         0.78200E+11
         0.78200E+11
         0.78200E+11
         0.78200E+11
         0.78200E+11
         0.78200E+11
         0.78200E+11
         0.78200E+11
         0.78200E+11
         0.78200E+11
         0.78200E+11
         0.78200E+11
         0.78200E+11
         0.78200E+11
         0.78200E+11
         0.78200E+11
         0.78200E+11
         0.78200E+11
         0.78200E+11
         0.78200E+11
         0.78200E+11
         0.78200E+11
         0.78200E+11
         0.78200E+11
         0.78200E+11
         0.78200E+11
         0.78200E+11
         0.78200E+11
         0.78200E+11
         0.78200E+11
         0.78200E+11
         0.78200E+11
         0.78200E+11
         0.78200E+11
         0.78200E+11
         0.78200E+11
         0.78200E+11
         0.78200E+11
         0.78200E+11
         0.78200E+11
         0.78200E+11
         0.78200E+11
         0.78200E+11
         0.78200E+11
         0.78200E+11
         0.78200E+11
         0.78200E+11
         0.78200E+11
         0.78200E+11
         0.78200E+11
         0.78200E+11
         0.78200E+11
         0.78200E+11
         0.78200E+11
         0.78200E+11
         0.78200E+11
         0.78200E+11
         0.78200E+11
         0.78200E+11
         0.78200E+11
         0.78200E+11
         0.78200E+11
         0.78200E+11
         0.78200E+11
         0.78200E+11
         0.78200E+11
         0.78200E+11
         0.78200E+11
         0.78200E+11
         0.78200E+11
         0.78200E+11
         0.78200E+11
         0.78200E+11
         0.78200E+11
         0.78200E+11
         0.78200E+11
         0.78200E+11
         0.78200E+11
         0.78200E+11
         0.78200E+11
         0.78200E+11
         0.78200E+11
         0.78200E+11
         0.78200E+11
         0.78200E+11
         0.78200E+11
         0.78200E+11
         0.78200E+11
         0.78200E+11
         0.78200E+11
         0.78200E+11
         0.78200E+11
         0.78200E+11
         0.78200E+11
         0.78200E+11
         0.78200E+11
         0.78200E+11
         0.78200E+11
         0.78200E+11
         0.78200E+11
         0.78200E+11
         0.78200E+11
         0.78200E+11
         0.78200E+11
         0.78200E+11
         0.78200E+11
         0.78200E+11
         0.78200E+11
         0.78200E+11
         0.78200E+11
         0.78200E+11
         0.78200E+11
         0.78200E+11
         0.78200E+11
         0.78200E+11
         0.78200E+11
         0.78200E+11
         0.78200E+11
         0.78200E+11
         0.78200E+11
         0.78200E+11
         0.78200E+11
         0.78200E+11
         0.78200E+11
         0.78200E+11
         0.78200E+11
         0.78200E+11
         0.78200E+11
         0.78200E+11
         0.78200E+11
         0.78200E+11
         0.78200E+11
         0.78200E+11
         0.78200E+11
         0.78200E+11
         0.78200E+11
         0.78200E+11
         0.78200E+11
         0.78200E+11
         0.78200E+11
         0.78200E+11
         0.78200E+11
         0.78200E+11
         0.78200E+11
         0.78200E+11
         0.78200E+11
         0.78200E+11
         0.78200E+11
         0.78200E+11
         0.78200E+11
         0.78200E+11
         0.78200E+11
         0.78200E+11
         0.78200E+11
         0.78200E+11
         0.78200E+11
         0.78200E+11
         0.78200E+11
         0.78200E+11
         0.78200E+11
         0.78200E+11
         0.78200E+11
         0.78200E+11
         0.78200E+11
         0.78200E+11
         0.78200E+11
         0.78200E+11
         0.78200E+11
         0.78200E+11
         0.78200E+11
         0.78200E+11
         0.78200E+11
         0.78200E+11
         0.78200E+11
         0.78200E+11
         0.78200E+11
         0.78200E+11
         0.78200E+11
         0.78200E+11
         0.78200E+11
         0.78200E+11
         0.78200E+11
         0.78200E+11
         0.78200E+11
         0.78200E+11
         0.78200E+11
         0.78200E+11
         0.78200E+11
         0.78200E+11
         0.78200E+11
         0.78200E+11
         0.78200E+11
         0.78200E+11
         0.78200E+11
         0.78200E+11
         0.78200E+11
         0.78200E+11
         0.78200E+11
         0.78200E+11
         0.78200E+11
         0.78200E+11
         0.78200E+11
         0.78200E+11
         0.78200E+11
         0.78200E+11
         0.78200E+11
         0.78200E+11
         0.78200E+11
         0.78200E+11
         0.78200E+11
         0.78200E+11
         0.78200E+11
         0.78200E+11
         0.78200E+11
         0.78200E+11
         0.78200E+11
         0.78200E+11
         0.78200E+11
         0.78200E+11
         0.78200E+11
         0.78200E+11
         0.78200E+11
         0.78200E+11
         0.78200E+11
         0.78200E+11
         0.78200E+11
         0.78200E+11
         0.78200E+11
         0.78200E+11
         0.78200E+11
         0.78200E+11
         0.78200E+11
         0.78200E+11
         0.78200E+11
         0.78200E+11
         0.78200E+11
         0.78200E+11
         0.78200E+11
         0.78200E+11
         0.78200E+11
         0.78200E+11
         0.78200E+11
         0.78200E+11
         0.78200E+11
         0.78200E+11
         0.78200E+11
         0.78200E+11
         0.78200E+11
         0.78200E+11
         0.78200E+11
         0.78200E+11
         0.78200E+11
         0.78200E+11
         0.78200E+11
         0.78200E+11
         0.78200E+11
         0.78200E+11
         0.78200E+11
         0.78200E+11
         0.78200E+11
         0.78200E+11
         0.78200E+11
         0.78200E+11
         0.78200E+11
         0.78200E+11
         0.78200E+11
         0.78200E+11
         0.78200E+11
         0.78200E+11
         0.78200E+11
         0.78200E+11
         0.78200E+11
         0.78200E+11
         0.78200E+11
         0.78200E+11
         0.78200E+11
         0.78200E+11
         0.78200E+11
         0.78200E+11
         0.78200E+11
         0.78200E+11
         0.78200E+11
         0.78200E+11
         0.78200E+11
         0.78200E+11
         0.78200E+11
         0.78200E+11
         0.78200E+11
         0.78200E+11
         0.78200E+11
         0.78200E+11
         0.78200E+11
         0.78200E+11
         0.78200E+11
         0.78200E+11
         0.78200E+11
         0.78200E+11
         0.78200E+11
         0.78200E+11
         0.78200E+11
         0.78200E+11
         0.78200E+11
         0.78200E+11
         0.78200E+11
         0.78200E+11
         0.78200E+11
         0.78200E+11
         0.78200E+11
         0.78200E+11
         0.78200E+11
         0.78200E+11
         0.78200E+11
         0.78200E+11
         0.78200E+11
         0.78200E+11
         0.78200E+11
         0.78200E+11
         0.78200E+11
         0.78200E+11
         0.78200E+11
         0.78200E+11
         0.78200E+11
         0.78200E+11
         0.78200E+11
         0.78200E+11
         0.78200E+11
         0.78200E+11
         0.78200E+11
         0.78200E+11
         0.78200E+11
         0.78200E+11
         0.78200E+11
         0.78200E+11
         0.78200E+11
         0.78200E+11
         0.78200E+11
         0.78200E+11
         0.78200E+11
         0.78200E+11
         0.78200E+11
         0.78200E+11
         0.78200E+11
         0.78200E+11
         0.78200E+11
         0.78200E+11
         0.78200E+11
         0.78200E+11
         0.78200E+11
         0.78200E+11
         0.78200E+11
         0.78200E+11
         0.78200E+11
         0.78200E+11
         0.78200E+11
         0.78200E+11
         0.78200E+11
         0.78200E+11
         0.78200E+11
         0.78200E+11
         0.78200E+11
         0.78200E+11
         0.78200E+11
         0.78200E+11
         0.78200E+11
         0.78200E+11
         0.78200E+11
         0.78200E+11
         0.78200E+11
         0.78200E+11
         0.78200E+11
         0.78200E+11
         0.78200E+11
         0.78200E+11
         0.78200E+11
         0.78200E+11
         0.78200E+11
         0.78200E+11
         0.78200E+11
         0.78200E+11
         0.78200E+11
         0.78200E+11
         0.78200E+11
         0.78200E+11
         0.78200E+11
         0.78200E+11
         0.78200E+11
         0.78200E+11
         0.78200E+11
         0.78200E+11
         0.78200E+11
         0.78200E+11
         0.78200E+11
         0.78200E+11
         0.78200E+11
         0.78200E+11
         0.78200E+11
         0.78200E+11
         0.78200E+11
         0.78200E+11
         0.78200E+11
         0.78200E+11
         0.78200E+11
         0.78200E+11
         0.78200E+11
         0.78200E+11
         0.78200E+11
         0.78200E+11
         0.78200E+11
         0.78200E+11
         0.78200E+11
         0.78200E+11
         0.78200E+11
         0.78200E+11
         0.78200E+11
         0.78200E+11
         0.78200E+11
         0.78200E+11
         0.78200E+11
         0.78200E+11
         0.78200E+11
         0.78200E+11
         0.78200E+11
         0.78200E+11
         0.78200E+11
         0.78200E+11
         0.78200E+11
         0.78200E+11
         0.78200E+11
         0.78200E+11
         0.78200E+11
         0.78200E+11
         0.78200E+11
         0.78200E+11
         0.78200E+11
         0.78200E+11
         0.78200E+11
         0.78200E+11
         0.78200E+11
         0.78200E+11
         0.78200E+11
         0.78200E+11
         0.78200E+11
         0.78200E+11
         0.78200E+11
         0.78200E+11
         0.78200E+11
         0.78200E+11
         0.78200E+11
         0.78200E+11
         0.78200E+11
         0.78200E+11
         0.78200E+11
         0.78200E+11
         0.78200E+11
         0.78200E+11
         0.78200E+11
         0.78200E+11
         0.78200E+11
         0.78200E+11
         0.78200E+11
         0.78200E+11
         0.78200E+11
         0.78200E+11
         0.78200E+11
         0.78200E+11
         0.78200E+11
         0.78200E+11
         0.78200E+11
         0.78200E+11
         0.78200E+11
         0.78200E+11
         0.78200E+11
         0.78200E+11
         0.78200E+11
         0.78200E+11
         0.78200E+11
         0.78200E+11
         0.78200E+11
         0.78200E+11
         0.78200E+11
         0.78200E+11
         0.78200E+11
         0.78200E+11
         0.78200E+11
         0.78200E+11
         0.78200E+11
         0.78200E+11
         0.78200E+11
         0.78200E+11
         0.78200E+11
         0.78200E+11
         0.78200E+11
         0.78200E+11
         0.78200E+11
         0.78200E+11
         0.78200E+11
         0.78200E+11
         0.78200E+11
         0.78200E+11
         0.78200E+11
         0.78200E+11
         0.78200E+11
         0.78200E+11
         0.78200E+11
         0.78200E+11
         0.78200E+11
         0.78200E+11
         0.78200E+11
         0.78200E+11
         0.78200E+11
         0.78200E+11
         0.78200E+11
         0.78200E+11
         0.78200E+11
         0.78200E+11
         0.78200E+11
         0.78200E+11
         0.78200E+11
         0.78200E+11
         0.78200E+11
         0.78200E+11
         0.78200E+11
         0.78200E+11
         0.78200E+11
         0.78200E+11
         0.78200E+11
         0.78200E+11
         0.78200E+11
         0.78200E+11
         0.78200E+11
         0.78200E+11
         0.78200E+11
         0.78200E+11
         0.78200E+11
         0.78200E+11
         0.78200E+11
         0.78200E+11
         0.78200E+11
         0.78200E+11
         0.78200E+11
         0.78200E+11
         0.78200E+11
         0.78200E+11
         0.78200E+11
         0.78200E+11
         0.78200E+11
         0.78200E+11
         0.78200E+11
         0.78200E+11
         0.78200E+11
         0.78200E+11
         0.78200E+11
         0.78200E+11
         0.78200E+11
         0.78200E+11
         0.78200E+11
         0.78200E+11
         0.78200E+11
         0.78200E+11
         0.78200E+11
         0.78200E+11
         0.78200E+11
         0.78200E+11
         0.78200E+11
         0.78200E+11
         0.78200E+11
         0.78200E+11
         0.78200E+11
         0.78200E+11
         0.78200E+11
         0.78200E+11
         0.78200E+11
         0.78200E+11
         0.78200E+11
         0.78200E+11
         0.78200E+11
         0.78200E+11
         0.78200E+11
         0.78200E+11
         0.78200E+11
         0.78200E+11
         0.78200E+11
         0.78200E+11
         0.78200E+11
         0.78200E+11
         0.78200E+11
         0.78200E+11
         0.78200E+11
         0.78200E+11
         0.78200E+11
         0.78200E+11
         0.78200E+11
         0.78200E+11
         0.78200E+11
         0.78200E+11
         0.78200E+11
         0.78200E+11
         0.78200E+11
         0.78200E+11
         0.78200E+11
         0.78200E+11
         0.78200E+11
         0.78200E+11
         0.78200E+11
         0.78200E+11
         0.78200E+11
         0.78200E+11
         0.78200E+11
         0.78200E+11
         0.78200E+11
         0.78200E+11
         0.78200E+11
         0.78200E+11
         0.78200E+11
         0.78200E+11
         0.78200E+11
         0.78200E+11
         0.78200E+11
         0.78200E+11
         0.78200E+11
         0.78200E+11
         0.78200E+11
         0.78200E+11
         0.78200E+11
         0.78200E+11
         0.78200E+11
         0.78200E+11
         0.78200E+11
         0.78200E+11
         0.78200E+11
         0.78200E+11
         0.78200E+11
         0.78200E+11
         0.78200E+11
         0.78200E+11
         0.78200E+11
         0.78200E+11
         0.78200E+11
         0.78200E+11
         0.78200E+11
         0.78200E+11
         0.78200E+11
         0.78200E+11
         0.78200E+11
         0.78200E+11
         0.78200E+11
         0.78200E+11
         0.78200E+11
         0.78200E+11
         0.78200E+11
         0.78200E+11
         0.78200E+11
         0.78200E+11
         0.78200E+11
         0.78200E+11
         0.78200E+11
         0.78200E+11
         0.78200E+11
         0.78200E+11
         0.78200E+11
         0.78200E+11
         0.78200E+11
         0.78200E+11
         0.78200E+11
         0.78200E+11
         0.78200E+11
         0.78200E+11
         0.78200E+11
         0.78200E+11
         0.78200E+11
         0.78200E+11
         0.78200E+11
         0.78200E+11
         0.78200E+11
         0.78200E+11
         0.78200E+11
         0.78200E+11
         0.78200E+11
         0.78200E+11
         0.78200E+11
         0.78200E+11
         0.78200E+11
         0.78200E+11
         0.78200E+11
         0.78200E+11
         0.78200E+11
         0.78200E+11
         0.78200E+11
         0.78200E+11
         0.78200E+11
         0.78200E+11
         0.78200E+11
         0.78200E+11
         0.78200E+11
         0.78200E+11
         0.78200E+11
         0.78200E+11
         0.78200E+11
         0.78200E+11
         0.78200E+11
         0.78200E+11
         0.78200E+11
         0.78200E+11
         0.78200E+11
         0.78200E+11
         0.78200E+11
         0.78200E+11
         0.78200E+11
         0.78200E+11
         0.78200E+11
         0.78200E+11
         0.78200E+11
         0.78200E+11
         0.78200E+11
         0.78200E+11
         0.78200E+11
         0.78200E+11
         0.78200E+11
         0.78200E+11
         0.78200E+11
         0.78200E+11
         0.78200E+11
         0.78200E+11
         0.78200E+11
         0.78200E+11
         0.78200E+11
         0.78200E+11
         0.78200E+11
         0.78200E+11
         0.78200E+11
         0.78200E+11
         0.78200E+11
         0.78200E+11
         0.78200E+11
         0.78200E+11
         0.78200E+11
         0.78200E+11
         0.78200E+11
         0.78200E+11
         0.78200E+11
         0.78200E+11
         0.78200E+11
         0.78200E+11
         0.78200E+11
         0.78200E+11
         0.78200E+11
         0.78200E+11
         0.78200E+11
         0.78200E+11
         0.78200E+11
         0.78200E+11
         0.78200E+11
         0.78200E+11
         0.78200E+11
         0.78200E+11
         0.78200E+11
         0.78200E+11
         0.78200E+11
         0.78200E+11
         0.78200E+11
         0.78200E+11
         0.78200E+11
         0.78200E+11
         0.78200E+11
         0.78200E+11
         0.78200E+11
         0.78200E+11
         0.78200E+11
         0.78200E+11
         0.78200E+11
         0.78200E+11
         0.78200E+11
         0.78200E+11
         0.78200E+11
         0.78200E+11
         0.78200E+11
         0.78200E+11
         0.78200E+11
         0.78200E+11
         0.78200E+11
         0.78200E+11
         0.78200E+11
         0.78200E+11
         0.78200E+11
         0.78200E+11
         0.78200E+11
         0.78200E+11
         0.78200E+11
         0.78200E+11
         0.78200E+11
         0.78200E+11
         0.78200E+11
         0.78200E+11
         0.78200E+11
         0.78200E+11
         0.78200E+11
         0.78200E+11
         0.78200E+11
         0.78200E+11
         0.78200E+11
         0.78200E+11
         0.78200E+11
         0.78200E+11
         0.78200E+11
         0.78200E+11
         0.78200E+11
         0.78200E+11
         0.78200E+11
         0.78200E+11
         0.78200E+11
         0.78200E+11
         0.78200E+11
         0.78200E+11
         0.78200E+11
         0.78200E+11
         0.78200E+11
         0.78200E+11
         0.78200E+11
         0.78200E+11
         0.78200E+11
         0.78200E+11
         0.78200E+11
         0.78200E+11
         0.78200E+11
         0.78200E+11
         0.78200E+11
         0.78200E+11
         0.78200E+11
         0.78200E+11
         0.78200E+11
         0.78200E+11
         0.78200E+11
         0.78200E+11
         0.78200E+11
         0.78200E+11
         0.78200E+11
         0.78200E+11
         0.78200E+11
         0.78200E+11
         0.78200E+11
         0.78200E+11
         0.78200E+11
         0.78200E+11
         0.78200E+11
         0.78200E+11
         0.78200E+11
         0.78200E+11
         0.78200E+11
         0.78200E+11
         0.78200E+11
         0.78200E+11
         0.78200E+11
         0.78200E+11
         0.78200E+11
         0.78200E+11
         0.78200E+11
         0.78200E+11
         0.78200E+11
         0.78200E+11
         0.78200E+11
         0.78200E+11
         0.78200E+11
         0.78200E+11
         0.78200E+11
         0.78200E+11
         0.78200E+11
         0.78200E+11
         0.78200E+11
         0.78200E+11
         0.78200E+11
         0.78200E+11
         0.78200E+11
         0.78200E+11
         0.78200E+11
         0.78200E+11
         0.78200E+11
         0.78200E+11
         0.78200E+11
         0.78200E+11
         0.78200E+11
         0.78200E+11
         0.78200E+11
         0.78200E+11
         0.78200E+11
         0.78200E+11
         0.78200E+11
         0.78200E+11
         0.78200E+11
         0.78200E+11
         0.78200E+11
         0.78200E+11
         0.78200E+11
         0.78200E+11
         0.78200E+11
         0.78200E+11
         0.78200E+11
         0.78200E+11
         0.78200E+11
         0.78200E+11
         0.78200E+11
         0.78200E+11
         0.78200E+11
         0.78200E+11
         0.78200E+11
         0.78200E+11
         0.78200E+11
         0.78200E+11
         0.78200E+11
         0.78200E+11
         0.78200E+11
         0.78200E+11
         0.78200E+11
         0.78200E+11
         0.78200E+11
         0.78200E+11
         0.78200E+11
         0.78200E+11
         0.78200E+11
         0.78200E+11
         0.78200E+11
         0.78200E+11
         0.78200E+11
         0.78200E+11
         0.78200E+11
         0.78200E+11
         0.78200E+11
         0.78200E+11
         0.78200E+11
         0.78200E+11
         0.78200E+11
         0.78200E+11
         0.78200E+11
         0.78200E+11
         0.78200E+11
         0.78200E+11
         0.78200E+11
         0.78200E+11
         0.78200E+11
         0.78200E+11
         0.78200E+11
         0.78200E+11
         0.78200E+11
         0.78200E+11
         0.78200E+11
         0.78200E+11
         0.78200E+11
         0.78200E+11
         0.78200E+11
         0.78200E+11
         0.78200E+11
         0.78200E+11
         0.78200E+11
         0.78200E+11
         0.78200E+11
         0.78200E+11
         0.78200E+11
         0.78200E+11
         0.78200E+11
         0.78200E+11
         0.78200E+11
         0.78200E+11
         0.78200E+11
         0.78200E+11
         0.78200E+11
         0.78200E+11
         0.78200E+11
         0.78200E+11
         0.78200E+11
         0.78200E+11
         0.78200E+11
         0.78200E+11
         0.78200E+11
         0.78200E+11
         0.78200E+11
         0.78200E+11
         0.78200E+11
         0.78200E+11
         0.78200E+11
         0.78200E+11
         0.78200E+11
         0.78200E+11
         0.78200E+11
         0.78200E+11
         0.78200E+11
         0.78200E+11
         0.78200E+11
         0.78200E+11
         0.78200E+11
         0.78200E+11
         0.78200E+11
         0.78200E+11
         0.78200E+11
         0.78200E+11
         0.78200E+11
         0.78200E+11
         0.78200E+11
         0.78200E+11
         0.78200E+11
         0.78200E+11
         0.78200E+11
         0.78200E+11
         0.78200E+11
         0.78200E+11
         0.78200E+11
         0.78200E+11
         0.78200E+11
         0.78200E+11
         0.78200E+11
         0.78200E+11
         0.78200E+11
         0.78200E+11
         0.78200E+11
         0.78200E+11
         0.78200E+11
         0.78200E+11
         0.78200E+11
         0.78200E+11
         0.78200E+11
         0.78200E+11
         0.78200E+11
         0.78200E+11
         0.78200E+11
         0.78200E+11
         0.78200E+11
         0.78200E+11
         0.78200E+11
         0.78200E+11
         0.78200E+11
         0.78200E+11
         0.78200E+11
         0.78200E+11
         0.78200E+11
         0.78200E+11
         0.78200E+11
         0.78200E+11
         0.78200E+11
         0.78200E+11
         0.78200E+11
         0.78200E+11
         0.78200E+11
         0.78200E+11
         0.78200E+11
         0.78200E+11
         0.78200E+11
         0.78200E+11
         0.78200E+11
         0.78200E+11
         0.78200E+11
         0.78200E+11
         0.78200E+11
         0.78200E+11
         0.78200E+11
         0.78200E+11
         0.78200E+11
         0.78200E+11
         0.78200E+11
         0.78200E+11
         0.78200E+11
         0.78200E+11
         0.78200E+11
         0.78200E+11
         0.78200E+11
         0.78200E+11
         0.78200E+11
         0.78200E+11
         0.78200E+11
         0.78200E+11
         0.78200E+11
         0.78200E+11
         0.78200E+11
         0.78200E+11
         0.78200E+11
         0.78200E+11
         0.78200E+11
         0.78200E+11
         0.78200E+11
         0.78200E+11
         0.78200E+11
         0.78200E+11
         0.78200E+11
         0.78200E+11
         0.78200E+11
         0.78200E+11
         0.78200E+11
         0.78200E+11
         0.78200E+11
         0.78200E+11
         0.78200E+11
         0.78200E+11
         0.78200E+11
         0.78200E+11
         0.78200E+11
         0.78200E+11
         0.78200E+11
         0.78200E+11
         0.78200E+11
         0.78200E+11
         0.78200E+11
         0.78200E+11
         0.78200E+11
         0.78200E+11
         0.78200E+11
         0.78200E+11
         0.78200E+11
         0.78200E+11
         0.78200E+11
         0.78200E+11
         0.78200E+11
         0.78200E+11
         0.78200E+11
         0.78200E+11
         0.78200E+11
         0.78200E+11
         0.78200E+11
         0.78200E+11
         0.78200E+11
         0.78200E+11
         0.78200E+11
         0.78200E+11
         0.78200E+11
         0.78200E+11
         0.78200E+11
         0.78200E+11
         0.78200E+11
         0.78200E+11
         0.78200E+11
         0.78200E+11
         0.78200E+11
         0.78200E+11
         0.78200E+11
         0.78200E+11
         0.78200E+11
         0.78200E+11
         0.78200E+11
         0.78200E+11
         0.78200E+11
         0.78200E+11
         0.78200E+11
         0.78200E+11
         0.78200E+11
         0.78200E+11
         0.78200E+11
         0.78200E+11
         0.78200E+11
         0.78200E+11
         0.78200E+11
         0.78200E+11
         0.78200E+11
         0.78200E+11
         0.78200E+11
         0.78200E+11
         0.78200E+11
         0.78200E+11
         0.78200E+11
         0.78200E+11
         0.78200E+11
         0.78200E+11
         0.78200E+11
         0.78200E+11
         0.78200E+11
         0.78200E+11
         0.78200E+11
         0.78200E+11
         0.78200E+11
         0.78200E+11
         0.78200E+11
         0.78200E+11
         0.78200E+11
         0.78200E+11
         0.78200E+11
         0.78200E+11
         0.78200E+11
         0.78200E+11
         0.78200E+11
         0.78200E+11
         0.78200E+11
         0.78200E+11
         0.78200E+11
         0.78200E+11
         0.78200E+11
         0.78200E+11
         0.78200E+11
         0.78200E+11
         0.78200E+11
         0.78200E+11
         0.78200E+11
         0.78200E+11
         0.78200E+11
         0.78200E+11
         0.78200E+11
         0.78200E+11
         0.78200E+11
         0.78200E+11
         0.78200E+11
         0.78200E+11
         0.78200E+11
         0.78200E+11
         0.78200E+11
         0.78200E+11
         0.78200E+11
         0.78200E+11
         0.78200E+11
         0.78200E+11
         0.78200E+11
         0.78200E+11
         0.78200E+11
         0.78200E+11
         0.78200E+11
         0.78200E+11
         0.78200E+11
         0.78200E+11
         0.78200E+11
         0.78200E+11
         0.78200E+11
         0.78200E+11
         0.78200E+11
         0.78200E+11
         0.78200E+11
         0.78200E+11
         0.78200E+11
         0.78200E+11
         0.78200E+11
         0.78200E+11
         0.78200E+11
         0.78200E+11
         0.78200E+11
         0.78200E+11
         0.78200E+11
         0.78200E+11
         0.78200E+11
         0.78200E+11
         0.78200E+11
         0.78200E+11
         0.78200E+11
         0.78200E+11
         0.78200E+11
         0.78200E+11
         0.78200E+11
         0.78200E+11
         0.78200E+11
         0.78200E+11
         0.78200E+11
         0.78200E+11
         0.78200E+11
         0.78200E+11
         0.78200E+11
         0.78200E+11
         0.78200E+11
         0.78200E+11
         0.78200E+11
         0.78200E+11
         0.78200E+11
         0.78200E+11
         0.78200E+11
         0.78200E+11
         0.78200E+11
         0.78200E+11
         0.78200E+11
         0.78200E+11
         0.78200E+11
         0.78200E+11
         0.78200E+11
         0.78200E+11
         0.78200E+11
         0.78200E+11
         0.78200E+11
         0.78200E+11
         0.78200E+11
         0.78200E+11
         0.78200E+11
         0.78200E+11
         0.78200E+11
         0.78200E+11
         0.78200E+11
         0.78200E+11
         0.78200E+11
         0.78200E+11
         0.78200E+11
         0.78200E+11
         0.78200E+11
         0.78200E+11
         0.78200E+11
         0.78200E+11
         0.78200E+11
         0.78200E+11
         0.78200E+11
         0.78200E+11
         0.78200E+11
         0.78200E+11
         0.78200E+11
         0.78200E+11
         0.78200E+11
         0.78200E+11
         0.78200E+11
         0.78200E+11
         0.78200E+11
         0.78200E+11
         0.78200E+11
         0.78200E+11
         0.78200E+11
         0.78200E+11
         0.78200E+11
         0.78200E+11
         0.78200E+11
         0.78200E+11
         0.78200E+11
         0.78200E+11
         0.78200E+11
         0.78200E+11
         0.78200E+11
         0.78200E+11
         0.78200E+11
         0.78200E+11
         0.78200E+11
         0.78200E+11
         0.78200E+11
         0.78200E+11
         0.78200E+11
         0.78200E+11
         0.78200E+11
         0.78200E+11
         0.78200E+11
         0.78200E+11
         0.78200E+11
         0.78200E+11
         0.78200E+11
         0.78200E+11
         0.78200E+11
         0.78200E+11
         0.78200E+11
         0.78200E+11
         0.78200E+11
         0.78200E+11
         0.78200E+11
         0.78200E+11
         0.78200E+11
         0.78200E+11
         0.78200E+11
         0.78200E+11
         0.78200E+11
         0.78200E+11
         0.78200E+11
         0.78200E+11
         0.78200E+11
         0.78200E+11
         0.78200E+11
         0.78200E+11
         0.78200E+11
         0.78200E+11
         0.78200E+11
         0.78200E+11
         0.78200E+11
         0.78200E+11
         0.78200E+11
         0.78200E+11
         0.78200E+11
         0.78200E+11
         0.78200E+11
         0.78200E+11
         0.78200E+11
         0.78200E+11
         0.78200E+11
         0.78200E+11
         0.78200E+11
         0.78200E+11
         0.78200E+11
         0.78200E+11
         0.78200E+11
         0.78200E+11
         0.78200E+11
         0.78200E+11
         0.78200E+11
         0.78200E+11
         0.78200E+11
         0.78200E+11
         0.78200E+11
         0.78200E+11
         0.78200E+11
         0.78200E+11
         0.78200E+11
         0.78200E+11
         0.78200E+11
         0.78200E+11
         0.78200E+11
         0.78200E+11
         0.78200E+11
         0.78200E+11
         0.78200E+11
         0.78200E+11
         0.78200E+11
         0.78200E+11
         0.78200E+11
         0.78200E+11
         0.78200E+11
         0.78200E+11
         0.78200E+11
         0.78200E+11
         0.78200E+11
         0.78200E+11
         0.78200E+11
         0.78200E+11
         0.78200E+11
         0.78200E+11
         0.78200E+11
         0.78200E+11
         0.78200E+11
         0.78200E+11
         0.78200E+11
         0.78200E+11
         0.78200E+11
         0.78200E+11
         0.78200E+11
         0.78200E+11
         0.78200E+11
         0.78200E+11
         0.78200E+11
         0.78200E+11
         0.78200E+11
         0.78200E+11
         0.78200E+11
         0.78200E+11
         0.78200E+11
         0.78200E+11
         0.78200E+11
         0.78200E+11
         0.78200E+11
         0.78200E+11
         0.78200E+11
         0.78200E+11
         0.78200E+11
         0.78200E+11
         0.78200E+11
         0.78200E+11
         0.78200E+11
         0.78200E+11
         0.78200E+11
         0.78200E+11
         0.78200E+11
         0.78200E+11
         0.78200E+11
         0.78200E+11
         0.78200E+11
         0.78200E+11
         0.78200E+11
         0.78200E+11
         0.78200E+11
         0.78200E+11
         0.78200E+11
         0.78200E+11
         0.78200E+11
         0.78200E+11
         0.78200E+11
         0.78200E+11
         0.78200E+11
         0.78200E+11
         0.78200E+11
         0.78200E+11
         0.78200E+11
         0.78200E+11
         0.78200E+11
         0.78200E+11
         0.78200E+11
         0.78200E+11
         0.78200E+11
         0.78200E+11
         0.78200E+11
         0.78200E+11
         0.78200E+11
         0.78200E+11
         0.78200E+11
         0.78200E+11
         0.78200E+11
         0.78200E+11
         0.78200E+11
         0.78200E+11
         0.78200E+11
         0.78200E+11
         0.78200E+11
         0.78200E+11
         0.78200E+11
         0.78200E+11
         0.78200E+11
         0.78200E+11
         0.78200E+11
         0.78200E+11
         0.78200E+11
         0.78200E+11
         0.78200E+11
         0.78200E+11
         0.78200E+11
         0.78200E+11
         0.78200E+11
         0.78200E+11
         0.78200E+11
         0.78200E+11
         0.78200E+11
         0.78200E+11
         0.78200E+11
         0.78200E+11
         0.78200E+11
         0.78200E+11
         0.78200E+11
         0.78200E+11
         0.78200E+11
         0.78200E+11
         0.78200E+11
         0.78200E+11
         0.78200E+11
         0.78200E+11
         0.78200E+11
         0.78200E+11
         0.78200E+11
         0.78200E+11
         0.78200E+11
         0.78200E+11
         0.78200E+11
         0.78200E+11
         0.78200E+11
         0.78200E+11
         0.78200E+11
         0.78200E+11
         0.78200E+11
         0.78200E+11
         0.78200E+11
         0.78200E+11
         0.78200E+11
         0.78200E+11
         0.78200E+11
         0.78200E+11
         0.78200E+11
         0.78200E+11
         0.78200E+11
         0.78200E+11
         0.78200E+11
         0.78200E+11
         0.78200E+11
         0.78200E+11
         0.78200E+11
         0.78200E+11
         0.78200E+11
         0.78200E+11
         0.78200E+11
         0.78200E+11
         0.78200E+11
         0.78200E+11
         0.78200E+11
         0.78200E+11
         0.78200E+11
         0.78200E+11
         0.78200E+11
         0.78200E+11
         0.78200E+11
         0.78200E+11
         0.78200E+11
         0.78200E+11
         0.78200E+11
         0.78200E+11
         0.78200E+11
         0.78200E+11
         0.78200E+11
         0.78200E+11
         0.78200E+11
         0.78200E+11
         0.78200E+11
         0.78200E+11
         0.78200E+11
         0.78200E+11
         0.78200E+11
         0.78200E+11
         0.78200E+11
         0.78200E+11
         0.78200E+11
         0.78200E+11
         0.78200E+11
         0.78200E+11
         0.78200E+11
         0.78200E+11
         0.78200E+11
         0.78200E+11
         0.78200E+11
         0.78200E+11
         0.78200E+11
         0.78200E+11
         0.78200E+11
         0.78200E+11
         0.78200E+11
         0.78200E+11
         0.78200E+11
         0.78200E+11
         0.78200E+11
         0.78200E+11
         0.78200E+11
         0.78200E+11
         0.78200E+11
         0.78200E+11
         0.78200E+11
         0.78200E+11
         0.78200E+11
         0.78200E+11
         0.78200E+11
         0.78200E+11
         0.78200E+11
         0.78200E+11
         0.78200E+11
         0.78200E+11
         0.78200E+11
         0.78200E+11
         0.78200E+11
         0.78200E+11
         0.78200E+11
         0.78200E+11
         0.78200E+11
         0.78200E+11
         0.78200E+11
         0.78200E+11
         0.78200E+11
         0.78200E+11
         0.78200E+11
         0.78200E+11
         0.78200E+11
         0.78200E+11
         0.78200E+11
         0.78200E+11
         0.78200E+11
         0.78200E+11
         0.78200E+11
         0.78200E+11
         0.78200E+11
         0.78200E+11
         0.78200E+11
         0.78200E+11
         0.78200E+11
         0.78200E+11
         0.78200E+11
         0.78200E+11
         0.78200E+11
         0.78200E+11
         0.78200E+11
         0.78200E+11
         0.78200E+11
         0.78200E+11
         0.78200E+11
         0.78200E+11
         0.78200E+11
         0.78200E+11
         0.78200E+11
         0.78200E+11
         0.78200E+11
         0.78200E+11
         0.78200E+11
         0.78200E+11
         0.78200E+11
         0.78200E+11
         0.78200E+11
         0.78200E+11
         0.78200E+11
         0.78200E+11
         0.78200E+11
         0.78200E+11
         0.78200E+11
         0.78200E+11
         0.78200E+11
         0.78200E+11
         0.78200E+11
         0.78200E+11
         0.78200E+11
         0.78200E+11
         0.78200E+11
         0.78200E+11
         0.78200E+11
         0.78200E+11
         0.78200E+11
         0.78200E+11
         0.78200E+11
         0.78200E+11
         0.78200E+11
         0.78200E+11
         0.78200E+11
         0.78200E+11
         0.78200E+11
         0.78200E+11
         0.78200E+11
         0.78200E+11
         0.78200E+11
         0.78200E+11
         0.78200E+11
         0.78200E+11
         0.78200E+11
         0.78200E+11
         0.78200E+11
         0.78200E+11
         0.78200E+11
         0.78200E+11
         0.78200E+11
         0.78200E+11
         0.78200E+11
         0.78200E+11
         0.78200E+11
         0.78200E+11
         0.78200E+11
         0.78200E+11
         0.78200E+11
         0.78200E+11
         0.78200E+11
         0.78200E+11
         0.78200E+11
         0.78200E+11
         0.78200E+11
         0.78200E+11
         0.78200E+11
         0.78200E+11
         0.78200E+11
         0.78200E+11
         0.78200E+11
         0.78200E+11
         0.78200E+11
         0.78200E+11
         0.78200E+11
         0.78200E+11
         0.78200E+11
         0.78200E+11
         0.78200E+11
         0.78200E+11
         0.78200E+11
         0.78200E+11
         0.78200E+11
         0.78200E+11
         0.78200E+11
         0.78200E+11
         0.78200E+11
         0.78200E+11
         0.78200E+11
         0.78200E+11
         0.78200E+11
         0.78200E+11
         0.78200E+11
         0.78200E+11
         0.78200E+11
         0.78200E+11
         0.78200E+11
         0.78200E+11
         0.78200E+11
         0.78200E+11
         0.78200E+11
         0.78200E+11
         0.78200E+11
         0.78200E+11
         0.78200E+11
         0.78200E+11
         0.78200E+11
         0.78200E+11
         0.78200E+11
         0.78200E+11
         0.78200E+11
         0.78200E+11
         0.78200E+11
         0.78200E+11
         0.78200E+11
         0.78200E+11
         0.78200E+11
         0.78200E+11
         0.78200E+11
         0.78200E+11
         0.78200E+11
         0.78200E+11
         0.78200E+11
         0.78200E+11
         0.78200E+11
         0.78200E+11
         0.78200E+11
         0.78200E+11
         0.78200E+11
         0.78200E+11
         0.78200E+11
         0.78200E+11
         0.78200E+11
         0.78200E+11
         0.78200E+11
         0.78200E+11
         0.78200E+11
         0.78200E+11
         0.78200E+11
         0.78200E+11
         0.78200E+11
         0.78200E+11
         0.78200E+11
         0.78200E+11
         0.78200E+11
         0.78200E+11
         0.78200E+11
         0.78200E+11
         0.78200E+11
         0.78200E+11
         0.78200E+11
         0.78200E+11
         0.78200E+11
         0.78200E+11
         0.78200E+11
         0.78200E+11
         0.78200E+11
         0.78200E+11
         0.78200E+11
         0.78200E+11
         0.78200E+11
         0.78200E+11
         0.78200E+11
         0.78200E+11
         0.78200E+11
         0.78200E+11
         0.78200E+11
         0.78200E+11
         0.78200E+11
         0.78200E+11
         0.78200E+11
         0.78200E+11
         0.78200E+11
         0.78200E+11
         0.78200E+11
         0.78200E+11
         0.78200E+11
         0.78200E+11
         0.78200E+11
         0.78200E+11
         0.78200E+11
         0.78200E+11
         0.78200E+11
         0.78200E+11
         0.78200E+11
         0.78200E+11
         0.78200E+11
         0.78200E+11
         0.78200E+11
         0.78200E+11
         0.78200E+11
         0.78200E+11
         0.78200E+11
         0.78200E+11
         0.78200E+11
         0.78200E+11
         0.78200E+11
         0.78200E+11
         0.78200E+11
         0.78200E+11
         0.78200E+11
         0.78200E+11
         0.78200E+11
         0.78200E+11
         0.78200E+11
         0.78200E+11
         0.78200E+11
         0.78200E+11
         0.78200E+11
         0.78200E+11
         0.78200E+11
         0.78200E+11
         0.78200E+11
         0.78200E+11
         0.78200E+11
         0.78200E+11
         0.78200E+11
         0.78200E+11
         0.78200E+11
         0.78200E+11
         0.78200E+11
         0.78200E+11
         0.78200E+11
         0.78200E+11
         0.78200E+11
         0.78200E+11
         0.78200E+11
         0.78200E+11
  
SCALARS                        density  double 1
LOOKUP_TABLE default
         0.27000E+04
         0.27000E+04
         0.27000E+04
         0.27000E+04
         0.27000E+04
         0.27000E+04
         0.27000E+04
         0.27000E+04
         0.27000E+04
         0.27000E+04
         0.27000E+04
         0.27000E+04
         0.27000E+04
         0.27000E+04
         0.27000E+04
         0.27000E+04
         0.27000E+04
         0.27000E+04
         0.27000E+04
         0.27000E+04
         0.27000E+04
         0.27000E+04
         0.27000E+04
         0.27000E+04
         0.27000E+04
         0.27000E+04
         0.27000E+04
         0.27000E+04
         0.27000E+04
         0.27000E+04
         0.27000E+04
         0.27000E+04
         0.27000E+04
         0.27000E+04
         0.27000E+04
         0.27000E+04
         0.27000E+04
         0.27000E+04
         0.27000E+04
         0.27000E+04
         0.27000E+04
         0.27000E+04
         0.27000E+04
         0.27000E+04
         0.27000E+04
         0.27000E+04
         0.27000E+04
         0.27000E+04
         0.27000E+04
         0.27000E+04
         0.27000E+04
         0.27000E+04
         0.27000E+04
         0.27000E+04
         0.27000E+04
         0.27000E+04
         0.27000E+04
         0.27000E+04
         0.27000E+04
         0.27000E+04
         0.27000E+04
         0.27000E+04
         0.27000E+04
         0.27000E+04
         0.27000E+04
         0.27000E+04
         0.27000E+04
         0.27000E+04
         0.27000E+04
         0.27000E+04
         0.27000E+04
         0.27000E+04
         0.27000E+04
         0.27000E+04
         0.27000E+04
         0.27000E+04
         0.27000E+04
         0.27000E+04
         0.27000E+04
         0.27000E+04
         0.27000E+04
         0.27000E+04
         0.27000E+04
         0.27000E+04
         0.27000E+04
         0.27000E+04
         0.27000E+04
         0.27000E+04
         0.27000E+04
         0.27000E+04
         0.27000E+04
         0.27000E+04
         0.27000E+04
         0.27000E+04
         0.27000E+04
         0.27000E+04
         0.27000E+04
         0.27000E+04
         0.27000E+04
         0.27000E+04
         0.27000E+04
         0.27000E+04
         0.27000E+04
         0.27000E+04
         0.27000E+04
         0.27000E+04
         0.27000E+04
         0.27000E+04
         0.27000E+04
         0.27000E+04
         0.27000E+04
         0.27000E+04
         0.27000E+04
         0.27000E+04
         0.27000E+04
         0.27000E+04
         0.27000E+04
         0.27000E+04
         0.27000E+04
         0.27000E+04
         0.27000E+04
         0.27000E+04
         0.27000E+04
         0.27000E+04
         0.27000E+04
         0.27000E+04
         0.27000E+04
         0.27000E+04
         0.27000E+04
         0.27000E+04
         0.27000E+04
         0.27000E+04
         0.27000E+04
         0.27000E+04
         0.27000E+04
         0.27000E+04
         0.27000E+04
         0.27000E+04
         0.27000E+04
         0.27000E+04
         0.27000E+04
         0.27000E+04
         0.27000E+04
         0.27000E+04
         0.27000E+04
         0.27000E+04
         0.27000E+04
         0.27000E+04
         0.27000E+04
         0.27000E+04
         0.27000E+04
         0.27000E+04
         0.27000E+04
         0.27000E+04
         0.27000E+04
         0.27000E+04
         0.27000E+04
         0.27000E+04
         0.27000E+04
         0.27000E+04
         0.27000E+04
         0.27000E+04
         0.27000E+04
         0.27000E+04
         0.27000E+04
         0.27000E+04
         0.27000E+04
         0.27000E+04
         0.27000E+04
         0.27000E+04
         0.27000E+04
         0.27000E+04
         0.27000E+04
         0.27000E+04
         0.27000E+04
         0.27000E+04
         0.27000E+04
         0.27000E+04
         0.27000E+04
         0.27000E+04
         0.27000E+04
         0.27000E+04
         0.27000E+04
         0.27000E+04
         0.27000E+04
         0.27000E+04
         0.27000E+04
         0.27000E+04
         0.27000E+04
         0.27000E+04
         0.27000E+04
         0.27000E+04
         0.27000E+04
         0.27000E+04
         0.27000E+04
         0.27000E+04
         0.27000E+04
         0.27000E+04
         0.27000E+04
         0.27000E+04
         0.27000E+04
         0.27000E+04
         0.27000E+04
         0.27000E+04
         0.27000E+04
         0.27000E+04
         0.27000E+04
         0.27000E+04
         0.27000E+04
         0.27000E+04
         0.27000E+04
         0.27000E+04
         0.27000E+04
         0.27000E+04
         0.27000E+04
         0.27000E+04
         0.27000E+04
         0.27000E+04
         0.27000E+04
         0.27000E+04
         0.27000E+04
         0.27000E+04
         0.27000E+04
         0.27000E+04
         0.27000E+04
         0.27000E+04
         0.27000E+04
         0.27000E+04
         0.27000E+04
         0.27000E+04
         0.27000E+04
         0.27000E+04
         0.27000E+04
         0.27000E+04
         0.27000E+04
         0.27000E+04
         0.27000E+04
         0.27000E+04
         0.27000E+04
         0.27000E+04
         0.27000E+04
         0.27000E+04
         0.27000E+04
         0.27000E+04
         0.27000E+04
         0.27000E+04
         0.27000E+04
         0.27000E+04
         0.27000E+04
         0.27000E+04
         0.27000E+04
         0.27000E+04
         0.27000E+04
         0.27000E+04
         0.27000E+04
         0.27000E+04
         0.27000E+04
         0.27000E+04
         0.27000E+04
         0.27000E+04
         0.27000E+04
         0.27000E+04
         0.27000E+04
         0.27000E+04
         0.27000E+04
         0.27000E+04
         0.27000E+04
         0.27000E+04
         0.27000E+04
         0.27000E+04
         0.27000E+04
         0.27000E+04
         0.27000E+04
         0.27000E+04
         0.27000E+04
         0.27000E+04
         0.27000E+04
         0.27000E+04
         0.27000E+04
         0.27000E+04
         0.27000E+04
         0.27000E+04
         0.27000E+04
         0.27000E+04
         0.27000E+04
         0.27000E+04
         0.27000E+04
         0.27000E+04
         0.27000E+04
         0.27000E+04
         0.27000E+04
         0.27000E+04
         0.27000E+04
         0.27000E+04
         0.27000E+04
         0.27000E+04
         0.27000E+04
         0.27000E+04
         0.27000E+04
         0.27000E+04
         0.27000E+04
         0.27000E+04
         0.27000E+04
         0.27000E+04
         0.27000E+04
         0.27000E+04
         0.27000E+04
         0.27000E+04
         0.27000E+04
         0.27000E+04
         0.27000E+04
         0.27000E+04
         0.27000E+04
         0.27000E+04
         0.27000E+04
         0.27000E+04
         0.27000E+04
         0.27000E+04
         0.27000E+04
         0.27000E+04
         0.27000E+04
         0.27000E+04
         0.27000E+04
         0.27000E+04
         0.27000E+04
         0.27000E+04
         0.27000E+04
         0.27000E+04
         0.27000E+04
         0.27000E+04
         0.27000E+04
         0.27000E+04
         0.27000E+04
         0.27000E+04
         0.27000E+04
         0.27000E+04
         0.27000E+04
         0.27000E+04
         0.27000E+04
         0.27000E+04
         0.27000E+04
         0.27000E+04
         0.27000E+04
         0.27000E+04
         0.27000E+04
         0.27000E+04
         0.27000E+04
         0.27000E+04
         0.27000E+04
         0.27000E+04
         0.27000E+04
         0.27000E+04
         0.27000E+04
         0.27000E+04
         0.27000E+04
         0.27000E+04
         0.27000E+04
         0.27000E+04
         0.27000E+04
         0.27000E+04
         0.27000E+04
         0.27000E+04
         0.27000E+04
         0.27000E+04
         0.27000E+04
         0.27000E+04
         0.27000E+04
         0.27000E+04
         0.27000E+04
         0.27000E+04
         0.27000E+04
         0.27000E+04
         0.27000E+04
         0.27000E+04
         0.27000E+04
         0.27000E+04
         0.27000E+04
         0.27000E+04
         0.27000E+04
         0.27000E+04
         0.27000E+04
         0.27000E+04
         0.27000E+04
         0.27000E+04
         0.27000E+04
         0.27000E+04
         0.27000E+04
         0.27000E+04
         0.27000E+04
         0.27000E+04
         0.27000E+04
         0.27000E+04
         0.27000E+04
         0.27000E+04
         0.27000E+04
         0.27000E+04
         0.27000E+04
         0.27000E+04
         0.27000E+04
         0.27000E+04
         0.27000E+04
         0.27000E+04
         0.27000E+04
         0.27000E+04
         0.27000E+04
         0.27000E+04
         0.27000E+04
         0.27000E+04
         0.27000E+04
         0.27000E+04
         0.27000E+04
         0.27000E+04
         0.27000E+04
         0.27000E+04
         0.27000E+04
         0.27000E+04
         0.27000E+04
         0.27000E+04
         0.27000E+04
         0.27000E+04
         0.27000E+04
         0.27000E+04
         0.27000E+04
         0.27000E+04
         0.27000E+04
         0.27000E+04
         0.27000E+04
         0.27000E+04
         0.27000E+04
         0.27000E+04
         0.27000E+04
         0.27000E+04
         0.27000E+04
         0.27000E+04
         0.27000E+04
         0.27000E+04
         0.27000E+04
         0.27000E+04
         0.27000E+04
         0.27000E+04
         0.27000E+04
         0.27000E+04
         0.27000E+04
         0.27000E+04
         0.27000E+04
         0.27000E+04
         0.27000E+04
         0.27000E+04
         0.27000E+04
         0.27000E+04
         0.27000E+04
         0.27000E+04
         0.27000E+04
         0.27000E+04
         0.27000E+04
         0.27000E+04
         0.27000E+04
         0.27000E+04
         0.27000E+04
         0.27000E+04
         0.27000E+04
         0.27000E+04
         0.27000E+04
         0.27000E+04
         0.27000E+04
         0.27000E+04
         0.27000E+04
         0.27000E+04
         0.27000E+04
         0.27000E+04
         0.27000E+04
         0.27000E+04
         0.27000E+04
         0.27000E+04
         0.27000E+04
         0.27000E+04
         0.27000E+04
         0.27000E+04
         0.27000E+04
         0.27000E+04
         0.27000E+04
         0.27000E+04
         0.27000E+04
         0.27000E+04
         0.27000E+04
         0.27000E+04
         0.27000E+04
         0.27000E+04
         0.27000E+04
         0.27000E+04
         0.27000E+04
         0.27000E+04
         0.27000E+04
         0.27000E+04
         0.27000E+04
         0.27000E+04
         0.27000E+04
         0.27000E+04
         0.27000E+04
         0.27000E+04
         0.27000E+04
         0.27000E+04
         0.27000E+04
         0.27000E+04
         0.27000E+04
         0.27000E+04
         0.27000E+04
         0.27000E+04
         0.27000E+04
         0.27000E+04
         0.27000E+04
         0.27000E+04
         0.27000E+04
         0.27000E+04
         0.27000E+04
         0.27000E+04
         0.27000E+04
         0.27000E+04
         0.27000E+04
         0.27000E+04
         0.27000E+04
         0.27000E+04
         0.27000E+04
         0.27000E+04
         0.27000E+04
         0.27000E+04
         0.27000E+04
         0.27000E+04
         0.27000E+04
         0.27000E+04
         0.27000E+04
         0.27000E+04
         0.27000E+04
         0.27000E+04
         0.27000E+04
         0.27000E+04
         0.27000E+04
         0.27000E+04
         0.27000E+04
         0.27000E+04
         0.27000E+04
         0.27000E+04
         0.27000E+04
         0.27000E+04
         0.27000E+04
         0.27000E+04
         0.27000E+04
         0.27000E+04
         0.27000E+04
         0.27000E+04
         0.27000E+04
         0.27000E+04
         0.27000E+04
         0.27000E+04
         0.27000E+04
         0.27000E+04
         0.27000E+04
         0.27000E+04
         0.27000E+04
         0.27000E+04
         0.27000E+04
         0.27000E+04
         0.27000E+04
         0.27000E+04
         0.27000E+04
         0.27000E+04
         0.27000E+04
         0.27000E+04
         0.27000E+04
         0.27000E+04
         0.27000E+04
         0.27000E+04
         0.27000E+04
         0.27000E+04
         0.27000E+04
         0.27000E+04
         0.27000E+04
         0.27000E+04
         0.27000E+04
         0.27000E+04
         0.27000E+04
         0.27000E+04
         0.27000E+04
         0.27000E+04
         0.27000E+04
         0.27000E+04
         0.27000E+04
         0.27000E+04
         0.27000E+04
         0.27000E+04
         0.27000E+04
         0.27000E+04
         0.27000E+04
         0.27000E+04
         0.27000E+04
         0.27000E+04
         0.27000E+04
         0.27000E+04
         0.27000E+04
         0.27000E+04
         0.27000E+04
         0.27000E+04
         0.27000E+04
         0.27000E+04
         0.27000E+04
         0.27000E+04
         0.27000E+04
         0.27000E+04
         0.27000E+04
         0.27000E+04
         0.27000E+04
         0.27000E+04
         0.27000E+04
         0.27000E+04
         0.27000E+04
         0.27000E+04
         0.27000E+04
         0.27000E+04
         0.27000E+04
         0.27000E+04
         0.27000E+04
         0.27000E+04
         0.27000E+04
         0.27000E+04
         0.27000E+04
         0.27000E+04
         0.27000E+04
         0.27000E+04
         0.27000E+04
         0.27000E+04
         0.27000E+04
         0.27000E+04
         0.27000E+04
         0.27000E+04
         0.27000E+04
         0.27000E+04
         0.27000E+04
         0.27000E+04
         0.27000E+04
         0.27000E+04
         0.27000E+04
         0.27000E+04
         0.27000E+04
         0.27000E+04
         0.27000E+04
         0.27000E+04
         0.27000E+04
         0.27000E+04
         0.27000E+04
         0.27000E+04
         0.27000E+04
         0.27000E+04
         0.27000E+04
         0.27000E+04
         0.27000E+04
         0.27000E+04
         0.27000E+04
         0.27000E+04
         0.27000E+04
         0.27000E+04
         0.27000E+04
         0.27000E+04
         0.27000E+04
         0.27000E+04
         0.27000E+04
         0.27000E+04
         0.27000E+04
         0.27000E+04
         0.27000E+04
         0.27000E+04
         0.27000E+04
         0.27000E+04
         0.27000E+04
         0.27000E+04
         0.27000E+04
         0.27000E+04
         0.27000E+04
         0.27000E+04
         0.27000E+04
         0.27000E+04
         0.27000E+04
         0.27000E+04
         0.27000E+04
         0.27000E+04
         0.27000E+04
         0.27000E+04
         0.27000E+04
         0.27000E+04
         0.27000E+04
         0.27000E+04
         0.27000E+04
         0.27000E+04
         0.27000E+04
         0.27000E+04
         0.27000E+04
         0.27000E+04
         0.27000E+04
         0.27000E+04
         0.27000E+04
         0.27000E+04
         0.27000E+04
         0.27000E+04
         0.27000E+04
         0.27000E+04
         0.27000E+04
         0.27000E+04
         0.27000E+04
         0.27000E+04
         0.27000E+04
         0.27000E+04
         0.27000E+04
         0.27000E+04
         0.27000E+04
         0.27000E+04
         0.27000E+04
         0.27000E+04
         0.27000E+04
         0.27000E+04
         0.27000E+04
         0.27000E+04
         0.27000E+04
         0.27000E+04
         0.27000E+04
         0.27000E+04
         0.27000E+04
         0.27000E+04
         0.27000E+04
         0.27000E+04
         0.27000E+04
         0.27000E+04
         0.27000E+04
         0.27000E+04
         0.27000E+04
         0.27000E+04
         0.27000E+04
         0.27000E+04
         0.27000E+04
         0.27000E+04
         0.27000E+04
         0.27000E+04
         0.27000E+04
         0.27000E+04
         0.27000E+04
         0.27000E+04
         0.27000E+04
         0.27000E+04
         0.27000E+04
         0.27000E+04
         0.27000E+04
         0.27000E+04
         0.27000E+04
         0.27000E+04
         0.27000E+04
         0.27000E+04
         0.27000E+04
         0.27000E+04
         0.27000E+04
         0.27000E+04
         0.27000E+04
         0.27000E+04
         0.27000E+04
         0.27000E+04
         0.27000E+04
         0.27000E+04
         0.27000E+04
         0.27000E+04
         0.27000E+04
         0.27000E+04
         0.27000E+04
         0.27000E+04
         0.27000E+04
         0.27000E+04
         0.27000E+04
         0.27000E+04
         0.27000E+04
         0.27000E+04
         0.27000E+04
         0.27000E+04
         0.27000E+04
         0.27000E+04
         0.27000E+04
         0.27000E+04
         0.27000E+04
         0.27000E+04
         0.27000E+04
         0.27000E+04
         0.27000E+04
         0.27000E+04
         0.27000E+04
         0.27000E+04
         0.27000E+04
         0.27000E+04
         0.27000E+04
         0.27000E+04
         0.27000E+04
         0.27000E+04
         0.27000E+04
         0.27000E+04
         0.27000E+04
         0.27000E+04
         0.27000E+04
         0.27000E+04
         0.27000E+04
         0.27000E+04
         0.27000E+04
         0.27000E+04
         0.27000E+04
         0.27000E+04
         0.27000E+04
         0.27000E+04
         0.27000E+04
         0.27000E+04
         0.27000E+04
         0.27000E+04
         0.27000E+04
         0.27000E+04
         0.27000E+04
         0.27000E+04
         0.27000E+04
         0.27000E+04
         0.27000E+04
         0.27000E+04
         0.27000E+04
         0.27000E+04
         0.27000E+04
         0.27000E+04
         0.27000E+04
         0.27000E+04
         0.27000E+04
         0.27000E+04
         0.27000E+04
         0.27000E+04
         0.27000E+04
         0.27000E+04
         0.27000E+04
         0.27000E+04
         0.27000E+04
         0.27000E+04
         0.27000E+04
         0.27000E+04
         0.27000E+04
         0.27000E+04
         0.27000E+04
         0.27000E+04
         0.27000E+04
         0.27000E+04
         0.27000E+04
         0.27000E+04
         0.27000E+04
         0.27000E+04
         0.27000E+04
         0.27000E+04
         0.27000E+04
         0.27000E+04
         0.27000E+04
         0.27000E+04
         0.27000E+04
         0.27000E+04
         0.27000E+04
         0.27000E+04
         0.27000E+04
         0.27000E+04
         0.27000E+04
         0.27000E+04
         0.27000E+04
         0.27000E+04
         0.27000E+04
         0.27000E+04
         0.27000E+04
         0.27000E+04
         0.27000E+04
         0.27000E+04
         0.27000E+04
         0.27000E+04
         0.27000E+04
         0.27000E+04
         0.27000E+04
         0.27000E+04
         0.27000E+04
         0.27000E+04
         0.27000E+04
         0.27000E+04
         0.27000E+04
         0.27000E+04
         0.27000E+04
         0.27000E+04
         0.27000E+04
         0.27000E+04
         0.27000E+04
         0.27000E+04
         0.27000E+04
         0.27000E+04
         0.27000E+04
         0.27000E+04
         0.27000E+04
         0.27000E+04
         0.27000E+04
         0.27000E+04
         0.27000E+04
         0.27000E+04
         0.27000E+04
         0.27000E+04
         0.27000E+04
         0.27000E+04
         0.27000E+04
         0.27000E+04
         0.27000E+04
         0.27000E+04
         0.27000E+04
         0.27000E+04
         0.27000E+04
         0.27000E+04
         0.27000E+04
         0.27000E+04
         0.27000E+04
         0.27000E+04
         0.27000E+04
         0.27000E+04
         0.27000E+04
         0.27000E+04
         0.27000E+04
         0.27000E+04
         0.27000E+04
         0.27000E+04
         0.27000E+04
         0.27000E+04
         0.27000E+04
         0.27000E+04
         0.27000E+04
         0.27000E+04
         0.27000E+04
         0.27000E+04
         0.27000E+04
         0.27000E+04
         0.27000E+04
         0.27000E+04
         0.27000E+04
         0.27000E+04
         0.27000E+04
         0.27000E+04
         0.27000E+04
         0.27000E+04
         0.27000E+04
         0.27000E+04
         0.27000E+04
         0.27000E+04
         0.27000E+04
         0.27000E+04
         0.27000E+04
         0.27000E+04
         0.27000E+04
         0.27000E+04
         0.27000E+04
         0.27000E+04
         0.27000E+04
         0.27000E+04
         0.27000E+04
         0.27000E+04
         0.27000E+04
         0.27000E+04
         0.27000E+04
         0.27000E+04
         0.27000E+04
         0.27000E+04
         0.27000E+04
         0.27000E+04
         0.27000E+04
         0.27000E+04
         0.27000E+04
         0.27000E+04
         0.27000E+04
         0.27000E+04
         0.27000E+04
         0.27000E+04
         0.27000E+04
         0.27000E+04
         0.27000E+04
         0.27000E+04
         0.27000E+04
         0.27000E+04
         0.27000E+04
         0.27000E+04
         0.27000E+04
         0.27000E+04
         0.27000E+04
         0.27000E+04
         0.27000E+04
         0.27000E+04
         0.27000E+04
         0.27000E+04
         0.27000E+04
         0.27000E+04
         0.27000E+04
         0.27000E+04
         0.27000E+04
         0.27000E+04
         0.27000E+04
         0.27000E+04
         0.27000E+04
         0.27000E+04
         0.27000E+04
         0.27000E+04
         0.27000E+04
         0.27000E+04
         0.27000E+04
         0.27000E+04
         0.27000E+04
         0.27000E+04
         0.27000E+04
         0.27000E+04
         0.27000E+04
         0.27000E+04
         0.27000E+04
         0.27000E+04
         0.27000E+04
         0.27000E+04
         0.27000E+04
         0.27000E+04
         0.27000E+04
         0.27000E+04
         0.27000E+04
         0.27000E+04
         0.27000E+04
         0.27000E+04
         0.27000E+04
         0.27000E+04
         0.27000E+04
         0.27000E+04
         0.27000E+04
         0.27000E+04
         0.27000E+04
         0.27000E+04
         0.27000E+04
         0.27000E+04
         0.27000E+04
         0.27000E+04
         0.27000E+04
         0.27000E+04
         0.27000E+04
         0.27000E+04
         0.27000E+04
         0.27000E+04
         0.27000E+04
         0.27000E+04
         0.27000E+04
         0.27000E+04
         0.27000E+04
         0.27000E+04
         0.27000E+04
         0.27000E+04
         0.27000E+04
         0.27000E+04
         0.27000E+04
         0.27000E+04
         0.27000E+04
         0.27000E+04
         0.27000E+04
         0.27000E+04
         0.27000E+04
         0.27000E+04
         0.27000E+04
         0.27000E+04
         0.27000E+04
         0.27000E+04
         0.27000E+04
         0.27000E+04
         0.27000E+04
         0.27000E+04
         0.27000E+04
         0.27000E+04
         0.27000E+04
         0.27000E+04
         0.27000E+04
         0.27000E+04
         0.27000E+04
         0.27000E+04
         0.27000E+04
         0.27000E+04
         0.27000E+04
         0.27000E+04
         0.27000E+04
         0.27000E+04
         0.27000E+04
         0.27000E+04
         0.27000E+04
         0.27000E+04
         0.27000E+04
         0.27000E+04
         0.27000E+04
         0.27000E+04
         0.27000E+04
         0.27000E+04
         0.27000E+04
         0.27000E+04
         0.27000E+04
         0.27000E+04
         0.27000E+04
         0.27000E+04
         0.27000E+04
         0.27000E+04
         0.27000E+04
         0.27000E+04
         0.27000E+04
         0.27000E+04
         0.27000E+04
         0.27000E+04
         0.27000E+04
         0.27000E+04
         0.27000E+04
         0.27000E+04
         0.27000E+04
         0.27000E+04
         0.27000E+04
         0.27000E+04
         0.27000E+04
         0.27000E+04
         0.27000E+04
         0.27000E+04
         0.27000E+04
         0.27000E+04
         0.27000E+04
         0.27000E+04
         0.27000E+04
         0.27000E+04
         0.27000E+04
         0.27000E+04
         0.27000E+04
         0.27000E+04
         0.27000E+04
         0.27000E+04
         0.27000E+04
         0.27000E+04
         0.27000E+04
         0.27000E+04
         0.27000E+04
         0.27000E+04
         0.27000E+04
         0.27000E+04
         0.27000E+04
         0.27000E+04
         0.27000E+04
         0.27000E+04
         0.27000E+04
         0.27000E+04
         0.27000E+04
         0.27000E+04
         0.27000E+04
         0.27000E+04
         0.27000E+04
         0.27000E+04
         0.27000E+04
         0.27000E+04
         0.27000E+04
         0.27000E+04
         0.27000E+04
         0.27000E+04
         0.27000E+04
         0.27000E+04
         0.27000E+04
         0.27000E+04
         0.27000E+04
         0.27000E+04
         0.27000E+04
         0.27000E+04
         0.27000E+04
         0.27000E+04
         0.27000E+04
         0.27000E+04
         0.27000E+04
         0.27000E+04
         0.27000E+04
         0.27000E+04
         0.27000E+04
         0.27000E+04
         0.27000E+04
         0.27000E+04
         0.27000E+04
         0.27000E+04
         0.27000E+04
         0.27000E+04
         0.27000E+04
         0.27000E+04
         0.27000E+04
         0.27000E+04
         0.27000E+04
         0.27000E+04
         0.27000E+04
         0.27000E+04
         0.27000E+04
         0.27000E+04
         0.27000E+04
         0.27000E+04
         0.27000E+04
         0.27000E+04
         0.27000E+04
         0.27000E+04
         0.27000E+04
         0.27000E+04
         0.27000E+04
         0.27000E+04
         0.27000E+04
         0.27000E+04
         0.27000E+04
         0.27000E+04
         0.27000E+04
         0.27000E+04
         0.27000E+04
         0.27000E+04
         0.27000E+04
         0.27000E+04
         0.27000E+04
         0.27000E+04
         0.27000E+04
         0.27000E+04
         0.27000E+04
         0.27000E+04
         0.27000E+04
         0.27000E+04
         0.27000E+04
         0.27000E+04
         0.27000E+04
         0.27000E+04
         0.27000E+04
         0.27000E+04
         0.27000E+04
         0.27000E+04
         0.27000E+04
         0.27000E+04
         0.27000E+04
         0.27000E+04
         0.27000E+04
         0.27000E+04
         0.27000E+04
         0.27000E+04
         0.27000E+04
         0.27000E+04
         0.27000E+04
         0.27000E+04
         0.27000E+04
         0.27000E+04
         0.27000E+04
         0.27000E+04
         0.27000E+04
         0.27000E+04
         0.27000E+04
         0.27000E+04
         0.27000E+04
         0.27000E+04
         0.27000E+04
         0.27000E+04
         0.27000E+04
         0.27000E+04
         0.27000E+04
         0.27000E+04
         0.27000E+04
         0.27000E+04
         0.27000E+04
         0.27000E+04
         0.27000E+04
         0.27000E+04
         0.27000E+04
         0.27000E+04
         0.27000E+04
         0.27000E+04
         0.27000E+04
         0.27000E+04
         0.27000E+04
         0.27000E+04
         0.27000E+04
         0.27000E+04
         0.27000E+04
         0.27000E+04
         0.27000E+04
         0.27000E+04
         0.27000E+04
         0.27000E+04
         0.27000E+04
         0.27000E+04
         0.27000E+04
         0.27000E+04
         0.27000E+04
         0.27000E+04
         0.27000E+04
         0.27000E+04
         0.27000E+04
         0.27000E+04
         0.27000E+04
         0.27000E+04
         0.27000E+04
         0.27000E+04
         0.27000E+04
         0.27000E+04
         0.27000E+04
         0.27000E+04
         0.27000E+04
         0.27000E+04
         0.27000E+04
         0.27000E+04
         0.27000E+04
         0.27000E+04
         0.27000E+04
         0.27000E+04
         0.27000E+04
         0.27000E+04
         0.27000E+04
         0.27000E+04
         0.27000E+04
         0.27000E+04
         0.27000E+04
         0.27000E+04
         0.27000E+04
         0.27000E+04
         0.27000E+04
         0.27000E+04
         0.27000E+04
         0.27000E+04
         0.27000E+04
         0.27000E+04
         0.27000E+04
         0.27000E+04
         0.27000E+04
         0.27000E+04
         0.27000E+04
         0.27000E+04
         0.27000E+04
         0.27000E+04
         0.27000E+04
         0.27000E+04
         0.27000E+04
         0.27000E+04
         0.27000E+04
         0.27000E+04
         0.27000E+04
         0.27000E+04
         0.27000E+04
         0.27000E+04
         0.27000E+04
         0.27000E+04
         0.27000E+04
         0.27000E+04
         0.27000E+04
         0.27000E+04
         0.27000E+04
         0.27000E+04
         0.27000E+04
         0.27000E+04
         0.27000E+04
         0.27000E+04
         0.27000E+04
         0.27000E+04
         0.27000E+04
         0.27000E+04
         0.27000E+04
         0.27000E+04
         0.27000E+04
         0.27000E+04
         0.27000E+04
         0.27000E+04
         0.27000E+04
         0.27000E+04
         0.27000E+04
         0.27000E+04
         0.27000E+04
         0.27000E+04
         0.27000E+04
         0.27000E+04
         0.27000E+04
         0.27000E+04
         0.27000E+04
         0.27000E+04
         0.27000E+04
         0.27000E+04
         0.27000E+04
         0.27000E+04
         0.27000E+04
         0.27000E+04
         0.27000E+04
         0.27000E+04
         0.27000E+04
         0.27000E+04
         0.27000E+04
         0.27000E+04
         0.27000E+04
         0.27000E+04
         0.27000E+04
         0.27000E+04
         0.27000E+04
         0.27000E+04
         0.27000E+04
         0.27000E+04
         0.27000E+04
         0.27000E+04
         0.27000E+04
         0.27000E+04
         0.27000E+04
         0.27000E+04
         0.27000E+04
         0.27000E+04
         0.27000E+04
         0.27000E+04
         0.27000E+04
         0.27000E+04
         0.27000E+04
         0.27000E+04
         0.27000E+04
         0.27000E+04
         0.27000E+04
         0.27000E+04
         0.27000E+04
         0.27000E+04
         0.27000E+04
         0.27000E+04
         0.27000E+04
         0.27000E+04
         0.27000E+04
         0.27000E+04
         0.27000E+04
         0.27000E+04
         0.27000E+04
         0.27000E+04
         0.27000E+04
         0.27000E+04
         0.27000E+04
         0.27000E+04
         0.27000E+04
         0.27000E+04
         0.27000E+04
         0.27000E+04
         0.27000E+04
         0.27000E+04
         0.27000E+04
         0.27000E+04
         0.27000E+04
         0.27000E+04
         0.27000E+04
         0.27000E+04
         0.27000E+04
         0.27000E+04
         0.27000E+04
         0.27000E+04
         0.27000E+04
         0.27000E+04
         0.27000E+04
         0.27000E+04
         0.27000E+04
         0.27000E+04
         0.27000E+04
         0.27000E+04
         0.27000E+04
         0.27000E+04
         0.27000E+04
         0.27000E+04
         0.27000E+04
         0.27000E+04
         0.27000E+04
         0.27000E+04
         0.27000E+04
         0.27000E+04
         0.27000E+04
         0.27000E+04
         0.27000E+04
         0.27000E+04
         0.27000E+04
         0.27000E+04
         0.27000E+04
         0.27000E+04
         0.27000E+04
         0.27000E+04
         0.27000E+04
         0.27000E+04
         0.27000E+04
         0.27000E+04
         0.27000E+04
         0.27000E+04
         0.27000E+04
         0.27000E+04
         0.27000E+04
         0.27000E+04
         0.27000E+04
         0.27000E+04
         0.27000E+04
         0.27000E+04
         0.27000E+04
         0.27000E+04
         0.27000E+04
         0.27000E+04
         0.27000E+04
         0.27000E+04
         0.27000E+04
         0.27000E+04
         0.27000E+04
         0.27000E+04
         0.27000E+04
         0.27000E+04
         0.27000E+04
         0.27000E+04
         0.27000E+04
         0.27000E+04
         0.27000E+04
         0.27000E+04
         0.27000E+04
         0.27000E+04
         0.27000E+04
         0.27000E+04
         0.27000E+04
         0.27000E+04
         0.27000E+04
         0.27000E+04
         0.27000E+04
         0.27000E+04
         0.27000E+04
         0.27000E+04
         0.27000E+04
         0.27000E+04
         0.27000E+04
         0.27000E+04
         0.27000E+04
         0.27000E+04
         0.27000E+04
         0.27000E+04
         0.27000E+04
         0.27000E+04
         0.27000E+04
         0.27000E+04
         0.27000E+04
         0.27000E+04
         0.27000E+04
         0.27000E+04
         0.27000E+04
         0.27000E+04
         0.27000E+04
         0.27000E+04
         0.27000E+04
         0.27000E+04
         0.27000E+04
         0.27000E+04
         0.27000E+04
         0.27000E+04
         0.27000E+04
         0.27000E+04
         0.27000E+04
         0.27000E+04
         0.27000E+04
         0.27000E+04
         0.27000E+04
         0.27000E+04
         0.27000E+04
         0.27000E+04
         0.27000E+04
         0.27000E+04
         0.27000E+04
         0.27000E+04
         0.27000E+04
         0.27000E+04
         0.27000E+04
         0.27000E+04
         0.27000E+04
         0.27000E+04
         0.27000E+04
         0.27000E+04
         0.27000E+04
         0.27000E+04
         0.27000E+04
         0.27000E+04
         0.27000E+04
         0.27000E+04
         0.27000E+04
         0.27000E+04
         0.27000E+04
         0.27000E+04
         0.27000E+04
         0.27000E+04
         0.27000E+04
         0.27000E+04
         0.27000E+04
         0.27000E+04
         0.27000E+04
         0.27000E+04
         0.27000E+04
         0.27000E+04
         0.27000E+04
         0.27000E+04
         0.27000E+04
         0.27000E+04
         0.27000E+04
         0.27000E+04
         0.27000E+04
         0.27000E+04
         0.27000E+04
         0.27000E+04
         0.27000E+04
         0.27000E+04
         0.27000E+04
         0.27000E+04
         0.27000E+04
         0.27000E+04
         0.27000E+04
         0.27000E+04
         0.27000E+04
         0.27000E+04
         0.27000E+04
         0.27000E+04
         0.27000E+04
         0.27000E+04
         0.27000E+04
         0.27000E+04
         0.27000E+04
         0.27000E+04
         0.27000E+04
         0.27000E+04
         0.27000E+04
         0.27000E+04
         0.27000E+04
         0.27000E+04
         0.27000E+04
         0.27000E+04
         0.27000E+04
         0.27000E+04
         0.27000E+04
         0.27000E+04
         0.27000E+04
         0.27000E+04
         0.27000E+04
         0.27000E+04
         0.27000E+04
         0.27000E+04
         0.27000E+04
         0.27000E+04
         0.27000E+04
         0.27000E+04
         0.27000E+04
         0.27000E+04
         0.27000E+04
         0.27000E+04
         0.27000E+04
         0.27000E+04
         0.27000E+04
         0.27000E+04
         0.27000E+04
         0.27000E+04
         0.27000E+04
         0.27000E+04
         0.27000E+04
         0.27000E+04
         0.27000E+04
         0.27000E+04
         0.27000E+04
         0.27000E+04
         0.27000E+04
         0.27000E+04
         0.27000E+04
         0.27000E+04
         0.27000E+04
         0.27000E+04
         0.27000E+04
         0.27000E+04
         0.27000E+04
         0.27000E+04
         0.27000E+04
         0.27000E+04
         0.27000E+04
         0.27000E+04
         0.27000E+04
         0.27000E+04
         0.27000E+04
         0.27000E+04
         0.27000E+04
         0.27000E+04
         0.27000E+04
         0.27000E+04
         0.27000E+04
         0.27000E+04
         0.27000E+04
         0.27000E+04
         0.27000E+04
         0.27000E+04
         0.27000E+04
         0.27000E+04
         0.27000E+04
         0.27000E+04
         0.27000E+04
         0.27000E+04
         0.27000E+04
         0.27000E+04
         0.27000E+04
         0.27000E+04
         0.27000E+04
         0.27000E+04
         0.27000E+04
         0.27000E+04
         0.27000E+04
         0.27000E+04
         0.27000E+04
         0.27000E+04
         0.27000E+04
         0.27000E+04
         0.27000E+04
         0.27000E+04
         0.27000E+04
         0.27000E+04
         0.27000E+04
         0.27000E+04
         0.27000E+04
         0.27000E+04
         0.27000E+04
         0.27000E+04
         0.27000E+04
         0.27000E+04
         0.27000E+04
         0.27000E+04
         0.27000E+04
         0.27000E+04
         0.27000E+04
         0.27000E+04
         0.27000E+04
         0.27000E+04
         0.27000E+04
         0.27000E+04
         0.27000E+04
         0.27000E+04
         0.27000E+04
         0.27000E+04
         0.27000E+04
         0.27000E+04
         0.27000E+04
         0.27000E+04
         0.27000E+04
         0.27000E+04
         0.27000E+04
         0.27000E+04
         0.27000E+04
         0.27000E+04
         0.27000E+04
         0.27000E+04
         0.27000E+04
         0.27000E+04
         0.27000E+04
         0.27000E+04
         0.27000E+04
         0.27000E+04
         0.27000E+04
         0.27000E+04
         0.27000E+04
         0.27000E+04
         0.27000E+04
         0.27000E+04
         0.27000E+04
         0.27000E+04
         0.27000E+04
         0.27000E+04
         0.27000E+04
         0.27000E+04
         0.27000E+04
         0.27000E+04
         0.27000E+04
         0.27000E+04
         0.27000E+04
         0.27000E+04
         0.27000E+04
         0.27000E+04
         0.27000E+04
         0.27000E+04
         0.27000E+04
         0.27000E+04
         0.27000E+04
         0.27000E+04
         0.27000E+04
         0.27000E+04
         0.27000E+04
         0.27000E+04
         0.27000E+04
         0.27000E+04
         0.27000E+04
         0.27000E+04
         0.27000E+04
         0.27000E+04
         0.27000E+04
         0.27000E+04
         0.27000E+04
         0.27000E+04
         0.27000E+04
         0.27000E+04
         0.27000E+04
         0.27000E+04
         0.27000E+04
         0.27000E+04
         0.27000E+04
         0.27000E+04
         0.27000E+04
         0.27000E+04
         0.27000E+04
         0.27000E+04
         0.27000E+04
         0.27000E+04
         0.27000E+04
         0.27000E+04
         0.27000E+04
         0.27000E+04
         0.27000E+04
         0.27000E+04
         0.27000E+04
         0.27000E+04
         0.27000E+04
         0.27000E+04
         0.27000E+04
         0.27000E+04
         0.27000E+04
         0.27000E+04
         0.27000E+04
         0.27000E+04
         0.27000E+04
         0.27000E+04
         0.27000E+04
         0.27000E+04
         0.27000E+04
         0.27000E+04
         0.27000E+04
         0.27000E+04
         0.27000E+04
         0.27000E+04
         0.27000E+04
         0.27000E+04
         0.27000E+04
         0.27000E+04
         0.27000E+04
         0.27000E+04
         0.27000E+04
         0.27000E+04
         0.27000E+04
         0.27000E+04
         0.27000E+04
         0.27000E+04
         0.27000E+04
         0.27000E+04
         0.27000E+04
         0.27000E+04
         0.27000E+04
         0.27000E+04
         0.27000E+04
         0.27000E+04
         0.27000E+04
         0.27000E+04
         0.27000E+04
         0.27000E+04
         0.27000E+04
         0.27000E+04
         0.27000E+04
         0.27000E+04
         0.27000E+04
         0.27000E+04
         0.27000E+04
         0.27000E+04
         0.27000E+04
         0.27000E+04
         0.27000E+04
         0.27000E+04
         0.27000E+04
         0.27000E+04
         0.27000E+04
         0.27000E+04
         0.27000E+04
         0.27000E+04
         0.27000E+04
         0.27000E+04
         0.27000E+04
         0.27000E+04
         0.27000E+04
         0.27000E+04
         0.27000E+04
         0.27000E+04
         0.27000E+04
         0.27000E+04
         0.27000E+04
         0.27000E+04
         0.27000E+04
         0.27000E+04
         0.27000E+04
         0.27000E+04
         0.27000E+04
         0.27000E+04
         0.27000E+04
         0.27000E+04
         0.27000E+04
         0.27000E+04
         0.27000E+04
         0.27000E+04
         0.27000E+04
         0.27000E+04
         0.27000E+04
         0.27000E+04
         0.27000E+04
         0.27000E+04
         0.27000E+04
         0.27000E+04
         0.27000E+04
         0.27000E+04
         0.27000E+04
         0.27000E+04
         0.27000E+04
         0.27000E+04
         0.27000E+04
         0.27000E+04
         0.27000E+04
         0.27000E+04
         0.27000E+04
         0.27000E+04
         0.27000E+04
         0.27000E+04
         0.27000E+04
         0.27000E+04
         0.27000E+04
         0.27000E+04
         0.27000E+04
         0.27000E+04
         0.27000E+04
         0.27000E+04
         0.27000E+04
         0.27000E+04
         0.27000E+04
         0.27000E+04
         0.27000E+04
         0.27000E+04
         0.27000E+04
         0.27000E+04
         0.27000E+04
         0.27000E+04
         0.27000E+04
         0.27000E+04
         0.27000E+04
         0.27000E+04
         0.27000E+04
         0.27000E+04
         0.27000E+04
         0.27000E+04
         0.27000E+04
         0.27000E+04
         0.27000E+04
         0.27000E+04
         0.27000E+04
         0.27000E+04
         0.27000E+04
         0.27000E+04
         0.27000E+04
         0.27000E+04
         0.27000E+04
         0.27000E+04
         0.27000E+04
         0.27000E+04
         0.27000E+04
         0.27000E+04
